.Version 9.5.1 of ABINIT

 ABINIT is a project of the Universite Catholique de Louvain,
 Corning Inc. and other collaborators, see ~abinit/doc/developers/contributors.txt .
 acknowledgments of the ABINIT effort.

.Starting date : Wed  5 May 2021.
- ( at 19h34 )

- input  file    -> /scratch/users/j/a/jabreu/flow_simple_7atoms/flow/w105/t1/run.abi
- output file    -> /scratch/users/j/a/jabreu/flow_simple_7atoms/flow/w105/t1/run.abo
- root for input  files -> /scratch/users/j/a/jabreu/flow_simple_7atoms/flow/w105/t1/indata/in
- root for output files -> /scratch/users/j/a/jabreu/flow_simple_7atoms/flow/w105/t1/outdata/out

 Symmetries : space group R-3 m (#166); Bravais hR (rhombohedral)
     intxc =       0      iscf =       7    lmnmax =      18     lnmax =       6
     mgfft =      72  mpssoang =       3    mqgrid =    3001     natom =       7
  nloc_mem =       1    nspden =       1   nspinor =       1    nsppol =       1
      nsym =      12    n1xccc =    2501    ntypat =       3    occopt =       1
   xclevel =       2
-    mband =          41        mffmem =           1         mkmem =           1
-   mkqmem =           1        mk1mem =           1           mpw =       15195
      nfft =      373248          nkpt =           1
  Rough estimation (10% accuracy) of disk space for files :

------------- Echo of variables that govern the present computation ------------
-
- outvars: echo of selected default values
-   iomode0 =  0 , fftalg0 =512 , wfoptalg0 =  0
-
- outvars: echo of global parameters not present in the input file
-  max_nthreads =    0
-
 -outvars: echo values of preprocessed input variables --------
            acell      1.0000000000E+00  1.0000000000E+00  1.0000000000E+00 Bohr
              amu      8.54678000E+01  1.18710000E+02  1.59994000E+01
             ecut      4.40000000E+01 Hartree
-          fftalg         512
           irdden           1
           irdwfk           1
           istwfk        1
              ixc     -116133
           kptopt           0
P           mkmem           1
P          mkqmem           1
P          mk1mem           1
            natom           7
            nband          41
           nbdbuf           4
            ngfft          72      72      72
             nkpt           1
            nstep        2000
             nsym          12
           ntypat           3
              occ      2.000000  2.000000  2.000000  2.000000  2.000000  2.000000
                       2.000000  2.000000  2.000000  2.000000  2.000000  2.000000
                       2.000000  2.000000  2.000000  2.000000  2.000000  2.000000
                       2.000000  2.000000  2.000000  2.000000  2.000000  2.000000
                       2.000000  2.000000  2.000000  2.000000  2.000000  2.000000
                       2.000000  2.000000  0.000000  0.000000  0.000000  0.000000
                       0.000000  0.000000  0.000000  0.000000  0.000000
        optdriver           1
            prtwf          -1
            rfdir           1       1       1
           rfelfd           2
            rprim      1.0007325304E+01  0.0000000000E+00  5.6737534509E+00
                       3.3054187293E+00  9.4456745006E+00  5.6737534509E+00
                       0.0000000000E+00  0.0000000000E+00  1.1503827101E+01
          spgroup         166
           symrel      1  0  0   0  1  0   0  0  1      -1  0  0   0 -1  0   0  0 -1
                       0  1  0   1  0  0   0  0  1       0 -1  0  -1  0  0   0  0 -1
                       0  0  1   1  0  0   0  1  0       0  0 -1  -1  0  0   0 -1  0
                       1  0  0   0  0  1   0  1  0      -1  0  0   0  0 -1   0 -1  0
                       0  1  0   0  0  1   1  0  0       0 -1  0   0  0 -1  -1  0  0
                       0  0  1   0  1  0   1  0  0       0  0 -1   0 -1  0  -1  0  0
           tolwfr      1.00000000E-20
            typat      1  1  2  2  3  3  3
           useylm           1
           xangst      3.5224003632E+00  2.4992178327E+00  6.0462025701E+00
                       0.0000000000E+00  0.0000000000E+00  0.0000000000E+00
                       1.6740912206E+00  1.1878032594E+00  2.8735786955E+00
                       5.3707095058E+00  3.8106324061E+00  9.2188264447E+00
                       8.7457612820E-01  2.4992178327E+00  1.5012105067E+00
                       0.0000000000E+00  0.0000000000E+00  3.0437815567E+00
                       2.6478242350E+00  0.0000000000E+00  1.5012105067E+00
            xcart      6.6563720168E+00  4.7228372503E+00  1.1425667001E+01
                       0.0000000000E+00  0.0000000000E+00  0.0000000000E+00
                       3.1635739284E+00  2.2446228600E+00  5.4302767558E+00
                       1.0149170105E+01  7.2010516406E+00  1.7421057247E+01
                       1.6527093646E+00  4.7228372503E+00  2.8368767254E+00
                       0.0000000000E+00  0.0000000000E+00  5.7519135505E+00
                       5.0036626521E+00  0.0000000000E+00  2.8368767254E+00
             xred      5.0000000000E-01  5.0000000000E-01  5.0000000000E-01
                       0.0000000000E+00  0.0000000000E+00  0.0000000000E+00
                       2.3763500000E-01  2.3763500000E-01  2.3763500000E-01
                       7.6236500000E-01  7.6236500000E-01  7.6236500000E-01
                      -2.7755575616E-17  5.0000000000E-01  1.3877787808E-17
                       0.0000000000E+00  0.0000000000E+00  5.0000000000E-01
                       5.0000000000E-01  0.0000000000E+00  2.7755575616E-17
            znucl       37.00000   50.00000    8.00000

 chkinp: Checking input parameters for consistency.

== DATASET  1 ==================================================================
-   mpi_nproc: 1, omp_nthreads: -1 (-1 if OMP is not activated)

--- !DatasetInfo
iteration_state: {dtset: 1, }
dimensions: {natom: 7, nkpt: 1, mband: 41, nsppol: 1, nspinor: 1, nspden: 1, mpw: 15195, }
cutoff_energies: {ecut:  44.0, pawecutdg:  -1.0, }
electrons: {nelect:   6.40000000E+01, charge:   0.00000000E+00, occopt:   1.00000000E+00, tsmear:   1.00000000E-02, }
meta: {optdriver: 1, rfelfd: 2, }
...

 Real(R)+Recip(G) space primitive vectors, cartesian coordinates (Bohr,Bohr^-1):
 R(1)= 10.0073253  0.0000000  5.6737535  G(1)=  0.0999268 -0.0349684  0.0000000
 R(2)=  3.3054187  9.4456745  5.6737535  G(2)=  0.0000000  0.1058686  0.0000000
 R(3)=  0.0000000  0.0000000 11.5038271  G(3)= -0.0492845 -0.0349684  0.0869276
 Unit cell volume ucvol=  1.0874100E+03 bohr^3
 Angles (23,13,12)=  6.04484964E+01  6.04484964E+01  6.04484964E+01 degrees

 getcut: wavevector=  0.0000  0.0000  0.0000  ngfft=  72  72  72
         ecut(hartree)=     44.000   => boxcut(ratio)=   2.09613

--- Pseudopotential description ------------------------------------------------
- pspini: atom type   1  psp file is /scratch/users/j/a/jabreu/pseudos/PBEsol/Rb.psp8
- pspatm: opening atomic psp file    /scratch/users/j/a/jabreu/pseudos/PBEsol/Rb.psp8
- Rb    ONCVPSP-3.3.0  r_core=   1.71227   1.75361   1.90633
- 37.00000   9.00000    180112                znucl, zion, pspdat
    8 -116133    2    4       600   0.00000   pspcod,pspxc,lmax,lloc,mmax,r2well
    5.99000000000000    7.00000000000000    0.00000000000000   rchrg,fchrg,qchrg
     nproj     2     2     2
     extension_switch     1
  pspatm : epsatm=   34.48400912
         --- l  ekb(1:nproj) -->
             0    8.196957   -0.477221
             1    3.231347   -0.378736
             2   -1.047201    0.996637
 pspatm: atomic psp has been read  and splines computed

- pspini: atom type   2  psp file is /scratch/users/j/a/jabreu/pseudos/PBEsol/Sn.psp8
- pspatm: opening atomic psp file    /scratch/users/j/a/jabreu/pseudos/PBEsol/Sn.psp8
- Sn    ONCVPSP-3.3.0  r_core=   2.27326   2.62311   1.85601
- 50.00000  14.00000    180112                znucl, zion, pspdat
    8 -116133    2    4       600   0.00000   pspcod,pspxc,lmax,lloc,mmax,r2well
    5.99000000000000    6.50000000000000    0.00000000000000   rchrg,fchrg,qchrg
     nproj     2     2     2
     extension_switch     1
  pspatm : epsatm=   32.44586081
         --- l  ekb(1:nproj) -->
             0    5.587869    0.749373
             1    4.197111    0.728791
             2   -5.271877   -1.523486
 pspatm: atomic psp has been read  and splines computed

- pspini: atom type   3  psp file is /scratch/users/j/a/jabreu/pseudos/PBEsol/O.psp8
- pspatm: opening atomic psp file    /scratch/users/j/a/jabreu/pseudos/PBEsol/O.psp8
- O     ONCVPSP-3.3.0  r_core=   1.35509   1.45563   1.26150
-  8.00000   6.00000    180112                znucl, zion, pspdat
    8 -116133    2    4       600   0.00000   pspcod,pspxc,lmax,lloc,mmax,r2well
    5.99000000000000    4.00000000000000    0.00000000000000   rchrg,fchrg,qchrg
     nproj     2     2     1
     extension_switch     1
  pspatm : epsatm=    6.22910522
         --- l  ekb(1:nproj) -->
             0    6.050032    0.820363
             1   -4.739617   -1.153841
             2   -1.335834
 pspatm: atomic psp has been read  and splines computed

   9.76301155E+03                                ecore*ucvol(ha*bohr**3)

-inwffil : will read wavefunctions from disk file /scratch/users/j/a/jabreu/flow_simple_7atoms/flow/w105/t1/indata/in_WFK

 ==>  initialize data related to q vector <==

 The list of irreducible perturbations for this q vector is:
    1)    idir= 1    ipert=   8
    2)    idir= 2    ipert=   8
    3)    idir= 3    ipert=   8

 Perturbation wavevector (in red.coord.)   0.000000  0.000000  0.000000
 Perturbation : derivative vs k along direction   1

 dfpt_looppert : COMMENT -
  In a d/dk calculation, iscf is set to -3 automatically.
 The set of symmetries contains only one element for this perturbation.
 symkpt : not enough symmetry to change the number of k points.

[...]

 Initialisation of the first-order wave-functions :
  ireadwf=   0

--- !BeginCycle
iteration_state: {dtset: 1, }
solver: {iscf: 7, nstep: 2000, nline: 4, wfoptalg: 0, }
tolerances: {tolwfr: 1.00E-20, }
...

     iter   2DEtotal(Ha)        deltaE(Ha) residm    vres2
-ETOT  1  -52.580166169360     -5.258E+01 3.655E-02 0.000E+00
 ETOT  2  -52.622320126753     -4.215E-02 2.249E-04 0.000E+00
 ETOT  3  -52.622511902818     -1.918E-04 5.307E-06 0.000E+00
 ETOT  4  -52.622513900695     -1.998E-06 2.581E-08 0.000E+00
 ETOT  5  -52.622513927046     -2.635E-08 2.066E-09 0.000E+00
 ETOT  6  -52.622513927428     -3.814E-10 2.492E-11 0.000E+00
 ETOT  7  -52.622513927434     -5.919E-12 2.280E-12 0.000E+00
 ETOT  8  -52.622513927434     -1.492E-13 3.198E-14 0.000E+00
 ETOT  9  -52.622513927434     -1.421E-14 2.945E-15 0.000E+00
 ETOT 10  -52.622513927434      7.105E-14 4.294E-17 0.000E+00
 ETOT 11  -52.622513927434     -3.553E-14 3.851E-18 0.000E+00
 ETOT 12  -52.622513927434      7.105E-15 5.880E-20 0.000E+00
 ETOT 13  -52.622513927434     -7.105E-15 9.914E-21 0.000E+00

 At SCF step   13   max residual=  9.91E-21 < tolwfr=  1.00E-20 =>converged.

 ----iterations are completed or convergence reached----

 dfpt_looppert: DFPT cycle converged with prtwf=-1. Will skip output of the 1st-order WFK file.
 dfpt_looppert : ek2=    5.6637458254E+01
          f-sum rule ratio=    1.2521346378E+00
 prteigrs : about to open file /scratch/users/j/a/jabreu/flow_simple_7atoms/flow/w105/t1/tmpdata/tmp_1WF1_EIG
 Expectation of eigenvalue derivatives (hartree) for nkpt=   1  k points:
  (in case of degenerate eigenvalues, averaged derivative)
 kpt#   1, nband= 41, wtk=  1.00000, kpt=  0.0000  0.0000  0.0000 (reduced coord)
   0.00000   -0.00000    0.00000    0.00000    0.00000    0.00000   -0.00000   -0.00000
  -0.00000   -0.00000    0.00000   -0.00000    0.00000   -0.00000   -0.00000   -0.00000
  -0.00000   -0.00000    0.00000   -0.00000   -0.00000   -0.00000   -0.00000   -0.00000
   0.00000   -0.00000    0.00000    0.00000   -0.00000   -0.00000   -0.00000    0.00000
   0.00000    0.00000    0.00000   -0.00000    0.00000    0.00000    0.00000    0.00000
  -0.00000

 Eight components of 2nd-order total energy (hartree) are
 1,2,3: 0th-order hamiltonian combined with 1st-order wavefunctions
     kin0=   5.76088273E+01 eigvalue=   6.55764008E+00  local=  -2.85251273E+01
 4,5,6: 1st-order hamiltonian combined with 1st and 0th-order wfs
     kin1=  -7.09177233E+01  Hartree=   0.00000000E+00     xc=   0.00000000E+00
 7,8,9: eventually, occupation + non-local contributions
    edocc=   1.24509156E+01     enl0=   4.53025839E+00   enl1=  -3.43273046E+01
 1-9 gives the relaxation energy (to be shifted if some occ is /=2.0)
   erelax=  -5.26225139E+01
  No Ewald or frozen-wf contrib.: the relaxation energy is the total one
 2DEtotal=   -0.5262251393E+02 Ha. Also 2DEtotal=   -0.143193142616E+04 eV
    (  non-var. 2DEtotal :   -5.2622513927E+01 Ha)

 Perturbation wavevector (in red.coord.)   0.000000  0.000000  0.000000
 Perturbation : derivative vs k along direction   2
 The set of symmetries contains only one element for this perturbation.
 symkpt : not enough symmetry to change the number of k points.

[...]

 Perturbation wavevector (in red.coord.)   0.000000  0.000000  0.000000
 Perturbation : derivative vs k along direction   3
 The set of symmetries contains only one element for this perturbation.
 symkpt : not enough symmetry to change the number of k points.

-inwffil : will read wavefunctions from disk file /scratch/users/j/a/jabreu/flow_simple_7atoms/flow/w105/t1/indata/in_WFK

 Initialisation of the first-order wave-functions :
  ireadwf=   0

--- !BeginCycle
iteration_state: {dtset: 1, }
solver: {iscf: 7, nstep: 2000, nline: 4, wfoptalg: 0, }
tolerances: {tolwfr: 1.00E-20, }
...

     iter   2DEtotal(Ha)        deltaE(Ha) residm    vres2
-ETOT  1  -52.580241730543     -5.258E+01 3.650E-02 0.000E+00
 ETOT  2  -52.622321458218     -4.208E-02 2.294E-04 0.000E+00
 ETOT  3  -52.622511365544     -1.899E-04 5.779E-06 0.000E+00
 ETOT  4  -52.622513335782     -1.970E-06 2.921E-08 0.000E+00
 ETOT  5  -52.622513361559     -2.578E-08 2.669E-09 0.000E+00
 ETOT  6  -52.622513361926     -3.673E-10 1.556E-11 0.000E+00
 ETOT  7  -52.622513361932     -5.670E-12 1.410E-12 0.000E+00
 ETOT  8  -52.622513361932     -6.395E-14 8.533E-15 0.000E+00
 ETOT  9  -52.622513361932     -4.974E-14 9.139E-16 0.000E+00
 ETOT 10  -52.622513361932      1.421E-14 8.276E-18 0.000E+00
 ETOT 11  -52.622513361932      0.000E+00 9.782E-19 0.000E+00
 ETOT 12  -52.622513361932     -1.421E-14 9.926E-21 0.000E+00

 At SCF step   12   max residual=  9.93E-21 < tolwfr=  1.00E-20 =>converged.

 ----iterations are completed or convergence reached----

 dfpt_looppert: DFPT cycle converged with prtwf=-1. Will skip output of the 1st-order WFK file.
 dfpt_looppert : ek2=    5.6637458253E+01
          f-sum rule ratio=    1.2521346304E+00
 prteigrs : about to open file /scratch/users/j/a/jabreu/flow_simple_7atoms/flow/w105/t1/tmpdata/tmp_1WF1_EIG
 Expectation of eigenvalue derivatives (hartree) for nkpt=   1  k points:
  (in case of degenerate eigenvalues, averaged derivative)
 kpt#   1, nband= 41, wtk=  1.00000, kpt=  0.0000  0.0000  0.0000 (reduced coord)
  -0.00000    0.00000   -0.00000   -0.00000    0.00000    0.00000    0.00000    0.00000
   0.00000    0.00000   -0.00000    0.00000    0.00000   -0.00000   -0.00000    0.00000
  -0.00000   -0.00000    0.00000   -0.00000   -0.00000    0.00000   -0.00000   -0.00000
   0.00000    0.00000   -0.00000   -0.00000   -0.00000   -0.00000   -0.00000   -0.00000
  -0.00000   -0.00000   -0.00000    0.00000    0.00000    0.00000   -0.00000   -0.00000
   0.00000

 Eight components of 2nd-order total energy (hartree) are
 1,2,3: 0th-order hamiltonian combined with 1st-order wavefunctions
     kin0=   5.76088287E+01 eigvalue=   6.55764029E+00  local=  -2.85251282E+01
 4,5,6: 1st-order hamiltonian combined with 1st and 0th-order wfs
     kin1=  -7.09177229E+01  Hartree=   0.00000000E+00     xc=   0.00000000E+00
 7,8,9: eventually, occupation + non-local contributions
    edocc=   1.24509143E+01     enl0=   4.53025826E+00   enl1=  -3.43273039E+01
 1-9 gives the relaxation energy (to be shifted if some occ is /=2.0)
   erelax=  -5.26225134E+01
  No Ewald or frozen-wf contrib.: the relaxation energy is the total one
 2DEtotal=   -0.5262251336E+02 Ha. Also 2DEtotal=   -0.143193141077E+04 eV
    (  non-var. 2DEtotal :   -5.2622513362E+01 Ha)

 CALCULATION OF EFFECTIVE MASSES
 NOTE : Additional infos (eff. mass eigenvalues, eigenvectors and, if degenerate, average mass) are available in stdout.

 K-point ( 0.000, 0.000, 0.000) | band =    32
 Effective mass tensor:
             -0.1956557297             -0.0196406498             -0.0475154049
             -0.0196406498             -0.1819096342             -0.0337131885
             -0.0475154049             -0.0337131885             -0.2495344005
 Effective mass tensor eigenvalues:
             -0.2911514119             -0.1679741763             -0.1679741763
 Angular average effective mass 1/(<1/m>)=  -0.1955514507
 Angular average effective mass for Frohlich model (<m**0.5>)**2=  -0.1991106992
 Effective masses along directions: (cart. coord. / red. coord. -> eff. mass)
    1:   1.000000  0.000000  0.000000 /   0.949544  0.313634  0.000000 ->  -0.1856224423
    2:   0.000000  1.000000  0.000000 /   0.000000  1.000000  0.000000 ->  -0.1764181242
    3:   0.000000  0.000000  1.000000 /   0.404525  0.404525  0.820195 ->  -0.2333395747
    4:   0.577350  0.577350  0.577350 /   0.585331  0.687748  0.429406 ->  -0.2674702908
    5:   0.000000  0.707107  0.707107 /   0.286157  0.762551  0.580198 ->  -0.2332291927
    6:   0.707107  0.000000  0.707107 /   0.732042  0.419176  0.537035 ->  -0.2587407773
    7:   0.707107  0.707107  0.000000 /   0.617387  0.786660  0.000000 ->  -0.1950757017

 COMMENTS:
 - At k-point ( 0.000, 0.000, 0.000), bands    33 through    34
   are DEGENERATE (effective mass tensor is therefore not defined).
   See Section IIIB Eqs. (67)-(70) and Appendix E of PRB 93 205147 (2016).
 - Angular average effective mass for Frohlich model is to be averaged over degenerate bands. See later.
 - Associated theta integrals calculated with ntheta=   1000 points.

 K-point ( 0.000, 0.000, 0.000) | band =    33
 Transport equivalent effective mass tensor:
              0.8452668690              0.0059180517              0.0143160918
              0.0059180517              0.8411261747              0.0101580741
              0.0143160918              0.0101580741              0.8615012278
 Transport equivalent effective mass tensor eigenvalues:
              0.8740403363              0.8369272682              0.8369266670
 Angular average effective mass 1/(<1/m>)=   0.6517496712
 Angular average effective mass for Frohlich model (<m**0.5>)**2=   0.6627541881
 Effective masses along directions: (cart. coord. / red. coord. -> eff. mass)
    1:   1.000000  0.000000  0.000000 /   0.949544  0.313634  0.000000 ->   0.5829859353
    2:   0.000000  1.000000  0.000000 /   0.000000  1.000000  0.000000 ->   0.5580392685
    3:   0.000000  0.000000  1.000000 /   0.404525  0.404525  0.820195 ->   0.4893469397
    4:   0.577350  0.577350  0.577350 /   0.585331  0.687748  0.429406 ->   0.6687685229
    5:   0.000000  0.707107  0.707107 /   0.286157  0.762551  0.580198 ->   0.7150837125
    6:   0.707107  0.000000  0.707107 /   0.732042  0.419176  0.537035 ->   0.5911720520
    7:   0.707107  0.707107  0.000000 /   0.617387  0.786660  0.000000 ->   0.8313882486

 K-point ( 0.000, 0.000, 0.000) | band =    34
 Transport equivalent effective mass tensor:
              0.2404578223              0.0750329999              0.1815233079
              0.0750329999              0.1879432174              0.1287939830
              0.1815233079              0.1287939830              0.4462902898
 Transport equivalent effective mass tensor eigenvalues:
              0.6052796115              0.1347059744              0.1347057436
 Angular average effective mass 1/(<1/m>)=   0.1743113727
 Angular average effective mass for Frohlich model (<m**0.5>)**2=   0.1935095184
 Effective masses along directions: (cart. coord. / red. coord. -> eff. mass)
    1:   1.000000  0.000000  0.000000 /   0.949544  0.313634  0.000000 ->   0.1615805646
    2:   0.000000  1.000000  0.000000 /   0.000000  1.000000  0.000000 ->   0.1478721399
    3:   0.000000  0.000000  1.000000 /   0.404525  0.404525  0.820195 ->   0.3019982654
    4:   0.577350  0.577350  0.577350 /   0.585331  0.687748  0.429406 ->   0.3854976725
    5:   0.000000  0.707107  0.707107 /   0.286157  0.762551  0.580198 ->   0.2524568301
    6:   0.707107  0.000000  0.707107 /   0.732042  0.419176  0.537035 ->   0.3717923148
    7:   0.707107  0.707107  0.000000 /   0.617387  0.786660  0.000000 ->   0.1640085465

 Angular average effective mass for Frohlich model, averaged over degenerate bands.
 Value of     (<<m**0.5>>)**2 =     3.931254E-01
 Absolute Value of <<m**0.5>> =     6.269972E-01

 END OF EFFECTIVE MASSES SECTION

 ---- first-order wavefunction calculations are completed ----

 Total localisation tensor (bohr^2) in cartesian coordinates
  WARNING : still subject to testing - especially symmetries.
      direction              matrix element
   alpha     beta       real part   imaginary part
     1        1       4.2937359702    0.0000000000
     1        2       1.2069487300    0.0000000000
     1        3       2.9198961517    0.0000000000
     2        1       1.2069487300    0.0000000000
     2        2       3.4490168344    0.0000000000
     2        3       2.0717282991    0.0000000000
     3        1       2.9198961517    0.0000000000
     3        2       2.0717282991    0.0000000000
     3        3       7.6046647380    0.0000000000

 respfn : d/dk was computed, but no 2DTE, so no DDB output.

== END DATASET(S) ==============================================================

 -outvars: echo values of variables after computation  --------
            acell      1.0000000000E+00  1.0000000000E+00  1.0000000000E+00 Bohr
              amu      8.54678000E+01  1.18710000E+02  1.59994000E+01
             ecut      4.40000000E+01 Hartree
           etotal     -5.2622513362E+01
            fcart      0.0000000000E+00  0.0000000000E+00  0.0000000000E+00
                       0.0000000000E+00  0.0000000000E+00  0.0000000000E+00
                       0.0000000000E+00  0.0000000000E+00  0.0000000000E+00
                       0.0000000000E+00  0.0000000000E+00  0.0000000000E+00
                       0.0000000000E+00  0.0000000000E+00  0.0000000000E+00
                       0.0000000000E+00  0.0000000000E+00  0.0000000000E+00
                       0.0000000000E+00  0.0000000000E+00  0.0000000000E+00
-          fftalg         512
           irdden           1
           irdwfk           1
           istwfk        1
              ixc     -116133
           kptopt           0
P           mkmem           1
P          mkqmem           1
P          mk1mem           1
            natom           7
            nband          41
           nbdbuf           4
            ngfft          72      72      72
             nkpt           1
            nstep        2000
             nsym          12
           ntypat           3
              occ      2.000000  2.000000  2.000000  2.000000  2.000000  2.000000
                       2.000000  2.000000  2.000000  2.000000  2.000000  2.000000
                       2.000000  2.000000  2.000000  2.000000  2.000000  2.000000
                       2.000000  2.000000  2.000000  2.000000  2.000000  2.000000
                       2.000000  2.000000  2.000000  2.000000  2.000000  2.000000
                       2.000000  2.000000  0.000000  0.000000  0.000000  0.000000
                       0.000000  0.000000  0.000000  0.000000  0.000000
        optdriver           1
            prtwf          -1
            rfdir           1       1       1
           rfelfd           2
            rprim      1.0007325304E+01  0.0000000000E+00  5.6737534509E+00
                       3.3054187293E+00  9.4456745006E+00  5.6737534509E+00
                       0.0000000000E+00  0.0000000000E+00  1.1503827101E+01
          spgroup         166
           strten      0.0000000000E+00  0.0000000000E+00  0.0000000000E+00
                       0.0000000000E+00  0.0000000000E+00  0.0000000000E+00
           symrel      1  0  0   0  1  0   0  0  1      -1  0  0   0 -1  0   0  0 -1
                       0  1  0   1  0  0   0  0  1       0 -1  0  -1  0  0   0  0 -1
                       0  0  1   1  0  0   0  1  0       0  0 -1  -1  0  0   0 -1  0
                       1  0  0   0  0  1   0  1  0      -1  0  0   0  0 -1   0 -1  0
                       0  1  0   0  0  1   1  0  0       0 -1  0   0  0 -1  -1  0  0
                       0  0  1   0  1  0   1  0  0       0  0 -1   0 -1  0  -1  0  0
           tolwfr      1.00000000E-20
            typat      1  1  2  2  3  3  3
           useylm           1
           xangst      3.5224003632E+00  2.4992178327E+00  6.0462025701E+00
                       0.0000000000E+00  0.0000000000E+00  0.0000000000E+00
                       1.6740912206E+00  1.1878032594E+00  2.8735786955E+00
                       5.3707095058E+00  3.8106324061E+00  9.2188264447E+00
                       8.7457612820E-01  2.4992178327E+00  1.5012105067E+00
                       0.0000000000E+00  0.0000000000E+00  3.0437815567E+00
                       2.6478242350E+00  0.0000000000E+00  1.5012105067E+00
            xcart      6.6563720168E+00  4.7228372503E+00  1.1425667001E+01
                       0.0000000000E+00  0.0000000000E+00  0.0000000000E+00
                       3.1635739284E+00  2.2446228600E+00  5.4302767558E+00
                       1.0149170105E+01  7.2010516406E+00  1.7421057247E+01
                       1.6527093646E+00  4.7228372503E+00  2.8368767254E+00
                       0.0000000000E+00  0.0000000000E+00  5.7519135505E+00
                       5.0036626521E+00  0.0000000000E+00  2.8368767254E+00
             xred      5.0000000000E-01  5.0000000000E-01  5.0000000000E-01
                       0.0000000000E+00  0.0000000000E+00  0.0000000000E+00
                       2.3763500000E-01  2.3763500000E-01  2.3763500000E-01
                       7.6236500000E-01  7.6236500000E-01  7.6236500000E-01
                      -2.7755575616E-17  5.0000000000E-01  1.3877787808E-17
                       0.0000000000E+00  0.0000000000E+00  5.0000000000E-01
                       5.0000000000E-01  0.0000000000E+00  2.7755575616E-17
            znucl       37.00000   50.00000    8.00000

- Timing analysis has been suppressed with timopt=0

 Suggested references for the acknowledgment of ABINIT usage.

 Calculation completed.
.Delivered   6 WARNINGs and   5 COMMENTs to log file.