.Version 9.5.1 of ABINIT

 ABINIT is a project of the Universite Catholique de Louvain,
 Corning Inc. and other collaborators, see ~abinit/doc/developers/contributors.txt .
 acknowledgments of the ABINIT effort.

.Starting date : Wed 19 May 2021.
- ( at 01h46 )

- input  file    -> /scratch/users/j/a/jabreu/flow_simple_8atoms/flow/w480/t1/run.abi
- output file    -> /scratch/users/j/a/jabreu/flow_simple_8atoms/flow/w480/t1/run.abo
- root for input  files -> /scratch/users/j/a/jabreu/flow_simple_8atoms/flow/w480/t1/indata/in
- root for output files -> /scratch/users/j/a/jabreu/flow_simple_8atoms/flow/w480/t1/outdata/out

 Symmetries : space group C2/c (# 15); Bravais mC (1-face-center monocl.)
     intxc =       0      iscf =       7    lmnmax =      18     lnmax =       6
     mgfft =      64  mpssoang =       3    mqgrid =    3001     natom =       8
  nloc_mem =       1    nspden =       1   nspinor =       1    nsppol =       1
      nsym =       4    n1xccc =    2501    ntypat =       3    occopt =       1
   xclevel =       2
-    mband =          45        mffmem =           1         mkmem =           2
-   mkqmem =           2        mk1mem =           2           mpw =       11436
      nfft =      230400          nkpt =           2
  Rough estimation (10% accuracy) of disk space for files :

------------- Echo of variables that govern the present computation ------------
-
- outvars: echo of selected default values
-   iomode0 =  0 , fftalg0 =512 , wfoptalg0 =  0
-
- outvars: echo of global parameters not present in the input file
-  max_nthreads =    0
-
 -outvars: echo values of preprocessed input variables --------
            acell      1.0000000000E+00  1.0000000000E+00  1.0000000000E+00 Bohr
              amu      2.29897680E+01  1.21753000E+02  1.59994000E+01
             ecut      4.40000000E+01 Hartree
-          fftalg         512
           irdden           1
           irdwfk           1
              ixc     -116133
              kpt      4.23076923E-01 -4.23076923E-01 -4.69709741E-17
                       5.00000000E-01 -5.00000000E-01 -5.55111512E-17
           kptopt           0
P           mkmem           2
P          mkqmem           2
P          mk1mem           2
            natom           8
            nband          45
           nbdbuf           4
            ngfft          60      60      64
             nkpt           2
            nstep        2000
             nsym           4
           ntypat           3
              occ      2.000000  2.000000  2.000000  2.000000  2.000000  2.000000
                       2.000000  2.000000  2.000000  2.000000  2.000000  2.000000
                       2.000000  2.000000  2.000000  2.000000  2.000000  2.000000
                       2.000000  2.000000  2.000000  2.000000  2.000000  2.000000
                       2.000000  2.000000  2.000000  2.000000  2.000000  2.000000
                       2.000000  2.000000  2.000000  2.000000  2.000000  2.000000
                       0.000000  0.000000  0.000000  0.000000  0.000000  0.000000
                       0.000000  0.000000  0.000000
        optdriver           1
            prtwf          -1
            rfdir           1       1       1
           rfelfd           2
            rprim      8.9257498525E+00  0.0000000000E+00  4.3862809399E+00
                      -2.0989134367E+00  8.6754580752E+00  4.3862809399E+00
                       0.0000000000E+00  0.0000000000E+00  1.0572187133E+01
          spgroup          15
           symrel      1  0  0   0  1  0   0  0  1      -1  0  0   0 -1  0   0  0 -1
                       0 -1  0  -1  0  0   0  0 -1       0  1  0   1  0  0   0  0  1
            tnons      0.0000000  0.0000000  0.0000000    -0.0000000  0.0000000 -0.0000000
                       0.0000000  0.0000000  0.5000000    -0.0000000  0.0000000  0.5000000
           tolwfr      1.00000000E-20
            typat      1  1  2  2  3  3  3  3
           useylm           1
              wtk        0.50000    0.50000
           xangst      1.0979446068E+00  2.8528443290E+00  6.5170402605E+00
                       2.5146616312E+00  1.7380103584E+00  3.7197600227E+00
                       4.0641780099E+00  5.1867476259E-01  6.5170402605E+00
                      -4.5157177193E-01  4.0721799249E+00  3.7197600227E+00
                       3.2325453925E+00  3.3868800914E+00  7.8702125841E+00
                       2.5317652470E+00  3.9383335565E+00  5.0729323464E+00
                       1.0808409910E+00  6.5252113100E-01  5.1638679369E+00
                       3.8006084556E-01  1.2039745961E+00  2.3665876991E+00
            xcart      2.0748146160E+00  5.3910944816E+00  1.2315421289E+01
                       4.7520217998E+00  3.2843635936E+00  7.0293277230E+00
                       7.6801833941E+00  9.8015325334E-01  1.2315421289E+01
                      -8.5334697829E-01  7.6953048219E+00  7.0293277230E+00
                       6.1086255039E+00  6.4002758177E+00  1.4872546392E+01
                       4.7843429496E+00  7.4423718417E+00  9.5864528253E+00
                       2.0424934662E+00  1.2330862335E+00  9.7582961871E+00
                       7.1821091194E-01  2.2751822575E+00  4.4722026208E+00
             xred      3.7858100000E-01  6.2141900000E-01  7.5000000000E-01
                       6.2141900000E-01  3.7858100000E-01  2.5000000000E-01
                       8.8702000000E-01  1.1298000000E-01  7.5000000000E-01
                       1.1298000000E-01  8.8702000000E-01  2.5000000000E-01
                       8.5786500000E-01  7.3774500000E-01  7.4476100000E-01
                       7.3774500000E-01  8.5786500000E-01  2.4476100000E-01
                       2.6225500000E-01  1.4213500000E-01  7.5523900000E-01
                       1.4213500000E-01  2.6225500000E-01  2.5523900000E-01
            znucl       11.00000   51.00000    8.00000

 chkinp: Checking input parameters for consistency.

== DATASET  1 ==================================================================
-   mpi_nproc: 1, omp_nthreads: -1 (-1 if OMP is not activated)

--- !DatasetInfo
iteration_state: {dtset: 1, }
dimensions: {natom: 8, nkpt: 2, mband: 45, nsppol: 1, nspinor: 1, nspden: 1, mpw: 11436, }
cutoff_energies: {ecut:  44.0, pawecutdg:  -1.0, }
electrons: {nelect:   7.20000000E+01, charge:   0.00000000E+00, occopt:   1.00000000E+00, tsmear:   1.00000000E-02, }
meta: {optdriver: 1, rfelfd: 2, }
...

 Real(R)+Recip(G) space primitive vectors, cartesian coordinates (Bohr,Bohr^-1):
 R(1)=  8.9257499  0.0000000  4.3862809  G(1)=  0.1120354  0.0271055  0.0000000
 R(2)= -2.0989134  8.6754581  4.3862809  G(2)=  0.0000000  0.1152677  0.0000000
 R(3)=  0.0000000  0.0000000 10.5721871  G(3)= -0.0464822 -0.0590690  0.0945878
 Unit cell volume ucvol=  8.1865698E+02 bohr^3
 Angles (23,13,12)=  6.38296323E+01  6.38296323E+01  8.97074132E+01 degrees

 getcut: wavevector=  0.0000  0.0000  0.0000  ngfft=  60  60  64
         ecut(hartree)=     44.000   => boxcut(ratio)=   2.02045

--- Pseudopotential description ------------------------------------------------
- pspini: atom type   1  psp file is /scratch/users/j/a/jabreu/pseudos/PBEsol/Na.psp8
- pspatm: opening atomic psp file    /scratch/users/j/a/jabreu/pseudos/PBEsol/Na.psp8
- Na    ONCVPSP-3.3.0  r_core=   1.20708   1.55069
- 11.00000   9.00000    180112                znucl, zion, pspdat
    8 -116133    1    4       400   0.00000   pspcod,pspxc,lmax,lloc,mmax,r2well
    3.99000000000000    0.00000000000000    0.00000000000000   rchrg,fchrg,qchrg
     nproj     2     2
     extension_switch     1
  pspatm : epsatm=    9.32878306
         --- l  ekb(1:nproj) -->
             0    2.657905   -0.678300
             1   -6.761319   -2.404728
 pspatm: atomic psp has been read  and splines computed

- pspini: atom type   2  psp file is /scratch/users/j/a/jabreu/pseudos/PBEsol/Sb.psp8
- pspatm: opening atomic psp file    /scratch/users/j/a/jabreu/pseudos/PBEsol/Sb.psp8
- Sb    ONCVPSP-3.3.0  r_core=   1.81962   2.12485   1.81962
- 51.00000  15.00000    180112                znucl, zion, pspdat
    8 -116133    2    4       600   0.00000   pspcod,pspxc,lmax,lloc,mmax,r2well
    5.99000000000000    5.00000000000000    0.00000000000000   rchrg,fchrg,qchrg
     nproj     2     2     2
     extension_switch     1
  pspatm : epsatm=   26.35641246
         --- l  ekb(1:nproj) -->
             0    9.727814    1.485032
             1    5.505335    0.704623
             2   -4.710637   -1.436443
 pspatm: atomic psp has been read  and splines computed

- pspini: atom type   3  psp file is /scratch/users/j/a/jabreu/pseudos/PBEsol/O.psp8
- pspatm: opening atomic psp file    /scratch/users/j/a/jabreu/pseudos/PBEsol/O.psp8
- O     ONCVPSP-3.3.0  r_core=   1.35509   1.45563   1.26150
-  8.00000   6.00000    180112                znucl, zion, pspdat
    8 -116133    2    4       600   0.00000   pspcod,pspxc,lmax,lloc,mmax,r2well
    5.99000000000000    4.00000000000000    0.00000000000000   rchrg,fchrg,qchrg
     nproj     2     2     1
     extension_switch     1
  pspatm : epsatm=    6.22910522
         --- l  ekb(1:nproj) -->
             0    6.050032    0.820363
             1   -4.739617   -1.153841
             2   -1.335834
 pspatm: atomic psp has been read  and splines computed

   6.93265046E+03                                ecore*ucvol(ha*bohr**3)

-inwffil : will read wavefunctions from disk file /scratch/users/j/a/jabreu/flow_simple_8atoms/flow/w480/t1/indata/in_WFK

 ==>  initialize data related to q vector <==

 The list of irreducible perturbations for this q vector is:
    1)    idir= 1    ipert=   9
    2)    idir= 2    ipert=   9
    3)    idir= 3    ipert=   9

 Perturbation wavevector (in red.coord.)   0.000000  0.000000  0.000000
 Perturbation : derivative vs k along direction   1

 dfpt_looppert : COMMENT -
  In a d/dk calculation, iscf is set to -3 automatically.
 The set of symmetries contains only one element for this perturbation.
 symkpt : not enough symmetry to change the number of k points.

[...]

 Initialisation of the first-order wave-functions :
  ireadwf=   0

--- !BeginCycle
iteration_state: {dtset: 1, }
solver: {iscf: 7, nstep: 2000, nline: 4, wfoptalg: 0, }
tolerances: {tolwfr: 1.00E-20, }
...

     iter   2DEtotal(Ha)        deltaE(Ha) residm    vres2
-ETOT  1  -63.107788051700     -6.311E+01 3.377E-02 0.000E+00
 ETOT  2  -63.166581162988     -5.879E-02 5.186E-04 0.000E+00
 ETOT  3  -63.166790384249     -2.092E-04 6.072E-06 0.000E+00
 ETOT  4  -63.166792033335     -1.649E-06 2.332E-07 0.000E+00
 ETOT  5  -63.166792049331     -1.600E-08 5.295E-09 0.000E+00
 ETOT  6  -63.166792049497     -1.662E-10 2.316E-10 0.000E+00
 ETOT  7  -63.166792049499     -1.855E-12 5.850E-12 0.000E+00
 ETOT  8  -63.166792049499     -7.105E-15 2.636E-13 0.000E+00
 ETOT  9  -63.166792049499      1.421E-14 6.905E-15 0.000E+00
 ETOT 10  -63.166792049499      0.000E+00 3.170E-16 0.000E+00
 ETOT 11  -63.166792049499     -2.842E-14 8.423E-18 0.000E+00
 ETOT 12  -63.166792049499      2.132E-14 3.907E-19 0.000E+00
 ETOT 13  -63.166792049499     -7.105E-15 1.045E-20 0.000E+00
 ETOT 14  -63.166792049499     -1.421E-14 9.737E-21 0.000E+00

 At SCF step   14   max residual=  9.74E-21 < tolwfr=  1.00E-20 =>converged.

 ----iterations are completed or convergence reached----

 dfpt_looppert: DFPT cycle converged with prtwf=-1. Will skip output of the 1st-order WFK file.
 dfpt_looppert : ek2=    7.5533115456E+01
          f-sum rule ratio=    1.1259395483E+00
 prteigrs : about to open file /scratch/users/j/a/jabreu/flow_simple_8atoms/flow/w480/t1/tmpdata/tmp_1WF1_EIG
 Expectation of eigenvalue derivatives (hartree) for nkpt=   2  k points:
  (in case of degenerate eigenvalues, averaged derivative)
 kpt#   1, nband= 45, wtk=  0.50000, kpt=  0.4231 -0.4231  0.0000 (reduced coord)
   0.00007   -0.00007    0.00024    0.00020   -0.00030    0.00017   -0.00005   -0.00031
   0.00041    0.00015   -0.00014   -0.00017   -0.00032   -0.00022   -0.00011   -0.00045
   0.00015    0.00029    0.00496   -0.00204   -0.00250   -0.00007   -0.02362   -0.01176
   0.01363   -0.00499    0.03228    0.02571   -0.01104    0.03535    0.01027    0.00415
   0.00915   -0.00553    0.06276   -0.00183   -0.06342   -0.06330   -0.05233   -0.05215
  -0.03215    0.04238    0.05275   -0.01050   -0.07090
 prteigrs : prtvol=0 or 1, do not print more k-points.

 Eight components of 2nd-order total energy (hartree) are
 1,2,3: 0th-order hamiltonian combined with 1st-order wavefunctions
     kin0=   7.41556306E+01 eigvalue=   7.91882382E+00  local=  -3.51363282E+01
 4,5,6: 1st-order hamiltonian combined with 1st and 0th-order wfs
     kin1=  -8.50457219E+01  Hartree=   0.00000000E+00     xc=   0.00000000E+00
 7,8,9: eventually, occupation + non-local contributions
    edocc=   1.12827630E+01     enl0=   4.94590286E+00   enl1=  -4.12878622E+01
 1-9 gives the relaxation energy (to be shifted if some occ is /=2.0)
   erelax=  -6.31667920E+01
  No Ewald or frozen-wf contrib.: the relaxation energy is the total one
 2DEtotal=   -0.6316679205E+02 Ha. Also 2DEtotal=   -0.171885582566E+04 eV
    (  non-var. 2DEtotal :   -6.3166792049E+01 Ha)

 Perturbation wavevector (in red.coord.)   0.000000  0.000000  0.000000
 Perturbation : derivative vs k along direction   2
 The set of symmetries contains only one element for this perturbation.
 symkpt : not enough symmetry to change the number of k points.

[...]

 Perturbation wavevector (in red.coord.)   0.000000  0.000000  0.000000
 Perturbation : derivative vs k along direction   3
 The set of symmetries contains only one element for this perturbation.
 symkpt : not enough symmetry to change the number of k points.

-inwffil : will read wavefunctions from disk file /scratch/users/j/a/jabreu/flow_simple_8atoms/flow/w480/t1/indata/in_WFK

 Initialisation of the first-order wave-functions :
  ireadwf=   0

--- !BeginCycle
iteration_state: {dtset: 1, }
solver: {iscf: 7, nstep: 2000, nline: 4, wfoptalg: 0, }
tolerances: {tolwfr: 1.00E-20, }
...

     iter   2DEtotal(Ha)        deltaE(Ha) residm    vres2
-ETOT  1  -67.648300582529     -6.765E+01 5.488E-02 0.000E+00
 ETOT  2  -67.699849005652     -5.155E-02 6.807E-04 0.000E+00
 ETOT  3  -67.699954812588     -1.058E-04 6.616E-06 0.000E+00
 ETOT  4  -67.699955639962     -8.274E-07 1.726E-07 0.000E+00
 ETOT  5  -67.699955648381     -8.419E-09 2.398E-09 0.000E+00
 ETOT  6  -67.699955648474     -9.285E-11 7.828E-11 0.000E+00
 ETOT  7  -67.699955648475     -1.108E-12 1.131E-12 0.000E+00
 ETOT  8  -67.699955648475      0.000E+00 3.860E-14 0.000E+00
 ETOT  9  -67.699955648475      0.000E+00 5.599E-16 0.000E+00
 ETOT 10  -67.699955648475      0.000E+00 1.956E-17 0.000E+00
 ETOT 11  -67.699955648475      0.000E+00 3.088E-19 0.000E+00
 ETOT 12  -67.699955648475      0.000E+00 1.002E-20 0.000E+00
 ETOT 13  -67.699955648475      0.000E+00 9.785E-21 0.000E+00

 At SCF step   13   max residual=  9.79E-21 < tolwfr=  1.00E-20 =>converged.

 ----iterations are completed or convergence reached----

 dfpt_looppert: DFPT cycle converged with prtwf=-1. Will skip output of the 1st-order WFK file.
 dfpt_looppert : ek2=    8.2980097777E+01
          f-sum rule ratio=    1.0861783595E+00
 prteigrs : about to open file /scratch/users/j/a/jabreu/flow_simple_8atoms/flow/w480/t1/tmpdata/tmp_1WF1_EIG
 Expectation of eigenvalue derivatives (hartree) for nkpt=   2  k points:
  (in case of degenerate eigenvalues, averaged derivative)
 kpt#   1, nband= 45, wtk=  0.50000, kpt=  0.4231 -0.4231  0.0000 (reduced coord)
   0.00000    0.00000    0.00000   -0.00000    0.00000   -0.00000    0.00000   -0.00000
  -0.00000   -0.00000    0.00000   -0.00000    0.00000    0.00000   -0.00000    0.00000
  -0.00000    0.00000   -0.00000    0.00000   -0.00000    0.00000   -0.00000    0.00000
  -0.00000   -0.00000    0.00000    0.00000    0.00000    0.00000    0.00000   -0.00000
   0.00000   -0.00000    0.00000   -0.00000    0.00000    0.00000   -0.00000    0.00000
  -0.00000    0.00000   -0.00006   -0.00206   -0.00474
 prteigrs : prtvol=0 or 1, do not print more k-points.

 Eight components of 2nd-order total energy (hartree) are
 1,2,3: 0th-order hamiltonian combined with 1st-order wavefunctions
     kin0=   8.06349438E+01 eigvalue=   8.93344852E+00  local=  -3.84261193E+01
 4,5,6: 1st-order hamiltonian combined with 1st and 0th-order wfs
     kin1=  -9.01311865E+01  Hartree=   0.00000000E+00     xc=   0.00000000E+00
 7,8,9: eventually, occupation + non-local contributions
    edocc=   1.13619739E+01     enl0=   5.19570869E+00   enl1=  -4.52687248E+01
 1-9 gives the relaxation energy (to be shifted if some occ is /=2.0)
   erelax=  -6.76999556E+01
  No Ewald or frozen-wf contrib.: the relaxation energy is the total one
 2DEtotal=   -0.6769995565E+02 Ha. Also 2DEtotal=   -0.184220948046E+04 eV
    (  non-var. 2DEtotal :   -6.7699955648E+01 Ha)

 CALCULATION OF EFFECTIVE MASSES
 NOTE : Additional infos (eff. mass eigenvalues, eigenvectors and, if degenerate, average mass) are available in stdout.

 K-point ( 0.423,-0.423,-0.000) | band =    36
 Effective mass tensor:
             -1.3902218649             -0.0115463435              0.0408032926
             -0.0115463435             -1.3956661121              0.0519049211
              0.0408032926              0.0519049211             -0.5024686255
 Effective mass tensor eigenvalues:
             -1.4096120518             -1.3810811528             -0.4976633979
 Angular average effective mass 1/(<1/m>)=  -0.8713645851
 Angular average effective mass for Frohlich model (<m**0.5>)**2=  -0.9435254141
 Effective masses along directions: (cart. coord. / red. coord. -> eff. mass)
    1:   1.000000  0.000000  0.000000 /   0.973448 -0.228909  0.000000 ->  -1.3868697470
    2:   0.000000  1.000000  0.000000 /   0.000000  1.000000  0.000000 ->  -1.3902655883
    3:   0.000000  0.000000  1.000000 /   0.357840  0.357840  0.862497 ->  -0.4993656862
    4:   0.577350  0.577350  0.577350 /   0.658105  0.541968  0.522656 ->  -0.8109030707
    5:   0.000000  0.707107  0.707107 /   0.252561  0.752092  0.608744 ->  -0.6969091739
    6:   0.707107  0.000000  0.707107 /   0.776092  0.133354  0.616359 ->  -0.7042477764
    7:   0.707107  0.707107  0.000000 /   0.805070  0.593180  0.000000 ->  -1.3959356581

 K-point ( 0.500,-0.500,-0.000) | band =    37
 Effective mass tensor:
              0.3808498709             -0.1073402708             -0.0222640332
             -0.1073402708              0.3289101581             -0.0282988605
             -0.0222640332             -0.0282988605              0.8376000459
 Effective mass tensor eigenvalues:
              0.2422650638              0.4653171784              0.8397778327
 Angular average effective mass 1/(<1/m>)=   0.4017369400
 Angular average effective mass for Frohlich model (<m**0.5>)**2=   0.4330465936
 Effective masses along directions: (cart. coord. / red. coord. -> eff. mass)
    1:   1.000000  0.000000  0.000000 /   0.973448 -0.228909  0.000000 ->   0.3446311864
    2:   0.000000  1.000000  0.000000 /   0.000000  1.000000  0.000000 ->   0.2972276062
    3:   0.000000  0.000000  1.000000 /   0.357840  0.357840  0.862497 ->   0.8322960958
    4:   0.577350  0.577350  0.577350 /   0.658105  0.541968  0.522656 ->   0.3037242010
    5:   0.000000  0.707107  0.707107 /   0.252561  0.752092  0.608744 ->   0.4128732763
    6:   0.707107  0.000000  0.707107 /   0.776092  0.133354  0.616359 ->   0.4627457538
    7:   0.707107  0.707107  0.000000 /   0.805070  0.593180  0.000000 ->   0.2445338674

 END OF EFFECTIVE MASSES SECTION

 ---- first-order wavefunction calculations are completed ----

 Total localisation tensor (bohr^2) in cartesian coordinates
  WARNING : still subject to testing - especially symmetries.
      direction              matrix element
   alpha     beta       real part   imaginary part
     1        1       1.3224954158    0.0000000000
     1        2      -0.2864284850    0.0000000000
     1        3       0.4710276794    0.0000000000
     2        1      -0.2864284850    0.0000000000
     2        2       1.1838974727    0.0000000000
     2        3       0.5985743778    0.0000000000
     3        1       0.4710276794    0.0000000000
     3        2       0.5985743778    0.0000000000
     3        3       2.5495271230    0.0000000000

 respfn : d/dk was computed, but no 2DTE, so no DDB output.

== END DATASET(S) ==============================================================

 -outvars: echo values of variables after computation  --------
            acell      1.0000000000E+00  1.0000000000E+00  1.0000000000E+00 Bohr
              amu      2.29897680E+01  1.21753000E+02  1.59994000E+01
             ecut      4.40000000E+01 Hartree
           etotal     -6.7699955648E+01
            fcart      0.0000000000E+00  0.0000000000E+00  0.0000000000E+00
                       0.0000000000E+00  0.0000000000E+00  0.0000000000E+00
                       0.0000000000E+00  0.0000000000E+00  0.0000000000E+00
                       0.0000000000E+00  0.0000000000E+00  0.0000000000E+00
                       0.0000000000E+00  0.0000000000E+00  0.0000000000E+00
                       0.0000000000E+00  0.0000000000E+00  0.0000000000E+00
                       0.0000000000E+00  0.0000000000E+00  0.0000000000E+00
                       0.0000000000E+00  0.0000000000E+00  0.0000000000E+00
-          fftalg         512
           irdden           1
           irdwfk           1
              ixc     -116133
              kpt      4.23076923E-01 -4.23076923E-01 -4.69709741E-17
                       5.00000000E-01 -5.00000000E-01 -5.55111512E-17
           kptopt           0
P           mkmem           2
P          mkqmem           2
P          mk1mem           2
            natom           8
            nband          45
           nbdbuf           4
            ngfft          60      60      64
             nkpt           2
            nstep        2000
             nsym           4
           ntypat           3
              occ      2.000000  2.000000  2.000000  2.000000  2.000000  2.000000
                       2.000000  2.000000  2.000000  2.000000  2.000000  2.000000
                       2.000000  2.000000  2.000000  2.000000  2.000000  2.000000
                       2.000000  2.000000  2.000000  2.000000  2.000000  2.000000
                       2.000000  2.000000  2.000000  2.000000  2.000000  2.000000
                       2.000000  2.000000  2.000000  2.000000  2.000000  2.000000
                       0.000000  0.000000  0.000000  0.000000  0.000000  0.000000
                       0.000000  0.000000  0.000000
        optdriver           1
            prtwf          -1
            rfdir           1       1       1
           rfelfd           2
            rprim      8.9257498525E+00  0.0000000000E+00  4.3862809399E+00
                      -2.0989134367E+00  8.6754580752E+00  4.3862809399E+00
                       0.0000000000E+00  0.0000000000E+00  1.0572187133E+01
          spgroup          15
           strten      0.0000000000E+00  0.0000000000E+00  0.0000000000E+00
                       0.0000000000E+00  0.0000000000E+00  0.0000000000E+00
           symrel      1  0  0   0  1  0   0  0  1      -1  0  0   0 -1  0   0  0 -1
                       0 -1  0  -1  0  0   0  0 -1       0  1  0   1  0  0   0  0  1
            tnons      0.0000000  0.0000000  0.0000000    -0.0000000  0.0000000 -0.0000000
                       0.0000000  0.0000000  0.5000000    -0.0000000  0.0000000  0.5000000
           tolwfr      1.00000000E-20
            typat      1  1  2  2  3  3  3  3
           useylm           1
              wtk        0.50000    0.50000
           xangst      1.0979446068E+00  2.8528443290E+00  6.5170402605E+00
                       2.5146616312E+00  1.7380103584E+00  3.7197600227E+00
                       4.0641780099E+00  5.1867476259E-01  6.5170402605E+00
                      -4.5157177193E-01  4.0721799249E+00  3.7197600227E+00
                       3.2325453925E+00  3.3868800914E+00  7.8702125841E+00
                       2.5317652470E+00  3.9383335565E+00  5.0729323464E+00
                       1.0808409910E+00  6.5252113100E-01  5.1638679369E+00
                       3.8006084556E-01  1.2039745961E+00  2.3665876991E+00
            xcart      2.0748146160E+00  5.3910944816E+00  1.2315421289E+01
                       4.7520217998E+00  3.2843635936E+00  7.0293277230E+00
                       7.6801833941E+00  9.8015325334E-01  1.2315421289E+01
                      -8.5334697829E-01  7.6953048219E+00  7.0293277230E+00
                       6.1086255039E+00  6.4002758177E+00  1.4872546392E+01
                       4.7843429496E+00  7.4423718417E+00  9.5864528253E+00
                       2.0424934662E+00  1.2330862335E+00  9.7582961871E+00
                       7.1821091194E-01  2.2751822575E+00  4.4722026208E+00
             xred      3.7858100000E-01  6.2141900000E-01  7.5000000000E-01
                       6.2141900000E-01  3.7858100000E-01  2.5000000000E-01
                       8.8702000000E-01  1.1298000000E-01  7.5000000000E-01
                       1.1298000000E-01  8.8702000000E-01  2.5000000000E-01
                       8.5786500000E-01  7.3774500000E-01  7.4476100000E-01
                       7.3774500000E-01  8.5786500000E-01  2.4476100000E-01
                       2.6225500000E-01  1.4213500000E-01  7.5523900000E-01
                       1.4213500000E-01  2.6225500000E-01  2.5523900000E-01
            znucl       11.00000   51.00000    8.00000

- Timing analysis has been suppressed with timopt=0

 Suggested references for the acknowledgment of ABINIT usage.

 Calculation completed.
.Delivered  14 WARNINGs and   9 COMMENTs to log file.