.Version 9.5.1 of ABINIT

 ABINIT is a project of the Universite Catholique de Louvain,
 Corning Inc. and other collaborators, see ~abinit/doc/developers/contributors.txt .
 acknowledgments of the ABINIT effort.

.Starting date : Tue  4 May 2021.
- ( at 19h03 )

- input  file    -> /scratch/users/j/a/jabreu/flow_simple_6atoms/flow/w153/t1/run.abi
- output file    -> /scratch/users/j/a/jabreu/flow_simple_6atoms/flow/w153/t1/run.abo
- root for input  files -> /scratch/users/j/a/jabreu/flow_simple_6atoms/flow/w153/t1/indata/in
- root for output files -> /scratch/users/j/a/jabreu/flow_simple_6atoms/flow/w153/t1/outdata/out

 Symmetries : space group C2/c (# 15); Bravais mC (1-face-center monocl.)
     intxc =       0      iscf =       7    lmnmax =      18     lnmax =       6
     mgfft =     108  mpssoang =       3    mqgrid =    4626     natom =       6
  nloc_mem =       1    nspden =       1   nspinor =       1    nsppol =       1
      nsym =       4    n1xccc =    2501    ntypat =       2    occopt =       1
   xclevel =       2
-    mband =          51        mffmem =           1         mkmem =           2
-   mkqmem =           2        mk1mem =           2           mpw =       17480
      nfft =      388800          nkpt =           2
  Rough estimation (10% accuracy) of disk space for files :

------------- Echo of variables that govern the present computation ------------
-
- outvars: echo of selected default values
-   iomode0 =  0 , fftalg0 =512 , wfoptalg0 =  0
-
- outvars: echo of global parameters not present in the input file
-  max_nthreads =    0
-
 -outvars: echo values of preprocessed input variables --------
            acell      1.0000000000E+00  1.0000000000E+00  1.0000000000E+00 Bohr
              amu      1.37327000E+02  7.89600000E+01
             ecut      4.30000000E+01 Hartree
-          fftalg         512
           irdden           1
           irdwfk           1
           istwfk        1    1
              ixc     -116133
              kpt      5.00000000E-01  0.00000000E+00  5.00000000E-01
                       5.00000000E-01  5.00000000E-01  5.55111512E-17
           kptopt           0
P           mkmem           2
P          mkqmem           2
P          mk1mem           2
            natom           6
            nband          51
           nbdbuf           4
            ngfft          60      60     108
             nkpt           2
            nstep        1000
             nsym           4
           ntypat           2
              occ      2.000000  2.000000  2.000000  2.000000  2.000000  2.000000
                       2.000000  2.000000  2.000000  2.000000  2.000000  2.000000
                       2.000000  2.000000  2.000000  2.000000  2.000000  2.000000
                       2.000000  2.000000  2.000000  2.000000  2.000000  2.000000
                       2.000000  2.000000  2.000000  2.000000  2.000000  2.000000
                       2.000000  2.000000  2.000000  2.000000  2.000000  2.000000
                       2.000000  2.000000  2.000000  2.000000  2.000000  2.000000
                       0.000000  0.000000  0.000000  0.000000  0.000000  0.000000
                       0.000000  0.000000  0.000000
        optdriver           1
            prtwf          -1
            rfdir           1       1       1
           rfelfd           2
            rprim      9.2545993814E+00  0.0000000000E+00  3.9938456193E+00
                       4.6685963299E+00  7.9907332591E+00  3.9938456193E+00
                       0.0000000000E+00  0.0000000000E+00  1.7502205857E+01
          spgroup          15
           symrel      1  0  0   0  1  0   0  0  1      -1  0  0   0 -1  0   0  0 -1
                       0 -1  0  -1  0  0   0  0 -1       0  1  0   1  0  0   0  0  1
            tnons      0.0000000  0.0000000  0.0000000     0.0000000  0.0000000 -0.0000000
                       0.0000000  0.0000000  0.5000000     0.0000000  0.0000000  0.5000000
           tolwfr      1.00000000E-20
            typat      1  1  2  2  2  2
           useylm           1
              wtk        0.50000    0.50000
           xangst      4.6064433984E+00  5.0683390704E-01  4.4288941862E+00
                       2.7613944427E+00  3.7216800136E+00  9.0597784060E+00
                       4.5221877853E+00  3.2639856668E+00  1.1776030618E+01
                       2.2683293505E+00  1.9704621159E+00  6.3435261936E+00
                       5.0995084906E+00  2.2580518047E+00  7.1451463986E+00
                       2.8456500558E+00  9.6452825381E-01  1.7126419739E+00
            xcart      8.7049164696E+00  9.5777727917E-01  8.3693970835E+00
                       5.2182792417E+00  7.0329559799E+00  1.7120500012E+01
                       8.5456964357E+00  6.1680390120E+00  2.2253472801E+01
                       4.2865212517E+00  3.7236337543E+00  1.1987527223E+01
                       9.6366744596E+00  4.2670995048E+00  1.3502369873E+01
                       5.3774992756E+00  1.8226942471E+00  3.2364242943E+00
             xred      8.8013900000E-01  1.1986100000E-01  2.5000000000E-01
                       1.1986100000E-01  8.8013900000E-01  7.5000000000E-01
                       5.3400600000E-01  7.7189900000E-01  9.7347100000E-01
                       2.2810100000E-01  4.6599400000E-01  5.2652900000E-01
                       7.7189900000E-01  5.3400600000E-01  4.7347100000E-01
                       4.6599400000E-01  2.2810100000E-01  2.6529000000E-02
            znucl       56.00000   34.00000

 chkinp: Checking input parameters for consistency.

== DATASET  1 ==================================================================
-   mpi_nproc: 1, omp_nthreads: -1 (-1 if OMP is not activated)

--- !DatasetInfo
iteration_state: {dtset: 1, }
dimensions: {natom: 6, nkpt: 2, mband: 51, nsppol: 1, nspinor: 1, nspden: 1, mpw: 17480, }
cutoff_energies: {ecut:  43.0, pawecutdg:  -1.0, }
electrons: {nelect:   8.40000000E+01, charge:   0.00000000E+00, occopt:   1.00000000E+00, tsmear:   1.00000000E-02, }
meta: {optdriver: 1, rfelfd: 2, }
...

 Real(R)+Recip(G) space primitive vectors, cartesian coordinates (Bohr,Bohr^-1):
 R(1)=  9.2545994  0.0000000  3.9938456  G(1)=  0.1080544 -0.0631309  0.0000000
 R(2)=  4.6685963  7.9907333  3.9938456  G(2)=  0.0000000  0.1251450  0.0000000
 R(3)=  0.0000000  0.0000000 17.5022059  G(3)= -0.0246570 -0.0141510  0.0571357
 Unit cell volume ucvol=  1.2943062E+03 bohr^3
 Angles (23,13,12)=  6.66572658E+01  6.66572658E+01  5.43902742E+01 degrees

 getcut: wavevector=  0.0000  0.0000  0.0000  ngfft=  60  60 108
         ecut(hartree)=     43.000   => boxcut(ratio)=   2.01701

--- Pseudopotential description ------------------------------------------------
- pspini: atom type   1  psp file is /scratch/users/j/a/jabreu/pseudos/PBEsol/Ba.psp8
- pspatm: opening atomic psp file    /scratch/users/j/a/jabreu/pseudos/PBEsol/Ba.psp8
- Ba    ONCVPSP-3.3.0  r_core=   2.15444   1.91218   2.15444
- 56.00000  10.00000    180112                znucl, zion, pspdat
    8 -116133    2    4       600   0.00000   pspcod,pspxc,lmax,lloc,mmax,r2well
    5.99000000000000    5.00000000000000    0.00000000000000   rchrg,fchrg,qchrg
     nproj     2     2     2
     extension_switch     1
  pspatm : epsatm=   26.37418029
         --- l  ekb(1:nproj) -->
             0    6.652372    0.677024
             1    5.027722    0.408462
             2    2.543237    0.416854
 pspatm: atomic psp has been read  and splines computed

- pspini: atom type   2  psp file is /scratch/users/j/a/jabreu/pseudos/PBEsol/Se.psp8
- pspatm: opening atomic psp file    /scratch/users/j/a/jabreu/pseudos/PBEsol/Se.psp8
- Se    ONCVPSP-3.3.0  r_core=   1.81943   1.50330   1.90835
- 34.00000  16.00000    180112                znucl, zion, pspdat
    8 -116133    2    4       600   0.00000   pspcod,pspxc,lmax,lloc,mmax,r2well
    5.99000000000000    5.00000000000000    0.00000000000000   rchrg,fchrg,qchrg
     nproj     2     2     2
     extension_switch     1
  pspatm : epsatm=   29.17862020
         --- l  ekb(1:nproj) -->
             0    8.973804    1.019550
             1    6.849857    1.297308
             2   -9.203962   -3.731027
 pspatm: atomic psp has been read  and splines computed

   1.42348787E+04                                ecore*ucvol(ha*bohr**3)

-inwffil : will read wavefunctions from disk file /scratch/users/j/a/jabreu/flow_simple_6atoms/flow/w153/t1/indata/in_WFK

 ==>  initialize data related to q vector <==

 The list of irreducible perturbations for this q vector is:
    1)    idir= 1    ipert=   7
    2)    idir= 2    ipert=   7
    3)    idir= 3    ipert=   7

 Perturbation wavevector (in red.coord.)   0.000000  0.000000  0.000000
 Perturbation : derivative vs k along direction   1

 dfpt_looppert : COMMENT -
  In a d/dk calculation, iscf is set to -3 automatically.
 The set of symmetries contains only one element for this perturbation.
 symkpt : not enough symmetry to change the number of k points.

[...]

 Initialisation of the first-order wave-functions :
  ireadwf=   0

--- !BeginCycle
iteration_state: {dtset: 1, }
solver: {iscf: 7, nstep: 1000, nline: 4, wfoptalg: 0, }
tolerances: {tolwfr: 1.00E-20, }
...

     iter   2DEtotal(Ha)        deltaE(Ha) residm    vres2
-ETOT  1  -125.95044193985     -1.260E+02 3.739E-01 0.000E+00
 ETOT  2  -126.04994718497     -9.951E-02 1.269E-01 0.000E+00
 ETOT  3  -126.05012603736     -1.789E-04 7.563E-03 0.000E+00
 ETOT  4  -126.05012707883     -1.041E-06 6.854E-03 0.000E+00
 ETOT  5  -126.05012708651     -7.680E-09 4.735E-04 0.000E+00
 ETOT  6  -126.05012708657     -6.267E-11 5.868E-04 0.000E+00
 ETOT  7  -126.05012708657     -5.684E-13 4.161E-05 0.000E+00
 ETOT  8  -126.05012708657     -1.279E-13 5.377E-05 0.000E+00
 ETOT  9  -126.05012708657      2.842E-14 3.860E-06 0.000E+00
 ETOT 10  -126.05012708657     -2.842E-14 5.046E-06 0.000E+00
 ETOT 11  -126.05012708657      1.421E-14 3.644E-07 0.000E+00
 ETOT 12  -126.05012708657      0.000E+00 4.794E-07 0.000E+00
 ETOT 13  -126.05012708657      1.421E-14 3.455E-08 0.000E+00
 ETOT 14  -126.05012708657     -2.842E-14 4.590E-08 0.000E+00
 ETOT 15  -126.05012708657     -2.842E-14 3.275E-09 0.000E+00
 ETOT 16  -126.05012708657      5.684E-14 4.417E-09 0.000E+00
 ETOT 17  -126.05012708657      0.000E+00 3.107E-10 0.000E+00
 ETOT 18  -126.05012708657      0.000E+00 4.266E-10 0.000E+00
 ETOT 19  -126.05012708657     -1.421E-14 2.957E-11 0.000E+00
 ETOT 20  -126.05012708657      0.000E+00 4.132E-11 0.000E+00
 ETOT 21  -126.05012708657      2.842E-14 2.827E-12 0.000E+00
 ETOT 22  -126.05012708657      2.842E-14 4.013E-12 0.000E+00
 ETOT 23  -126.05012708657     -1.421E-14 2.718E-13 0.000E+00
 ETOT 24  -126.05012708657     -2.842E-14 3.906E-13 0.000E+00
 ETOT 25  -126.05012708657      0.000E+00 2.624E-14 0.000E+00
 ETOT 26  -126.05012708657      0.000E+00 3.811E-14 0.000E+00
 ETOT 27  -126.05012708657     -2.842E-14 2.544E-15 0.000E+00
 ETOT 28  -126.05012708657      5.684E-14 3.726E-15 0.000E+00
 ETOT 29  -126.05012708657     -1.421E-14 2.474E-16 0.000E+00
 ETOT 30  -126.05012708657     -2.842E-14 3.651E-16 0.000E+00
 ETOT 31  -126.05012708657      4.263E-14 2.414E-17 0.000E+00
 ETOT 32  -126.05012708657     -2.842E-14 3.583E-17 0.000E+00
 ETOT 33  -126.05012708657      0.000E+00 2.360E-18 0.000E+00
 ETOT 34  -126.05012708657     -2.842E-14 3.523E-18 0.000E+00
 ETOT 35  -126.05012708657      0.000E+00 2.313E-19 0.000E+00
 ETOT 36  -126.05012708657     -2.842E-14 3.468E-19 0.000E+00
 ETOT 37  -126.05012708657      0.000E+00 2.271E-20 0.000E+00
 ETOT 38  -126.05012708657      0.000E+00 3.420E-20 0.000E+00
 ETOT 39  -126.05012708657      0.000E+00 9.834E-21 0.000E+00

 At SCF step   39   max residual=  9.83E-21 < tolwfr=  1.00E-20 =>converged.

 ----iterations are completed or convergence reached----

 dfpt_looppert: DFPT cycle converged with prtwf=-1. Will skip output of the 1st-order WFK file.
 dfpt_looppert : ek2=    1.0387134405E+02
          f-sum rule ratio=    1.1905542328E+00
 prteigrs : about to open file /scratch/users/j/a/jabreu/flow_simple_6atoms/flow/w153/t1/tmpdata/tmp_1WF1_EIG
 Expectation of eigenvalue derivatives (hartree) for nkpt=   2  k points:
  (in case of degenerate eigenvalues, averaged derivative)
 kpt#   1, nband= 51, wtk=  0.50000, kpt=  0.5000  0.0000  0.5000 (reduced coord)
   0.00000    0.00000    0.00000    0.00000   -0.00000   -0.00000   -0.00000    0.00000
  -0.00000   -0.00000   -0.00000    0.00000    0.00000    0.00000   -0.00000    0.00000
   0.00000   -0.00000   -0.00000   -0.00000   -0.00000   -0.00000   -0.00000    0.00000
  -0.00000   -0.00000    0.00000   -0.00000    0.00000   -0.00000    0.00000   -0.00000
  -0.00000    0.00000   -0.00000   -0.00000    0.00000    0.00000    0.00000    0.00000
   0.00000   -0.00000    0.00000    0.00000   -0.00000   -0.00000    0.00000   -0.00000
  -0.00000    0.00003   -0.00077
 prteigrs : prtvol=0 or 1, do not print more k-points.

 Eight components of 2nd-order total energy (hartree) are
 1,2,3: 0th-order hamiltonian combined with 1st-order wavefunctions
     kin0=   1.25882909E+02 eigvalue=   1.91116255E+01  local=  -5.64695515E+01
 4,5,6: 1st-order hamiltonian combined with 1st and 0th-order wfs
     kin1=  -1.23664468E+02  Hartree=   0.00000000E+00     xc=   0.00000000E+00
 7,8,9: eventually, occupation + non-local contributions
    edocc=   2.31388281E+01     enl0=   1.43863163E+01   enl1=  -1.28435786E+02
 1-9 gives the relaxation energy (to be shifted if some occ is /=2.0)
   erelax=  -1.26050127E+02
  No Ewald or frozen-wf contrib.: the relaxation energy is the total one
 2DEtotal=   -0.1260501271E+03 Ha. Also 2DEtotal=   -0.342999839375E+04 eV
    (  non-var. 2DEtotal :   -1.2605012709E+02 Ha)

 Perturbation wavevector (in red.coord.)   0.000000  0.000000  0.000000
 Perturbation : derivative vs k along direction   2
 The set of symmetries contains only one element for this perturbation.
 symkpt : not enough symmetry to change the number of k points.

[...]

 Perturbation wavevector (in red.coord.)   0.000000  0.000000  0.000000
 Perturbation : derivative vs k along direction   3
 The set of symmetries contains only one element for this perturbation.
 symkpt : not enough symmetry to change the number of k points.

-inwffil : will read wavefunctions from disk file /scratch/users/j/a/jabreu/flow_simple_6atoms/flow/w153/t1/indata/in_WFK

 Initialisation of the first-order wave-functions :
  ireadwf=   0

--- !BeginCycle
iteration_state: {dtset: 1, }
solver: {iscf: 7, nstep: 1000, nline: 4, wfoptalg: 0, }
tolerances: {tolwfr: 1.00E-20, }
...

     iter   2DEtotal(Ha)        deltaE(Ha) residm    vres2
-ETOT  1  -29.822546206072     -2.982E+01 8.965E-02 0.000E+00
 ETOT  2  -29.848237394335     -2.569E-02 8.907E-03 0.000E+00
 ETOT  3  -29.848281829700     -4.444E-05 1.066E-03 0.000E+00
 ETOT  4  -29.848282088640     -2.589E-07 3.302E-04 0.000E+00
 ETOT  5  -29.848282090596     -1.956E-09 2.124E-05 0.000E+00
 ETOT  6  -29.848282090613     -1.657E-11 1.437E-05 0.000E+00
 ETOT  7  -29.848282090613     -1.243E-13 9.258E-07 0.000E+00
 ETOT  8  -29.848282090613     -2.132E-14 6.609E-07 0.000E+00
 ETOT  9  -29.848282090613      0.000E+00 4.287E-08 0.000E+00
 ETOT 10  -29.848282090613     -3.553E-15 3.141E-08 0.000E+00
 ETOT 11  -29.848282090613      3.553E-15 2.061E-09 0.000E+00
 ETOT 12  -29.848282090613      0.000E+00 1.552E-09 0.000E+00
 ETOT 13  -29.848282090613     -3.553E-15 1.050E-10 0.000E+00
 ETOT 14  -29.848282090613     -3.553E-15 8.261E-11 0.000E+00
 ETOT 15  -29.848282090613      7.105E-15 5.986E-12 0.000E+00
 ETOT 16  -29.848282090613      0.000E+00 5.066E-12 0.000E+00
 ETOT 17  -29.848282090613      0.000E+00 4.091E-13 0.000E+00
 ETOT 18  -29.848282090613      0.000E+00 3.778E-13 0.000E+00
 ETOT 19  -29.848282090613      0.000E+00 3.389E-14 0.000E+00
 ETOT 20  -29.848282090613      0.000E+00 3.340E-14 0.000E+00
 ETOT 21  -29.848282090613      0.000E+00 3.176E-15 0.000E+00
 ETOT 22  -29.848282090613      7.105E-15 3.236E-15 0.000E+00
 ETOT 23  -29.848282090613      0.000E+00 3.139E-16 0.000E+00
 ETOT 24  -29.848282090613     -7.105E-15 3.248E-16 0.000E+00
 ETOT 25  -29.848282090613     -3.553E-15 3.162E-17 0.000E+00
 ETOT 26  -29.848282090613      7.105E-15 3.296E-17 0.000E+00
 ETOT 27  -29.848282090613      0.000E+00 3.207E-18 0.000E+00
 ETOT 28  -29.848282090613      0.000E+00 3.355E-18 0.000E+00
 ETOT 29  -29.848282090613      3.553E-15 3.260E-19 0.000E+00
 ETOT 30  -29.848282090613     -3.553E-15 3.419E-19 0.000E+00
 ETOT 31  -29.848282090613      3.553E-15 3.318E-20 0.000E+00
 ETOT 32  -29.848282090613     -3.553E-15 3.486E-20 0.000E+00
 ETOT 33  -29.848282090613     -3.553E-15 9.996E-21 0.000E+00

 At SCF step   33   max residual=  1.00E-20 < tolwfr=  1.00E-20 =>converged.

 ----iterations are completed or convergence reached----

 dfpt_looppert: DFPT cycle converged with prtwf=-1. Will skip output of the 1st-order WFK file.
 dfpt_looppert : ek2=    2.7011700953E+01
          f-sum rule ratio=    9.8318616483E-01
 prteigrs : about to open file /scratch/users/j/a/jabreu/flow_simple_6atoms/flow/w153/t1/tmpdata/tmp_1WF1_EIG
 Expectation of eigenvalue derivatives (hartree) for nkpt=   2  k points:
  (in case of degenerate eigenvalues, averaged derivative)
 kpt#   1, nband= 51, wtk=  0.50000, kpt=  0.5000  0.0000  0.5000 (reduced coord)
   0.00000   -0.00000   -0.00000   -0.00000   -0.00000   -0.00000    0.00000    0.00000
  -0.00000    0.00000    0.00000   -0.00000   -0.00000    0.00000    0.00000   -0.00000
  -0.00000    0.00000   -0.00000    0.00000    0.00000   -0.00000   -0.00000    0.00000
   0.00000   -0.00000    0.00000    0.00000   -0.00000   -0.00000   -0.00000    0.00000
  -0.00000   -0.00000    0.00000   -0.00000   -0.00000    0.00000   -0.00000   -0.00000
  -0.00000    0.00000    0.00000    0.00000    0.00000   -0.00000   -0.00000    0.00000
  -0.00000   -0.00001    0.00237
 prteigrs : prtvol=0 or 1, do not print more k-points.

 Eight components of 2nd-order total energy (hartree) are
 1,2,3: 0th-order hamiltonian combined with 1st-order wavefunctions
     kin0=   3.31279193E+01 eigvalue=   4.92422170E+00  local=  -1.48176481E+01
 4,5,6: 1st-order hamiltonian combined with 1st and 0th-order wfs
     kin1=  -2.65575307E+01  Hartree=   0.00000000E+00     xc=   0.00000000E+00
 7,8,9: eventually, occupation + non-local contributions
    edocc=   2.84808325E+00     enl0=   3.76570601E+00   enl1=  -3.31390335E+01
 1-9 gives the relaxation energy (to be shifted if some occ is /=2.0)
   erelax=  -2.98482821E+01
  No Ewald or frozen-wf contrib.: the relaxation energy is the total one
 2DEtotal=   -0.2984828209E+02 Ha. Also 2DEtotal=   -0.812213061529E+03 eV
    (  non-var. 2DEtotal :   -2.9848282091E+01 Ha)

 CALCULATION OF EFFECTIVE MASSES
 NOTE : Additional infos (eff. mass eigenvalues, eigenvectors and, if degenerate, average mass) are available in stdout.

 K-point ( 0.500, 0.000, 0.500) | band =    42
 Effective mass tensor:
             -3.4696852834              0.5929595823              4.5353784313
              0.5929595823             -1.2247883112             -0.2618224762
              4.5353784313             -0.2618224762             -8.1967265936
 Effective mass tensor eigenvalues:
            -10.9764823389             -1.3981148917             -0.5166029575
 Angular average effective mass 1/(<1/m>)=  -1.0940618868
 Angular average effective mass for Frohlich model (<m**0.5>)**2=  -1.4795441627
 Effective masses along directions: (cart. coord. / red. coord. -> eff. mass)
    1:   1.000000  0.000000  0.000000 /   0.892828  0.450398  0.000000 ->  -0.7951281203
    2:   0.000000  1.000000  0.000000 /   0.000000  1.000000  0.000000 ->  -1.0073163895
    3:   0.000000  0.000000  1.000000 /   0.217163  0.217163  0.951672 ->  -2.0338451147
    4:   0.577350  0.577350  0.577350 /   0.480832  0.604402  0.635216 ->  -0.5474394505
    5:   0.000000  0.707107  0.707107 /   0.185030  0.555230  0.810854 ->  -1.0343005351
    6:   0.707107  0.000000  0.707107 /   0.561412  0.367077  0.741668 ->  -0.6427752904
    7:   0.707107  0.707107  0.000000 /   0.590164  0.807283  0.000000 ->  -0.6295341999

 K-point ( 0.500, 0.500, 0.000) | band =    43
 Effective mass tensor:
              0.3905851282              0.1276027669             -0.7184294804
              0.1276027669              0.2414806757             -0.4123172214
             -0.7184294804             -0.4123172214              1.8138351807
 Effective mass tensor eigenvalues:
              0.0702843025              0.1682475827              2.2073690993
 Angular average effective mass 1/(<1/m>)=   0.1454575226
 Angular average effective mass for Frohlich model (<m**0.5>)**2=   0.2022611396
 Effective masses along directions: (cart. coord. / red. coord. -> eff. mass)
    1:   1.000000  0.000000  0.000000 /   0.892828  0.450398  0.000000 ->   0.0973971564
    2:   0.000000  1.000000  0.000000 /   0.000000  1.000000  0.000000 ->   0.1357270545
    3:   0.000000  0.000000  1.000000 /   0.217163  0.217163  0.951672 ->   0.3344918126
    4:   0.577350  0.577350  0.577350 /   0.480832  0.604402  0.635216 ->   0.0746934758
    5:   0.000000  0.707107  0.707107 /   0.185030  0.555230  0.810854 ->   0.1276108937
    6:   0.707107  0.000000  0.707107 /   0.561412  0.367077  0.741668 ->   0.0888164968
    7:   0.707107  0.707107  0.000000 /   0.590164  0.807283  0.000000 ->   0.0885044022

 END OF EFFECTIVE MASSES SECTION

 ---- first-order wavefunction calculations are completed ----

 Total localisation tensor (bohr^2) in cartesian coordinates
  WARNING : still subject to testing - especially symmetries.
      direction              matrix element
   alpha     beta       real part   imaginary part
     1        1       4.8887380901    0.0000000000
     1        2       1.2102522455    0.0000000000
     1        3       2.4094958696    0.0000000000
     2        1       1.2102522455    0.0000000000
     2        2       2.0714583542    0.0000000000
     2        3       1.0353348817    0.0000000000
     3        1       2.4094958696    0.0000000000
     3        2       1.0353348817    0.0000000000
     3        3       2.3308787433    0.0000000000

 respfn : d/dk was computed, but no 2DTE, so no DDB output.

== END DATASET(S) ==============================================================

 -outvars: echo values of variables after computation  --------
            acell      1.0000000000E+00  1.0000000000E+00  1.0000000000E+00 Bohr
              amu      1.37327000E+02  7.89600000E+01
             ecut      4.30000000E+01 Hartree
           etotal     -2.9848282091E+01
            fcart      0.0000000000E+00  0.0000000000E+00  0.0000000000E+00
                       0.0000000000E+00  0.0000000000E+00  0.0000000000E+00
                       0.0000000000E+00  0.0000000000E+00  0.0000000000E+00
                       0.0000000000E+00  0.0000000000E+00  0.0000000000E+00
                       0.0000000000E+00  0.0000000000E+00  0.0000000000E+00
                       0.0000000000E+00  0.0000000000E+00  0.0000000000E+00
-          fftalg         512
           irdden           1
           irdwfk           1
           istwfk        1    1
              ixc     -116133
              kpt      5.00000000E-01  0.00000000E+00  5.00000000E-01
                       5.00000000E-01  5.00000000E-01  5.55111512E-17
           kptopt           0
P           mkmem           2
P          mkqmem           2
P          mk1mem           2
            natom           6
            nband          51
           nbdbuf           4
            ngfft          60      60     108
             nkpt           2
            nstep        1000
             nsym           4
           ntypat           2
              occ      2.000000  2.000000  2.000000  2.000000  2.000000  2.000000
                       2.000000  2.000000  2.000000  2.000000  2.000000  2.000000
                       2.000000  2.000000  2.000000  2.000000  2.000000  2.000000
                       2.000000  2.000000  2.000000  2.000000  2.000000  2.000000
                       2.000000  2.000000  2.000000  2.000000  2.000000  2.000000
                       2.000000  2.000000  2.000000  2.000000  2.000000  2.000000
                       2.000000  2.000000  2.000000  2.000000  2.000000  2.000000
                       0.000000  0.000000  0.000000  0.000000  0.000000  0.000000
                       0.000000  0.000000  0.000000
        optdriver           1
            prtwf          -1
            rfdir           1       1       1
           rfelfd           2
            rprim      9.2545993814E+00  0.0000000000E+00  3.9938456193E+00
                       4.6685963299E+00  7.9907332591E+00  3.9938456193E+00
                       0.0000000000E+00  0.0000000000E+00  1.7502205857E+01
          spgroup          15
           strten      0.0000000000E+00  0.0000000000E+00  0.0000000000E+00
                       0.0000000000E+00  0.0000000000E+00  0.0000000000E+00
           symrel      1  0  0   0  1  0   0  0  1      -1  0  0   0 -1  0   0  0 -1
                       0 -1  0  -1  0  0   0  0 -1       0  1  0   1  0  0   0  0  1
            tnons      0.0000000  0.0000000  0.0000000     0.0000000  0.0000000 -0.0000000
                       0.0000000  0.0000000  0.5000000     0.0000000  0.0000000  0.5000000
           tolwfr      1.00000000E-20
            typat      1  1  2  2  2  2
           useylm           1
              wtk        0.50000    0.50000
           xangst      4.6064433984E+00  5.0683390704E-01  4.4288941862E+00
                       2.7613944427E+00  3.7216800136E+00  9.0597784060E+00
                       4.5221877853E+00  3.2639856668E+00  1.1776030618E+01
                       2.2683293505E+00  1.9704621159E+00  6.3435261936E+00
                       5.0995084906E+00  2.2580518047E+00  7.1451463986E+00
                       2.8456500558E+00  9.6452825381E-01  1.7126419739E+00
            xcart      8.7049164696E+00  9.5777727917E-01  8.3693970835E+00
                       5.2182792417E+00  7.0329559799E+00  1.7120500012E+01
                       8.5456964357E+00  6.1680390120E+00  2.2253472801E+01
                       4.2865212517E+00  3.7236337543E+00  1.1987527223E+01
                       9.6366744596E+00  4.2670995048E+00  1.3502369873E+01
                       5.3774992756E+00  1.8226942471E+00  3.2364242943E+00
             xred      8.8013900000E-01  1.1986100000E-01  2.5000000000E-01
                       1.1986100000E-01  8.8013900000E-01  7.5000000000E-01
                       5.3400600000E-01  7.7189900000E-01  9.7347100000E-01
                       2.2810100000E-01  4.6599400000E-01  5.2652900000E-01
                       7.7189900000E-01  5.3400600000E-01  4.7347100000E-01
                       4.6599400000E-01  2.2810100000E-01  2.6529000000E-02
            znucl       56.00000   34.00000

- Timing analysis has been suppressed with timopt=0

 Suggested references for the acknowledgment of ABINIT usage.

 Calculation completed.
.Delivered  14 WARNINGs and  11 COMMENTs to log file.