.Version 9.5.1 of ABINIT

 ABINIT is a project of the Universite Catholique de Louvain,
 Corning Inc. and other collaborators, see ~abinit/doc/developers/contributors.txt .
 acknowledgments of the ABINIT effort.

.Starting date : Tue 18 May 2021.
- ( at 19h40 )

- input  file    -> /scratch/users/j/a/jabreu/flow_simple_8atoms/flow/w397/t1/run.abi
- output file    -> /scratch/users/j/a/jabreu/flow_simple_8atoms/flow/w397/t1/run.abo
- root for input  files -> /scratch/users/j/a/jabreu/flow_simple_8atoms/flow/w397/t1/indata/in
- root for output files -> /scratch/users/j/a/jabreu/flow_simple_8atoms/flow/w397/t1/outdata/out

 Symmetries : space group P4/n m m (#129); Bravais tP (primitive tetrag.)
     intxc =       0      iscf =       7    lmnmax =      32     lnmax =       8
     mgfft =     108  mpssoang =       4    mqgrid =    5382     natom =       8
  nloc_mem =       1    nspden =       1   nspinor =       1    nsppol =       1
      nsym =      16    n1xccc =    2501    ntypat =       4    occopt =       1
   xclevel =       2
-    mband =          51        mffmem =           1         mkmem =           1
-   mkqmem =           1        mk1mem =           1           mpw =       16869
      nfft =      270000          nkpt =           1
  Rough estimation (10% accuracy) of disk space for files :

------------- Echo of variables that govern the present computation ------------
-
- outvars: echo of selected default values
-   iomode0 =  0 , fftalg0 =512 , wfoptalg0 =  0
-
- outvars: echo of global parameters not present in the input file
-  max_nthreads =    0
-
 -outvars: echo values of preprocessed input variables --------
            acell      1.0000000000E+00  1.0000000000E+00  1.0000000000E+00 Bohr
              amu      1.38905500E+02  6.53900000E+01  3.09737620E+01
                       1.59994000E+01
             ecut      5.20000000E+01 Hartree
-          fftalg         512
           irdden           1
           irdwfk           1
           istwfk        1
              ixc     -116133
           kptopt           0
P           mkmem           1
P          mkqmem           1
P          mk1mem           1
            natom           8
            nband          51
           nbdbuf           4
            ngfft          50      50     108
             nkpt           1
            nstep        2000
             nsym          16
           ntypat           4
              occ      2.000000  2.000000  2.000000  2.000000  2.000000  2.000000
                       2.000000  2.000000  2.000000  2.000000  2.000000  2.000000
                       2.000000  2.000000  2.000000  2.000000  2.000000  2.000000
                       2.000000  2.000000  2.000000  2.000000  2.000000  2.000000
                       2.000000  2.000000  2.000000  2.000000  2.000000  2.000000
                       2.000000  2.000000  2.000000  2.000000  2.000000  2.000000
                       2.000000  2.000000  2.000000  2.000000  2.000000  2.000000
                       0.000000  0.000000  0.000000  0.000000  0.000000  0.000000
                       0.000000  0.000000  0.000000
        optdriver           1
            prtwf          -1
            rfdir           1       1       1
           rfelfd           2
            rprim      7.5324934216E+00  0.0000000000E+00  0.0000000000E+00
                       0.0000000000E+00  7.5324934216E+00  0.0000000000E+00
                       0.0000000000E+00  0.0000000000E+00  1.6577450199E+01
          spgroup         129
           symrel      1  0  0   0  1  0   0  0  1      -1  0  0   0 -1  0   0  0 -1
                      -1  0  0   0  1  0   0  0 -1       1  0  0   0 -1  0   0  0  1
                      -1  0  0   0 -1  0   0  0  1       1  0  0   0  1  0   0  0 -1
                       1  0  0   0 -1  0   0  0 -1      -1  0  0   0  1  0   0  0  1
                       0  1  0   1  0  0   0  0  1       0 -1  0  -1  0  0   0  0 -1
                       0 -1  0   1  0  0   0  0 -1       0  1  0  -1  0  0   0  0  1
                       0 -1  0  -1  0  0   0  0  1       0  1  0   1  0  0   0  0 -1
                       0  1  0  -1  0  0   0  0 -1       0 -1  0   1  0  0   0  0  1
            tnons      0.0000000  0.0000000  0.0000000     0.5000000  0.5000000  0.0000000
                       0.5000000  0.5000000  0.0000000     0.0000000  0.0000000  0.0000000
                       0.0000000  0.0000000  0.0000000     0.5000000  0.5000000  0.0000000
                       0.5000000  0.5000000  0.0000000     0.0000000  0.0000000  0.0000000
                       0.5000000  0.5000000  0.0000000     0.0000000  0.0000000  0.0000000
                       0.0000000  0.0000000  0.0000000     0.5000000  0.5000000  0.0000000
                       0.5000000  0.5000000  0.0000000     0.0000000  0.0000000  0.0000000
                       0.0000000  0.0000000  0.0000000     0.5000000  0.5000000  0.0000000
           tolwfr      1.00000000E-20
            typat      1  1  2  2  3  3  4  4
           useylm           1
           xangst      0.0000000000E+00  1.9930119213E+00  7.5348851092E+00
                       1.9930119213E+00  0.0000000000E+00  1.2375237125E+00
                       0.0000000000E+00  0.0000000000E+00  4.3862044108E+00
                       1.9930119213E+00  1.9930119213E+00  4.3862044108E+00
                       1.9930119213E+00  0.0000000000E+00  5.8347045554E+00
                       0.0000000000E+00  1.9930119213E+00  2.9377042662E+00
                       1.9930119213E+00  1.9930119213E+00  0.0000000000E+00
                       0.0000000000E+00  0.0000000000E+00  0.0000000000E+00
            xcart      0.0000000000E+00  3.7662467108E+00  1.4238869299E+01
                       3.7662467108E+00  0.0000000000E+00  2.3385808995E+00
                       0.0000000000E+00  0.0000000000E+00  8.2887250993E+00
                       3.7662467108E+00  3.7662467108E+00  8.2887250993E+00
                       3.7662467108E+00  0.0000000000E+00  1.1025993676E+01
                       0.0000000000E+00  3.7662467108E+00  5.5514565225E+00
                       3.7662467108E+00  3.7662467108E+00  0.0000000000E+00
                       0.0000000000E+00  0.0000000000E+00  0.0000000000E+00
             xred      0.0000000000E+00  5.0000000000E-01  8.5893000000E-01
                       5.0000000000E-01  0.0000000000E+00  1.4107000000E-01
                       0.0000000000E+00  0.0000000000E+00  5.0000000000E-01
                       5.0000000000E-01  5.0000000000E-01  5.0000000000E-01
                       5.0000000000E-01  0.0000000000E+00  6.6512000000E-01
                       0.0000000000E+00  5.0000000000E-01  3.3488000000E-01
                       5.0000000000E-01  5.0000000000E-01  0.0000000000E+00
                       0.0000000000E+00  0.0000000000E+00  0.0000000000E+00
            znucl       57.00000   30.00000   15.00000    8.00000

 chkinp: Checking input parameters for consistency.

== DATASET  1 ==================================================================
-   mpi_nproc: 1, omp_nthreads: -1 (-1 if OMP is not activated)

--- !DatasetInfo
iteration_state: {dtset: 1, }
dimensions: {natom: 8, nkpt: 1, mband: 51, nsppol: 1, nspinor: 1, nspden: 1, mpw: 16869, }
cutoff_energies: {ecut:  52.0, pawecutdg:  -1.0, }
electrons: {nelect:   8.40000000E+01, charge:   0.00000000E+00, occopt:   1.00000000E+00, tsmear:   1.00000000E-02, }
meta: {optdriver: 1, rfelfd: 2, }
...

 Real(R)+Recip(G) space primitive vectors, cartesian coordinates (Bohr,Bohr^-1):
 R(1)=  7.5324934  0.0000000  0.0000000  G(1)=  0.1327582  0.0000000  0.0000000
 R(2)=  0.0000000  7.5324934  0.0000000  G(2)=  0.0000000  0.1327582  0.0000000
 R(3)=  0.0000000  0.0000000 16.5774502  G(3)=  0.0000000  0.0000000  0.0603229
 Unit cell volume ucvol=  9.4057895E+02 bohr^3
 Angles (23,13,12)=  9.00000000E+01  9.00000000E+01  9.00000000E+01 degrees

 getcut: wavevector=  0.0000  0.0000  0.0000  ngfft=  50  50 108
         ecut(hartree)=     52.000   => boxcut(ratio)=   2.00696

--- Pseudopotential description ------------------------------------------------
- pspini: atom type   1  psp file is /scratch/users/j/a/jabreu/pseudos/PBEsol/La.psp8
- pspatm: opening atomic psp file    /scratch/users/j/a/jabreu/pseudos/PBEsol/La.psp8
- La    ONCVPSP-3.3.0  r_core=   2.11664   1.60878   1.85636   1.66739
- 57.00000  11.00000    180112                znucl, zion, pspdat
    8 -116133    3    4       600   0.00000   pspcod,pspxc,lmax,lloc,mmax,r2well
    5.99000000000000    5.00000000000000    0.00000000000000   rchrg,fchrg,qchrg
     nproj     2     2     2     2
     extension_switch     1
  pspatm : epsatm=   29.08531775
         --- l  ekb(1:nproj) -->
             0    6.695600    0.639047
             1    6.383649    1.151322
             2    3.612966    0.847811
             3  -13.718437   -4.858923
 pspatm: atomic psp has been read  and splines computed

- pspini: atom type   2  psp file is /scratch/users/j/a/jabreu/pseudos/PBEsol/Zn.psp8
- pspatm: opening atomic psp file    /scratch/users/j/a/jabreu/pseudos/PBEsol/Zn.psp8
- Zn    ONCVPSP-3.3.0  r_core=   1.35823   1.66358   1.85211
- 30.00000  20.00000    180112                znucl, zion, pspdat
    8 -116133    2    4       600   0.00000   pspcod,pspxc,lmax,lloc,mmax,r2well
    5.99000000000000    2.50000000000000    0.00000000000000   rchrg,fchrg,qchrg
     nproj     2     2     2
     extension_switch     1
  pspatm : epsatm=   26.57343589
         --- l  ekb(1:nproj) -->
             0    2.830835   -1.519107
             1   -4.626739   -1.324150
             2   -6.948510   -2.555500
 pspatm: atomic psp has been read  and splines computed

[...]

- pspini: atom type   4  psp file is /scratch/users/j/a/jabreu/pseudos/PBEsol/O.psp8
- pspatm: opening atomic psp file    /scratch/users/j/a/jabreu/pseudos/PBEsol/O.psp8
- O     ONCVPSP-3.3.0  r_core=   1.35509   1.45563   1.26150
-  8.00000   6.00000    180112                znucl, zion, pspdat
    8 -116133    2    4       600   0.00000   pspcod,pspxc,lmax,lloc,mmax,r2well
    5.99000000000000    4.00000000000000    0.00000000000000   rchrg,fchrg,qchrg
     nproj     2     2     1
     extension_switch     1
  pspatm : epsatm=    6.22910522
         --- l  ekb(1:nproj) -->
             0    6.050032    0.820363
             1   -4.739617   -1.153841
             2   -1.335834
 pspatm: atomic psp has been read  and splines computed

   1.16256117E+04                                ecore*ucvol(ha*bohr**3)

-inwffil : will read wavefunctions from disk file /scratch/users/j/a/jabreu/flow_simple_8atoms/flow/w397/t1/indata/in_WFK

 ==>  initialize data related to q vector <==

 The list of irreducible perturbations for this q vector is:
    1)    idir= 1    ipert=   9
    2)    idir= 2    ipert=   9
    3)    idir= 3    ipert=   9

 Perturbation wavevector (in red.coord.)   0.000000  0.000000  0.000000
 Perturbation : derivative vs k along direction   1

 dfpt_looppert : COMMENT -
  In a d/dk calculation, iscf is set to -3 automatically.
 The set of symmetries contains only one element for this perturbation.
[...]
 ETOT 31  -14.520953650501     -1.954E-13 2.626E-05 0.000E+00
 ETOT 32  -14.520953650501     -7.994E-14 4.062E-05 0.000E+00
 ETOT 33  -14.520953650501     -5.684E-14 2.212E-05 0.000E+00
 ETOT 34  -14.520953650501     -4.441E-14 3.446E-05 0.000E+00
 ETOT 35  -14.520953650501     -3.553E-14 1.865E-05 0.000E+00
 ETOT 36  -14.520953650501      2.487E-14 2.926E-05 0.000E+00
 ETOT 37  -14.520953650501      7.105E-15 1.574E-05 0.000E+00
 ETOT 38  -14.520953650501      0.000E+00 2.486E-05 0.000E+00
 ETOT 39  -14.520953650501     -3.197E-14 1.330E-05 0.000E+00
 ETOT 40  -14.520953650501      2.842E-14 2.114E-05 0.000E+00
 ETOT 41  -14.520953650501     -1.776E-15 1.125E-05 0.000E+00
 ETOT 42  -14.520953650501     -1.776E-15 1.798E-05 0.000E+00
 ETOT 43  -14.520953650501     -4.619E-14 9.522E-06 0.000E+00
 ETOT 44  -14.520953650501      5.684E-14 1.530E-05 0.000E+00
 ETOT 45  -14.520953650501     -4.263E-14 8.064E-06 0.000E+00
 ETOT 46  -14.520953650501      1.243E-14 1.302E-05 0.000E+00
 ETOT 47  -14.520953650501     -1.066E-14 6.833E-06 0.000E+00
 ETOT 48  -14.520953650501     -1.421E-14 1.108E-05 0.000E+00
 ETOT 49  -14.520953650501      1.954E-14 5.793E-06 0.000E+00
 ETOT 50  -14.520953650501     -1.599E-14 9.428E-06 0.000E+00
 ETOT 51  -14.520953650501      3.553E-15 4.913E-06 0.000E+00
 ETOT 52  -14.520953650501      7.105E-15 8.024E-06 0.000E+00
 ETOT 53  -14.520953650501     -5.329E-15 4.168E-06 0.000E+00
 ETOT 54  -14.520953650501      0.000E+00 6.829E-06 0.000E+00
 ETOT 55  -14.520953650501      8.882E-15 3.537E-06 0.000E+00
 ETOT 56  -14.520953650501     -1.243E-14 5.812E-06 0.000E+00
 ETOT 57  -14.520953650501      0.000E+00 3.003E-06 0.000E+00
 ETOT 58  -14.520953650501     -5.329E-15 4.946E-06 0.000E+00
 ETOT 59  -14.520953650501      1.776E-15 2.549E-06 0.000E+00
 ETOT 60  -14.520953650501      3.553E-15 4.209E-06 0.000E+00
 ETOT 61  -14.520953650501      7.105E-15 2.165E-06 0.000E+00
[...]
 ETOT  457  -14.520953650501     -5.329E-15 2.818E-20 0.000E+00
 ETOT  458  -14.520953650501      3.553E-15 4.903E-20 0.000E+00
 ETOT  459  -14.520953650501     -1.776E-15 2.399E-20 0.000E+00
 ETOT  460  -14.520953650501      0.000E+00 4.174E-20 0.000E+00
 ETOT  461  -14.520953650501      3.553E-15 2.042E-20 0.000E+00
 ETOT  462  -14.520953650501      7.105E-15 3.554E-20 0.000E+00
 ETOT  463  -14.520953650501     -7.105E-15 1.738E-20 0.000E+00
 ETOT  464  -14.520953650501      0.000E+00 3.025E-20 0.000E+00
 ETOT  465  -14.520953650501      7.105E-15 1.479E-20 0.000E+00
 ETOT  466  -14.520953650501     -1.421E-14 2.575E-20 0.000E+00
 ETOT  467  -14.520953650501      0.000E+00 1.259E-20 0.000E+00
 ETOT  468  -14.520953650501      8.882E-15 2.192E-20 0.000E+00
 ETOT  469  -14.520953650501     -7.105E-15 1.072E-20 0.000E+00
 ETOT  470  -14.520953650501      0.000E+00 1.866E-20 0.000E+00
 ETOT  471  -14.520953650501      5.329E-15 9.992E-21 0.000E+00

 At SCF step  471   max residual=  9.99E-21 < tolwfr=  1.00E-20 =>converged.

 ----iterations are completed or convergence reached----

 dfpt_looppert: DFPT cycle converged with prtwf=-1. Will skip output of the 1st-order WFK file.
 dfpt_looppert : ek2=    2.4134235968E+01
          f-sum rule ratio=    1.0661539657E+00
 prteigrs : about to open file /scratch/users/j/a/jabreu/flow_simple_8atoms/flow/w397/t1/tmpdata/tmp_1WF1_EIG
 Expectation of eigenvalue derivatives (hartree) for nkpt=   1  k points:
  (in case of degenerate eigenvalues, averaged derivative)
 kpt#   1, nband= 51, wtk=  1.00000, kpt=  0.0000  0.0000  0.0000 (reduced coord)
   0.00000   -0.00000    0.00000    0.00000   -0.00000   -0.00000   -0.00000   -0.00000
   0.00000   -0.00000    0.00000   -0.00000    0.00000    0.00000    0.00000   -0.00000
  -0.00000    0.00000    0.00000   -0.00000    0.00000   -0.00000   -0.00000    0.00000
   0.00000    0.00000    0.00000    0.00000   -0.00000    0.00000   -0.00000   -0.00000
  -0.00000   -0.00000    0.00000    0.00000    0.00000    0.00000    0.00000    0.00000
   0.00000    0.00000   -0.00000   -0.00000   -0.00000    0.00000   -0.00000   -0.00000
  -0.00000    0.00000    0.00000

 Eight components of 2nd-order total energy (hartree) are
 1,2,3: 0th-order hamiltonian combined with 1st-order wavefunctions
     kin0=   3.93431470E+01 eigvalue=  -2.11296693E+00  local=  -1.72083461E+01
 4,5,6: 1st-order hamiltonian combined with 1st and 0th-order wfs
     kin1=  -2.57308114E+01  Hartree=   0.00000000E+00     xc=   0.00000000E+00
 7,8,9: eventually, occupation + non-local contributions
    edocc=   1.85302087E+00     enl0=  -7.35390120E+00   enl1=  -3.31109592E+00
 1-9 gives the relaxation energy (to be shifted if some occ is /=2.0)
   erelax=  -1.45209537E+01
  No Ewald or frozen-wf contrib.: the relaxation energy is the total one
 2DEtotal=   -0.1452095365E+02 Ha. Also 2DEtotal=   -0.395135243797E+03 eV
    (  non-var. 2DEtotal :   -1.4520953650E+01 Ha)

 CALCULATION OF EFFECTIVE MASSES
 NOTE : Additional infos (eff. mass eigenvalues, eigenvectors and, if degenerate, average mass) are available in stdout.

 COMMENTS:
 - At k-point ( 0.000, 0.000, 0.000), bands    41 through    42
   are DEGENERATE (effective mass tensor is therefore not defined).
   See Section IIIB Eqs. (67)-(70) and Appendix E of PRB 93 205147 (2016).
 - Angular average effective mass for Frohlich model is to be averaged over degenerate bands. See later.
 - Associated theta integrals calculated with ntheta=   1000 points.

 K-point ( 0.000, 0.000, 0.000) | band =    41
 Transport equivalent effective mass tensor:
             -0.2275487749             -0.0000000003              0.0000000042
             -0.0000000003             -0.2275492736              0.0000000056
              0.0000000042              0.0000000056             -2.2046166703
 Transport equivalent effective mass tensor eigenvalues:
             -2.2046166703             -0.2275492736             -0.2275487749
 Angular average effective mass 1/(<1/m>)=  -0.2537449796
 Angular average effective mass for Frohlich model (<m**0.5>)**2=  -0.3071373835
 Effective masses along directions: (cart. coord. / red. coord. -> eff. mass)
    1:   1.000000  0.000000  0.000000 /   1.000000  0.000000  0.000000 ->  -0.1485387748
    2:   0.000000  1.000000  0.000000 /   0.000000  1.000000  0.000000 ->  -0.1485387755
    3:   0.000000  0.000000  1.000000 /   0.000000  0.000000  1.000000 ->  -1.4725416071
    4:   0.577350  0.577350  0.577350 /   0.382262  0.382262  0.841280 ->  -0.3831310519
    5:   0.000000  0.707107  0.707107 /   0.000000  0.413680  0.910423 ->  -0.2698564842
    6:   0.707107  0.000000  0.707107 /   0.413680  0.000000  0.910423 ->  -0.2698564832
    7:   0.707107  0.707107  0.000000 /   0.707107  0.707107  0.000000 ->  -0.2796764356

 K-point ( 0.000, 0.000, 0.000) | band =    42
 Transport equivalent effective mass tensor:
             -3.8777156060             -0.0000000019              0.0000000302
             -0.0000000019             -3.8777126756              0.0000000388
              0.0000000302              0.0000000388            -17.2427219990
 Transport equivalent effective mass tensor eigenvalues:
            -17.2427219990             -3.8777156060             -3.8777126756
 Angular average effective mass 1/(<1/m>)=  -0.8146117213
 Angular average effective mass for Frohlich model (<m**0.5>)**2=  -1.0626191190
 Effective masses along directions: (cart. coord. / red. coord. -> eff. mass)
    1:   1.000000  0.000000  0.000000 /   1.000000  0.000000  0.000000 ->  -2.9285300281
    2:   0.000000  1.000000  0.000000 /   0.000000  1.000000  0.000000 ->  -2.9285300276
    3:   0.000000  0.000000  1.000000 /   0.000000  0.000000  1.000000 ->  -1.4725416215
    4:   0.577350  0.577350  0.577350 /   0.382262  0.382262  0.841280 ->  -0.3908585335
    5:   0.000000  0.707107  0.707107 /   0.000000  0.413680  0.910423 ->  -1.9596964915
    6:   0.707107  0.000000  0.707107 /   0.413680  0.000000  0.910423 ->  -1.9596964982
    7:   0.707107  0.707107  0.000000 /   0.707107  0.707107  0.000000 ->  -0.2858648416

 Angular average effective mass for Frohlich model, averaged over degenerate bands.
 Value of     (<<m**0.5>>)**2 =     6.280832E-01
 Absolute Value of <<m**0.5>> =     7.925170E-01

 K-point ( 0.000, 0.000, 0.000) | band =    43
 Effective mass tensor:
              0.1833911564              0.0000000000             -0.0000000010
              0.0000000000              0.1833911563             -0.0000000003
             -0.0000000010             -0.0000000003              1.0137877337
 Effective mass tensor eigenvalues:
              0.1833911563              0.1833911564              1.0137877337
 Angular average effective mass 1/(<1/m>)=   0.2522693506
 Angular average effective mass for Frohlich model (<m**0.5>)**2=   0.2866384373
 Effective masses along directions: (cart. coord. / red. coord. -> eff. mass)
    1:   1.000000  0.000000  0.000000 /   1.000000  0.000000  0.000000 ->   0.1833911564
    2:   0.000000  1.000000  0.000000 /   0.000000  1.000000  0.000000 ->   0.1833911563
    3:   0.000000  0.000000  1.000000 /   0.000000  0.000000  1.000000 ->   1.0137877337
    4:   0.577350  0.577350  0.577350 /   0.382262  0.382262  0.841280 ->   0.2522693503
    5:   0.000000  0.707107  0.707107 /   0.000000  0.413680  0.910423 ->   0.3105963631
    6:   0.707107  0.000000  0.707107 /   0.413680  0.000000  0.910423 ->   0.3105963629
    7:   0.707107  0.707107  0.000000 /   0.707107  0.707107  0.000000 ->   0.1833911563

 END OF EFFECTIVE MASSES SECTION

 ---- first-order wavefunction calculations are completed ----

 Total localisation tensor (bohr^2) in cartesian coordinates
  WARNING : still subject to testing - especially symmetries.
      direction              matrix element
   alpha     beta       real part   imaginary part
     1        1       2.3470711120    0.0000000000
     1        2       0.0000000000    0.0000000000
     1        3       0.0000000000    0.0000000000
     2        1       0.0000000000    0.0000000000
     2        2       2.3470711216    0.0000000000
     2        3       0.0000000000    0.0000000000
     3        1       0.0000000000    0.0000000000
     3        2       0.0000000000    0.0000000000
     3        3       1.1242945524    0.0000000000

 respfn : d/dk was computed, but no 2DTE, so no DDB output.

== END DATASET(S) ==============================================================

 -outvars: echo values of variables after computation  --------
            acell      1.0000000000E+00  1.0000000000E+00  1.0000000000E+00 Bohr
              amu      1.38905500E+02  6.53900000E+01  3.09737620E+01
                       1.59994000E+01
             ecut      5.20000000E+01 Hartree
           etotal     -1.4520953651E+01
            fcart      0.0000000000E+00  0.0000000000E+00  0.0000000000E+00
                       0.0000000000E+00  0.0000000000E+00  0.0000000000E+00
                       0.0000000000E+00  0.0000000000E+00  0.0000000000E+00
                       0.0000000000E+00  0.0000000000E+00  0.0000000000E+00
                       0.0000000000E+00  0.0000000000E+00  0.0000000000E+00
                       0.0000000000E+00  0.0000000000E+00  0.0000000000E+00
                       0.0000000000E+00  0.0000000000E+00  0.0000000000E+00
                       0.0000000000E+00  0.0000000000E+00  0.0000000000E+00
-          fftalg         512
           irdden           1
           irdwfk           1
           istwfk        1
              ixc     -116133
           kptopt           0
P           mkmem           1
P          mkqmem           1
P          mk1mem           1
            natom           8
            nband          51
           nbdbuf           4
            ngfft          50      50     108
             nkpt           1
            nstep        2000
             nsym          16
           ntypat           4
              occ      2.000000  2.000000  2.000000  2.000000  2.000000  2.000000
                       2.000000  2.000000  2.000000  2.000000  2.000000  2.000000
                       2.000000  2.000000  2.000000  2.000000  2.000000  2.000000
                       2.000000  2.000000  2.000000  2.000000  2.000000  2.000000
                       2.000000  2.000000  2.000000  2.000000  2.000000  2.000000
                       2.000000  2.000000  2.000000  2.000000  2.000000  2.000000
                       2.000000  2.000000  2.000000  2.000000  2.000000  2.000000
                       0.000000  0.000000  0.000000  0.000000  0.000000  0.000000
                       0.000000  0.000000  0.000000
        optdriver           1
            prtwf          -1
            rfdir           1       1       1
           rfelfd           2
            rprim      7.5324934216E+00  0.0000000000E+00  0.0000000000E+00
                       0.0000000000E+00  7.5324934216E+00  0.0000000000E+00
                       0.0000000000E+00  0.0000000000E+00  1.6577450199E+01
          spgroup         129
           strten      0.0000000000E+00  0.0000000000E+00  0.0000000000E+00
                       0.0000000000E+00  0.0000000000E+00  0.0000000000E+00
           symrel      1  0  0   0  1  0   0  0  1      -1  0  0   0 -1  0   0  0 -1
                      -1  0  0   0  1  0   0  0 -1       1  0  0   0 -1  0   0  0  1
                      -1  0  0   0 -1  0   0  0  1       1  0  0   0  1  0   0  0 -1
                       1  0  0   0 -1  0   0  0 -1      -1  0  0   0  1  0   0  0  1
                       0  1  0   1  0  0   0  0  1       0 -1  0  -1  0  0   0  0 -1
                       0 -1  0   1  0  0   0  0 -1       0  1  0  -1  0  0   0  0  1
                       0 -1  0  -1  0  0   0  0  1       0  1  0   1  0  0   0  0 -1
                       0  1  0  -1  0  0   0  0 -1       0 -1  0   1  0  0   0  0  1
            tnons      0.0000000  0.0000000  0.0000000     0.5000000  0.5000000  0.0000000
                       0.5000000  0.5000000  0.0000000     0.0000000  0.0000000  0.0000000
                       0.0000000  0.0000000  0.0000000     0.5000000  0.5000000  0.0000000
                       0.5000000  0.5000000  0.0000000     0.0000000  0.0000000  0.0000000
                       0.5000000  0.5000000  0.0000000     0.0000000  0.0000000  0.0000000
                       0.0000000  0.0000000  0.0000000     0.5000000  0.5000000  0.0000000
                       0.5000000  0.5000000  0.0000000     0.0000000  0.0000000  0.0000000
                       0.0000000  0.0000000  0.0000000     0.5000000  0.5000000  0.0000000
           tolwfr      1.00000000E-20
            typat      1  1  2  2  3  3  4  4
           useylm           1
           xangst      0.0000000000E+00  1.9930119213E+00  7.5348851092E+00
                       1.9930119213E+00  0.0000000000E+00  1.2375237125E+00
                       0.0000000000E+00  0.0000000000E+00  4.3862044108E+00
                       1.9930119213E+00  1.9930119213E+00  4.3862044108E+00
                       1.9930119213E+00  0.0000000000E+00  5.8347045554E+00
                       0.0000000000E+00  1.9930119213E+00  2.9377042662E+00
                       1.9930119213E+00  1.9930119213E+00  0.0000000000E+00
                       0.0000000000E+00  0.0000000000E+00  0.0000000000E+00
            xcart      0.0000000000E+00  3.7662467108E+00  1.4238869299E+01
                       3.7662467108E+00  0.0000000000E+00  2.3385808995E+00
                       0.0000000000E+00  0.0000000000E+00  8.2887250993E+00
                       3.7662467108E+00  3.7662467108E+00  8.2887250993E+00
                       3.7662467108E+00  0.0000000000E+00  1.1025993676E+01
                       0.0000000000E+00  3.7662467108E+00  5.5514565225E+00
                       3.7662467108E+00  3.7662467108E+00  0.0000000000E+00
                       0.0000000000E+00  0.0000000000E+00  0.0000000000E+00
             xred      0.0000000000E+00  5.0000000000E-01  8.5893000000E-01
                       5.0000000000E-01  0.0000000000E+00  1.4107000000E-01
                       0.0000000000E+00  0.0000000000E+00  5.0000000000E-01
                       5.0000000000E-01  5.0000000000E-01  5.0000000000E-01
                       5.0000000000E-01  0.0000000000E+00  6.6512000000E-01
                       0.0000000000E+00  5.0000000000E-01  3.3488000000E-01
                       5.0000000000E-01  5.0000000000E-01  0.0000000000E+00
                       0.0000000000E+00  0.0000000000E+00  0.0000000000E+00
            znucl       57.00000   30.00000   15.00000    8.00000

- Timing analysis has been suppressed with timopt=0

 Suggested references for the acknowledgment of ABINIT usage.

 Calculation completed.
.Delivered   6 WARNINGs and   5 COMMENTs to log file.