.Version 9.7.2 of ABINIT

 ABINIT is a project of the Universite Catholique de Louvain,
 Corning Inc. and other collaborators, see ~abinit/doc/developers/contributors.txt .
 acknowledgments of the ABINIT effort.

.Starting date : Wed  1 Dec 2021.
- ( at 21h51 )

- input  file    -> /scratch/users/j/a/jabreu/flow_simple_remain_atoms/flow/w256/t1/run.abi
- output file    -> /scratch/users/j/a/jabreu/flow_simple_remain_atoms/flow/w256/t1/run.abo
- root for input  files -> /scratch/users/j/a/jabreu/flow_simple_remain_atoms/flow/w256/t1/indata/in
- root for output files -> /scratch/users/j/a/jabreu/flow_simple_remain_atoms/flow/w256/t1/outdata/out

 Symmetries : space group Cm c m (# 63); Bravais oC (1-face-center ortho.)
     intxc =       0      iscf =       7    lmnmax =      18     lnmax =       6
     mgfft =      64  mpssoang =       3    mqgrid =    3107     natom =       8
  nloc_mem =       1    nspden =       1   nspinor =       1    nsppol =       1
      nsym =       8    n1xccc =    2501    ntypat =       3    occopt =       1
   xclevel =       2
-    mband =          51        mffmem =           1         mkmem =           2
-   mkqmem =           2        mk1mem =           2           mpw =       15424
      nfft =      245760          nkpt =           2
  Rough estimation (10% accuracy) of disk space for files :

------------- Echo of variables that govern the present computation ------------
-
- outvars: echo of selected default values
-   iomode0 =  0 , fftalg0 =512 , wfoptalg0 =  0
-
- outvars: echo of global parameters not present in the input file
-  max_nthreads =    0
-
 -outvars: echo values of preprocessed input variables --------
            acell      1.0000000000E+00  1.0000000000E+00  1.0000000000E+00 Bohr
              amu      2.29897680E+01  6.35460000E+01  3.09737620E+01
             ecut      4.60000000E+01 Hartree
-          fftalg         512
           irdden           1
           irdwfk           1
           istwfk        0    1
              ixc     -116133
              kpt     -5.00000000E-01  5.00000000E-01  0.00000000E+00
                       0.00000000E+00  0.00000000E+00  0.00000000E+00
           kptopt           0
P           mkmem           2
P          mkqmem           2
P          mk1mem           2
            natom           8
            nband          51
           nbdbuf           4
            ngfft          64      64      60
             nkpt           2
            nstep        2000
             nsym           8
           ntypat           3
              occ      2.000000  2.000000  2.000000  2.000000  2.000000  2.000000
                       2.000000  2.000000  2.000000  2.000000  2.000000  2.000000
                       2.000000  2.000000  2.000000  2.000000  2.000000  2.000000
                       2.000000  2.000000  2.000000  2.000000  2.000000  2.000000
                       2.000000  2.000000  2.000000  2.000000  2.000000  2.000000
                       2.000000  2.000000  2.000000  2.000000  2.000000  2.000000
                       2.000000  2.000000  2.000000  2.000000  2.000000  2.000000
                       0.000000  0.000000  0.000000  0.000000  0.000000  0.000000
                       0.000000  0.000000  0.000000
        optdriver           1
            prtwf          -1
            rfdir           1       1       1
           rfelfd           2
            rprim      1.0437161458E+01  0.0000000000E+00  0.0000000000E+00
                      -2.3278275535E+00  1.0174259589E+01  0.0000000000E+00
                       0.0000000000E+00  0.0000000000E+00  9.7495062027E+00
          spgroup          63
           symrel      1  0  0   0  1  0   0  0  1      -1  0  0   0 -1  0   0  0 -1
                       0 -1  0  -1  0  0   0  0 -1       0  1  0   1  0  0   0  0  1
                      -1  0  0   0 -1  0   0  0  1       1  0  0   0  1  0   0  0 -1
                       0  1  0   1  0  0   0  0 -1       0 -1  0  -1  0  0   0  0  1
            tnons      0.0000000  0.0000000  0.0000000    -0.0000000  0.0000000  0.0000000
                       0.0000000  0.0000000  0.0000000    -0.0000000  0.0000000  0.0000000
                      -0.0000000  0.0000000  0.5000000     0.0000000  0.0000000  0.5000000
                      -0.0000000  0.0000000  0.5000000     0.0000000  0.0000000  0.5000000
           tolwfr      1.00000000E-20
            typat      1  1  1  1  2  2  3  3
           useylm           1
              wtk        0.50000    0.50000
           xangst      3.7381295988E+00  1.6397468641E-01  1.2898041194E+00
                       5.5314508016E-01  5.2200116022E+00  3.8694123581E+00
                      -6.7388054518E-01  3.6805414828E+00  1.2898041194E+00
                       4.9651552242E+00  1.7034448058E+00  3.8694123581E+00
                       2.1456373395E+00  2.6919931443E+00  2.5796082387E+00
                       2.1456373395E+00  2.6919931443E+00  0.0000000000E+00
                       3.2672950064E+00  4.0992648644E+00  3.8694123581E+00
                       1.0239796726E+00  1.2847214242E+00  1.2898041194E+00
            xcart      7.0640411910E+00  3.0986725003E-01  2.4373765507E+00
                       1.0452927133E+00  9.8643923387E+00  7.3121296520E+00
                      -1.2734496767E+00  6.9552154232E+00  2.4373765507E+00
                       9.3827835810E+00  3.2190441655E+00  7.3121296520E+00
                       4.0546669521E+00  5.0871297944E+00  4.8747531013E+00
                       4.0546669521E+00  5.0871297944E+00  0.0000000000E+00
                       6.1742927574E+00  7.7464879399E+00  7.3121296520E+00
                       1.9350411469E+00  2.4277716488E+00  2.4373765507E+00
             xred      6.8360900000E-01  3.0456000000E-02  2.5000000000E-01
                       3.1639100000E-01  9.6954400000E-01  7.5000000000E-01
                       3.0456000000E-02  6.8360900000E-01  2.5000000000E-01
                       9.6954400000E-01  3.1639100000E-01  7.5000000000E-01
                       5.0000000000E-01  5.0000000000E-01  5.0000000000E-01
                       5.0000000000E-01  5.0000000000E-01  0.0000000000E+00
                       7.6138100000E-01  7.6138100000E-01  7.5000000000E-01
                       2.3861900000E-01  2.3861900000E-01  2.5000000000E-01
            znucl       11.00000   29.00000   15.00000

 chkinp: Checking input parameters for consistency.

== DATASET  1 ==================================================================
-   mpi_nproc: 1, omp_nthreads: -1 (-1 if OMP is not activated)

--- !DatasetInfo
iteration_state: {dtset: 1, }
dimensions: {natom: 8, nkpt: 2, mband: 51, nsppol: 1, nspinor: 1, nspden: 1, mpw: 15424, }
cutoff_energies: {ecut:  46.0, pawecutdg:  -1.0, }
electrons: {nelect:   8.40000000E+01, charge:   0.00000000E+00, occopt:   1.00000000E+00, tsmear:   1.00000000E-02, }
meta: {optdriver: 1, rfelfd: 2, }
...

 Real(R)+Recip(G) space primitive vectors, cartesian coordinates (Bohr,Bohr^-1):
 R(1)= 10.4371615  0.0000000  0.0000000  G(1)=  0.0958115  0.0219213  0.0000000
 R(2)= -2.3278276 10.1742596  0.0000000  G(2)=  0.0000000  0.0982873  0.0000000
 R(3)=  0.0000000  0.0000000  9.7495062  G(3)=  0.0000000  0.0000000  0.1025693
 Unit cell volume ucvol=  1.0353039E+03 bohr^3
 Angles (23,13,12)=  9.00000000E+01  9.00000000E+01  1.02887217E+02 degrees

 getcut: wavevector=  0.0000  0.0000  0.0000  ngfft=  64  64  60
         ecut(hartree)=     46.000   => boxcut(ratio)=   2.00843

--- Pseudopotential description ------------------------------------------------
- pspini: atom type   1  psp file is /scratch/users/j/a/jabreu/pseudos/PBEsol/Na.psp8
- pspatm: opening atomic psp file    /scratch/users/j/a/jabreu/pseudos/PBEsol/Na.psp8
- Na    ONCVPSP-3.3.0  r_core=   1.20708   1.55069
- 11.00000   9.00000    180112                znucl, zion, pspdat
    8 -116133    1    4       400   0.00000   pspcod,pspxc,lmax,lloc,mmax,r2well
    3.99000000000000    0.00000000000000    0.00000000000000   rchrg,fchrg,qchrg
     nproj     2     2
     extension_switch     1
  pspatm : epsatm=    9.32878306
         --- l  ekb(1:nproj) -->
             0    2.657905   -0.678300
             1   -6.761319   -2.404728
 pspatm: atomic psp has been read  and splines computed

- pspini: atom type   2  psp file is /scratch/users/j/a/jabreu/pseudos/PBEsol/Cu.psp8
- pspatm: opening atomic psp file    /scratch/users/j/a/jabreu/pseudos/PBEsol/Cu.psp8
- Cu    ONCVPSP-3.3.0  r_core=   1.26204   1.45626   1.76249
- 29.00000  19.00000    180112                znucl, zion, pspdat
    8 -116133    2    4       600   0.00000   pspcod,pspxc,lmax,lloc,mmax,r2well
    5.99000000000000    3.50000000000000    0.00000000000000   rchrg,fchrg,qchrg
     nproj     2     2     2
     extension_switch     1
  pspatm : epsatm=   21.63488701
         --- l  ekb(1:nproj) -->
             0    5.008230   -0.401634
             1   -3.496700   -0.765945
             2   -6.895851   -2.521180
 pspatm: atomic psp has been read  and splines computed

- pspini: atom type   3  psp file is /scratch/users/j/a/jabreu/pseudos/PBEsol/P.psp8
- pspatm: opening atomic psp file    /scratch/users/j/a/jabreu/pseudos/PBEsol/P.psp8
- P     ONCVPSP-3.3.0  r_core=   1.46089   1.55067   1.70594
- 15.00000   5.00000    180112                znucl, zion, pspdat
    8 -116133    2    4       600   0.00000   pspcod,pspxc,lmax,lloc,mmax,r2well
    5.99000000000000    5.00000000000000    0.00000000000000   rchrg,fchrg,qchrg
     nproj     2     2     2
     extension_switch     1
  pspatm : epsatm=    7.31221086
         --- l  ekb(1:nproj) -->
             0    6.742364    1.063650
             1    3.449117    0.910422
             2   -3.077645   -0.799176
 pspatm: atomic psp has been read  and splines computed

   7.99758355E+03                                ecore*ucvol(ha*bohr**3)

 ==>  initialize data related to q vector <==

 The list of irreducible perturbations for this q vector is:
    1)    idir= 1    ipert=   9
    2)    idir= 2    ipert=   9
    3)    idir= 3    ipert=   9

 Perturbation wavevector (in red.coord.)   0.000000  0.000000  0.000000
 Perturbation : derivative vs k along direction   1

 dfpt_looppert : COMMENT -
  In a d/dk calculation, iscf is set to -3 automatically.
 The set of symmetries contains only one element for this perturbation.
 symkpt : not enough symmetry to change the number of k points.

 Initialisation of the first-order wave-functions :
  ireadwf=   0

--- !BeginCycle
iteration_state: {dtset: 1, }
solver: {iscf: 7, nstep: 2000, nline: 4, wfoptalg: 0, }
tolerances: {tolwfr: 1.00E-20, }
...

     iter   2DEtotal(Ha)        deltaE(Ha) residm    vres2
-ETOT  1  -39.656494622581     -3.966E+01 3.840E-02 0.000E+00
 ETOT  2  -39.718344521607     -6.185E-02 5.252E-04 0.000E+00
 ETOT  3  -39.719367952342     -1.023E-03 9.446E-06 0.000E+00
 ETOT  4  -39.719399256398     -3.130E-05 4.541E-07 0.000E+00
 ETOT  5  -39.719400405497     -1.149E-06 2.153E-08 0.000E+00
 ETOT  6  -39.719400452732     -4.724E-08 1.076E-09 0.000E+00
 ETOT  7  -39.719400454811     -2.078E-09 5.224E-11 0.000E+00
 ETOT  8  -39.719400454907     -9.634E-11 2.625E-12 0.000E+00
 ETOT  9  -39.719400454912     -4.711E-12 1.292E-13 0.000E+00
 ETOT 10  -39.719400454912     -2.416E-13 6.517E-15 0.000E+00
 ETOT 11  -39.719400454912     -1.421E-14 3.240E-16 0.000E+00
 ETOT 12  -39.719400454912      1.421E-14 1.640E-17 0.000E+00
 ETOT 13  -39.719400454912     -2.132E-14 8.216E-19 0.000E+00
 ETOT 14  -39.719400454912     -7.105E-15 4.173E-20 0.000E+00
 ETOT 15  -39.719400454912      0.000E+00 9.767E-21 0.000E+00

 At SCF step   15   max residual=  9.77E-21 < tolwfr=  1.00E-20 =>converged.

 ----iterations are completed or convergence reached----

 dfpt_looppert: DFPT cycle converged with prtwf=-1. Will skip output of the 1st-order WFK file.
 dfpt_looppert : ek2=    6.4071278504E+01
          f-sum rule ratio=    1.0986458662E+00
 prteigrs : about to open file /scratch/users/j/a/jabreu/flow_simple_remain_atoms/flow/w256/t1/tmpdata/tmp_1WF1_EIG
 Expectation of eigenvalue derivatives (hartree) for nkpt=   2  k points:
  (in case of degenerate eigenvalues, averaged derivative)
 kpt#   1, nband= 51, wtk=  0.50000, kpt= -0.5000  0.5000  0.0000 (reduced coord)
  -0.00000    0.00000   -0.00000    0.00000    0.00000   -0.00000   -0.00000    0.00000
   0.00000   -0.00000    0.00000    0.00000   -0.00000    0.00000   -0.00000   -0.00000
   0.00000   -0.00000   -0.00000    0.00000   -0.00000    0.00000    0.00000    0.00000
  -0.00000    0.00000   -0.00000   -0.00000   -0.00000    0.00000    0.00000    0.00000
   0.00000    0.00000   -0.00000   -0.00000    0.00000    0.00000    0.00000   -0.00000
   0.00000    0.00000    0.00000    0.00000    0.00000   -0.00000    0.00000   -0.00000
   0.00000   -0.00000    0.00006
 prteigrs : prtvol=0 or 1, do not print more k-points.

 Eight components of 2nd-order total energy (hartree) are
 1,2,3: 0th-order hamiltonian combined with 1st-order wavefunctions
     kin0=   4.78685918E+01 eigvalue=   3.30779499E+00  local=  -1.83085307E+01
 4,5,6: 1st-order hamiltonian combined with 1st and 0th-order wfs
     kin1=  -7.03916453E+01  Hartree=   0.00000000E+00     xc=   0.00000000E+00
 7,8,9: eventually, occupation + non-local contributions
    edocc=   7.87757040E+00     enl0=  -1.02602603E+00   enl1=  -9.04715564E+00
 1-9 gives the relaxation energy (to be shifted if some occ is /=2.0)
   erelax=  -3.97194005E+01
  No Ewald or frozen-wf contrib.: the relaxation energy is the total one
 2DEtotal=   -0.3971940045E+02 Ha. Also 2DEtotal=   -0.108081985247E+04 eV
    (  non-var. 2DEtotal :   -3.9719400455E+01 Ha)

 Perturbation wavevector (in red.coord.)   0.000000  0.000000  0.000000
 Perturbation : derivative vs k along direction   2
 The set of symmetries contains only one element for this perturbation.
 symkpt : not enough symmetry to change the number of k points.

[...]

 Perturbation wavevector (in red.coord.)   0.000000  0.000000  0.000000
 Perturbation : derivative vs k along direction   3
 The set of symmetries contains only one element for this perturbation.
 symkpt : not enough symmetry to change the number of k points.

 Initialisation of the first-order wave-functions :
  ireadwf=   0

--- !BeginCycle
iteration_state: {dtset: 1, }
solver: {iscf: 7, nstep: 2000, nline: 4, wfoptalg: 0, }
tolerances: {tolwfr: 1.00E-20, }
...

     iter   2DEtotal(Ha)        deltaE(Ha) residm    vres2
-ETOT  1  -49.802809261121     -4.980E+01 7.263E-02 0.000E+00
 ETOT  2  -49.877119692796     -7.431E-02 8.689E-04 0.000E+00
 ETOT  3  -49.878748251756     -1.629E-03 2.367E-05 0.000E+00
 ETOT  4  -49.878817460341     -6.921E-05 1.589E-06 0.000E+00
 ETOT  5  -49.878820960624     -3.500E-06 6.843E-08 0.000E+00
 ETOT  6  -49.878821151564     -1.909E-07 4.811E-09 0.000E+00
 ETOT  7  -49.878821162476     -1.091E-08 2.532E-10 0.000E+00
 ETOT  8  -49.878821163122     -6.455E-10 2.044E-11 0.000E+00
 ETOT  9  -49.878821163161     -3.929E-11 1.245E-12 0.000E+00
 ETOT 10  -49.878821163164     -2.487E-12 1.012E-13 0.000E+00
 ETOT 11  -49.878821163164     -1.563E-13 6.218E-15 0.000E+00
 ETOT 12  -49.878821163164     -7.105E-15 5.070E-16 0.000E+00
 ETOT 13  -49.878821163164     -7.105E-15 3.135E-17 0.000E+00
 ETOT 14  -49.878821163164      1.421E-14 2.564E-18 0.000E+00
 ETOT 15  -49.878821163164      2.842E-14 1.593E-19 0.000E+00
 ETOT 16  -49.878821163164     -7.105E-15 1.306E-20 0.000E+00
 ETOT 17  -49.878821163164      2.842E-14 9.845E-21 0.000E+00

 At SCF step   17   max residual=  9.84E-21 < tolwfr=  1.00E-20 =>converged.

 ----iterations are completed or convergence reached----

 dfpt_looppert: DFPT cycle converged with prtwf=-1. Will skip output of the 1st-order WFK file.
 dfpt_looppert : ek2=    6.9775631962E+01
          f-sum rule ratio=    1.3221110187E+00
 prteigrs : about to open file /scratch/users/j/a/jabreu/flow_simple_remain_atoms/flow/w256/t1/tmpdata/tmp_1WF1_EIG
 Expectation of eigenvalue derivatives (hartree) for nkpt=   2  k points:
  (in case of degenerate eigenvalues, averaged derivative)
 kpt#   1, nband= 51, wtk=  0.50000, kpt= -0.5000  0.5000  0.0000 (reduced coord)
   0.00000    0.00000   -0.00000    0.00000    0.00000    0.00000   -0.00000   -0.00000
   0.00000   -0.00000   -0.00000    0.00000    0.00000    0.00000    0.00000   -0.00000
  -0.00000   -0.00000   -0.00000    0.00000   -0.00000    0.00000    0.00000    0.00000
  -0.00000   -0.00000   -0.00000   -0.00000   -0.00000    0.00000    0.00000   -0.00000
   0.00000    0.00000   -0.00000   -0.00000    0.00000   -0.00000    0.00000    0.00000
   0.00000   -0.00000   -0.00000    0.00000    0.00000    0.00000    0.00000    0.00000
  -0.00000   -0.00000    0.00000
 prteigrs : prtvol=0 or 1, do not print more k-points.

 Eight components of 2nd-order total energy (hartree) are
 1,2,3: 0th-order hamiltonian combined with 1st-order wavefunctions
     kin0=   5.19538767E+01 eigvalue=   3.54210750E+00  local=  -1.97468781E+01
 4,5,6: 1st-order hamiltonian combined with 1st and 0th-order wfs
     kin1=  -9.22511319E+01  Hartree=   0.00000000E+00     xc=   0.00000000E+00
 7,8,9: eventually, occupation + non-local contributions
    edocc=   1.53569419E+01     enl0=  -1.22722696E+00   enl1=  -7.50651047E+00
 1-9 gives the relaxation energy (to be shifted if some occ is /=2.0)
   erelax=  -4.98788212E+01
  No Ewald or frozen-wf contrib.: the relaxation energy is the total one
 2DEtotal=   -0.4987882116E+02 Ha. Also 2DEtotal=   -0.135727174916E+04 eV
    (  non-var. 2DEtotal :   -4.9878821163E+01 Ha)

 CALCULATION OF EFFECTIVE MASSES
 NOTE : Additional infos (eff. mass eigenvalues, eigenvectors and, if degenerate, average mass) are available in stdout.

 K-point (-0.500, 0.500, 0.000) | band =    42
 Effective mass tensor:
             -0.7088817126             -0.4207389711              0.0000000000
             -0.4207389711             -0.9014083057             -0.0000000000
              0.0000000000             -0.0000000000             -0.4964913738
 Effective mass tensor eigenvalues:
             -1.2367558339             -0.4964913738             -0.3735341844
 Angular average effective mass 1/(<1/m>)=  -0.5454712200
 Angular average effective mass for Frohlich model (<m**0.5>)**2=  -0.5817182072
 Effective masses along directions: (cart. coord. / red. coord. -> eff. mass)
    1:   1.000000  0.000000  0.000000 /   0.976019 -0.217684  0.000000 ->  -0.5124986965
    2:   0.000000  1.000000  0.000000 /   0.000000  1.000000  0.000000 ->  -0.6516892360
    3:   0.000000  0.000000  1.000000 /   0.000000  0.000000  1.000000 ->  -0.4964913738
    4:   0.577350  0.577350  0.577350 /   0.640481  0.481500  0.598283 ->  -0.8155863872
    5:   0.000000  0.707107  0.707107 /   0.000000  0.722017  0.691875 ->  -0.5636013730
    6:   0.707107  0.000000  0.707107 /   0.721253 -0.160863  0.673733 ->  -0.5043680595
    7:   0.707107  0.707107  0.000000 /   0.799317  0.600909  0.000000 ->  -1.2017776413

 K-point ( 0.000, 0.000, 0.000) | band =    43
 Effective mass tensor:
              0.7135300700             -0.0063266958             -0.0000001806
             -0.0063266958              0.7106352468              0.0000001759
             -0.0000001806              0.0000001759              0.0991514860
 Effective mass tensor eigenvalues:
              0.0991514860              0.7055925059              0.7185728109
 Angular average effective mass 1/(<1/m>)=   0.2326578115
 Angular average effective mass for Frohlich model (<m**0.5>)**2=   0.3106158442
 Effective masses along directions: (cart. coord. / red. coord. -> eff. mass)
    1:   1.000000  0.000000  0.000000 /   0.976019 -0.217684  0.000000 ->   0.7134737442
    2:   0.000000  1.000000  0.000000 /   0.000000  1.000000  0.000000 ->   0.7105791495
    3:   0.000000  0.000000  1.000000 /   0.000000  0.000000  1.000000 ->   0.0991514860
    4:   0.577350  0.577350  0.577350 /   0.640481  0.481500  0.598283 ->   0.2322083852
    5:   0.000000  0.707107  0.707107 /   0.000000  0.722017  0.691875 ->   0.1740208555
    6:   0.707107  0.000000  0.707107 /   0.721253 -0.160863  0.673733 ->   0.1741071977
    7:   0.707107  0.707107  0.000000 /   0.799317  0.600909  0.000000 ->   0.7057530464

 END OF EFFECTIVE MASSES SECTION

 ---- first-order wavefunction calculations are completed ----

 Total localisation tensor (bohr^2) in cartesian coordinates
  WARNING : still subject to testing - especially symmetries.
      direction              matrix element
   alpha     beta       real part   imaginary part
     1        1       1.5951638671    0.0000000000
     1        2      -0.3303778399    0.0000000000
     1        3       0.0000000000    0.0000000000
     2        1      -0.3303778399    0.0000000000
     2        2       1.4439857885    0.0000000000
     2        3       0.0000000000    0.0000000000
     3        1       0.0000000000    0.0000000000
     3        2       0.0000000000    0.0000000000
     3        3       3.6152127440    0.0000000000

 respfn : d/dk was computed, but no 2DTE, so no DDB output.

== END DATASET(S) ==============================================================

 -outvars: echo values of variables after computation  --------
            acell      1.0000000000E+00  1.0000000000E+00  1.0000000000E+00 Bohr
              amu      2.29897680E+01  6.35460000E+01  3.09737620E+01
             ecut      4.60000000E+01 Hartree
           etotal     -4.9878821163E+01
            fcart      0.0000000000E+00  0.0000000000E+00  0.0000000000E+00
                       0.0000000000E+00  0.0000000000E+00  0.0000000000E+00
                       0.0000000000E+00  0.0000000000E+00  0.0000000000E+00
                       0.0000000000E+00  0.0000000000E+00  0.0000000000E+00
                       0.0000000000E+00  0.0000000000E+00  0.0000000000E+00
                       0.0000000000E+00  0.0000000000E+00  0.0000000000E+00
                       0.0000000000E+00  0.0000000000E+00  0.0000000000E+00
                       0.0000000000E+00  0.0000000000E+00  0.0000000000E+00
-          fftalg         512
           irdden           1
           irdwfk           1
           istwfk        0    1
              ixc     -116133
              kpt     -5.00000000E-01  5.00000000E-01  0.00000000E+00
                       0.00000000E+00  0.00000000E+00  0.00000000E+00
           kptopt           0
P           mkmem           2
P          mkqmem           2
P          mk1mem           2
            natom           8
            nband          51
           nbdbuf           4
            ngfft          64      64      60
             nkpt           2
            nstep        2000
             nsym           8
           ntypat           3
              occ      2.000000  2.000000  2.000000  2.000000  2.000000  2.000000
                       2.000000  2.000000  2.000000  2.000000  2.000000  2.000000
                       2.000000  2.000000  2.000000  2.000000  2.000000  2.000000
                       2.000000  2.000000  2.000000  2.000000  2.000000  2.000000
                       2.000000  2.000000  2.000000  2.000000  2.000000  2.000000
                       2.000000  2.000000  2.000000  2.000000  2.000000  2.000000
                       2.000000  2.000000  2.000000  2.000000  2.000000  2.000000
                       0.000000  0.000000  0.000000  0.000000  0.000000  0.000000
                       0.000000  0.000000  0.000000
        optdriver           1
            prtwf          -1
            rfdir           1       1       1
           rfelfd           2
            rprim      1.0437161458E+01  0.0000000000E+00  0.0000000000E+00
                      -2.3278275535E+00  1.0174259589E+01  0.0000000000E+00
                       0.0000000000E+00  0.0000000000E+00  9.7495062027E+00
          spgroup          63
           strten      0.0000000000E+00  0.0000000000E+00  0.0000000000E+00
                       0.0000000000E+00  0.0000000000E+00  0.0000000000E+00
           symrel      1  0  0   0  1  0   0  0  1      -1  0  0   0 -1  0   0  0 -1
                       0 -1  0  -1  0  0   0  0 -1       0  1  0   1  0  0   0  0  1
                      -1  0  0   0 -1  0   0  0  1       1  0  0   0  1  0   0  0 -1
                       0  1  0   1  0  0   0  0 -1       0 -1  0  -1  0  0   0  0  1
            tnons      0.0000000  0.0000000  0.0000000    -0.0000000  0.0000000  0.0000000
                       0.0000000  0.0000000  0.0000000    -0.0000000  0.0000000  0.0000000
                      -0.0000000  0.0000000  0.5000000     0.0000000  0.0000000  0.5000000
                      -0.0000000  0.0000000  0.5000000     0.0000000  0.0000000  0.5000000
           tolwfr      1.00000000E-20
            typat      1  1  1  1  2  2  3  3
           useylm           1
              wtk        0.50000    0.50000
           xangst      3.7381295988E+00  1.6397468641E-01  1.2898041194E+00
                       5.5314508016E-01  5.2200116022E+00  3.8694123581E+00
                      -6.7388054518E-01  3.6805414828E+00  1.2898041194E+00
                       4.9651552242E+00  1.7034448058E+00  3.8694123581E+00
                       2.1456373395E+00  2.6919931443E+00  2.5796082387E+00
                       2.1456373395E+00  2.6919931443E+00  0.0000000000E+00
                       3.2672950064E+00  4.0992648644E+00  3.8694123581E+00
                       1.0239796726E+00  1.2847214242E+00  1.2898041194E+00
            xcart      7.0640411910E+00  3.0986725003E-01  2.4373765507E+00
                       1.0452927133E+00  9.8643923387E+00  7.3121296520E+00
                      -1.2734496767E+00  6.9552154232E+00  2.4373765507E+00
                       9.3827835810E+00  3.2190441655E+00  7.3121296520E+00
                       4.0546669521E+00  5.0871297944E+00  4.8747531013E+00
                       4.0546669521E+00  5.0871297944E+00  0.0000000000E+00
                       6.1742927574E+00  7.7464879399E+00  7.3121296520E+00
                       1.9350411469E+00  2.4277716488E+00  2.4373765507E+00
             xred      6.8360900000E-01  3.0456000000E-02  2.5000000000E-01
                       3.1639100000E-01  9.6954400000E-01  7.5000000000E-01
                       3.0456000000E-02  6.8360900000E-01  2.5000000000E-01
                       9.6954400000E-01  3.1639100000E-01  7.5000000000E-01
                       5.0000000000E-01  5.0000000000E-01  5.0000000000E-01
                       5.0000000000E-01  5.0000000000E-01  0.0000000000E+00
                       7.6138100000E-01  7.6138100000E-01  7.5000000000E-01
                       2.3861900000E-01  2.3861900000E-01  2.5000000000E-01
            znucl       11.00000   29.00000   15.00000

- Timing analysis has been suppressed with timopt=0

 Suggested references for the acknowledgment of ABINIT usage.

 Calculation completed.
.Delivered   2 WARNINGs and   5 COMMENTs to log file.