.Version 9.5.1 of ABINIT

 ABINIT is a project of the Universite Catholique de Louvain,
 Corning Inc. and other collaborators, see ~abinit/doc/developers/contributors.txt .
 acknowledgments of the ABINIT effort.

.Starting date : Tue  4 May 2021.
- ( at 19h29 )

- input  file    -> /scratch/users/j/a/jabreu/flow_simple_6atoms/flow/w189/t1/run.abi
- output file    -> /scratch/users/j/a/jabreu/flow_simple_6atoms/flow/w189/t1/run.abo
- root for input  files -> /scratch/users/j/a/jabreu/flow_simple_6atoms/flow/w189/t1/indata/in
- root for output files -> /scratch/users/j/a/jabreu/flow_simple_6atoms/flow/w189/t1/outdata/out

 Symmetries : space group P-3 m 1 (#164); Bravais hP (primitive hexag.)
     intxc =       0      iscf =       7    lmnmax =      32     lnmax =       8
     mgfft =      80  mpssoang =       4    mqgrid =    3816     natom =       6
  nloc_mem =       1    nspden =       1   nspinor =       1    nsppol =       1
      nsym =      12    n1xccc =    2501    ntypat =       3    occopt =       1
   xclevel =       2
-    mband =          48        mffmem =           1         mkmem =           2
-   mkqmem =           2        mk1mem =           2           mpw =       15814
      nfft =      327680          nkpt =           2
  Rough estimation (10% accuracy) of disk space for files :

------------- Echo of variables that govern the present computation ------------
-
- outvars: echo of selected default values
-   iomode0 =  0 , fftalg0 =512 , wfoptalg0 =  0
-
- outvars: echo of global parameters not present in the input file
-  max_nthreads =    0
-
 -outvars: echo values of preprocessed input variables --------
            acell      1.0000000000E+00  1.0000000000E+00  1.0000000000E+00 Bohr
              amu      1.32905430E+02  6.35460000E+01  3.20660000E+01
             ecut      4.60000000E+01 Hartree
-          fftalg         512
           irdden           1
           irdwfk           1
           istwfk        1    1
              ixc     -116133
              kpt      0.00000000E+00  0.00000000E+00  5.00000000E-01
                       5.00000000E-01  5.55111512E-17  0.00000000E+00
           kptopt           0
P           mkmem           2
P          mkqmem           2
P          mk1mem           2
            natom           6
            nband          48
           nbdbuf           4
            ngfft          64      64      80
             nkpt           2
            nstep        1000
             nsym          12
           ntypat           3
              occ      2.000000  2.000000  2.000000  2.000000  2.000000  2.000000
                       2.000000  2.000000  2.000000  2.000000  2.000000  2.000000
                       2.000000  2.000000  2.000000  2.000000  2.000000  2.000000
                       2.000000  2.000000  2.000000  2.000000  2.000000  2.000000
                       2.000000  2.000000  2.000000  2.000000  2.000000  2.000000
                       2.000000  2.000000  2.000000  2.000000  2.000000  2.000000
                       2.000000  2.000000  2.000000  0.000000  0.000000  0.000000
                       0.000000  0.000000  0.000000  0.000000  0.000000  0.000000
        optdriver           1
            prtwf          -1
            rfdir           1       1       1
           rfelfd           2
            rprim      9.8958237281E+00  0.0000000000E+00  0.0000000000E+00
                      -4.9479118640E+00  8.5700347399E+00  0.0000000000E+00
                       0.0000000000E+00  0.0000000000E+00  1.2496018146E+01
          spgroup         164
           symrel      1  0  0   0  1  0   0  0  1      -1  0  0   0 -1  0   0  0 -1
                      -1  0  0   1  1  0   0  0  1       1  0  0  -1 -1  0   0  0 -1
                       0  1  0  -1 -1  0   0  0  1       0 -1  0   1  1  0   0  0 -1
                       0 -1  0  -1  0  0   0  0  1       0  1  0   1  0  0   0  0 -1
                      -1 -1  0   1  0  0   0  0  1       1  1  0  -1  0  0   0  0 -1
                       1  1  0   0 -1  0   0  0  1      -1 -1  0   0  1  0   0  0 -1
           tolwfr      1.00000000E-20
            typat      1  2  2  2  3  3
           useylm           1
              wtk        0.50000    0.50000
           xangst      0.0000000000E+00  0.0000000000E+00  3.3063040005E+00
                      -1.3091610943E+00  2.2675335306E+00 -3.6707348278E-16
                       2.6183221886E+00  0.0000000000E+00 -3.6707348278E-16
                       1.3091610943E+00  2.2675335306E+00 -3.6707348278E-16
                       1.7639241746E-11  3.0233780408E+00  5.0820339153E+00
                       2.6183221886E+00  1.5116890204E+00  1.5305740858E+00
            xcart      0.0000000000E+00  0.0000000000E+00  6.2480090731E+00
                      -2.4739559320E+00  4.2850173700E+00 -6.9366835310E-16
                       4.9479118640E+00  0.0000000000E+00 -6.9366835310E-16
                       2.4739559320E+00  4.2850173700E+00 -6.9366835310E-16
                       3.3333336091E-11  5.7133564933E+00  9.6036522980E+00
                       4.9479118641E+00  2.8566782466E+00  2.8923658482E+00
             xred      0.0000000000E+00  0.0000000000E+00  5.0000000000E-01
                       0.0000000000E+00  5.0000000000E-01 -5.5511151231E-17
                       5.0000000000E-01  0.0000000000E+00 -5.5511151231E-17
                       5.0000000000E-01  5.0000000000E-01 -5.5511151231E-17
                       3.3333333333E-01  6.6666666667E-01  7.6853700000E-01
                       6.6666666667E-01  3.3333333333E-01  2.3146300000E-01
            znucl       55.00000   29.00000   16.00000

 chkinp: Checking input parameters for consistency.

== DATASET  1 ==================================================================
-   mpi_nproc: 1, omp_nthreads: -1 (-1 if OMP is not activated)

--- !DatasetInfo
iteration_state: {dtset: 1, }
dimensions: {natom: 6, nkpt: 2, mband: 48, nsppol: 1, nspinor: 1, nspden: 1, mpw: 15814, }
cutoff_energies: {ecut:  46.0, pawecutdg:  -1.0, }
electrons: {nelect:   7.80000000E+01, charge:   0.00000000E+00, occopt:   1.00000000E+00, tsmear:   1.00000000E-02, }
meta: {optdriver: 1, rfelfd: 2, }
...

 Real(R)+Recip(G) space primitive vectors, cartesian coordinates (Bohr,Bohr^-1):
 R(1)=  9.8958237  0.0000000  0.0000000  G(1)=  0.1010527  0.0583428  0.0000000
 R(2)= -4.9479119  8.5700347  0.0000000  G(2)=  0.0000000  0.1166856  0.0000000
 R(3)=  0.0000000  0.0000000 12.4960181  G(3)=  0.0000000  0.0000000  0.0800255
 Unit cell volume ucvol=  1.0597567E+03 bohr^3
 Angles (23,13,12)=  9.00000000E+01  9.00000000E+01  1.20000000E+02 degrees

 getcut: wavevector=  0.0000  0.0000  0.0000  ngfft=  64  64  80
         ecut(hartree)=     46.000   => boxcut(ratio)=   2.09688

--- Pseudopotential description ------------------------------------------------
- pspini: atom type   1  psp file is /scratch/users/j/a/jabreu/pseudos/PBEsol/Cs.psp8
- pspatm: opening atomic psp file    /scratch/users/j/a/jabreu/pseudos/PBEsol/Cs.psp8
- Cs    ONCVPSP-3.3.0  r_core=   2.27353   1.85623   2.01788   1.90105
- 55.00000   9.00000    180112                znucl, zion, pspdat
    8 -116133    3    4       600   0.00000   pspcod,pspxc,lmax,lloc,mmax,r2well
    5.99000000000000    5.00000000000000    0.00000000000000   rchrg,fchrg,qchrg
     nproj     2     2     2     2
     extension_switch     1
  pspatm : epsatm=   22.12462445
         --- l  ekb(1:nproj) -->
             0    6.214110    0.767882
             1    6.311966    0.793598
             2    3.769790    0.913105
             3   -9.247129   -2.432478
 pspatm: atomic psp has been read  and splines computed

- pspini: atom type   2  psp file is /scratch/users/j/a/jabreu/pseudos/PBEsol/Cu.psp8
- pspatm: opening atomic psp file    /scratch/users/j/a/jabreu/pseudos/PBEsol/Cu.psp8
- Cu    ONCVPSP-3.3.0  r_core=   1.26204   1.45626   1.76249
- 29.00000  19.00000    180112                znucl, zion, pspdat
    8 -116133    2    4       600   0.00000   pspcod,pspxc,lmax,lloc,mmax,r2well
    5.99000000000000    3.50000000000000    0.00000000000000   rchrg,fchrg,qchrg
     nproj     2     2     2
     extension_switch     1
  pspatm : epsatm=   21.63488701
         --- l  ekb(1:nproj) -->
             0    5.008230   -0.401634
             1   -3.496700   -0.765945
             2   -6.895851   -2.521180
 pspatm: atomic psp has been read  and splines computed

- pspini: atom type   3  psp file is /scratch/users/j/a/jabreu/pseudos/PBEsol/S.psp8
- pspatm: opening atomic psp file    /scratch/users/j/a/jabreu/pseudos/PBEsol/S.psp8
- S     ONCVPSP-3.3.0  r_core=   1.45376   1.45376   1.61851
- 16.00000   6.00000    180112                znucl, zion, pspdat
    8 -116133    2    4       600   0.00000   pspcod,pspxc,lmax,lloc,mmax,r2well
    5.99000000000000    6.00000000000000    0.00000000000000   rchrg,fchrg,qchrg
     nproj     2     2     2
     extension_switch     1
  pspatm : epsatm=    8.71840985
         --- l  ekb(1:nproj) -->
             0    6.834532    0.579453
             1    3.282851    0.896984
             2   -3.496974   -0.974265
 pspatm: atomic psp has been read  and splines computed

   8.14835621E+03                                ecore*ucvol(ha*bohr**3)

-inwffil : will read wavefunctions from disk file /scratch/users/j/a/jabreu/flow_simple_6atoms/flow/w189/t1/indata/in_WFK

 ==>  initialize data related to q vector <==

 The list of irreducible perturbations for this q vector is:
    1)    idir= 1    ipert=   7
    2)    idir= 2    ipert=   7
    3)    idir= 3    ipert=   7

 Perturbation wavevector (in red.coord.)   0.000000  0.000000  0.000000
 Perturbation : derivative vs k along direction   1

 dfpt_looppert : COMMENT -
  In a d/dk calculation, iscf is set to -3 automatically.
 The set of symmetries contains only one element for this perturbation.
 symkpt : not enough symmetry to change the number of k points.

[...]

 Initialisation of the first-order wave-functions :
  ireadwf=   0

--- !BeginCycle
iteration_state: {dtset: 1, }
solver: {iscf: 7, nstep: 1000, nline: 4, wfoptalg: 0, }
tolerances: {tolwfr: 1.00E-20, }
...

     iter   2DEtotal(Ha)        deltaE(Ha) residm    vres2
-ETOT  1  -48.583335024526     -4.858E+01 8.558E-02 0.000E+00
 ETOT  2  -48.734439727873     -1.511E-01 3.193E-03 0.000E+00
 ETOT  3  -48.738932970332     -4.493E-03 1.736E-04 0.000E+00
 ETOT  4  -48.739153675086     -2.207E-04 1.832E-05 0.000E+00
 ETOT  5  -48.739167056924     -1.338E-05 3.915E-06 0.000E+00
 ETOT  6  -48.739167950614     -8.937E-07 4.730E-07 0.000E+00
 ETOT  7  -48.739168014970     -6.436E-08 1.102E-07 0.000E+00
 ETOT  8  -48.739168019844     -4.875E-09 1.292E-08 0.000E+00
 ETOT  9  -48.739168020229     -3.847E-10 3.126E-09 0.000E+00
 ETOT 10  -48.739168020260     -3.125E-11 3.618E-10 0.000E+00
 ETOT 11  -48.739168020263     -2.565E-12 8.921E-11 0.000E+00
 ETOT 12  -48.739168020263     -2.274E-13 1.028E-11 0.000E+00
 ETOT 13  -48.739168020263     -4.974E-14 2.556E-12 0.000E+00
 ETOT 14  -48.739168020263      9.948E-14 2.946E-13 0.000E+00
 ETOT 15  -48.739168020263     -1.421E-14 7.348E-14 0.000E+00
 ETOT 16  -48.739168020263     -2.132E-14 8.486E-15 0.000E+00
[...]
 Expectation of eigenvalue derivatives (hartree) for nkpt=   2  k points:
  (in case of degenerate eigenvalues, averaged derivative)
 kpt#   1, nband= 48, wtk=  0.50000, kpt=  0.0000  0.0000  0.5000 (reduced coord)
   0.00000    0.00000    0.00000    0.00000    0.00000    0.00000    0.00000    0.00000
   0.00000    0.00000    0.00000    0.00000    0.00000   -0.00000   -0.00000    0.00000
   0.00000   -0.00000   -0.00000    0.00000    0.00000    0.00000    0.00000    0.00000
   0.00000    0.00000    0.00000    0.00000    0.00000    0.00000   -0.00000    0.00000
   0.00000   -0.00000   -0.00000   -0.00000    0.00000   -0.00000   -0.00000   -0.00000
  -0.00000   -0.00000    0.00000    0.00000   -0.00000   -0.00000    0.00000    0.00000
 prteigrs : prtvol=0 or 1, do not print more k-points.

 Eight components of 2nd-order total energy (hartree) are
 1,2,3: 0th-order hamiltonian combined with 1st-order wavefunctions
     kin0=   6.73285593E+01 eigvalue=   1.09744424E+00  local=  -2.87619324E+01
 4,5,6: 1st-order hamiltonian combined with 1st and 0th-order wfs
     kin1=  -8.71568880E+01  Hartree=   0.00000000E+00     xc=   0.00000000E+00
 7,8,9: eventually, occupation + non-local contributions
    edocc=   9.65982276E+00     enl0=  -5.84725889E-01   enl1=  -1.03214480E+01
 1-9 gives the relaxation energy (to be shifted if some occ is /=2.0)
   erelax=  -4.87391680E+01
  No Ewald or frozen-wf contrib.: the relaxation energy is the total one
 2DEtotal=   -0.4873916802E+02 Ha. Also 2DEtotal=   -0.132626021002E+04 eV
    (  non-var. 2DEtotal :   -4.8739168020E+01 Ha)

 Perturbation wavevector (in red.coord.)   0.000000  0.000000  0.000000
 Perturbation : derivative vs k along direction   2
 The set of symmetries contains only one element for this perturbation.
 symkpt : not enough symmetry to change the number of k points.

[...]

 Perturbation wavevector (in red.coord.)   0.000000  0.000000  0.000000
 Perturbation : derivative vs k along direction   3
 The set of symmetries contains only one element for this perturbation.
 symkpt : not enough symmetry to change the number of k points.

-inwffil : will read wavefunctions from disk file /scratch/users/j/a/jabreu/flow_simple_6atoms/flow/w189/t1/indata/in_WFK

 Initialisation of the first-order wave-functions :
  ireadwf=   0

--- !BeginCycle
iteration_state: {dtset: 1, }
solver: {iscf: 7, nstep: 1000, nline: 4, wfoptalg: 0, }
tolerances: {tolwfr: 1.00E-20, }
...

     iter   2DEtotal(Ha)        deltaE(Ha) residm    vres2
-ETOT  1  -22.181394888666     -2.218E+01 1.210E-01 0.000E+00
 ETOT  2  -22.241809796002     -6.041E-02 8.283E-03 0.000E+00
 ETOT  3  -22.243066052144     -1.256E-03 1.616E-03 0.000E+00
 ETOT  4  -22.243110530420     -4.448E-05 2.050E-04 0.000E+00
 ETOT  5  -22.243112417084     -1.887E-06 5.036E-05 0.000E+00
 ETOT  6  -22.243112504127     -8.704E-08 7.344E-06 0.000E+00
 ETOT  7  -22.243112508532     -4.405E-09 1.828E-06 0.000E+00
 ETOT  8  -22.243112508772     -2.399E-10 2.838E-07 0.000E+00
 ETOT  9  -22.243112508786     -1.381E-11 6.920E-08 0.000E+00
 ETOT 10  -22.243112508787     -8.455E-13 1.125E-08 0.000E+00
 ETOT 11  -22.243112508787     -5.684E-14 2.690E-09 0.000E+00
 ETOT 12  -22.243112508787     -1.421E-14 4.535E-10 0.000E+00
 ETOT 13  -22.243112508787      1.066E-14 1.070E-10 0.000E+00
 ETOT 14  -22.243112508787      3.553E-15 1.850E-11 0.000E+00
 ETOT 15  -22.243112508787      7.105E-15 4.336E-12 0.000E+00
 ETOT 16  -22.243112508787      0.000E+00 7.603E-13 0.000E+00
 ETOT 17  -22.243112508787      0.000E+00 1.775E-13 0.000E+00
 ETOT 18  -22.243112508787     -1.066E-14 3.141E-14 0.000E+00
 ETOT 19  -22.243112508787      1.066E-14 7.313E-15 0.000E+00
 ETOT 20  -22.243112508787     -3.553E-15 1.301E-15 0.000E+00
 ETOT 21  -22.243112508787      7.105E-15 3.023E-16 0.000E+00
 ETOT 22  -22.243112508787     -3.553E-15 5.399E-17 0.000E+00
 ETOT 23  -22.243112508787      1.066E-14 1.252E-17 0.000E+00
 ETOT 24  -22.243112508787     -3.553E-15 2.244E-18 0.000E+00
 ETOT 25  -22.243112508787     -7.105E-15 5.193E-19 0.000E+00
 ETOT 26  -22.243112508787      0.000E+00 9.334E-20 0.000E+00
 ETOT 27  -22.243112508787      7.105E-15 2.156E-20 0.000E+00
 ETOT 28  -22.243112508787     -7.105E-15 9.806E-21 0.000E+00

 At SCF step   28   max residual=  9.81E-21 < tolwfr=  1.00E-20 =>converged.

 ----iterations are completed or convergence reached----

 dfpt_looppert: DFPT cycle converged with prtwf=-1. Will skip output of the 1st-order WFK file.
 dfpt_looppert : ek2=    3.9440375463E+01
          f-sum rule ratio=    9.9768691747E-01
 prteigrs : about to open file /scratch/users/j/a/jabreu/flow_simple_6atoms/flow/w189/t1/tmpdata/tmp_1WF1_EIG
 Expectation of eigenvalue derivatives (hartree) for nkpt=   2  k points:
  (in case of degenerate eigenvalues, averaged derivative)
 kpt#   1, nband= 48, wtk=  0.50000, kpt=  0.0000  0.0000  0.5000 (reduced coord)
   0.00000    0.00000    0.00000    0.00000    0.00000    0.00000   -0.00000   -0.00000
  -0.00000   -0.00000   -0.00000   -0.00000   -0.00000    0.00000    0.00000    0.00000
   0.00000   -0.00000    0.00000    0.00000    0.00000   -0.00000    0.00000   -0.00000
  -0.00000    0.00000    0.00000   -0.00000   -0.00000   -0.00000   -0.00000   -0.00000
  -0.00000   -0.00000    0.00000    0.00000   -0.00000   -0.00000   -0.00000    0.00000
   0.00000    0.00000   -0.00000    0.00000    0.00000    0.00000   -0.00000   -0.00000
 prteigrs : prtvol=0 or 1, do not print more k-points.

 Eight components of 2nd-order total energy (hartree) are
 1,2,3: 0th-order hamiltonian combined with 1st-order wavefunctions
     kin0=   3.13765311E+01 eigvalue=   6.12770112E-01  local=  -1.35235047E+01
 4,5,6: 1st-order hamiltonian combined with 1st and 0th-order wfs
     kin1=  -3.93491466E+01  Hartree=   0.00000000E+00     xc=   0.00000000E+00
 7,8,9: eventually, occupation + non-local contributions
    edocc=   3.83824634E+00     enl0=  -6.09302961E-02   enl1=  -5.13707840E+00
 1-9 gives the relaxation energy (to be shifted if some occ is /=2.0)
   erelax=  -2.22431125E+01
  No Ewald or frozen-wf contrib.: the relaxation energy is the total one
 2DEtotal=   -0.2224311251E+02 Ha. Also 2DEtotal=   -0.605265872718E+03 eV
    (  non-var. 2DEtotal :   -2.2243112509E+01 Ha)

 CALCULATION OF EFFECTIVE MASSES
 NOTE : Additional infos (eff. mass eigenvalues, eigenvectors and, if degenerate, average mass) are available in stdout.

 COMMENTS:
 - At k-point ( 0.000, 0.000, 0.500), bands    38 through    39
   are DEGENERATE (effective mass tensor is therefore not defined).
   See Section IIIB Eqs. (67)-(70) and Appendix E of PRB 93 205147 (2016).
 - Angular average effective mass for Frohlich model is to be averaged over degenerate bands. See later.
 - Associated theta integrals calculated with ntheta=   1000 points.

 K-point ( 0.000, 0.000, 0.500) | band =    38
 Transport equivalent effective mass tensor:
             -0.2970051441              0.0000000054             -0.0000000326
              0.0000000054             -0.2970051532             -0.0000000225
             -0.0000000326             -0.0000000225             -1.7615430320
 Transport equivalent effective mass tensor eigenvalues:
             -1.7615430320             -0.2970051558             -0.2970051416
 Angular average effective mass 1/(<1/m>)=  -0.4098591723
 Angular average effective mass for Frohlich model (<m**0.5>)**2=  -0.4693474281
 Effective masses along directions: (cart. coord. / red. coord. -> eff. mass)
    1:   1.000000  0.000000  0.000000 /   0.894427 -0.447214  0.000000 ->  -0.2963088114
    2:   0.000000  1.000000  0.000000 /   0.000000  1.000000  0.000000 ->  -0.2963088136
    3:   0.000000  0.000000  1.000000 /   0.000000  0.000000  1.000000 ->  -1.7588680750
    4:   0.577350  0.577350  0.577350 /   0.605391  0.221588  0.764461 ->  -0.4142539678
    5:   0.000000  0.707107  0.707107 /   0.000000  0.565588  0.824688 ->  -0.4973762669
    6:   0.707107  0.000000  0.707107 /   0.592916 -0.296458  0.748708 ->  -0.5068365921
    7:   0.707107  0.707107  0.000000 /   0.939071  0.343724  0.000000 ->  -0.2963088059

 K-point ( 0.000, 0.000, 0.500) | band =    39
 Transport equivalent effective mass tensor:
             -0.9232039447             -0.0000000003              0.0000000026
             -0.0000000003             -0.9232039177             -0.0000000127
              0.0000000026             -0.0000000127             -1.7843983545
 Transport equivalent effective mass tensor eigenvalues:
             -1.7843983545             -0.9232039447             -0.9232039177
 Angular average effective mass 1/(<1/m>)=  -1.0911631003
 Angular average effective mass for Frohlich model (<m**0.5>)**2=  -1.1191764985
 Effective masses along directions: (cart. coord. / red. coord. -> eff. mass)
    1:   1.000000  0.000000  0.000000 /   0.894427 -0.447214  0.000000 ->  -0.9165325781
    2:   0.000000  1.000000  0.000000 /   0.000000  1.000000  0.000000 ->  -0.9165325767
    3:   0.000000  0.000000  1.000000 /   0.000000  0.000000  1.000000 ->  -1.7588682463
    4:   0.577350  0.577350  0.577350 /   0.605391  0.221588  0.764461 ->  -1.0611907996
    5:   0.000000  0.707107  0.707107 /   0.000000  0.565588  0.824688 ->  -1.2642861609
    6:   0.707107  0.000000  0.707107 /   0.592916 -0.296458  0.748708 ->  -1.2070181515
    7:   0.707107  0.707107  0.000000 /   0.939071  0.343724  0.000000 ->  -0.9165325866

 Angular average effective mass for Frohlich model, averaged over degenerate bands.
 Value of     (<<m**0.5>>)**2 =     7.595129E-01
 Absolute Value of <<m**0.5>> =     8.715004E-01

 K-point ( 0.500, 0.000, 0.000) | band =    40
 Effective mass tensor:
              1.1046322612              0.5051391833             -0.5817586755
              0.5051391833              0.5213477756             -0.3358785283
             -0.5817586755             -0.3358785283              1.0075863764
 Effective mass tensor eigenvalues:
              0.2297055318              0.5026256734              1.9012352081
 Angular average effective mass 1/(<1/m>)=   0.4367495164
 Angular average effective mass for Frohlich model (<m**0.5>)**2=   0.5212504354
 Effective masses along directions: (cart. coord. / red. coord. -> eff. mass)
    1:   1.000000  0.000000  0.000000 /   0.894427 -0.447214  0.000000 ->   0.5321573846
    2:   0.000000  1.000000  0.000000 /   0.000000  1.000000  0.000000 ->   0.2833946925
    3:   0.000000  0.000000  1.000000 /   0.000000  0.000000  1.000000 ->   0.6843995384
    4:   0.577350  0.577350  0.577350 /   0.605391  0.221588  0.764461 ->   0.5056951486
    5:   0.000000  0.707107  0.707107 /   0.000000  0.565588  0.824688 ->   0.3513244097
    6:   0.707107  0.000000  0.707107 /   0.592916 -0.296458  0.748708 ->   0.4388039901
    7:   0.707107  0.707107  0.000000 /   0.939071  0.343724  0.000000 ->   0.7840782791

 END OF EFFECTIVE MASSES SECTION

 ---- first-order wavefunction calculations are completed ----

 Total localisation tensor (bohr^2) in cartesian coordinates
  WARNING : still subject to testing - especially symmetries.
      direction              matrix element
   alpha     beta       real part   imaginary part
     1        1       1.7174659052    0.0000000000
     1        2      -0.6947391967    0.0000000000
     1        3       0.0000000000    0.0000000000
     2        1      -0.6947391967    0.0000000000
     2        2       1.2033235867    0.0000000000
     2        3       0.0000000000    0.0000000000
     3        1       0.0000000000    0.0000000000
     3        2       0.0000000000    0.0000000000
     3        3       0.6498633928    0.0000000000

 respfn : d/dk was computed, but no 2DTE, so no DDB output.

== END DATASET(S) ==============================================================

 -outvars: echo values of variables after computation  --------
            acell      1.0000000000E+00  1.0000000000E+00  1.0000000000E+00 Bohr
              amu      1.32905430E+02  6.35460000E+01  3.20660000E+01
             ecut      4.60000000E+01 Hartree
           etotal     -2.2243112509E+01
            fcart      0.0000000000E+00  0.0000000000E+00  0.0000000000E+00
                       0.0000000000E+00  0.0000000000E+00  0.0000000000E+00
                       0.0000000000E+00  0.0000000000E+00  0.0000000000E+00
                       0.0000000000E+00  0.0000000000E+00  0.0000000000E+00
                       0.0000000000E+00  0.0000000000E+00  0.0000000000E+00
                       0.0000000000E+00  0.0000000000E+00  0.0000000000E+00
-          fftalg         512
           irdden           1
           irdwfk           1
           istwfk        1    1
              ixc     -116133
              kpt      0.00000000E+00  0.00000000E+00  5.00000000E-01
                       5.00000000E-01  5.55111512E-17  0.00000000E+00
           kptopt           0
P           mkmem           2
P          mkqmem           2
P          mk1mem           2
            natom           6
            nband          48
           nbdbuf           4
            ngfft          64      64      80
             nkpt           2
            nstep        1000
             nsym          12
           ntypat           3
              occ      2.000000  2.000000  2.000000  2.000000  2.000000  2.000000
                       2.000000  2.000000  2.000000  2.000000  2.000000  2.000000
                       2.000000  2.000000  2.000000  2.000000  2.000000  2.000000
                       2.000000  2.000000  2.000000  2.000000  2.000000  2.000000
                       2.000000  2.000000  2.000000  2.000000  2.000000  2.000000
                       2.000000  2.000000  2.000000  2.000000  2.000000  2.000000
                       2.000000  2.000000  2.000000  0.000000  0.000000  0.000000
                       0.000000  0.000000  0.000000  0.000000  0.000000  0.000000
        optdriver           1
            prtwf          -1
            rfdir           1       1       1
           rfelfd           2
            rprim      9.8958237281E+00  0.0000000000E+00  0.0000000000E+00
                      -4.9479118640E+00  8.5700347399E+00  0.0000000000E+00
                       0.0000000000E+00  0.0000000000E+00  1.2496018146E+01
          spgroup         164
           strten      0.0000000000E+00  0.0000000000E+00  0.0000000000E+00
                       0.0000000000E+00  0.0000000000E+00  0.0000000000E+00
           symrel      1  0  0   0  1  0   0  0  1      -1  0  0   0 -1  0   0  0 -1
                      -1  0  0   1  1  0   0  0  1       1  0  0  -1 -1  0   0  0 -1
                       0  1  0  -1 -1  0   0  0  1       0 -1  0   1  1  0   0  0 -1
                       0 -1  0  -1  0  0   0  0  1       0  1  0   1  0  0   0  0 -1
                      -1 -1  0   1  0  0   0  0  1       1  1  0  -1  0  0   0  0 -1
                       1  1  0   0 -1  0   0  0  1      -1 -1  0   0  1  0   0  0 -1
           tolwfr      1.00000000E-20
            typat      1  2  2  2  3  3
           useylm           1
              wtk        0.50000    0.50000
           xangst      0.0000000000E+00  0.0000000000E+00  3.3063040005E+00
                      -1.3091610943E+00  2.2675335306E+00 -3.6707348278E-16
                       2.6183221886E+00  0.0000000000E+00 -3.6707348278E-16
                       1.3091610943E+00  2.2675335306E+00 -3.6707348278E-16
                       1.7639241746E-11  3.0233780408E+00  5.0820339153E+00
                       2.6183221886E+00  1.5116890204E+00  1.5305740858E+00
            xcart      0.0000000000E+00  0.0000000000E+00  6.2480090731E+00
                      -2.4739559320E+00  4.2850173700E+00 -6.9366835310E-16
                       4.9479118640E+00  0.0000000000E+00 -6.9366835310E-16
                       2.4739559320E+00  4.2850173700E+00 -6.9366835310E-16
                       3.3333336091E-11  5.7133564933E+00  9.6036522980E+00
                       4.9479118641E+00  2.8566782466E+00  2.8923658482E+00
             xred      0.0000000000E+00  0.0000000000E+00  5.0000000000E-01
                       0.0000000000E+00  5.0000000000E-01 -5.5511151231E-17
                       5.0000000000E-01  0.0000000000E+00 -5.5511151231E-17
                       5.0000000000E-01  5.0000000000E-01 -5.5511151231E-17
                       3.3333333333E-01  6.6666666667E-01  7.6853700000E-01
                       6.6666666667E-01  3.3333333333E-01  2.3146300000E-01
            znucl       55.00000   29.00000   16.00000

- Timing analysis has been suppressed with timopt=0

 Suggested references for the acknowledgment of ABINIT usage.

 Calculation completed.
.Delivered  14 WARNINGs and   9 COMMENTs to log file.