.Version 9.5.2 of ABINIT

 ABINIT is a project of the Universite Catholique de Louvain,
 Corning Inc. and other collaborators, see ~abinit/doc/developers/contributors.txt .
 acknowledgments of the ABINIT effort.

.Starting date : Mon 31 May 2021.
- ( at 22h26 )

- input  file    -> /scratch/users/j/a/jabreu/flow_simple_11atoms/flow/w361/t1/run.abi
- output file    -> /scratch/users/j/a/jabreu/flow_simple_11atoms/flow/w361/t1/run.abo
- root for input  files -> /scratch/users/j/a/jabreu/flow_simple_11atoms/flow/w361/t1/indata/in
- root for output files -> /scratch/users/j/a/jabreu/flow_simple_11atoms/flow/w361/t1/outdata/out

 Symmetries : space group Cm m m (# 65); Bravais oC (1-face-center ortho.)
     intxc =       0      iscf =       7    lmnmax =      32     lnmax =       8
     mgfft =      72  mpssoang =       4    mqgrid =    3107     natom =      11
  nloc_mem =       1    nspden =       1   nspinor =       1    nsppol =       1
      nsym =       8    n1xccc =    2501    ntypat =       3    occopt =       1
   xclevel =       2
-    mband =          53        mffmem =           1         mkmem =           2
-   mkqmem =           2        mk1mem =           2           mpw =       12404
      nfft =      233280          nkpt =           2
  Rough estimation (10% accuracy) of disk space for files :

------------- Echo of variables that govern the present computation ------------
-
- outvars: echo of selected default values
-   iomode0 =  0 , fftalg0 =512 , wfoptalg0 =  0
-
- outvars: echo of global parameters not present in the input file
-  max_nthreads =    0
-
 -outvars: echo values of preprocessed input variables --------
            acell      1.0000000000E+00  1.0000000000E+00  1.0000000000E+00 Bohr
              amu      1.80947900E+02  1.59994000E+01  1.89984032E+01
             ecut      4.40000000E+01 Hartree
-          fftalg         512
           irdden           1
           irdwfk           1
           istwfk        0    1
              ixc     -116133
              kpt     -5.00000000E-01  5.00000000E-01  5.00000000E-01
                       0.00000000E+00  5.00000000E-01  0.00000000E+00
           kptopt           0
P           mkmem           2
P          mkqmem           2
P          mk1mem           2
            natom          11
            nband          53
           nbdbuf           4
            ngfft          72      72      45
             nkpt           2
            nstep        2000
             nsym           8
           ntypat           3
              occ      2.000000  2.000000  2.000000  2.000000  2.000000  2.000000
                       2.000000  2.000000  2.000000  2.000000  2.000000  2.000000
                       2.000000  2.000000  2.000000  2.000000  2.000000  2.000000
                       2.000000  2.000000  2.000000  2.000000  2.000000  2.000000
                       2.000000  2.000000  2.000000  2.000000  2.000000  2.000000
                       2.000000  2.000000  2.000000  2.000000  2.000000  2.000000
                       2.000000  2.000000  2.000000  2.000000  2.000000  2.000000
                       2.000000  2.000000  0.000000  0.000000  0.000000  0.000000
                       0.000000  0.000000  0.000000  0.000000  0.000000
        optdriver           1
            prtwf          -1
            rfdir           1       1       1
           rfelfd           2
            rprim      1.1769312419E+01  0.0000000000E+00  0.0000000000E+00
                      -5.4999895892E+00  1.0405134758E+01  0.0000000000E+00
                       0.0000000000E+00  0.0000000000E+00  7.2493255774E+00
          spgroup          65
           symrel      1  0  0   0  1  0   0  0  1      -1  0  0   0 -1  0   0  0 -1
                       0 -1  0  -1  0  0   0  0 -1       0  1  0   1  0  0   0  0  1
                      -1  0  0   0 -1  0   0  0  1       1  0  0   0  1  0   0  0 -1
                       0  1  0   1  0  0   0  0 -1       0 -1  0  -1  0  0   0  0  1
           tolwfr      1.00000000E-20
            typat      1  1  1  2  2  2  2  2  2  2  3
           useylm           1
              wtk        0.50000    0.50000
           xangst      0.0000000000E+00  0.0000000000E+00  0.0000000000E+00
                      -1.5154963888E-01  3.8438504120E+00  0.0000000000E+00
                       3.4691323935E+00  1.6623097542E+00  0.0000000000E+00
                       1.3458648434E+00  5.2559657544E+00  0.0000000000E+00
                       4.0178038994E+00  3.6460636327E+00  0.0000000000E+00
                       0.0000000000E+00  0.0000000000E+00  1.9180889366E+00
                      -3.7528311975E-02  3.7751500516E+00  1.9180889366E+00
                       3.3551110666E+00  1.7310101146E+00  1.9180889366E+00
                       1.9717179113E+00  2.5019441179E-01  0.0000000000E+00
                      -7.0022114474E-01  1.8600965335E+00  0.0000000000E+00
                       1.6587913773E+00  2.7530800831E+00  0.0000000000E+00
            xcart      0.0000000000E+00  0.0000000000E+00  0.0000000000E+00
                      -2.8638731301E-01  7.2638245745E+00  0.0000000000E+00
                       6.5557101425E+00  3.1413101834E+00  0.0000000000E+00
                       2.5433159658E+00  9.9323358396E+00  0.0000000000E+00
                       7.5925490255E+00  6.8900617289E+00  0.0000000000E+00
                       0.0000000000E+00  0.0000000000E+00  3.6246627887E+00
                      -7.0918231862E-02  7.1339997081E+00  3.6246627887E+00
                       6.3402410614E+00  3.2711350498E+00  3.6246627887E+00
                       3.7260068637E+00  4.7279891826E-01  0.0000000000E+00
                      -1.3232261960E+00  3.5150730290E+00  0.0000000000E+00
                       3.1346614148E+00  5.2025673790E+00  0.0000000000E+00
             xred      0.0000000000E+00  0.0000000000E+00  0.0000000000E+00
                       3.0190000000E-01  6.9810000000E-01  0.0000000000E+00
                       6.9810000000E-01  3.0190000000E-01  0.0000000000E+00
                       6.6217900000E-01  9.5456100000E-01  0.0000000000E+00
                       9.5456100000E-01  6.6217900000E-01  0.0000000000E+00
                       0.0000000000E+00  0.0000000000E+00  5.0000000000E-01
                       3.1437700000E-01  6.8562300000E-01  5.0000000000E-01
                       6.8562300000E-01  3.1437700000E-01  5.0000000000E-01
                       3.3782100000E-01  4.5439000000E-02  0.0000000000E+00
                       4.5439000000E-02  3.3782100000E-01  0.0000000000E+00
                       5.0000000000E-01  5.0000000000E-01  0.0000000000E+00
            znucl       73.00000    8.00000    9.00000

 chkinp: Checking input parameters for consistency.

== DATASET  1 ==================================================================
-   mpi_nproc: 1, omp_nthreads: -1 (-1 if OMP is not activated)

--- !DatasetInfo
iteration_state: {dtset: 1, }
dimensions: {natom: 11, nkpt: 2, mband: 53, nsppol: 1, nspinor: 1, nspden: 1, mpw: 12404, }
cutoff_energies: {ecut:  44.0, pawecutdg:  -1.0, }
electrons: {nelect:   8.80000000E+01, charge:   0.00000000E+00, occopt:   1.00000000E+00, tsmear:   1.00000000E-02, }
meta: {optdriver: 1, rfelfd: 2, }
...

 Real(R)+Recip(G) space primitive vectors, cartesian coordinates (Bohr,Bohr^-1):
 R(1)= 11.7693124  0.0000000  0.0000000  G(1)=  0.0849667  0.0449121  0.0000000
 R(2)= -5.4999896 10.4051348  0.0000000  G(2)=  0.0000000  0.0961064  0.0000000
 R(3)=  0.0000000  0.0000000  7.2493256  G(3)=  0.0000000  0.0000000  0.1379439
 Unit cell volume ucvol=  8.8776170E+02 bohr^3
 Angles (23,13,12)=  9.00000000E+01  9.00000000E+01  1.17860222E+02 degrees

 getcut: wavevector=  0.0000  0.0000  0.0000  ngfft=  72  72  45
         ecut(hartree)=     44.000   => boxcut(ratio)=   2.03265

--- Pseudopotential description ------------------------------------------------
- pspini: atom type   1  psp file is /scratch/users/j/a/jabreu/pseudos/PBEsol/Ta.psp8
- pspatm: opening atomic psp file    /scratch/users/j/a/jabreu/pseudos/PBEsol/Ta.psp8
- Ta    ONCVPSP-3.3.0  r_core=   1.71294   1.71294   1.71294   2.25368
- 73.00000  13.00000    180112                znucl, zion, pspdat
    8 -116133    3    4       600   0.00000   pspcod,pspxc,lmax,lloc,mmax,r2well
    5.99000000000000    5.00000000000000    0.00000000000000   rchrg,fchrg,qchrg
     nproj     2     2     2     2
     extension_switch     1
  pspatm : epsatm=   21.70781236
         --- l  ekb(1:nproj) -->
             0   11.480337    1.447149
             1    5.630373    0.817168
             2    1.844704    0.232364
             3    4.923559    0.251242
 pspatm: atomic psp has been read  and splines computed

- pspini: atom type   2  psp file is /scratch/users/j/a/jabreu/pseudos/PBEsol/O.psp8
- pspatm: opening atomic psp file    /scratch/users/j/a/jabreu/pseudos/PBEsol/O.psp8
- O     ONCVPSP-3.3.0  r_core=   1.35509   1.45563   1.26150
-  8.00000   6.00000    180112                znucl, zion, pspdat
    8 -116133    2    4       600   0.00000   pspcod,pspxc,lmax,lloc,mmax,r2well
    5.99000000000000    4.00000000000000    0.00000000000000   rchrg,fchrg,qchrg
     nproj     2     2     1
     extension_switch     1
  pspatm : epsatm=    6.22910522
         --- l  ekb(1:nproj) -->
             0    6.050032    0.820363
             1   -4.739617   -1.153841
             2   -1.335834
 pspatm: atomic psp has been read  and splines computed

- pspini: atom type   3  psp file is /scratch/users/j/a/jabreu/pseudos/PBEsol/F.psp8
- pspatm: opening atomic psp file    /scratch/users/j/a/jabreu/pseudos/PBEsol/F.psp8
- F     ONCVPSP-3.3.0  r_core=   1.30942   1.45782   1.60379
-  9.00000   7.00000    180112                znucl, zion, pspdat
    8 -116133    2    4       600   0.00000   pspcod,pspxc,lmax,lloc,mmax,r2well
    5.99000000000000    2.50000000000000    0.00000000000000   rchrg,fchrg,qchrg
     nproj     2     2     1
     extension_switch     1
  pspatm : epsatm=    4.89824824
         --- l  ekb(1:nproj) -->
             0    6.506434    1.065875
             1   -3.978753   -1.295852
             2   -2.394754
 pspatm: atomic psp has been read  and splines computed

   9.99903712E+03                                ecore*ucvol(ha*bohr**3)

 ==>  initialize data related to q vector <==

 The list of irreducible perturbations for this q vector is:
    1)    idir= 1    ipert=  12
    2)    idir= 2    ipert=  12
    3)    idir= 3    ipert=  12

 Perturbation wavevector (in red.coord.)   0.000000  0.000000  0.000000
 Perturbation : derivative vs k along direction   1

 dfpt_looppert : COMMENT -
  In a d/dk calculation, iscf is set to -3 automatically.
 The set of symmetries contains only one element for this perturbation.
 symkpt : not enough symmetry to change the number of k points.

 Initialisation of the first-order wave-functions :
  ireadwf=   0

--- !BeginCycle
iteration_state: {dtset: 1, }
solver: {iscf: 7, nstep: 2000, nline: 4, wfoptalg: 0, }
tolerances: {tolwfr: 1.00E-20, }
...

     iter   2DEtotal(Ha)        deltaE(Ha) residm    vres2
-ETOT  1  -33.834362627599     -3.383E+01 6.902E-02 0.000E+00
[...]
  -0.00000    0.00000   -0.00000   -0.00000    0.00000    0.00000   -0.00000   -0.00000
   0.00000    0.00000    0.00000    0.00000    0.00000   -0.00000    0.00000    0.00000
  -0.00000   -0.00000    0.00000    0.00000    0.00000    0.00000    0.00000    0.00000
   0.00000    0.00000   -0.00000    0.00000    0.00000   -0.00000   -0.00000    0.00000
  -0.00000   -0.00000   -0.00000    0.00000    0.00000    0.00000    0.00000   -0.00000
  -0.00000    0.00000   -0.00000   -0.00000   -0.00000   -0.00000    0.00000   -0.00000
  -0.00000    0.00000    0.00000    0.00000   -0.00002
 prteigrs : prtvol=0 or 1, do not print more k-points.

 Eight components of 2nd-order total energy (hartree) are
 1,2,3: 0th-order hamiltonian combined with 1st-order wavefunctions
     kin0=   5.61621315E+01 eigvalue=   2.39440296E-01  local=  -2.99735608E+01
 4,5,6: 1st-order hamiltonian combined with 1st and 0th-order wfs
     kin1=  -6.45952280E+01  Hartree=   0.00000000E+00     xc=   0.00000000E+00
 7,8,9: eventually, occupation + non-local contributions
    edocc=   7.35363954E+00     enl0=   1.52840298E-01   enl1=  -3.27375373E+00
 1-9 gives the relaxation energy (to be shifted if some occ is /=2.0)
   erelax=  -3.39344908E+01
  No Ewald or frozen-wf contrib.: the relaxation energy is the total one
 2DEtotal=   -0.3393449084E+02 Ha. Also 2DEtotal=   -0.923404456362E+03 eV
    (  non-var. 2DEtotal :   -3.3934490841E+01 Ha)

 Perturbation wavevector (in red.coord.)   0.000000  0.000000  0.000000
 Perturbation : derivative vs k along direction   2
 The set of symmetries contains only one element for this perturbation.
 symkpt : not enough symmetry to change the number of k points.

[...]

 Perturbation wavevector (in red.coord.)   0.000000  0.000000  0.000000
 Perturbation : derivative vs k along direction   3
 The set of symmetries contains only one element for this perturbation.
 symkpt : not enough symmetry to change the number of k points.

 Initialisation of the first-order wave-functions :
  ireadwf=   0

--- !BeginCycle
iteration_state: {dtset: 1, }
solver: {iscf: 7, nstep: 2000, nline: 4, wfoptalg: 0, }
tolerances: {tolwfr: 1.00E-20, }
...

     iter   2DEtotal(Ha)        deltaE(Ha) residm    vres2
-ETOT  1  -75.623323412882     -7.562E+01 4.292E-01 0.000E+00
 ETOT  2  -75.853086061533     -2.298E-01 3.165E-02 0.000E+00
 ETOT  3  -75.856200514497     -3.114E-03 3.148E-03 0.000E+00
 ETOT  4  -75.856263127404     -6.261E-05 1.088E-03 0.000E+00
 ETOT  5  -75.856264658072     -1.531E-06 2.099E-04 0.000E+00
 ETOT  6  -75.856264702455     -4.438E-08 8.286E-05 0.000E+00
 ETOT  7  -75.856264703955     -1.500E-09 1.964E-05 0.000E+00
 ETOT  8  -75.856264704011     -5.593E-11 7.777E-06 0.000E+00
 ETOT  9  -75.856264704013     -2.331E-12 2.010E-06 0.000E+00
 ETOT 10  -75.856264704013     -3.695E-13 7.792E-07 0.000E+00
 ETOT 11  -75.856264704013      3.268E-13 2.100E-07 0.000E+00
 ETOT 12  -75.856264704013      1.137E-13 7.969E-08 0.000E+00
 ETOT 13  -75.856264704013     -2.132E-13 2.208E-08 0.000E+00
 ETOT 14  -75.856264704013      2.842E-14 8.232E-09 0.000E+00
 ETOT 15  -75.856264704013      1.421E-14 2.328E-09 0.000E+00
 ETOT 16  -75.856264704013      0.000E+00 8.563E-10 0.000E+00
 ETOT 17  -75.856264704013     -1.421E-14 2.460E-10 0.000E+00
 ETOT 18  -75.856264704013     -2.842E-14 8.988E-11 0.000E+00
 ETOT 19  -75.856264704013      4.263E-14 2.603E-11 0.000E+00
 ETOT 20  -75.856264704013     -5.684E-14 9.496E-12 0.000E+00
 ETOT 21  -75.856264704013      4.263E-14 2.774E-12 0.000E+00
 ETOT 22  -75.856264704013     -4.263E-14 1.014E-12 0.000E+00
 ETOT 23  -75.856264704013      2.842E-14 2.968E-13 0.000E+00
 ETOT 24  -75.856264704013     -2.842E-14 1.090E-13 0.000E+00
 ETOT 25  -75.856264704013     -1.421E-14 3.223E-14 0.000E+00
 ETOT 26  -75.856264704013      1.421E-14 1.201E-14 0.000E+00
 ETOT 27  -75.856264704013     -1.421E-14 3.803E-15 0.000E+00
 ETOT 28  -75.856264704013      0.000E+00 1.378E-15 0.000E+00
 ETOT 29  -75.856264704013      1.421E-14 4.564E-16 0.000E+00
 ETOT 30  -75.856264704013     -1.421E-14 1.612E-16 0.000E+00
 ETOT 31  -75.856264704013      2.842E-14 5.348E-17 0.000E+00
 ETOT 32  -75.856264704013     -2.842E-14 1.886E-17 0.000E+00
 ETOT 33  -75.856264704013      1.421E-14 6.271E-18 0.000E+00
 ETOT 34  -75.856264704013      0.000E+00 2.202E-18 0.000E+00
 ETOT 35  -75.856264704013      0.000E+00 7.365E-19 0.000E+00
 ETOT 36  -75.856264704013      0.000E+00 2.568E-19 0.000E+00
 ETOT 37  -75.856264704013      1.421E-14 8.662E-20 0.000E+00
 ETOT 38  -75.856264704013      0.000E+00 2.992E-20 0.000E+00
 ETOT 39  -75.856264704013      0.000E+00 1.020E-20 0.000E+00
 ETOT 40  -75.856264704013      0.000E+00 9.841E-21 0.000E+00

 At SCF step   40   max residual=  9.84E-21 < tolwfr=  1.00E-20 =>converged.

 ----iterations are completed or convergence reached----

 dfpt_looppert: DFPT cycle converged with prtwf=-1. Will skip output of the 1st-order WFK file.
 dfpt_looppert : ek2=    1.3221392390E+02
          f-sum rule ratio=    1.0988400074E+00
 prteigrs : about to open file /scratch/users/j/a/jabreu/flow_simple_11atoms/flow/w361/t1/tmpdata/tmp_1WF1_EIG
 Expectation of eigenvalue derivatives (hartree) for nkpt=   2  k points:
  (in case of degenerate eigenvalues, averaged derivative)
 kpt#   1, nband= 53, wtk=  0.50000, kpt= -0.5000  0.5000  0.5000 (reduced coord)
   0.00000    0.00000    0.00000    0.00000    0.00000    0.00000    0.00000   -0.00000
  -0.00000   -0.00000   -0.00000   -0.00000    0.00000   -0.00000    0.00000    0.00000
  -0.00000    0.00000    0.00000   -0.00000    0.00000   -0.00000   -0.00000    0.00000
   0.00000    0.00000    0.00000    0.00000   -0.00000    0.00000    0.00000   -0.00000
  -0.00000    0.00000    0.00000   -0.00000   -0.00000    0.00000   -0.00000    0.00000
   0.00000    0.00000   -0.00000    0.00000    0.00000   -0.00000   -0.00000    0.00000
   0.00000    0.00000   -0.00000   -0.00000    0.00003
 prteigrs : prtvol=0 or 1, do not print more k-points.

 Eight components of 2nd-order total energy (hartree) are
 1,2,3: 0th-order hamiltonian combined with 1st-order wavefunctions
     kin0=   1.52168617E+02 eigvalue=  -2.50680828E+00  local=  -9.81831275E+01
 4,5,6: 1st-order hamiltonian combined with 1st and 0th-order wfs
     kin1=  -1.45281949E+02  Hartree=   0.00000000E+00     xc=   0.00000000E+00
 7,8,9: eventually, occupation + non-local contributions
    edocc=   1.56787876E+01     enl0=   8.69879549E+00   enl1=  -6.43058029E+00
 1-9 gives the relaxation energy (to be shifted if some occ is /=2.0)
   erelax=  -7.58562647E+01
  No Ewald or frozen-wf contrib.: the relaxation energy is the total one
 2DEtotal=   -0.7585626470E+02 Ha. Also 2DEtotal=   -0.206415393705E+04 eV
    (  non-var. 2DEtotal :   -7.5856264704E+01 Ha)

 CALCULATION OF EFFECTIVE MASSES
 NOTE : Additional infos (eff. mass eigenvalues, eigenvectors and, if degenerate, average mass) are available in stdout.

 K-point (-0.500, 0.500, 0.500) | band =    44
 Effective mass tensor:
             -3.8837261056              1.3691780785              0.0000000041
              1.3691780785             -2.4362743694              0.0000000070
              0.0000000041              0.0000000070             -1.3214085324
 Effective mass tensor eigenvalues:
             -4.7086860490             -1.6113144260             -1.3214085324
 Angular average effective mass 1/(<1/m>)=  -1.8870855556
 Angular average effective mass for Frohlich model (<m**0.5>)**2=  -2.0296553162
 Effective masses along directions: (cart. coord. / red. coord. -> eff. mass)
    1:   1.000000  0.000000  0.000000 /   0.905958 -0.423369  0.000000 ->  -3.1142525873
    2:   0.000000  1.000000  0.000000 /   0.000000  1.000000  0.000000 ->  -1.9535810590
    3:   0.000000  0.000000  1.000000 /   0.000000  0.000000  1.000000 ->  -1.3214085324
    4:   0.577350  0.577350  0.577350 /   0.802418  0.334427  0.494251 ->  -1.5379314003
    5:   0.000000  0.707107  0.707107 /   0.000000  0.820499  0.571647 ->  -1.5764805321
    6:   0.707107  0.000000  0.707107 /   0.791118 -0.369702  0.487290 ->  -1.8555069087
    7:   0.707107  0.707107  0.000000 /   0.923042  0.384700  0.000000 ->  -1.6751766500

 K-point ( 0.000, 0.500, 0.000) | band =    45
 Effective mass tensor:
              2.5703690473              0.3940657897             -0.0000000892
              0.3940657897              0.5530340711             -0.0000001050
             -0.0000000892             -0.0000001050              0.2352639811
 Effective mass tensor eigenvalues:
              0.2352639811              0.4787897677              2.6446133507
 Angular average effective mass 1/(<1/m>)=   0.4466099485
 Angular average effective mass for Frohlich model (<m**0.5>)**2=   0.5500127031
 Effective masses along directions: (cart. coord. / red. coord. -> eff. mass)
    1:   1.000000  0.000000  0.000000 /   0.905958 -0.423369  0.000000 ->   2.2895764981
    2:   0.000000  1.000000  0.000000 /   0.000000  1.000000  0.000000 ->   0.4926194599
    3:   0.000000  0.000000  1.000000 /   0.000000  0.000000  1.000000 ->   0.2352639811
    4:   0.577350  0.577350  0.577350 /   0.802418  0.334427  0.494251 ->   0.4922195808
    5:   0.000000  0.707107  0.707107 /   0.000000  0.820499  0.571647 ->   0.3184454534
    6:   0.707107  0.000000  0.707107 /   0.791118 -0.369702  0.487290 ->   0.4266842838
    7:   0.707107  0.707107  0.000000 /   0.923042  0.384700  0.000000 ->   1.0844253361

 END OF EFFECTIVE MASSES SECTION

 ---- first-order wavefunction calculations are completed ----

 Total localisation tensor (bohr^2) in cartesian coordinates
  WARNING : still subject to testing - especially symmetries.
      direction              matrix element
   alpha     beta       real part   imaginary part
     1        1       1.0641321709    0.0000000000
     1        2      -0.3709727701    0.0000000000
     1        3       0.0000000000    0.0000000000
     2        1      -0.3709727701    0.0000000000
     2        2       0.7018234493    0.0000000000
     2        3       0.0000000000    0.0000000000
     3        1       0.0000000000    0.0000000000
     3        2       0.0000000000    0.0000000000
     3        3       1.0059792698    0.0000000000

 respfn : d/dk was computed, but no 2DTE, so no DDB output.

== END DATASET(S) ==============================================================

 -outvars: echo values of variables after computation  --------
            acell      1.0000000000E+00  1.0000000000E+00  1.0000000000E+00 Bohr
              amu      1.80947900E+02  1.59994000E+01  1.89984032E+01
             ecut      4.40000000E+01 Hartree
           etotal     -7.5856264704E+01
            fcart      0.0000000000E+00  0.0000000000E+00  0.0000000000E+00
                       0.0000000000E+00  0.0000000000E+00  0.0000000000E+00
                       0.0000000000E+00  0.0000000000E+00  0.0000000000E+00
                       0.0000000000E+00  0.0000000000E+00  0.0000000000E+00
                       0.0000000000E+00  0.0000000000E+00  0.0000000000E+00
                       0.0000000000E+00  0.0000000000E+00  0.0000000000E+00
                       0.0000000000E+00  0.0000000000E+00  0.0000000000E+00
                       0.0000000000E+00  0.0000000000E+00  0.0000000000E+00
                       0.0000000000E+00  0.0000000000E+00  0.0000000000E+00
                       0.0000000000E+00  0.0000000000E+00  0.0000000000E+00
                       0.0000000000E+00  0.0000000000E+00  0.0000000000E+00
-          fftalg         512
           irdden           1
           irdwfk           1
           istwfk        0    1
              ixc     -116133
              kpt     -5.00000000E-01  5.00000000E-01  5.00000000E-01
                       0.00000000E+00  5.00000000E-01  0.00000000E+00
           kptopt           0
P           mkmem           2
P          mkqmem           2
P          mk1mem           2
            natom          11
            nband          53
           nbdbuf           4
            ngfft          72      72      45
             nkpt           2
            nstep        2000
             nsym           8
           ntypat           3
              occ      2.000000  2.000000  2.000000  2.000000  2.000000  2.000000
                       2.000000  2.000000  2.000000  2.000000  2.000000  2.000000
                       2.000000  2.000000  2.000000  2.000000  2.000000  2.000000
                       2.000000  2.000000  2.000000  2.000000  2.000000  2.000000
                       2.000000  2.000000  2.000000  2.000000  2.000000  2.000000
                       2.000000  2.000000  2.000000  2.000000  2.000000  2.000000
                       2.000000  2.000000  2.000000  2.000000  2.000000  2.000000
                       2.000000  2.000000  0.000000  0.000000  0.000000  0.000000
                       0.000000  0.000000  0.000000  0.000000  0.000000
        optdriver           1
            prtwf          -1
            rfdir           1       1       1
           rfelfd           2
            rprim      1.1769312419E+01  0.0000000000E+00  0.0000000000E+00
                      -5.4999895892E+00  1.0405134758E+01  0.0000000000E+00
                       0.0000000000E+00  0.0000000000E+00  7.2493255774E+00
          spgroup          65
           strten      0.0000000000E+00  0.0000000000E+00  0.0000000000E+00
                       0.0000000000E+00  0.0000000000E+00  0.0000000000E+00
           symrel      1  0  0   0  1  0   0  0  1      -1  0  0   0 -1  0   0  0 -1
                       0 -1  0  -1  0  0   0  0 -1       0  1  0   1  0  0   0  0  1
                      -1  0  0   0 -1  0   0  0  1       1  0  0   0  1  0   0  0 -1
                       0  1  0   1  0  0   0  0 -1       0 -1  0  -1  0  0   0  0  1
           tolwfr      1.00000000E-20
            typat      1  1  1  2  2  2  2  2  2  2  3
           useylm           1
              wtk        0.50000    0.50000
           xangst      0.0000000000E+00  0.0000000000E+00  0.0000000000E+00
                      -1.5154963888E-01  3.8438504120E+00  0.0000000000E+00
                       3.4691323935E+00  1.6623097542E+00  0.0000000000E+00
                       1.3458648434E+00  5.2559657544E+00  0.0000000000E+00
                       4.0178038994E+00  3.6460636327E+00  0.0000000000E+00
                       0.0000000000E+00  0.0000000000E+00  1.9180889366E+00
                      -3.7528311975E-02  3.7751500516E+00  1.9180889366E+00
                       3.3551110666E+00  1.7310101146E+00  1.9180889366E+00
                       1.9717179113E+00  2.5019441179E-01  0.0000000000E+00
                      -7.0022114474E-01  1.8600965335E+00  0.0000000000E+00
                       1.6587913773E+00  2.7530800831E+00  0.0000000000E+00
            xcart      0.0000000000E+00  0.0000000000E+00  0.0000000000E+00
                      -2.8638731301E-01  7.2638245745E+00  0.0000000000E+00
                       6.5557101425E+00  3.1413101834E+00  0.0000000000E+00
                       2.5433159658E+00  9.9323358396E+00  0.0000000000E+00
                       7.5925490255E+00  6.8900617289E+00  0.0000000000E+00
                       0.0000000000E+00  0.0000000000E+00  3.6246627887E+00
                      -7.0918231862E-02  7.1339997081E+00  3.6246627887E+00
                       6.3402410614E+00  3.2711350498E+00  3.6246627887E+00
                       3.7260068637E+00  4.7279891826E-01  0.0000000000E+00
                      -1.3232261960E+00  3.5150730290E+00  0.0000000000E+00
                       3.1346614148E+00  5.2025673790E+00  0.0000000000E+00
             xred      0.0000000000E+00  0.0000000000E+00  0.0000000000E+00
                       3.0190000000E-01  6.9810000000E-01  0.0000000000E+00
                       6.9810000000E-01  3.0190000000E-01  0.0000000000E+00
                       6.6217900000E-01  9.5456100000E-01  0.0000000000E+00
                       9.5456100000E-01  6.6217900000E-01  0.0000000000E+00
                       0.0000000000E+00  0.0000000000E+00  5.0000000000E-01
                       3.1437700000E-01  6.8562300000E-01  5.0000000000E-01
                       6.8562300000E-01  3.1437700000E-01  5.0000000000E-01
                       3.3782100000E-01  4.5439000000E-02  0.0000000000E+00
                       4.5439000000E-02  3.3782100000E-01  0.0000000000E+00
                       5.0000000000E-01  5.0000000000E-01  0.0000000000E+00
            znucl       73.00000    8.00000    9.00000

- Timing analysis has been suppressed with timopt=0

 Suggested references for the acknowledgment of ABINIT usage.

 Calculation completed.
.Delivered   2 WARNINGs and   5 COMMENTs to log file.