.Version 9.5.1 of ABINIT

 ABINIT is a project of the Universite Catholique de Louvain,
 Corning Inc. and other collaborators, see ~abinit/doc/developers/contributors.txt .
 acknowledgments of the ABINIT effort.

.Starting date : Wed 19 May 2021.
- ( at 01h35 )

- input  file    -> /scratch/users/j/a/jabreu/flow_simple_8atoms/flow/w444/t1/run.abi
- output file    -> /scratch/users/j/a/jabreu/flow_simple_8atoms/flow/w444/t1/run.abo
- root for input  files -> /scratch/users/j/a/jabreu/flow_simple_8atoms/flow/w444/t1/indata/in
- root for output files -> /scratch/users/j/a/jabreu/flow_simple_8atoms/flow/w444/t1/outdata/out

 Symmetries : space group P6_3/m m c (#194); Bravais hP (primitive hexag.)
     intxc =       0      iscf =       7    lmnmax =      18     lnmax =       6
     mgfft =     108  mpssoang =       3    mqgrid =    5334     natom =       8
  nloc_mem =       1    nspden =       1   nspinor =       1    nsppol =       1
      nsym =      24    n1xccc =    2501    ntypat =       2    occopt =       1
   xclevel =       2
-    mband =          51        mffmem =           1         mkmem =           1
-   mkqmem =           1        mk1mem =           1           mpw =       21695
      nfft =      388800          nkpt =           1
  Rough estimation (10% accuracy) of disk space for files :

------------- Echo of variables that govern the present computation ------------
-
- outvars: echo of selected default values
-   iomode0 =  0 , fftalg0 =512 , wfoptalg0 =  0
-
- outvars: echo of global parameters not present in the input file
-  max_nthreads =    0
-
 -outvars: echo values of preprocessed input variables --------
            acell      1.0000000000E+00  1.0000000000E+00  1.0000000000E+00 Bohr
              amu      2.29897680E+01  1.21753000E+02
             ecut      4.40000000E+01 Hartree
-          fftalg         512
           irdden           1
           irdwfk           1
           istwfk        1
              ixc     -116133
           kptopt           0
P           mkmem           1
P          mkqmem           1
P          mk1mem           1
            natom           8
            nband          51
           nbdbuf           4
            ngfft          60      60     108
             nkpt           1
            nstep        2000
             nsym          24
           ntypat           2
              occ      2.000000  2.000000  2.000000  2.000000  2.000000  2.000000
                       2.000000  2.000000  2.000000  2.000000  2.000000  2.000000
                       2.000000  2.000000  2.000000  2.000000  2.000000  2.000000
                       2.000000  2.000000  2.000000  2.000000  2.000000  2.000000
                       2.000000  2.000000  2.000000  2.000000  2.000000  2.000000
                       2.000000  2.000000  2.000000  2.000000  2.000000  2.000000
                       2.000000  2.000000  2.000000  2.000000  2.000000  2.000000
                       0.000000  0.000000  0.000000  0.000000  0.000000  0.000000
                       0.000000  0.000000  0.000000
        optdriver           1
            prtwf          -1
            rfdir           1       1       1
           rfelfd           2
            rprim      1.0041724569E+01  0.0000000000E+00  0.0000000000E+00
                      -5.0208622844E+00  8.6963885744E+00  0.0000000000E+00
                       0.0000000000E+00  0.0000000000E+00  1.7863051649E+01
          spgroup         194
           symrel      1  0  0   0  1  0   0  0  1      -1  0  0   0 -1  0   0  0 -1
                       0  1  0   1  0  0   0  0  1       0 -1  0  -1  0  0   0  0 -1
                       1  1  0  -1  0  0   0  0  1      -1 -1  0   1  0  0   0  0 -1
                      -1  0  0   1  1  0   0  0  1       1  0  0  -1 -1  0   0  0 -1
                       0  1  0  -1 -1  0   0  0  1       0 -1  0   1  1  0   0  0 -1
                      -1 -1  0   0  1  0   0  0  1       1  1  0   0 -1  0   0  0 -1
                      -1  0  0   0 -1  0   0  0  1       1  0  0   0  1  0   0  0 -1
                       0 -1  0  -1  0  0   0  0  1       0  1  0   1  0  0   0  0 -1
                      -1 -1  0   1  0  0   0  0  1       1  1  0  -1  0  0   0  0 -1
                       1  0  0  -1 -1  0   0  0  1      -1  0  0   1  1  0   0  0 -1
                       0 -1  0   1  1  0   0  0  1       0  1  0  -1 -1  0   0  0 -1
                       1  1  0   0 -1  0   0  0  1      -1 -1  0   0  1  0   0  0 -1
            tnons      0.0000000  0.0000000  0.0000000    -0.0000000 -0.0000000  0.0000000
                       0.0000000  0.0000000  0.5000000    -0.0000000 -0.0000000  0.5000000
                      -0.0000000  0.0000000  0.5000000    -0.0000000 -0.0000000  0.5000000
                      -0.0000000  0.0000000  0.0000000    -0.0000000 -0.0000000  0.0000000
                      -0.0000000 -0.0000000  0.0000000     0.0000000 -0.0000000  0.0000000
                      -0.0000000 -0.0000000  0.5000000     0.0000000 -0.0000000  0.5000000
                      -0.0000000 -0.0000000  0.5000000     0.0000000  0.0000000  0.5000000
                      -0.0000000 -0.0000000  0.0000000     0.0000000  0.0000000  0.0000000
                      -0.0000000 -0.0000000  0.0000000    -0.0000000  0.0000000  0.0000000
                      -0.0000000 -0.0000000  0.5000000    -0.0000000  0.0000000  0.5000000
                       0.0000000 -0.0000000  0.5000000    -0.0000000 -0.0000000  0.5000000
                       0.0000000 -0.0000000  0.0000000    -0.0000000 -0.0000000  0.0000000
           tolwfr      1.00000000E-20
            typat      1  1  1  1  1  1  2  2
           useylm           1
           xangst     -2.3500188843E-16  3.0679537537E+00  7.8079465620E-01
                       2.6569258884E+00  1.5339768769E+00  5.5071545605E+00
                      -4.9163004933E-17 -4.2576411199E-16  7.0895398565E+00
                      -4.9163004933E-17 -4.2576411199E-16  2.3631799522E+00
                      -2.3500188843E-16  3.0679537537E+00  3.9455652481E+00
                       2.6569258884E+00  1.5339768769E+00  8.6719251525E+00
                       2.6569258884E+00  1.5339768769E+00  2.3631799522E+00
                      -2.3500188843E-16  3.0679537537E+00  7.0895398565E+00
            xcart     -4.4408920985E-16  5.7975923829E+00  1.4754880662E+00
                       5.0208622844E+00  2.8987961915E+00  1.0407013891E+01
                      -9.2904615194E-17 -8.0457756887E-16  1.3397288737E+01
                      -9.2904615194E-17 -8.0457756887E-16  4.4657629123E+00
                      -4.4408920985E-16  5.7975923829E+00  7.4560377584E+00
                       5.0208622844E+00  2.8987961915E+00  1.6387563583E+01
                       5.0208622844E+00  2.8987961915E+00  4.4657629123E+00
                      -4.4408920985E-16  5.7975923829E+00  1.3397288737E+01
             xred      3.3333333333E-01  6.6666666667E-01  8.2600000000E-02
                       6.6666666667E-01  3.3333333333E-01  5.8260000000E-01
                      -5.5511151231E-17 -9.2518585385E-17  7.5000000000E-01
                      -5.5511151231E-17 -9.2518585385E-17  2.5000000000E-01
                       3.3333333333E-01  6.6666666667E-01  4.1740000000E-01
                       6.6666666667E-01  3.3333333333E-01  9.1740000000E-01
                       6.6666666667E-01  3.3333333333E-01  2.5000000000E-01
                       3.3333333333E-01  6.6666666667E-01  7.5000000000E-01
            znucl       11.00000   51.00000

 chkinp: Checking input parameters for consistency.

== DATASET  1 ==================================================================
-   mpi_nproc: 1, omp_nthreads: -1 (-1 if OMP is not activated)

--- !DatasetInfo
iteration_state: {dtset: 1, }
dimensions: {natom: 8, nkpt: 1, mband: 51, nsppol: 1, nspinor: 1, nspden: 1, mpw: 21695, }
cutoff_energies: {ecut:  44.0, pawecutdg:  -1.0, }
electrons: {nelect:   8.40000000E+01, charge:   0.00000000E+00, occopt:   1.00000000E+00, tsmear:   1.00000000E-02, }
meta: {optdriver: 1, rfelfd: 2, }
...

 Real(R)+Recip(G) space primitive vectors, cartesian coordinates (Bohr,Bohr^-1):
 R(1)= 10.0417246  0.0000000  0.0000000  G(1)=  0.0995845  0.0574951  0.0000000
 R(2)= -5.0208623  8.6963886  0.0000000  G(2)=  0.0000000  0.1149903  0.0000000
 R(3)=  0.0000000  0.0000000 17.8630516  G(3)=  0.0000000  0.0000000  0.0559815
 Unit cell volume ucvol=  1.5599220E+03 bohr^3
 Angles (23,13,12)=  9.00000000E+01  9.00000000E+01  1.20000000E+02 degrees

 getcut: wavevector=  0.0000  0.0000  0.0000  ngfft=  60  60 108
         ecut(hartree)=     44.000   => boxcut(ratio)=   2.00102

--- Pseudopotential description ------------------------------------------------
- pspini: atom type   1  psp file is /scratch/users/j/a/jabreu/pseudos/PBEsol/Na.psp8
- pspatm: opening atomic psp file    /scratch/users/j/a/jabreu/pseudos/PBEsol/Na.psp8
- Na    ONCVPSP-3.3.0  r_core=   1.20708   1.55069
- 11.00000   9.00000    180112                znucl, zion, pspdat
    8 -116133    1    4       400   0.00000   pspcod,pspxc,lmax,lloc,mmax,r2well
    3.99000000000000    0.00000000000000    0.00000000000000   rchrg,fchrg,qchrg
     nproj     2     2
     extension_switch     1
  pspatm : epsatm=    9.32878306
         --- l  ekb(1:nproj) -->
             0    2.657905   -0.678300
             1   -6.761319   -2.404728
 pspatm: atomic psp has been read  and splines computed

- pspini: atom type   2  psp file is /scratch/users/j/a/jabreu/pseudos/PBEsol/Sb.psp8
- pspatm: opening atomic psp file    /scratch/users/j/a/jabreu/pseudos/PBEsol/Sb.psp8
- Sb    ONCVPSP-3.3.0  r_core=   1.81962   2.12485   1.81962
- 51.00000  15.00000    180112                znucl, zion, pspdat
    8 -116133    2    4       600   0.00000   pspcod,pspxc,lmax,lloc,mmax,r2well
    5.99000000000000    5.00000000000000    0.00000000000000   rchrg,fchrg,qchrg
     nproj     2     2     2
     extension_switch     1
  pspatm : epsatm=   26.35641246
         --- l  ekb(1:nproj) -->
             0    9.727814    1.485032
             1    5.505335    0.704623
             2   -4.710637   -1.436443
 pspatm: atomic psp has been read  and splines computed

   9.12958396E+03                                ecore*ucvol(ha*bohr**3)

-inwffil : will read wavefunctions from disk file /scratch/users/j/a/jabreu/flow_simple_8atoms/flow/w444/t1/indata/in_WFK

 ==>  initialize data related to q vector <==

 The list of irreducible perturbations for this q vector is:
    1)    idir= 1    ipert=   9
    2)    idir= 2    ipert=   9
    3)    idir= 3    ipert=   9

 Perturbation wavevector (in red.coord.)   0.000000  0.000000  0.000000
 Perturbation : derivative vs k along direction   1

 dfpt_looppert : COMMENT -
  In a d/dk calculation, iscf is set to -3 automatically.
 The set of symmetries contains only one element for this perturbation.
 symkpt : not enough symmetry to change the number of k points.

[...]

 Initialisation of the first-order wave-functions :
  ireadwf=   0

--- !BeginCycle
iteration_state: {dtset: 1, }
solver: {iscf: 7, nstep: 2000, nline: 4, wfoptalg: 0, }
tolerances: {tolwfr: 1.00E-20, }
...

[...]
 4,5,6: 1st-order hamiltonian combined with 1st and 0th-order wfs
     kin1=  -1.31702358E+02  Hartree=   0.00000000E+00     xc=   0.00000000E+00
 7,8,9: eventually, occupation + non-local contributions
    edocc=   3.03754686E+01     enl0=   6.60978777E+00   enl1=  -4.99450279E+01
 1-9 gives the relaxation energy (to be shifted if some occ is /=2.0)
   erelax=  -9.08236928E+01
  No Ewald or frozen-wf contrib.: the relaxation energy is the total one
 2DEtotal=   -0.9082369281E+02 Ha. Also 2DEtotal=   -0.247143836850E+04 eV
    (  non-var. 2DEtotal :   -9.0823692805E+01 Ha)

 Perturbation wavevector (in red.coord.)   0.000000  0.000000  0.000000
 Perturbation : derivative vs k along direction   2
 The set of symmetries contains only one element for this perturbation.
 symkpt : not enough symmetry to change the number of k points.

[...]

 Perturbation wavevector (in red.coord.)   0.000000  0.000000  0.000000
 Perturbation : derivative vs k along direction   3
 The set of symmetries contains only one element for this perturbation.
 symkpt : not enough symmetry to change the number of k points.

-inwffil : will read wavefunctions from disk file /scratch/users/j/a/jabreu/flow_simple_8atoms/flow/w444/t1/indata/in_WFK

 Initialisation of the first-order wave-functions :
  ireadwf=   0

--- !BeginCycle
iteration_state: {dtset: 1, }
solver: {iscf: 7, nstep: 2000, nline: 4, wfoptalg: 0, }
tolerances: {tolwfr: 1.00E-20, }
...

     iter   2DEtotal(Ha)        deltaE(Ha) residm    vres2
-ETOT  1  -18.864408904172     -1.886E+01 8.750E-03 0.000E+00
 ETOT  2  -18.873911010428     -9.502E-03 8.434E-06 0.000E+00
 ETOT  3  -18.873914369033     -3.359E-06 1.669E-07 0.000E+00
 ETOT  4  -18.873914371943     -2.910E-09 1.910E-10 0.000E+00
 ETOT  5  -18.873914371947     -4.839E-12 5.902E-11 0.000E+00
 ETOT  6  -18.873914371947     -1.137E-13 7.522E-14 0.000E+00
 ETOT  7  -18.873914371947      1.847E-13 3.322E-14 0.000E+00
 ETOT  8  -18.873914371947      1.421E-14 6.361E-17 0.000E+00
 ETOT  9  -18.873914371947      1.776E-14 2.219E-17 0.000E+00
 ETOT 10  -18.873914371947      3.553E-15 4.680E-20 0.000E+00
 ETOT 11  -18.873914371947     -1.066E-14 1.783E-20 0.000E+00
 ETOT 12  -18.873914371947      3.553E-15 9.922E-21 0.000E+00

 At SCF step   12   max residual=  9.92E-21 < tolwfr=  1.00E-20 =>converged.

 ----iterations are completed or convergence reached----

 dfpt_looppert: DFPT cycle converged with prtwf=-1. Will skip output of the 1st-order WFK file.
 dfpt_looppert : ek2=    2.0785367643E+01
          f-sum rule ratio=    1.2603994634E+00
 prteigrs : about to open file /scratch/users/j/a/jabreu/flow_simple_8atoms/flow/w444/t1/tmpdata/tmp_1WF1_EIG
 Expectation of eigenvalue derivatives (hartree) for nkpt=   1  k points:
  (in case of degenerate eigenvalues, averaged derivative)
 kpt#   1, nband= 51, wtk=  1.00000, kpt=  0.0000  0.0000  0.0000 (reduced coord)
   0.00000   -0.00000    0.00000    0.00000    0.00000   -0.00000    0.00000    0.00000
   0.00000    0.00000    0.00000    0.00000    0.00000    0.00000   -0.00000   -0.00000
   0.00000    0.00000   -0.00000   -0.00000   -0.00000   -0.00000   -0.00000   -0.00000
  -0.00000   -0.00000    0.00000   -0.00000    0.00000   -0.00000    0.00000    0.00000
  -0.00000   -0.00000   -0.00000    0.00000    0.00000    0.00000    0.00000    0.00000
  -0.00000   -0.00000   -0.00000   -0.00000    0.00000   -0.00000   -0.00000    0.00000
   0.00000    0.00000   -0.00000

 Eight components of 2nd-order total energy (hartree) are
 1,2,3: 0th-order hamiltonian combined with 1st-order wavefunctions
     kin0=   2.01283016E+01 eigvalue=   3.24924668E+00  local=  -9.88731501E+00
 4,5,6: 1st-order hamiltonian combined with 1st and 0th-order wfs
     kin1=  -2.61978662E+01  Hartree=   0.00000000E+00     xc=   0.00000000E+00
 7,8,9: eventually, occupation + non-local contributions
    edocc=   4.02623471E+00     enl0=   1.35744641E+00   enl1=  -1.15499625E+01
 1-9 gives the relaxation energy (to be shifted if some occ is /=2.0)
   erelax=  -1.88739144E+01
  No Ewald or frozen-wf contrib.: the relaxation energy is the total one
 2DEtotal=   -0.1887391437E+02 Ha. Also 2DEtotal=   -0.513585328916E+03 eV
    (  non-var. 2DEtotal :   -1.8873914372E+01 Ha)

 CALCULATION OF EFFECTIVE MASSES
 NOTE : Additional infos (eff. mass eigenvalues, eigenvectors and, if degenerate, average mass) are available in stdout.

 COMMENTS:
 - At k-point ( 0.000, 0.000, 0.000), bands    41 through    42
   are DEGENERATE (effective mass tensor is therefore not defined).
   See Section IIIB Eqs. (67)-(70) and Appendix E of PRB 93 205147 (2016).
 - Angular average effective mass for Frohlich model is to be averaged over degenerate bands. See later.
 - Associated theta integrals calculated with ntheta=   1000 points.

 K-point ( 0.000, 0.000, 0.000) | band =    41
 Transport equivalent effective mass tensor:
             -0.0598793473              0.0000000831             -0.0000000032
              0.0000000831             -0.0598790891             -0.0000000040
             -0.0000000032             -0.0000000040             -4.0201276317
 Transport equivalent effective mass tensor eigenvalues:
             -4.0201276317             -0.0598793717             -0.0598790646
 Angular average effective mass 1/(<1/m>)=  -0.0891548528
 Angular average effective mass for Frohlich model (<m**0.5>)**2=  -0.1275259731
 Effective masses along directions: (cart. coord. / red. coord. -> eff. mass)
    1:   1.000000  0.000000  0.000000 /   0.894427 -0.447214  0.000000 ->  -0.0598792181
    2:   0.000000  1.000000  0.000000 /   0.000000  1.000000  0.000000 ->  -0.0598792181
    3:   0.000000  0.000000  1.000000 /   0.000000  0.000000  1.000000 ->  -4.0200772087
    4:   0.577350  0.577350  0.577350 /   0.482333  0.176546  0.858013 ->  -0.0891548482
    5:   0.000000  0.707107  0.707107 /   0.000000  0.437720  0.899111 ->  -0.1180008169
    6:   0.707107  0.000000  0.707107 /   0.475952 -0.237976  0.846662 ->  -0.1180008483
    7:   0.707107  0.707107  0.000000 /   0.939071  0.343724  0.000000 ->  -0.0598792181

 K-point ( 0.000, 0.000, 0.000) | band =    42
 Transport equivalent effective mass tensor:
             -3.9268114539             -0.0000054492             -0.0000004530
             -0.0000054492             -3.9268283818             -0.0000000611
             -0.0000004530             -0.0000000611             -4.0201276470
 Transport equivalent effective mass tensor eigenvalues:
             -4.0201276470             -3.9268299843             -3.9268098514
 Angular average effective mass 1/(<1/m>)=  -3.9574374709
 Angular average effective mass for Frohlich model (<m**0.5>)**2=  -3.9575823719
 Effective masses along directions: (cart. coord. / red. coord. -> eff. mass)
    1:   1.000000  0.000000  0.000000 /   0.894427 -0.447214  0.000000 ->  -3.9268198526
    2:   0.000000  1.000000  0.000000 /   0.000000  1.000000  0.000000 ->  -3.9268198470
    3:   0.000000  0.000000  1.000000 /   0.000000  0.000000  1.000000 ->  -4.0201780764
    4:   0.577350  0.577350  0.577350 /   0.482333  0.176546  0.858013 ->  -3.9574471904
    5:   0.000000  0.707107  0.707107 /   0.000000  0.437720  0.899111 ->  -3.9729422236
    6:   0.707107  0.000000  0.707107 /   0.475952 -0.237976  0.846662 ->  -3.9729070042
    7:   0.707107  0.707107  0.000000 /   0.939071  0.343724  0.000000 ->  -3.9268199661

 Angular average effective mass for Frohlich model, averaged over degenerate bands.
 Value of     (<<m**0.5>>)**2 =     1.376486E+00
 Absolute Value of <<m**0.5>> =     1.173238E+00

 K-point ( 0.000, 0.000, 0.000) | band =    43
 Effective mass tensor:
              0.0593700232              0.0000000000             -0.0000000000
              0.0000000000              0.0593700233             -0.0000000000
             -0.0000000000             -0.0000000000              0.0746283105
 Effective mass tensor eigenvalues:
              0.0593700232              0.0593700233              0.0746283105
 Angular average effective mass 1/(<1/m>)=   0.0637121574
 Angular average effective mass for Frohlich model (<m**0.5>)**2=   0.0639254274
 Effective masses along directions: (cart. coord. / red. coord. -> eff. mass)
    1:   1.000000  0.000000  0.000000 /   0.894427 -0.447214  0.000000 ->   0.0593700232
    2:   0.000000  1.000000  0.000000 /   0.000000  1.000000  0.000000 ->   0.0593700233
    3:   0.000000  0.000000  1.000000 /   0.000000  0.000000  1.000000 ->   0.0746283105
    4:   0.577350  0.577350  0.577350 /   0.482333  0.176546  0.858013 ->   0.0637121574
    5:   0.000000  0.707107  0.707107 /   0.000000  0.437720  0.899111 ->   0.0661304422
    6:   0.707107  0.000000  0.707107 /   0.475952 -0.237976  0.846662 ->   0.0661304421
    7:   0.707107  0.707107  0.000000 /   0.939071  0.343724  0.000000 ->   0.0593700233

 END OF EFFECTIVE MASSES SECTION

 ---- first-order wavefunction calculations are completed ----

 Total localisation tensor (bohr^2) in cartesian coordinates
  WARNING : still subject to testing - especially symmetries.
      direction              matrix element
   alpha     beta       real part   imaginary part
     1        1      23.0670760400    0.0000000000
     1        2      -7.9906696254    0.0000000000
     1        3       0.0000000000    0.0000000000
     2        1      -7.9906696254    0.0000000000
     2        2      13.8402457778    0.0000000000
     2        3       0.0000000000    0.0000000000
     3        1       0.0000000000    0.0000000000
     3        2       0.0000000000    0.0000000000
     3        3       6.7053501888    0.0000000000

 respfn : d/dk was computed, but no 2DTE, so no DDB output.

== END DATASET(S) ==============================================================

 -outvars: echo values of variables after computation  --------
            acell      1.0000000000E+00  1.0000000000E+00  1.0000000000E+00 Bohr
              amu      2.29897680E+01  1.21753000E+02
             ecut      4.40000000E+01 Hartree
           etotal     -1.8873914372E+01
            fcart      0.0000000000E+00  0.0000000000E+00  0.0000000000E+00
                       0.0000000000E+00  0.0000000000E+00  0.0000000000E+00
                       0.0000000000E+00  0.0000000000E+00  0.0000000000E+00
                       0.0000000000E+00  0.0000000000E+00  0.0000000000E+00
                       0.0000000000E+00  0.0000000000E+00  0.0000000000E+00
                       0.0000000000E+00  0.0000000000E+00  0.0000000000E+00
                       0.0000000000E+00  0.0000000000E+00  0.0000000000E+00
                       0.0000000000E+00  0.0000000000E+00  0.0000000000E+00
-          fftalg         512
           irdden           1
           irdwfk           1
           istwfk        1
              ixc     -116133
           kptopt           0
P           mkmem           1
P          mkqmem           1
P          mk1mem           1
            natom           8
            nband          51
           nbdbuf           4
            ngfft          60      60     108
             nkpt           1
            nstep        2000
             nsym          24
           ntypat           2
              occ      2.000000  2.000000  2.000000  2.000000  2.000000  2.000000
                       2.000000  2.000000  2.000000  2.000000  2.000000  2.000000
                       2.000000  2.000000  2.000000  2.000000  2.000000  2.000000
                       2.000000  2.000000  2.000000  2.000000  2.000000  2.000000
                       2.000000  2.000000  2.000000  2.000000  2.000000  2.000000
                       2.000000  2.000000  2.000000  2.000000  2.000000  2.000000
                       2.000000  2.000000  2.000000  2.000000  2.000000  2.000000
                       0.000000  0.000000  0.000000  0.000000  0.000000  0.000000
                       0.000000  0.000000  0.000000
        optdriver           1
            prtwf          -1
            rfdir           1       1       1
           rfelfd           2
            rprim      1.0041724569E+01  0.0000000000E+00  0.0000000000E+00
                      -5.0208622844E+00  8.6963885744E+00  0.0000000000E+00
                       0.0000000000E+00  0.0000000000E+00  1.7863051649E+01
          spgroup         194
           strten      0.0000000000E+00  0.0000000000E+00  0.0000000000E+00
                       0.0000000000E+00  0.0000000000E+00  0.0000000000E+00
           symrel      1  0  0   0  1  0   0  0  1      -1  0  0   0 -1  0   0  0 -1
                       0  1  0   1  0  0   0  0  1       0 -1  0  -1  0  0   0  0 -1
                       1  1  0  -1  0  0   0  0  1      -1 -1  0   1  0  0   0  0 -1
                      -1  0  0   1  1  0   0  0  1       1  0  0  -1 -1  0   0  0 -1
                       0  1  0  -1 -1  0   0  0  1       0 -1  0   1  1  0   0  0 -1
                      -1 -1  0   0  1  0   0  0  1       1  1  0   0 -1  0   0  0 -1
                      -1  0  0   0 -1  0   0  0  1       1  0  0   0  1  0   0  0 -1
                       0 -1  0  -1  0  0   0  0  1       0  1  0   1  0  0   0  0 -1
                      -1 -1  0   1  0  0   0  0  1       1  1  0  -1  0  0   0  0 -1
                       1  0  0  -1 -1  0   0  0  1      -1  0  0   1  1  0   0  0 -1
                       0 -1  0   1  1  0   0  0  1       0  1  0  -1 -1  0   0  0 -1
                       1  1  0   0 -1  0   0  0  1      -1 -1  0   0  1  0   0  0 -1
            tnons      0.0000000  0.0000000  0.0000000    -0.0000000 -0.0000000  0.0000000
                       0.0000000  0.0000000  0.5000000    -0.0000000 -0.0000000  0.5000000
                      -0.0000000  0.0000000  0.5000000    -0.0000000 -0.0000000  0.5000000
                      -0.0000000  0.0000000  0.0000000    -0.0000000 -0.0000000  0.0000000
                      -0.0000000 -0.0000000  0.0000000     0.0000000 -0.0000000  0.0000000
                      -0.0000000 -0.0000000  0.5000000     0.0000000 -0.0000000  0.5000000
                      -0.0000000 -0.0000000  0.5000000     0.0000000  0.0000000  0.5000000
                      -0.0000000 -0.0000000  0.0000000     0.0000000  0.0000000  0.0000000
                      -0.0000000 -0.0000000  0.0000000    -0.0000000  0.0000000  0.0000000
                      -0.0000000 -0.0000000  0.5000000    -0.0000000  0.0000000  0.5000000
                       0.0000000 -0.0000000  0.5000000    -0.0000000 -0.0000000  0.5000000
                       0.0000000 -0.0000000  0.0000000    -0.0000000 -0.0000000  0.0000000
           tolwfr      1.00000000E-20
            typat      1  1  1  1  1  1  2  2
           useylm           1
           xangst     -2.3500188843E-16  3.0679537537E+00  7.8079465620E-01
                       2.6569258884E+00  1.5339768769E+00  5.5071545605E+00
                      -4.9163004933E-17 -4.2576411199E-16  7.0895398565E+00
                      -4.9163004933E-17 -4.2576411199E-16  2.3631799522E+00
                      -2.3500188843E-16  3.0679537537E+00  3.9455652481E+00
                       2.6569258884E+00  1.5339768769E+00  8.6719251525E+00
                       2.6569258884E+00  1.5339768769E+00  2.3631799522E+00
                      -2.3500188843E-16  3.0679537537E+00  7.0895398565E+00
            xcart     -4.4408920985E-16  5.7975923829E+00  1.4754880662E+00
                       5.0208622844E+00  2.8987961915E+00  1.0407013891E+01
                      -9.2904615194E-17 -8.0457756887E-16  1.3397288737E+01
                      -9.2904615194E-17 -8.0457756887E-16  4.4657629123E+00
                      -4.4408920985E-16  5.7975923829E+00  7.4560377584E+00
                       5.0208622844E+00  2.8987961915E+00  1.6387563583E+01
                       5.0208622844E+00  2.8987961915E+00  4.4657629123E+00
                      -4.4408920985E-16  5.7975923829E+00  1.3397288737E+01
             xred      3.3333333333E-01  6.6666666667E-01  8.2600000000E-02
                       6.6666666667E-01  3.3333333333E-01  5.8260000000E-01
                      -5.5511151231E-17 -9.2518585385E-17  7.5000000000E-01
                      -5.5511151231E-17 -9.2518585385E-17  2.5000000000E-01
                       3.3333333333E-01  6.6666666667E-01  4.1740000000E-01
                       6.6666666667E-01  3.3333333333E-01  9.1740000000E-01
                       6.6666666667E-01  3.3333333333E-01  2.5000000000E-01
                       3.3333333333E-01  6.6666666667E-01  7.5000000000E-01
            znucl       11.00000   51.00000

- Timing analysis has been suppressed with timopt=0

 Suggested references for the acknowledgment of ABINIT usage.

 Calculation completed.
.Delivered   6 WARNINGs and   5 COMMENTs to log file.