.Version 9.5.1 of ABINIT

 ABINIT is a project of the Universite Catholique de Louvain,
 Corning Inc. and other collaborators, see ~abinit/doc/developers/contributors.txt .
 acknowledgments of the ABINIT effort.

.Starting date : Wed  5 May 2021.
- ( at 19h42 )

- input  file    -> /scratch/users/j/a/jabreu/flow_simple_7atoms/flow/w125/t1/run.abi
- output file    -> /scratch/users/j/a/jabreu/flow_simple_7atoms/flow/w125/t1/run.abo
- root for input  files -> /scratch/users/j/a/jabreu/flow_simple_7atoms/flow/w125/t1/indata/in
- root for output files -> /scratch/users/j/a/jabreu/flow_simple_7atoms/flow/w125/t1/outdata/out

 Symmetries : space group I-4 (# 82); Bravais tI (body-center tetrag.)
     intxc =       0      iscf =       7    lmnmax =      18     lnmax =       6
     mgfft =      90  mpssoang =       3    mqgrid =    3308     natom =       7
  nloc_mem =       1    nspden =       1   nspinor =       1    nsppol =       1
      nsym =       4    n1xccc =    2501    ntypat =       3    occopt =       1
   xclevel =       2
-    mband =          54        mffmem =           1         mkmem =           1
-   mkqmem =           1        mk1mem =           1           mpw =       26083
      nfft =      729000          nkpt =           1
  Rough estimation (10% accuracy) of disk space for files :

------------- Echo of variables that govern the present computation ------------
-
- outvars: echo of selected default values
-   iomode0 =  0 , fftalg0 =512 , wfoptalg0 =  0
-
- outvars: echo of global parameters not present in the input file
-  max_nthreads =    0
-
 -outvars: echo values of preprocessed input variables --------
            acell      1.0000000000E+00  1.0000000000E+00  1.0000000000E+00 Bohr
              amu      2.69815390E+01  1.12411000E+02  1.27600000E+02
             ecut      5.10000000E+01 Hartree
-          fftalg         512
           irdden           1
           irdwfk           1
           istwfk        1
              ixc     -116133
           kptopt           0
P           mkmem           1
P          mkqmem           1
P          mk1mem           1
            natom           7
            nband          54
           nbdbuf           4
            ngfft          90      90      90
             nkpt           1
            nstep        2000
             nsym           4
           ntypat           3
              occ      2.000000  2.000000  2.000000  2.000000  2.000000  2.000000
                       2.000000  2.000000  2.000000  2.000000  2.000000  2.000000
                       2.000000  2.000000  2.000000  2.000000  2.000000  2.000000
                       2.000000  2.000000  2.000000  2.000000  2.000000  2.000000
                       2.000000  2.000000  2.000000  2.000000  2.000000  2.000000
                       2.000000  2.000000  2.000000  2.000000  2.000000  2.000000
                       2.000000  2.000000  2.000000  2.000000  2.000000  2.000000
                       2.000000  2.000000  2.000000  0.000000  0.000000  0.000000
                       0.000000  0.000000  0.000000  0.000000  0.000000  0.000000
        optdriver           1
            prtwf          -1
            rfdir           1       1       1
           rfelfd           2
            rprim      1.0531447410E+01  0.0000000000E+00 -8.9641016868E+00
                      -2.2481357347E+00  1.0288696238E+01 -8.9641016868E+00
                       0.0000000000E+00  0.0000000000E+00  1.3829913362E+01
          spgroup          82
           symrel      1  0  0   0  1  0   0  0  1       0  1  0   1  0  0  -1 -1 -1
                       0  0  1  -1 -1 -1   0  1  0      -1 -1 -1   0  0  1   1  0  0
           tolwfr      1.00000000E-20
            typat      1  1  2  3  3  3  3
           useylm           1
           xangst      5.0100384127E-01  4.0834076663E+00 -1.0843608341E+00
                       2.1916698752E+00  2.7222717775E+00 -4.7435983081E+00
                       0.0000000000E+00  0.0000000000E+00  0.0000000000E+00
                       4.3426331573E+00  2.1156244010E+00  1.1844837221E+00
                       2.7127357260E+00  3.1794446553E+00 -2.2044370519E+00
                       4.5112822241E-01  7.5038877094E-01  2.6751198926E+00
                       1.2601823949E+00  4.8436292829E+00 -5.9926098994E+00
            xcart      9.4676005153E-01  7.7165221783E+00 -2.0491450057E+00
                       4.1416558377E+00  5.1443481188E+00 -8.9641016868E+00
                       0.0000000000E+00  0.0000000000E+00  0.0000000000E+00
                       8.2063873630E+00  3.9979507180E+00  2.2383498436E+00
                       5.1263275930E+00  6.0082796532E+00 -4.1657823052E+00
                       8.5250879116E-01  1.4180292703E+00  5.0552439697E+00
                       2.3813996039E+00  9.1531328339E+00 -1.1324391531E+01
             xred      2.5000000000E-01  7.5000000000E-01  5.0000000000E-01
                       5.0000000000E-01  5.0000000000E-01  0.0000000000E+00
                       0.0000000000E+00  0.0000000000E+00  0.0000000000E+00
                       8.6217600000E-01  3.8857700000E-01  9.7254600000E-01
                       6.1142300000E-01  5.8396900000E-01  4.7359900000E-01
                       1.1037000000E-01  1.3782400000E-01  5.2640100000E-01
                       4.1603100000E-01  8.8963000000E-01  2.7454000000E-02
            znucl       13.00000   48.00000   52.00000

 chkinp: Checking input parameters for consistency.

== DATASET  1 ==================================================================
-   mpi_nproc: 1, omp_nthreads: -1 (-1 if OMP is not activated)

--- !DatasetInfo
iteration_state: {dtset: 1, }
dimensions: {natom: 7, nkpt: 1, mband: 54, nsppol: 1, nspinor: 1, nspden: 1, mpw: 26083, }
cutoff_energies: {ecut:  51.0, pawecutdg:  -1.0, }
electrons: {nelect:   9.00000000E+01, charge:   0.00000000E+00, occopt:   1.00000000E+00, tsmear:   1.00000000E-02, }
meta: {optdriver: 1, rfelfd: 2, }
...

 Real(R)+Recip(G) space primitive vectors, cartesian coordinates (Bohr,Bohr^-1):
 R(1)= 10.5314474  0.0000000 -8.9641017  G(1)=  0.0949537  0.0207479  0.0000000
 R(2)= -2.2481357 10.2886962 -8.9641017  G(2)=  0.0000000  0.0971940  0.0000000
 R(3)=  0.0000000  0.0000000 13.8299134  G(3)=  0.0615459  0.0764461  0.0723070
 Unit cell volume ucvol=  1.4985384E+03 bohr^3
 Angles (23,13,12)=  1.30403588E+02  1.30403588E+02  7.27623815E+01 degrees

 getcut: wavevector=  0.0000  0.0000  0.0000  ngfft=  90  90  90
         ecut(hartree)=     51.000   => boxcut(ratio)=   2.02435

--- Pseudopotential description ------------------------------------------------
- pspini: atom type   1  psp file is /scratch/users/j/a/jabreu/pseudos/PBEsol/Al.psp8
- pspatm: opening atomic psp file    /scratch/users/j/a/jabreu/pseudos/PBEsol/Al.psp8
- Al    ONCVPSP-3.3.0  r_core=   1.76802   1.76802   1.70587
- 13.00000   3.00000    180112                znucl, zion, pspdat
    8 -116133    2    4       600   0.00000   pspcod,pspxc,lmax,lloc,mmax,r2well
    5.99000000000000    5.00000000000000    0.00000000000000   rchrg,fchrg,qchrg
     nproj     2     2     2
     extension_switch     1
  pspatm : epsatm=    0.68509324
         --- l  ekb(1:nproj) -->
             0    5.834965    0.726662
             1    6.225605    0.924840
             2   -2.432733   -0.548689
 pspatm: atomic psp has been read  and splines computed

- pspini: atom type   2  psp file is /scratch/users/j/a/jabreu/pseudos/PBEsol/Cd.psp8
- pspatm: opening atomic psp file    /scratch/users/j/a/jabreu/pseudos/PBEsol/Cd.psp8
- Cd    ONCVPSP-3.3.0  r_core=   1.25838   1.30423   1.35174
- 48.00000  20.00000    180112                znucl, zion, pspdat
    8 -116133    2    4       600   0.00000   pspcod,pspxc,lmax,lloc,mmax,r2well
    5.99000000000000    6.00000000000000    0.00000000000000   rchrg,fchrg,qchrg
     nproj     2     2     2
     extension_switch     1
  pspatm : epsatm=   23.26728021
         --- l  ekb(1:nproj) -->
             0   63.701523    3.700425
             1    8.703569    1.290373
             2    0.983656   -0.721725
 pspatm: atomic psp has been read  and splines computed

- pspini: atom type   3  psp file is /scratch/users/j/a/jabreu/pseudos/PBEsol/Te.psp8
- pspatm: opening atomic psp file    /scratch/users/j/a/jabreu/pseudos/PBEsol/Te.psp8
- Te    ONCVPSP-3.3.0  r_core=   2.26547   1.91704   1.80604
- 52.00000  16.00000    180112                znucl, zion, pspdat
    8 -116133    2    4       600   0.00000   pspcod,pspxc,lmax,lloc,mmax,r2well
    5.99000000000000    5.00000000000000    0.00000000000000   rchrg,fchrg,qchrg
     nproj     2     2     2
     extension_switch     1
  pspatm : epsatm=   36.82679836
         --- l  ekb(1:nproj) -->
             0    6.345999    0.785432
             1    5.709019    1.070069
             2   -6.035173   -1.870937
 pspatm: atomic psp has been read  and splines computed

   1.54750194E+04                                ecore*ucvol(ha*bohr**3)

-inwffil : will read wavefunctions from disk file /scratch/users/j/a/jabreu/flow_simple_7atoms/flow/w125/t1/indata/in_WFK

 ==>  initialize data related to q vector <==

 The list of irreducible perturbations for this q vector is:
    1)    idir= 1    ipert=   8
    2)    idir= 2    ipert=   8
    3)    idir= 3    ipert=   8

 Perturbation wavevector (in red.coord.)   0.000000  0.000000  0.000000
 Perturbation : derivative vs k along direction   1

 dfpt_looppert : COMMENT -
  In a d/dk calculation, iscf is set to -3 automatically.
 The set of symmetries contains only one element for this perturbation.
 symkpt : not enough symmetry to change the number of k points.

[...]

 Initialisation of the first-order wave-functions :
  ireadwf=   0

--- !BeginCycle
iteration_state: {dtset: 1, }
solver: {iscf: 7, nstep: 2000, nline: 4, wfoptalg: 0, }
tolerances: {tolwfr: 1.00E-20, }
...

     iter   2DEtotal(Ha)        deltaE(Ha) residm    vres2
-ETOT  1  -70.331096103456     -7.033E+01 1.874E-01 0.000E+00
 ETOT  2  -70.433541299809     -1.024E-01 9.332E-03 0.000E+00
 ETOT  3  -70.434223472397     -6.822E-04 6.776E-04 0.000E+00
 ETOT  4  -70.434236534274     -1.306E-05 4.971E-05 0.000E+00
 ETOT  5  -70.434236867695     -3.334E-07 4.549E-06 0.000E+00
 ETOT  6  -70.434236877077     -9.382E-09 3.698E-07 0.000E+00
 ETOT  7  -70.434236877356     -2.789E-10 3.563E-08 0.000E+00
 ETOT  8  -70.434236877364     -8.541E-12 3.058E-09 0.000E+00
 ETOT  9  -70.434236877365     -3.268E-13 3.222E-10 0.000E+00
 ETOT 10  -70.434236877365      2.842E-14 3.026E-11 0.000E+00
 ETOT 11  -70.434236877365     -4.263E-14 3.686E-12 0.000E+00
 ETOT 12  -70.434236877365      1.421E-14 3.850E-13 0.000E+00
 ETOT 13  -70.434236877365      1.421E-14 5.324E-14 0.000E+00
 ETOT 14  -70.434236877365      0.000E+00 5.907E-15 0.000E+00
 ETOT 15  -70.434236877365      0.000E+00 8.667E-16 0.000E+00
 ETOT 16  -70.434236877365     -1.421E-14 9.786E-17 0.000E+00
 ETOT 17  -70.434236877365      2.842E-14 1.464E-17 0.000E+00
 ETOT 18  -70.434236877365      1.421E-14 1.657E-18 0.000E+00
 ETOT 19  -70.434236877365     -2.842E-14 2.498E-19 0.000E+00
 ETOT 20  -70.434236877365     -1.421E-14 2.823E-20 0.000E+00
 ETOT 21  -70.434236877365      2.842E-14 9.577E-21 0.000E+00

 At SCF step   21   max residual=  9.58E-21 < tolwfr=  1.00E-20 =>converged.

 ----iterations are completed or convergence reached----

 dfpt_looppert: DFPT cycle converged with prtwf=-1. Will skip output of the 1st-order WFK file.
 dfpt_looppert : ek2=    6.7129212292E+01
          f-sum rule ratio=    1.1296912598E+00
 prteigrs : about to open file /scratch/users/j/a/jabreu/flow_simple_7atoms/flow/w125/t1/tmpdata/tmp_1WF1_EIG
 Expectation of eigenvalue derivatives (hartree) for nkpt=   1  k points:
  (in case of degenerate eigenvalues, averaged derivative)
 kpt#   1, nband= 54, wtk=  1.00000, kpt=  0.0000  0.0000  0.0000 (reduced coord)
   0.00000    0.00000    0.00000    0.00000   -0.00000   -0.00000    0.00000    0.00000
   0.00000   -0.00000   -0.00000   -0.00000   -0.00000   -0.00000   -0.00000   -0.00000
  -0.00000   -0.00000   -0.00000   -0.00000   -0.00000    0.00000   -0.00000   -0.00000
   0.00000   -0.00000   -0.00000   -0.00000    0.00000    0.00000    0.00000   -0.00000
  -0.00000   -0.00000    0.00000    0.00000   -0.00000    0.00000    0.00000    0.00000
  -0.00000   -0.00000   -0.00000   -0.00000   -0.00000    0.00000   -0.00000   -0.00000
  -0.00000   -0.00000    0.00000    0.00000    0.00000    0.00000

 Eight components of 2nd-order total energy (hartree) are
 1,2,3: 0th-order hamiltonian combined with 1st-order wavefunctions
     kin0=   7.55039697E+01 eigvalue=   1.19132371E+01  local=  -4.01086746E+01
 4,5,6: 1st-order hamiltonian combined with 1st and 0th-order wfs
     kin1=  -7.58352844E+01  Hartree=   0.00000000E+00     xc=   0.00000000E+00
 7,8,9: eventually, occupation + non-local contributions
    edocc=   1.34367113E+01     enl0=   9.68899336E+00   enl1=  -6.50331893E+01
 1-9 gives the relaxation energy (to be shifted if some occ is /=2.0)
   erelax=  -7.04342369E+01
  No Ewald or frozen-wf contrib.: the relaxation energy is the total one
 2DEtotal=   -0.7043423688E+02 Ha. Also 2DEtotal=   -0.191661305656E+04 eV
    (  non-var. 2DEtotal :   -7.0434236877E+01 Ha)

 Perturbation wavevector (in red.coord.)   0.000000  0.000000  0.000000
 Perturbation : derivative vs k along direction   2
 The set of symmetries contains only one element for this perturbation.
 symkpt : not enough symmetry to change the number of k points.

[...]

 Perturbation wavevector (in red.coord.)   0.000000  0.000000  0.000000
 Perturbation : derivative vs k along direction   3
 The set of symmetries contains only one element for this perturbation.
 symkpt : not enough symmetry to change the number of k points.

-inwffil : will read wavefunctions from disk file /scratch/users/j/a/jabreu/flow_simple_7atoms/flow/w125/t1/indata/in_WFK

 Initialisation of the first-order wave-functions :
  ireadwf=   0

--- !BeginCycle
iteration_state: {dtset: 1, }
solver: {iscf: 7, nstep: 2000, nline: 4, wfoptalg: 0, }
tolerances: {tolwfr: 1.00E-20, }
...

     iter   2DEtotal(Ha)        deltaE(Ha) residm    vres2
-ETOT  1  -111.96352441693     -1.120E+02 3.460E-01 0.000E+00
 ETOT  2  -112.09718528125     -1.337E-01 1.439E-02 0.000E+00
 ETOT  3  -112.09796312560     -7.778E-04 9.063E-04 0.000E+00
 ETOT  4  -112.09798110621     -1.798E-05 8.108E-05 0.000E+00
 ETOT  5  -112.09798166733     -5.611E-07 5.036E-06 0.000E+00
 ETOT  6  -112.09798168632     -1.899E-08 5.223E-07 0.000E+00
 ETOT  7  -112.09798168699     -6.702E-10 3.655E-08 0.000E+00
 ETOT  8  -112.09798168702     -2.393E-11 3.968E-09 0.000E+00
 ETOT  9  -112.09798168702     -8.384E-13 3.579E-10 0.000E+00
 ETOT 10  -112.09798168702     -1.421E-13 3.940E-11 0.000E+00
 ETOT 11  -112.09798168702      0.000E+00 4.699E-12 0.000E+00
 ETOT 12  -112.09798168702      2.842E-14 5.276E-13 0.000E+00
 ETOT 13  -112.09798168702     -4.263E-14 7.233E-14 0.000E+00
 ETOT 14  -112.09798168702      2.842E-14 8.279E-15 0.000E+00
 ETOT 15  -112.09798168702     -2.842E-14 1.167E-15 0.000E+00
 ETOT 16  -112.09798168702      0.000E+00 1.362E-16 0.000E+00
 ETOT 17  -112.09798168702      0.000E+00 1.903E-17 0.000E+00
 ETOT 18  -112.09798168702      4.263E-14 2.266E-18 0.000E+00
 ETOT 19  -112.09798168702     -4.263E-14 3.118E-19 0.000E+00
 ETOT 20  -112.09798168702      0.000E+00 3.784E-20 0.000E+00
 ETOT 21  -112.09798168702     -1.421E-14 9.951E-21 0.000E+00

 At SCF step   21   max residual=  9.95E-21 < tolwfr=  1.00E-20 =>converged.

 ----iterations are completed or convergence reached----

 dfpt_looppert: DFPT cycle converged with prtwf=-1. Will skip output of the 1st-order WFK file.
 dfpt_looppert : ek2=    1.0559843606E+02
          f-sum rule ratio=    1.1529414992E+00
 prteigrs : about to open file /scratch/users/j/a/jabreu/flow_simple_7atoms/flow/w125/t1/tmpdata/tmp_1WF1_EIG
 Expectation of eigenvalue derivatives (hartree) for nkpt=   1  k points:
  (in case of degenerate eigenvalues, averaged derivative)
 kpt#   1, nband= 54, wtk=  1.00000, kpt=  0.0000  0.0000  0.0000 (reduced coord)
   0.00000    0.00000    0.00000    0.00000   -0.00000   -0.00000    0.00000    0.00000
  -0.00000   -0.00000    0.00000    0.00000    0.00000    0.00000   -0.00000   -0.00000
  -0.00000   -0.00000   -0.00000   -0.00000   -0.00000    0.00000   -0.00000   -0.00000
   0.00000   -0.00000   -0.00000    0.00000   -0.00000    0.00000    0.00000   -0.00000
  -0.00000   -0.00000    0.00000   -0.00000    0.00000    0.00000    0.00000    0.00000
  -0.00000   -0.00000    0.00000   -0.00000   -0.00000    0.00000    0.00000    0.00000
  -0.00000   -0.00000    0.00000   -0.00000   -0.00000   -0.00000

 Eight components of 2nd-order total energy (hartree) are
 1,2,3: 0th-order hamiltonian combined with 1st-order wavefunctions
     kin0=   1.18479072E+02 eigvalue=   1.87343864E+01  local=  -6.28430727E+01
 4,5,6: 1st-order hamiltonian combined with 1st and 0th-order wfs
     kin1=  -1.21748819E+02  Hartree=   0.00000000E+00     xc=   0.00000000E+00
 7,8,9: eventually, occupation + non-local contributions
    edocc=   2.26023991E+01     enl0=   1.51251966E+01   enl1=  -1.02447144E+02
 1-9 gives the relaxation energy (to be shifted if some occ is /=2.0)
   erelax=  -1.12097982E+02
  No Ewald or frozen-wf contrib.: the relaxation energy is the total one
 2DEtotal=   -0.1120979817E+03 Ha. Also 2DEtotal=   -0.305034120962E+04 eV
    (  non-var. 2DEtotal :   -1.1209798169E+02 Ha)

 CALCULATION OF EFFECTIVE MASSES
 NOTE : Additional infos (eff. mass eigenvalues, eigenvectors and, if degenerate, average mass) are available in stdout.

 COMMENTS:
 - At k-point ( 0.000, 0.000, 0.000), bands    44 through    45
   are DEGENERATE (effective mass tensor is therefore not defined).
   See Section IIIB Eqs. (67)-(70) and Appendix E of PRB 93 205147 (2016).
 - Angular average effective mass for Frohlich model is to be averaged over degenerate bands. See later.
 - Associated theta integrals calculated with ntheta=   1000 points.

 K-point ( 0.000, 0.000, 0.000) | band =    44
 Transport equivalent effective mass tensor:
             -0.1841141805             -0.0726937029              0.1266698409
             -0.0726937029             -0.2158821146              0.1573365301
              0.1266698409              0.1573365301             -0.3997505174
 Transport equivalent effective mass tensor eigenvalues:
             -0.5485681891             -0.1255893117             -0.1255893117
 Angular average effective mass 1/(<1/m>)=  -0.1662571025
 Angular average effective mass for Frohlich model (<m**0.5>)**2=  -0.1841640809
 Effective masses along directions: (cart. coord. / red. coord. -> eff. mass)
    1:   1.000000  0.000000  0.000000 /   0.977966 -0.208765  0.000000 ->  -0.1455239347
    2:   0.000000  1.000000  0.000000 /   0.000000  1.000000  0.000000 ->  -0.1603214153
    3:   0.000000  0.000000  1.000000 /  -0.477804 -0.477804  0.737161 ->  -0.2341398617
    4:   0.577350  0.577350  0.577350 /   0.112362 -0.066208  0.991459 ->  -0.1154834535
    5:   0.000000  0.707107  0.707107 /  -0.542159  0.080113  0.836448 ->  -0.1323248633
    6:   0.707107  0.000000  0.707107 /   0.087694 -0.627335  0.773796 ->  -0.1418947551
    7:   0.707107  0.707107  0.000000 /   0.794827  0.606836  0.000000 ->  -0.1594725269

 K-point ( 0.000, 0.000, 0.000) | band =    45
 Transport equivalent effective mass tensor:
             -5.1534663907              0.1289937892             -0.2247735627
              0.1289937892             -5.0970947139             -0.2791910969
             -0.2247735627             -0.2791910969             -4.7708232306
 Transport equivalent effective mass tensor eigenvalues:
             -5.2573178165             -5.2573178094             -4.5067487093
 Angular average effective mass 1/(<1/m>)=  -0.8508345893
 Angular average effective mass for Frohlich model (<m**0.5>)**2=  -1.0124860965
 Effective masses along directions: (cart. coord. / red. coord. -> eff. mass)
    1:   1.000000  0.000000  0.000000 /   0.977966 -0.208765  0.000000 ->  -0.7530555686
    2:   0.000000  1.000000  0.000000 /   0.000000  1.000000  0.000000 ->  -0.6356138218
    3:   0.000000  0.000000  1.000000 /  -0.477804 -0.477804  0.737161 ->  -0.7758296217
    4:   0.577350  0.577350  0.577350 /   0.112362 -0.066208  0.991459 ->  -3.9154890335
    5:   0.000000  0.707107  0.707107 /  -0.542159  0.080113  0.836448 ->  -0.9485615670
    6:   0.707107  0.000000  0.707107 /   0.087694 -0.627335  0.773796 ->  -0.7230948608
    7:   0.707107  0.707107  0.000000 /   0.794827  0.606836  0.000000 ->  -1.1839460435

 Angular average effective mass for Frohlich model, averaged over degenerate bands.
 Value of     (<<m**0.5>>)**2 =     5.150697E-01
 Absolute Value of <<m**0.5>> =     7.176836E-01

 K-point ( 0.000, 0.000, 0.000) | band =    46
 Effective mass tensor:
              0.2008994852              0.0847665818             -0.1477070061
              0.0847665818              0.2379433976             -0.1834667796
             -0.1477070061             -0.1834667796              0.4523484208
 Effective mass tensor eigenvalues:
              0.1326548795              0.1326548795              0.6258815445
 Angular average effective mass 1/(<1/m>)=   0.1799158407
 Angular average effective mass for Frohlich model (<m**0.5>)**2=   0.2008684338
 Effective masses along directions: (cart. coord. / red. coord. -> eff. mass)
    1:   1.000000  0.000000  0.000000 /   0.977966 -0.208765  0.000000 ->   0.1488894209
    2:   0.000000  1.000000  0.000000 /   0.000000  1.000000  0.000000 ->   0.1594839667
    3:   0.000000  0.000000  1.000000 /  -0.477804 -0.477804  0.737161 ->   0.2711609861
    4:   0.577350  0.577350  0.577350 /   0.112362 -0.066208  0.991459 ->   0.1326840118
    5:   0.000000  0.707107  0.707107 /  -0.542159  0.080113  0.836448 ->   0.1391056818
    6:   0.707107  0.000000  0.707107 /   0.087694 -0.627335  0.773796 ->   0.1432426690
    7:   0.707107  0.707107  0.000000 /   0.794827  0.606836  0.000000 ->   0.1827369497

 END OF EFFECTIVE MASSES SECTION

 ---- first-order wavefunction calculations are completed ----

 Total localisation tensor (bohr^2) in cartesian coordinates
  WARNING : still subject to testing - especially symmetries.
      direction              matrix element
   alpha     beta       real part   imaginary part
     1        1       2.3966669599    0.0000000000
     1        2      -0.4780372754    0.0000000000
     1        3      -1.5345804658    0.0000000000
     2        1      -0.4780372754    0.0000000000
     2        2       2.1877595026    0.0000000000
     2        3      -1.9061014335    0.0000000000
     3        1      -1.5345804658    0.0000000000
     3        2      -1.9061014335    0.0000000000
     3        3       9.9473141628    0.0000000000

 respfn : d/dk was computed, but no 2DTE, so no DDB output.

== END DATASET(S) ==============================================================

 -outvars: echo values of variables after computation  --------
            acell      1.0000000000E+00  1.0000000000E+00  1.0000000000E+00 Bohr
              amu      2.69815390E+01  1.12411000E+02  1.27600000E+02
             ecut      5.10000000E+01 Hartree
           etotal     -1.1209798169E+02
            fcart      0.0000000000E+00  0.0000000000E+00  0.0000000000E+00
                       0.0000000000E+00  0.0000000000E+00  0.0000000000E+00
                       0.0000000000E+00  0.0000000000E+00  0.0000000000E+00
                       0.0000000000E+00  0.0000000000E+00  0.0000000000E+00
                       0.0000000000E+00  0.0000000000E+00  0.0000000000E+00
                       0.0000000000E+00  0.0000000000E+00  0.0000000000E+00
                       0.0000000000E+00  0.0000000000E+00  0.0000000000E+00
-          fftalg         512
           irdden           1
           irdwfk           1
           istwfk        1
              ixc     -116133
           kptopt           0
P           mkmem           1
P          mkqmem           1
P          mk1mem           1
            natom           7
            nband          54
           nbdbuf           4
            ngfft          90      90      90
             nkpt           1
            nstep        2000
             nsym           4
           ntypat           3
              occ      2.000000  2.000000  2.000000  2.000000  2.000000  2.000000
                       2.000000  2.000000  2.000000  2.000000  2.000000  2.000000
                       2.000000  2.000000  2.000000  2.000000  2.000000  2.000000
                       2.000000  2.000000  2.000000  2.000000  2.000000  2.000000
                       2.000000  2.000000  2.000000  2.000000  2.000000  2.000000
                       2.000000  2.000000  2.000000  2.000000  2.000000  2.000000
                       2.000000  2.000000  2.000000  2.000000  2.000000  2.000000
                       2.000000  2.000000  2.000000  0.000000  0.000000  0.000000
                       0.000000  0.000000  0.000000  0.000000  0.000000  0.000000
        optdriver           1
            prtwf          -1
            rfdir           1       1       1
           rfelfd           2
            rprim      1.0531447410E+01  0.0000000000E+00 -8.9641016868E+00
                      -2.2481357347E+00  1.0288696238E+01 -8.9641016868E+00
                       0.0000000000E+00  0.0000000000E+00  1.3829913362E+01
          spgroup          82
           strten      0.0000000000E+00  0.0000000000E+00  0.0000000000E+00
                       0.0000000000E+00  0.0000000000E+00  0.0000000000E+00
           symrel      1  0  0   0  1  0   0  0  1       0  1  0   1  0  0  -1 -1 -1
                       0  0  1  -1 -1 -1   0  1  0      -1 -1 -1   0  0  1   1  0  0
           tolwfr      1.00000000E-20
            typat      1  1  2  3  3  3  3
           useylm           1
           xangst      5.0100384127E-01  4.0834076663E+00 -1.0843608341E+00
                       2.1916698752E+00  2.7222717775E+00 -4.7435983081E+00
                       0.0000000000E+00  0.0000000000E+00  0.0000000000E+00
                       4.3426331573E+00  2.1156244010E+00  1.1844837221E+00
                       2.7127357260E+00  3.1794446553E+00 -2.2044370519E+00
                       4.5112822241E-01  7.5038877094E-01  2.6751198926E+00
                       1.2601823949E+00  4.8436292829E+00 -5.9926098994E+00
            xcart      9.4676005153E-01  7.7165221783E+00 -2.0491450057E+00
                       4.1416558377E+00  5.1443481188E+00 -8.9641016868E+00
                       0.0000000000E+00  0.0000000000E+00  0.0000000000E+00
                       8.2063873630E+00  3.9979507180E+00  2.2383498436E+00
                       5.1263275930E+00  6.0082796532E+00 -4.1657823052E+00
                       8.5250879116E-01  1.4180292703E+00  5.0552439697E+00
                       2.3813996039E+00  9.1531328339E+00 -1.1324391531E+01
             xred      2.5000000000E-01  7.5000000000E-01  5.0000000000E-01
                       5.0000000000E-01  5.0000000000E-01  0.0000000000E+00
                       0.0000000000E+00  0.0000000000E+00  0.0000000000E+00
                       8.6217600000E-01  3.8857700000E-01  9.7254600000E-01
                       6.1142300000E-01  5.8396900000E-01  4.7359900000E-01
                       1.1037000000E-01  1.3782400000E-01  5.2640100000E-01
                       4.1603100000E-01  8.8963000000E-01  2.7454000000E-02
            znucl       13.00000   48.00000   52.00000

- Timing analysis has been suppressed with timopt=0

 Suggested references for the acknowledgment of ABINIT usage.

 Calculation completed.
.Delivered   6 WARNINGs and   5 COMMENTs to log file.