.Version 9.5.2 of ABINIT

 ABINIT is a project of the Universite Catholique de Louvain,
 Corning Inc. and other collaborators, see ~abinit/doc/developers/contributors.txt .
 acknowledgments of the ABINIT effort.

.Starting date : Mon 24 May 2021.
- ( at 11h23 )

- input  file    -> /scratch/users/j/a/jabreu/flow_simple_10atoms/flow/w324/t1/run.abi
- output file    -> /scratch/users/j/a/jabreu/flow_simple_10atoms/flow/w324/t1/run.abo
- root for input  files -> /scratch/users/j/a/jabreu/flow_simple_10atoms/flow/w324/t1/indata/in
- root for output files -> /scratch/users/j/a/jabreu/flow_simple_10atoms/flow/w324/t1/outdata/out

 Symmetries : space group Cm c m (# 63); Bravais oC (1-face-center ortho.)
     intxc =       0      iscf =       7    lmnmax =      18     lnmax =       6
     mgfft =      90  mpssoang =       3    mqgrid =    3172     natom =      10
  nloc_mem =       1    nspden =       1   nspinor =       1    nsppol =       1
      nsym =       8    n1xccc =    2501    ntypat =       3    occopt =       1
   xclevel =       2
-    mband =          55        mffmem =           1         mkmem =           2
-   mkqmem =           2        mk1mem =           2           mpw =       21728
      nfft =      518400          nkpt =           2
  Rough estimation (10% accuracy) of disk space for files :

------------- Echo of variables that govern the present computation ------------
-
- outvars: echo of selected default values
-   iomode0 =  0 , fftalg0 =512 , wfoptalg0 =  0
-
- outvars: echo of global parameters not present in the input file
-  max_nthreads =    0
-
 -outvars: echo values of preprocessed input variables --------
            acell      1.0000000000E+00  1.0000000000E+00  1.0000000000E+00 Bohr
              amu      3.90983000E+01  3.09737620E+01  1.06420000E+02
             ecut      4.10000000E+01 Hartree
-          fftalg         512
           irdden           1
           irdwfk           1
              ixc     -116133
              kpt     -3.45583934E-01  6.54416066E-01  0.00000000E+00
                      -2.99259114E-01  7.00740886E-01  3.52941177E-01
           kptopt           0
P           mkmem           2
P          mkqmem           2
P          mk1mem           2
            natom          10
            nband          55
           nbdbuf           4
            ngfft          90      90      64
             nkpt           2
            nstep        2000
             nsym           8
           ntypat           3
              occ      2.000000  2.000000  2.000000  2.000000  2.000000  2.000000
                       2.000000  2.000000  2.000000  2.000000  2.000000  2.000000
                       2.000000  2.000000  2.000000  2.000000  2.000000  2.000000
                       2.000000  2.000000  2.000000  2.000000  2.000000  2.000000
                       2.000000  2.000000  2.000000  2.000000  2.000000  2.000000
                       2.000000  2.000000  2.000000  2.000000  2.000000  2.000000
                       2.000000  2.000000  2.000000  2.000000  2.000000  2.000000
                       2.000000  2.000000  2.000000  2.000000  0.000000  0.000000
                       0.000000  0.000000  0.000000  0.000000  0.000000  0.000000
                       0.000000
        optdriver           1
            prtwf          -1
            rfdir           1       1       1
           rfelfd           2
            rprim      1.4566389352E+01  0.0000000000E+00  0.0000000000E+00
                      -9.7710304192E+00  1.0803085823E+01  0.0000000000E+00
                       0.0000000000E+00  0.0000000000E+00  1.1004240187E+01
          spgroup          63
           symrel      1  0  0   0  1  0   0  0  1      -1  0  0   0 -1  0   0  0 -1
                       0  1  0   1  0  0   0  0 -1       0 -1  0  -1  0  0   0  0  1
                      -1  0  0   0 -1  0   0  0  1       1  0  0   0  1  0   0  0 -1
                       0 -1  0  -1  0  0   0  0 -1       0  1  0   1  0  0   0  0  1
            tnons      0.0000000  0.0000000  0.0000000     0.0000000  0.0000000  0.0000000
                       0.0000000  0.0000000  0.0000000     0.0000000  0.0000000  0.0000000
                       0.0000000  0.0000000  0.5000000     0.0000000  0.0000000  0.5000000
                       0.0000000  0.0000000  0.5000000     0.0000000  0.0000000  0.5000000
           tolwfr      1.00000000E-20
            typat      1  1  1  1  2  2  2  2  3  3
           useylm           1
              wtk        0.50000    0.50000
           xangst     -2.4547751163E+00  4.5112221016E+00  1.4557982761E+00
                       2.2563958288E+00  2.4199903883E+00  1.4557982761E+00
                       4.9923697703E+00  1.2055246981E+00  4.3673948284E+00
                       2.8119882519E-01  3.2967564115E+00  4.3673948284E+00
                       6.6666204079E-01  5.3575521648E+00  1.4557982761E+00
                       3.5262081437E+00  4.0882342892E+00  4.3673948284E+00
                       1.8709326132E+00  3.5919463492E-01  4.3673948284E+00
                      -9.8861348963E-01  1.6285125106E+00  1.4557982761E+00
                       0.0000000000E+00  0.0000000000E+00  0.0000000000E+00
                       0.0000000000E+00  0.0000000000E+00  2.9115965523E+00
            xcart     -4.6388526876E+00  8.5249742967E+00  2.7510600466E+00
                       4.2639701639E+00  4.5731190781E+00  2.7510600466E+00
                       9.4342116200E+00  2.2781115259E+00  8.2531801399E+00
                       5.3138876850E-01  6.2299667445E+00  8.2531801399E+00
                       1.2598086803E+00  1.0124306334E+01  2.7510600466E+00
                       6.6635676791E+00  7.7256431736E+00  8.2531801399E+00
                       3.5355502521E+00  6.7877948841E-01  8.2531801399E+00
                      -1.8682087467E+00  3.0774426490E+00  2.7510600466E+00
                       0.0000000000E+00  0.0000000000E+00  0.0000000000E+00
                       0.0000000000E+00  0.0000000000E+00  5.5021200932E+00
             xred      2.1087600000E-01  7.8912400000E-01  2.5000000000E-01
                       5.7668400000E-01  4.2331600000E-01  2.5000000000E-01
                       7.8912400000E-01  2.1087600000E-01  7.5000000000E-01
                       4.2331600000E-01  5.7668400000E-01  7.5000000000E-01
                       7.1513300000E-01  9.3716800000E-01  2.5000000000E-01
                       9.3716800000E-01  7.1513300000E-01  7.5000000000E-01
                       2.8486700000E-01  6.2832000000E-02  7.5000000000E-01
                       6.2832000000E-02  2.8486700000E-01  2.5000000000E-01
                       0.0000000000E+00  0.0000000000E+00  0.0000000000E+00
                       0.0000000000E+00  0.0000000000E+00  5.0000000000E-01
            znucl       19.00000   15.00000   46.00000

 chkinp: Checking input parameters for consistency.

== DATASET  1 ==================================================================
-   mpi_nproc: 1, omp_nthreads: -1 (-1 if OMP is not activated)

--- !DatasetInfo
iteration_state: {dtset: 1, }
dimensions: {natom: 10, nkpt: 2, mband: 55, nsppol: 1, nspinor: 1, nspden: 1, mpw: 21728, }
cutoff_energies: {ecut:  41.0, pawecutdg:  -1.0, }
electrons: {nelect:   9.20000000E+01, charge:   0.00000000E+00, occopt:   1.00000000E+00, tsmear:   1.00000000E-02, }
meta: {optdriver: 1, rfelfd: 2, }
...

 Real(R)+Recip(G) space primitive vectors, cartesian coordinates (Bohr,Bohr^-1):
 R(1)= 14.5663894  0.0000000  0.0000000  G(1)=  0.0686512  0.0620927  0.0000000
 R(2)= -9.7710304 10.8030858  0.0000000  G(2)=  0.0000000  0.0925661  0.0000000
 R(3)=  0.0000000  0.0000000 11.0042402  G(3)=  0.0000000  0.0000000  0.0908741
 Unit cell volume ucvol=  1.7316487E+03 bohr^3
 Angles (23,13,12)=  9.00000000E+01  9.00000000E+01  1.32128290E+02 degrees

 getcut: wavevector=  0.0000  0.0000  0.0000  ngfft=  90  90  64
         ecut(hartree)=     41.000   => boxcut(ratio)=   2.01773

--- Pseudopotential description ------------------------------------------------
- pspini: atom type   1  psp file is /scratch/users/j/a/jabreu/pseudos/PBEsol/K.psp8
- pspatm: opening atomic psp file    /scratch/users/j/a/jabreu/pseudos/PBEsol/K.psp8
- K     ONCVPSP-3.3.0  r_core=   1.36296   1.46408   1.61068
- 19.00000   9.00000    180112                znucl, zion, pspdat
    8 -116133    2    4       400   0.00000   pspcod,pspxc,lmax,lloc,mmax,r2well
    3.99000000000000    5.00000000000000    0.00000000000000   rchrg,fchrg,qchrg
     nproj     2     2     2
     extension_switch     1
  pspatm : epsatm=    8.32487830
         --- l  ekb(1:nproj) -->
             0   10.921326    0.816676
             1    4.431000    0.560368
             2   -3.384038   -1.043186
 pspatm: atomic psp has been read  and splines computed

- pspini: atom type   2  psp file is /scratch/users/j/a/jabreu/pseudos/PBEsol/P.psp8
- pspatm: opening atomic psp file    /scratch/users/j/a/jabreu/pseudos/PBEsol/P.psp8
- P     ONCVPSP-3.3.0  r_core=   1.46089   1.55067   1.70594
- 15.00000   5.00000    180112                znucl, zion, pspdat
    8 -116133    2    4       600   0.00000   pspcod,pspxc,lmax,lloc,mmax,r2well
    5.99000000000000    5.00000000000000    0.00000000000000   rchrg,fchrg,qchrg
     nproj     2     2     2
     extension_switch     1
  pspatm : epsatm=    7.31221086
         --- l  ekb(1:nproj) -->
             0    6.742364    1.063650
             1    3.449117    0.910422
             2   -3.077645   -0.799176
 pspatm: atomic psp has been read  and splines computed

- pspini: atom type   3  psp file is /scratch/users/j/a/jabreu/pseudos/PBEsol/Pd.psp8
- pspatm: opening atomic psp file    /scratch/users/j/a/jabreu/pseudos/PBEsol/Pd.psp8
- Pd    ONCVPSP-3.3.0  r_core=   1.41052   1.46191   1.55175
- 46.00000  18.00000    180112                znucl, zion, pspdat
    8 -116133    2    4       600   0.00000   pspcod,pspxc,lmax,lloc,mmax,r2well
    5.99000000000000    7.00000000000000    0.00000000000000   rchrg,fchrg,qchrg
     nproj     2     2     2
     extension_switch     1
  pspatm : epsatm=   26.17262427
         --- l  ekb(1:nproj) -->
             0    7.952303   -2.096627
             1    3.304793   -0.572651
             2   -1.185452   -0.410427
 pspatm: atomic psp has been read  and splines computed

   1.05702117E+04                                ecore*ucvol(ha*bohr**3)

 ==>  initialize data related to q vector <==

 The list of irreducible perturbations for this q vector is:
    1)    idir= 1    ipert=  11
    2)    idir= 2    ipert=  11
    3)    idir= 3    ipert=  11

 Perturbation wavevector (in red.coord.)   0.000000  0.000000  0.000000
 Perturbation : derivative vs k along direction   1

 dfpt_looppert : COMMENT -
  In a d/dk calculation, iscf is set to -3 automatically.
 The set of symmetries contains only one element for this perturbation.
 symkpt : not enough symmetry to change the number of k points.

 Initialisation of the first-order wave-functions :
  ireadwf=   0

--- !BeginCycle
iteration_state: {dtset: 1, }
solver: {iscf: 7, nstep: 2000, nline: 4, wfoptalg: 0, }
tolerances: {tolwfr: 1.00E-20, }
...

[...]
 ETOT 28  -30.118688946342      1.776E-14 9.995E-21 0.000E+00

 At SCF step   28   max residual=  9.99E-21 < tolwfr=  1.00E-20 =>converged.

 ----iterations are completed or convergence reached----

 dfpt_looppert: DFPT cycle converged with prtwf=-1. Will skip output of the 1st-order WFK file.
 dfpt_looppert : ek2=    6.2241766103E+01
          f-sum rule ratio=    1.0127871624E+00
 prteigrs : about to open file /scratch/users/j/a/jabreu/flow_simple_10atoms/flow/w324/t1/tmpdata/tmp_1WF1_EIG
 Expectation of eigenvalue derivatives (hartree) for nkpt=   2  k points:
  (in case of degenerate eigenvalues, averaged derivative)
 kpt#   1, nband= 55, wtk=  0.50000, kpt= -0.3456  0.6544  0.0000 (reduced coord)
   0.00000   -0.00000    0.00000    0.00000   -0.00000   -0.00000    0.00000    0.00000
   0.00007    0.00015    0.00020   -0.00042   -0.00047    0.00005    0.00018   -0.00296
   0.00237    0.00190    0.00118    0.00106   -0.00610   -0.00291    0.00479    0.00099
   0.00127    0.00599   -0.01533   -0.03582    0.00138   -0.00116    0.05407   -0.00157
  -0.00374   -0.00144    0.05325    0.05146    0.00511   -0.00779   -0.00386    0.01807
   0.00023    0.00124    0.07706   -0.01021    0.01006    0.00016   -0.09327   -0.06857
  -0.21673    0.02852   -0.06934   -0.11643   -0.01217   -0.06515    0.03455
 prteigrs : prtvol=0 or 1, do not print more k-points.

 Eight components of 2nd-order total energy (hartree) are
 1,2,3: 0th-order hamiltonian combined with 1st-order wavefunctions
     kin0=   4.87799847E+01 eigvalue=   1.42447533E+00  local=  -2.86420590E+01
 4,5,6: 1st-order hamiltonian combined with 1st and 0th-order wfs
     kin1=  -6.30376617E+01  Hartree=   0.00000000E+00     xc=   0.00000000E+00
 7,8,9: eventually, occupation + non-local contributions
    edocc=   6.54145075E+00     enl0=   2.01483716E+00   enl1=   2.80028378E+00
 1-9 gives the relaxation energy (to be shifted if some occ is /=2.0)
   erelax=  -3.01186889E+01
  No Ewald or frozen-wf contrib.: the relaxation energy is the total one
 2DEtotal=   -0.3011868895E+02 Ha. Also 2DEtotal=   -0.819571206279E+03 eV
    (  non-var. 2DEtotal :   -3.0118688946E+01 Ha)

 Perturbation wavevector (in red.coord.)   0.000000  0.000000  0.000000
 Perturbation : derivative vs k along direction   2
 The set of symmetries contains only one element for this perturbation.
 symkpt : not enough symmetry to change the number of k points.

[...]

 Perturbation wavevector (in red.coord.)   0.000000  0.000000  0.000000
 Perturbation : derivative vs k along direction   3
 The set of symmetries contains only one element for this perturbation.
 symkpt : not enough symmetry to change the number of k points.

 Initialisation of the first-order wave-functions :
  ireadwf=   0

--- !BeginCycle
iteration_state: {dtset: 1, }
solver: {iscf: 7, nstep: 2000, nline: 4, wfoptalg: 0, }
tolerances: {tolwfr: 1.00E-20, }
...

     iter   2DEtotal(Ha)        deltaE(Ha) residm    vres2
-ETOT  1  -29.054374842714     -2.905E+01 5.743E-02 0.000E+00
 ETOT  2  -29.175930214463     -1.216E-01 8.361E-03 0.000E+00
 ETOT  3  -29.178697952470     -2.768E-03 9.247E-04 0.000E+00
 ETOT  4  -29.178814041114     -1.161E-04 1.062E-04 0.000E+00
 ETOT  5  -29.178820136404     -6.095E-06 1.830E-05 0.000E+00
 ETOT  6  -29.178820499762     -3.634E-07 2.470E-06 0.000E+00
 ETOT  7  -29.178820523417     -2.365E-08 4.906E-07 0.000E+00
 ETOT  8  -29.178820525139     -1.722E-09 7.500E-08 0.000E+00
 ETOT  9  -29.178820525279     -1.401E-10 1.527E-08 0.000E+00
 ETOT 10  -29.178820525293     -1.354E-11 2.598E-09 0.000E+00
 ETOT 11  -29.178820525294     -1.403E-12 5.284E-10 0.000E+00
 ETOT 12  -29.178820525294     -2.096E-13 9.677E-11 0.000E+00
 ETOT 13  -29.178820525294      4.263E-14 1.946E-11 0.000E+00
 ETOT 14  -29.178820525294     -5.329E-14 3.728E-12 0.000E+00
 ETOT 15  -29.178820525294      2.487E-14 7.405E-13 0.000E+00
 ETOT 16  -29.178820525294     -3.553E-15 1.457E-13 0.000E+00
 ETOT 17  -29.178820525294      3.553E-15 2.868E-14 0.000E+00
 ETOT 18  -29.178820525294      7.105E-15 5.736E-15 0.000E+00
 ETOT 19  -29.178820525294     -7.105E-15 1.122E-15 0.000E+00
 ETOT 20  -29.178820525294     -2.132E-14 2.266E-16 0.000E+00
 ETOT 21  -29.178820525294      3.553E-15 4.414E-17 0.000E+00
 ETOT 22  -29.178820525294     -3.553E-15 8.971E-18 0.000E+00
 ETOT 23  -29.178820525294      3.553E-15 1.744E-18 0.000E+00
 ETOT 24  -29.178820525294     -3.553E-15 3.558E-19 0.000E+00
 ETOT 25  -29.178820525294      1.776E-14 6.906E-20 0.000E+00
 ETOT 26  -29.178820525294     -3.553E-15 1.413E-20 0.000E+00
 ETOT 27  -29.178820525294     -1.421E-14 9.927E-21 0.000E+00

 At SCF step   27   max residual=  9.93E-21 < tolwfr=  1.00E-20 =>converged.

 ----iterations are completed or convergence reached----

 dfpt_looppert: DFPT cycle converged with prtwf=-1. Will skip output of the 1st-order WFK file.
 dfpt_looppert : ek2=    5.9987040689E+01
          f-sum rule ratio=    1.0178453951E+00
 prteigrs : about to open file /scratch/users/j/a/jabreu/flow_simple_10atoms/flow/w324/t1/tmpdata/tmp_1WF1_EIG
 Expectation of eigenvalue derivatives (hartree) for nkpt=   2  k points:
  (in case of degenerate eigenvalues, averaged derivative)
 kpt#   1, nband= 55, wtk=  0.50000, kpt= -0.3456  0.6544  0.0000 (reduced coord)
  -0.00000    0.00000    0.00000    0.00000   -0.00000   -0.00000    0.00000   -0.00000
   0.00000   -0.00000   -0.00000    0.00000   -0.00000   -0.00000   -0.00000    0.00000
   0.00000   -0.00000    0.00000   -0.00000    0.00000    0.00000    0.00000   -0.00000
  -0.00000    0.00000   -0.00000   -0.00000   -0.00000    0.00000   -0.00000    0.00000
  -0.00000   -0.00000    0.00000    0.00000   -0.00000   -0.00000   -0.00000   -0.00000
  -0.00000   -0.00000    0.00000   -0.00000    0.00000    0.00000   -0.00000   -0.00000
   0.00000   -0.00000   -0.00000   -0.00000   -0.00000   -0.00001    0.00006
 prteigrs : prtvol=0 or 1, do not print more k-points.

 Eight components of 2nd-order total energy (hartree) are
 1,2,3: 0th-order hamiltonian combined with 1st-order wavefunctions
     kin0=   4.84481283E+01 eigvalue=   1.27306323E+00  local=  -2.83982092E+01
 4,5,6: 1st-order hamiltonian combined with 1st and 0th-order wfs
     kin1=  -6.10575331E+01  Hartree=   0.00000000E+00     xc=   0.00000000E+00
 7,8,9: eventually, occupation + non-local contributions
    edocc=   5.96945067E+00     enl0=   1.88638757E+00   enl1=   2.69989208E+00
 1-9 gives the relaxation energy (to be shifted if some occ is /=2.0)
   erelax=  -2.91788205E+01
  No Ewald or frozen-wf contrib.: the relaxation energy is the total one
 2DEtotal=   -0.2917882053E+02 Ha. Also 2DEtotal=   -0.793996085896E+03 eV
    (  non-var. 2DEtotal :   -2.9178820525E+01 Ha)

 CALCULATION OF EFFECTIVE MASSES
 NOTE : Additional infos (eff. mass eigenvalues, eigenvectors and, if degenerate, average mass) are available in stdout.

 K-point (-0.346, 0.654, 0.000) | band =    46
 Effective mass tensor:
            -10.0079515738             -8.6875865563              0.0000585744
             -8.6875865563            -25.7232205957              0.0001040395
              0.0000585744              0.0001040395             -0.2443086475
 Effective mass tensor eigenvalues:
            -29.5795341934             -6.1516379766             -0.2443086470
 Angular average effective mass 1/(<1/m>)=  -0.6993743070
 Angular average effective mass for Frohlich model (<m**0.5>)**2=  -1.7131901455
 Effective masses along directions: (cart. coord. / red. coord. -> eff. mass)
    1:   1.000000  0.000000  0.000000 /   0.830465 -0.557070  0.000000 ->  -7.0738648427
    2:   0.000000  1.000000  0.000000 /   0.000000  1.000000  0.000000 -> -18.1818011821
    3:   0.000000  0.000000  1.000000 /   0.000000  0.000000  1.000000 ->  -0.2443086470
    4:   0.577350  0.577350  0.577350 /   0.796634  0.056443  0.601821 ->  -0.7152884899
    5:   0.000000  0.707107  0.707107 /   0.000000  0.700555  0.713599 ->  -0.4821360170
    6:   0.707107  0.000000  0.707107 /   0.703480 -0.471889  0.531447 ->  -0.4723023531
    7:   0.707107  0.707107  0.000000 /   0.997499  0.070675  0.000000 -> -19.8259528146

 K-point (-0.299, 0.701, 0.353) | band =    47
 Effective mass tensor:
              1.6287751925             -0.3818842164             -0.1595268833
             -0.3818842164              0.9382653217             -0.3599173194
             -0.1595268833             -0.3599173194              1.6974265770
 Effective mass tensor eigenvalues:
              0.6242784378              1.7983359048              1.8418527486
 Angular average effective mass 1/(<1/m>)=   1.1107612039
 Angular average effective mass for Frohlich model (<m**0.5>)**2=   1.2103433859
 Effective masses along directions: (cart. coord. / red. coord. -> eff. mass)
    1:   1.000000  0.000000  0.000000 /   0.830465 -0.557070  0.000000 ->   1.4132898139
    2:   0.000000  1.000000  0.000000 /   0.000000  1.000000  0.000000 ->   0.7548628122
    3:   0.000000  0.000000  1.000000 /   0.000000  0.000000  1.000000 ->   1.4958022696
    4:   0.577350  0.577350  0.577350 /   0.796634  0.056443  0.601821 ->   0.6997893741
    5:   0.000000  0.707107  0.707107 /   0.000000  0.700555  0.713599 ->   0.7635877582
    6:   0.707107  0.000000  0.707107 /   0.703480 -0.471889  0.531447 ->   1.2093212555
    7:   0.707107  0.707107  0.000000 /   0.997499  0.070675  0.000000 ->   0.7366970475

 END OF EFFECTIVE MASSES SECTION

 ---- first-order wavefunction calculations are completed ----

 Total localisation tensor (bohr^2) in cartesian coordinates
  WARNING : still subject to testing - especially symmetries.
      direction              matrix element
   alpha     beta       real part   imaginary part
     1        1       2.8166631695    0.0000000000
     1        2      -0.9664003569    0.0000000000
     1        3       0.0000000000    0.0000000000
     2        1      -0.9664003569    0.0000000000
     2        2       1.0684754367    0.0000000000
     2        3       0.0000000000    0.0000000000
     3        1       0.0000000000    0.0000000000
     3        2       0.0000000000    0.0000000000
     3        3       1.2910131274    0.0000000000

 respfn : d/dk was computed, but no 2DTE, so no DDB output.

== END DATASET(S) ==============================================================

 -outvars: echo values of variables after computation  --------
            acell      1.0000000000E+00  1.0000000000E+00  1.0000000000E+00 Bohr
              amu      3.90983000E+01  3.09737620E+01  1.06420000E+02
             ecut      4.10000000E+01 Hartree
           etotal     -2.9178820525E+01
            fcart      0.0000000000E+00  0.0000000000E+00  0.0000000000E+00
                       0.0000000000E+00  0.0000000000E+00  0.0000000000E+00
                       0.0000000000E+00  0.0000000000E+00  0.0000000000E+00
                       0.0000000000E+00  0.0000000000E+00  0.0000000000E+00
                       0.0000000000E+00  0.0000000000E+00  0.0000000000E+00
                       0.0000000000E+00  0.0000000000E+00  0.0000000000E+00
                       0.0000000000E+00  0.0000000000E+00  0.0000000000E+00
                       0.0000000000E+00  0.0000000000E+00  0.0000000000E+00
                       0.0000000000E+00  0.0000000000E+00  0.0000000000E+00
                       0.0000000000E+00  0.0000000000E+00  0.0000000000E+00
-          fftalg         512
           irdden           1
           irdwfk           1
              ixc     -116133
              kpt     -3.45583934E-01  6.54416066E-01  0.00000000E+00
                      -2.99259114E-01  7.00740886E-01  3.52941177E-01
           kptopt           0
P           mkmem           2
P          mkqmem           2
P          mk1mem           2
            natom          10
            nband          55
           nbdbuf           4
            ngfft          90      90      64
             nkpt           2
            nstep        2000
             nsym           8
           ntypat           3
              occ      2.000000  2.000000  2.000000  2.000000  2.000000  2.000000
                       2.000000  2.000000  2.000000  2.000000  2.000000  2.000000
                       2.000000  2.000000  2.000000  2.000000  2.000000  2.000000
                       2.000000  2.000000  2.000000  2.000000  2.000000  2.000000
                       2.000000  2.000000  2.000000  2.000000  2.000000  2.000000
                       2.000000  2.000000  2.000000  2.000000  2.000000  2.000000
                       2.000000  2.000000  2.000000  2.000000  2.000000  2.000000
                       2.000000  2.000000  2.000000  2.000000  0.000000  0.000000
                       0.000000  0.000000  0.000000  0.000000  0.000000  0.000000
                       0.000000
        optdriver           1
            prtwf          -1
            rfdir           1       1       1
           rfelfd           2
            rprim      1.4566389352E+01  0.0000000000E+00  0.0000000000E+00
                      -9.7710304192E+00  1.0803085823E+01  0.0000000000E+00
                       0.0000000000E+00  0.0000000000E+00  1.1004240187E+01
          spgroup          63
           strten      0.0000000000E+00  0.0000000000E+00  0.0000000000E+00
                       0.0000000000E+00  0.0000000000E+00  0.0000000000E+00
           symrel      1  0  0   0  1  0   0  0  1      -1  0  0   0 -1  0   0  0 -1
                       0  1  0   1  0  0   0  0 -1       0 -1  0  -1  0  0   0  0  1
                      -1  0  0   0 -1  0   0  0  1       1  0  0   0  1  0   0  0 -1
                       0 -1  0  -1  0  0   0  0 -1       0  1  0   1  0  0   0  0  1
            tnons      0.0000000  0.0000000  0.0000000     0.0000000  0.0000000  0.0000000
                       0.0000000  0.0000000  0.0000000     0.0000000  0.0000000  0.0000000
                       0.0000000  0.0000000  0.5000000     0.0000000  0.0000000  0.5000000
                       0.0000000  0.0000000  0.5000000     0.0000000  0.0000000  0.5000000
           tolwfr      1.00000000E-20
            typat      1  1  1  1  2  2  2  2  3  3
           useylm           1
              wtk        0.50000    0.50000
           xangst     -2.4547751163E+00  4.5112221016E+00  1.4557982761E+00
                       2.2563958288E+00  2.4199903883E+00  1.4557982761E+00
                       4.9923697703E+00  1.2055246981E+00  4.3673948284E+00
                       2.8119882519E-01  3.2967564115E+00  4.3673948284E+00
                       6.6666204079E-01  5.3575521648E+00  1.4557982761E+00
                       3.5262081437E+00  4.0882342892E+00  4.3673948284E+00
                       1.8709326132E+00  3.5919463492E-01  4.3673948284E+00
                      -9.8861348963E-01  1.6285125106E+00  1.4557982761E+00
                       0.0000000000E+00  0.0000000000E+00  0.0000000000E+00
                       0.0000000000E+00  0.0000000000E+00  2.9115965523E+00
            xcart     -4.6388526876E+00  8.5249742967E+00  2.7510600466E+00
                       4.2639701639E+00  4.5731190781E+00  2.7510600466E+00
                       9.4342116200E+00  2.2781115259E+00  8.2531801399E+00
                       5.3138876850E-01  6.2299667445E+00  8.2531801399E+00
                       1.2598086803E+00  1.0124306334E+01  2.7510600466E+00
                       6.6635676791E+00  7.7256431736E+00  8.2531801399E+00
                       3.5355502521E+00  6.7877948841E-01  8.2531801399E+00
                      -1.8682087467E+00  3.0774426490E+00  2.7510600466E+00
                       0.0000000000E+00  0.0000000000E+00  0.0000000000E+00
                       0.0000000000E+00  0.0000000000E+00  5.5021200932E+00
             xred      2.1087600000E-01  7.8912400000E-01  2.5000000000E-01
                       5.7668400000E-01  4.2331600000E-01  2.5000000000E-01
                       7.8912400000E-01  2.1087600000E-01  7.5000000000E-01
                       4.2331600000E-01  5.7668400000E-01  7.5000000000E-01
                       7.1513300000E-01  9.3716800000E-01  2.5000000000E-01
                       9.3716800000E-01  7.1513300000E-01  7.5000000000E-01
                       2.8486700000E-01  6.2832000000E-02  7.5000000000E-01
                       6.2832000000E-02  2.8486700000E-01  2.5000000000E-01
                       0.0000000000E+00  0.0000000000E+00  0.0000000000E+00
                       0.0000000000E+00  0.0000000000E+00  5.0000000000E-01
            znucl       19.00000   15.00000   46.00000

- Timing analysis has been suppressed with timopt=0

 Suggested references for the acknowledgment of ABINIT usage.

 Calculation completed.
.Delivered   2 WARNINGs and   5 COMMENTs to log file.