.Version 9.5.2 of ABINIT

 ABINIT is a project of the Universite Catholique de Louvain,
 Corning Inc. and other collaborators, see ~abinit/doc/developers/contributors.txt .
 acknowledgments of the ABINIT effort.

.Starting date : Tue 25 May 2021.
- ( at 11h17 )

- input  file    -> /scratch/users/j/a/jabreu/flow_simple_10atoms/flow/w504/t1/run.abi
- output file    -> /scratch/users/j/a/jabreu/flow_simple_10atoms/flow/w504/t1/run.abo
- root for input  files -> /scratch/users/j/a/jabreu/flow_simple_10atoms/flow/w504/t1/indata/in
- root for output files -> /scratch/users/j/a/jabreu/flow_simple_10atoms/flow/w504/t1/outdata/out

 Symmetries : space group Cm c 2_1 (# 36); Bravais oC (1-face-center ortho.)
     intxc =       0      iscf =       7    lmnmax =      18     lnmax =       6
     mgfft =      90  mpssoang =       3    mqgrid =    4154     natom =      10
  nloc_mem =       1    nspden =       1   nspinor =       1    nsppol =       1
      nsym =       4    n1xccc =    2501    ntypat =       2    occopt =       1
   xclevel =       2
-    mband =          75        mffmem =           1         mkmem =           2
-   mkqmem =           2        mk1mem =           2           mpw =       26458
      nfft =      466560          nkpt =           2
  Rough estimation (10% accuracy) of disk space for files :

------------- Echo of variables that govern the present computation ------------
-
- outvars: echo of selected default values
-   iomode0 =  0 , fftalg0 =512 , wfoptalg0 =  0
-
- outvars: echo of global parameters not present in the input file
-  max_nthreads =    0
-
 -outvars: echo values of preprocessed input variables --------
            acell      1.0000000000E+00  1.0000000000E+00  1.0000000000E+00 Bohr
              amu      3.90983000E+01  7.89600000E+01
             ecut      4.30000000E+01 Hartree
-          fftalg         512
           irdden           1
           irdwfk           1
              ixc     -116133
              kpt      3.20296107E-01  3.20296107E-01  0.00000000E+00
                      -5.00000000E-01  5.00000000E-01  0.00000000E+00
           kptopt           0
P           mkmem           2
P          mkqmem           2
P          mk1mem           2
            natom          10
            nband          75
           nbdbuf           4
            ngfft          72      72      90
             nkpt           2
            nstep        2000
             nsym           4
           ntypat           2
              occ      2.000000  2.000000  2.000000  2.000000  2.000000  2.000000
                       2.000000  2.000000  2.000000  2.000000  2.000000  2.000000
                       2.000000  2.000000  2.000000  2.000000  2.000000  2.000000
                       2.000000  2.000000  2.000000  2.000000  2.000000  2.000000
                       2.000000  2.000000  2.000000  2.000000  2.000000  2.000000
                       2.000000  2.000000  2.000000  2.000000  2.000000  2.000000
                       2.000000  2.000000  2.000000  2.000000  2.000000  2.000000
                       2.000000  2.000000  2.000000  2.000000  2.000000  2.000000
                       2.000000  2.000000  2.000000  2.000000  2.000000  2.000000
                       2.000000  2.000000  2.000000  2.000000  2.000000  2.000000
                       2.000000  2.000000  2.000000  2.000000  2.000000  2.000000
                       0.000000  0.000000  0.000000  0.000000  0.000000  0.000000
                       0.000000  0.000000  0.000000
        optdriver           1
            prtwf          -1
            rfdir           1       1       1
           rfelfd           2
            rprim      1.2156068983E+01  0.0000000000E+00  0.0000000000E+00
                      -3.9737846437E+00  1.1488213470E+01  0.0000000000E+00
                       0.0000000000E+00  0.0000000000E+00  1.4070217985E+01
          spgroup          36
           symrel      1  0  0   0  1  0   0  0  1       0  1  0   1  0  0   0  0  1
                      -1  0  0   0 -1  0   0  0  1       0 -1  0  -1  0  0   0  0  1
            tnons      0.0000000  0.0000000  0.0000000     0.0000000  0.0000000  0.5000000
                       0.0000000  0.0000000  0.5000000     0.0000000  0.0000000  0.0000000
           tolwfr      1.00000000E-20
            typat      1  1  1  1  2  2  2  2  2  2
           useylm           1
              wtk        0.50000    0.50000
           xangst     -1.2993080375E+00  5.5070014436E+00  9.7033052372E-01
                       5.6291864241E+00  5.7229929195E-01  4.6931498624E+00
                       2.9020266928E+00  2.5146723528E+00  6.3207218035E+00
                       1.4278516939E+00  3.5646283828E+00  2.5979024648E+00
                       4.6192515040E+00  1.2916082343E+00  1.4113729308E+00
                      -2.8937311742E-01  4.7876925013E+00  5.1341922695E+00
                       1.8427197008E+00  5.5407537213E+00  7.4210904067E+00
                       2.4871586858E+00  5.3854701426E-01  3.6982710680E+00
                      -3.0408596182E-01  2.5265634650E+00  7.4210904067E+00
                       4.6339643484E+00  3.5527372706E+00  3.6982710680E+00
            xcart     -2.4553363531E+00  1.0406724542E+01  1.8336589482E+00
                       1.0637620693E+01  1.0814889278E+00  8.8687679406E+00
                       5.4840356796E+00  4.7520420607E+00  1.1944433171E+01
                       2.6982486598E+00  6.7361714090E+00  4.9093241784E+00
                       8.7291202816E+00  2.4407858338E+00  2.6671083105E+00
                      -5.4683594215E-01  9.0474276359E+00  9.7022173029E+00
                       3.4822355742E+00  1.0470507103E+01  1.4023828476E+01
                       4.7000487652E+00  1.0177063666E+00  6.9887194837E+00
                      -5.7463918870E-01  4.7745130062E+00  1.4023828476E+01
                       8.7569235281E+00  6.7137004635E+00  6.9887194837E+00
             xred      9.4139000000E-02  9.0586100000E-01  1.3032200000E-01
                       9.0586100000E-01  9.4139000000E-02  6.3032200000E-01
                       5.8635500000E-01  4.1364500000E-01  8.4891600000E-01
                       4.1364500000E-01  5.8635500000E-01  3.4891600000E-01
                       7.8754000000E-01  2.1246000000E-01  1.8955700000E-01
                       2.1246000000E-01  7.8754000000E-01  6.8955700000E-01
                       5.8439900000E-01  9.1141300000E-01  9.9670300000E-01
                       4.1560100000E-01  8.8587000000E-02  4.9670300000E-01
                       8.8587000000E-02  4.1560100000E-01  9.9670300000E-01
                       9.1141300000E-01  5.8439900000E-01  4.9670300000E-01
            znucl       19.00000   34.00000

 chkinp: Checking input parameters for consistency.

== DATASET  1 ==================================================================
-   mpi_nproc: 1, omp_nthreads: -1 (-1 if OMP is not activated)

--- !DatasetInfo
iteration_state: {dtset: 1, }
dimensions: {natom: 10, nkpt: 2, mband: 75, nsppol: 1, nspinor: 1, nspden: 1, mpw: 26458, }
cutoff_energies: {ecut:  43.0, pawecutdg:  -1.0, }
electrons: {nelect:   1.32000000E+02, charge:   0.00000000E+00, occopt:   1.00000000E+00, tsmear:   1.00000000E-02, }
meta: {optdriver: 1, rfelfd: 2, }
...

 Real(R)+Recip(G) space primitive vectors, cartesian coordinates (Bohr,Bohr^-1):
 R(1)= 12.1560690  0.0000000  0.0000000  G(1)=  0.0822634  0.0284550  0.0000000
 R(2)= -3.9737846 11.4882135  0.0000000  G(2)=  0.0000000  0.0870457  0.0000000
 R(3)=  0.0000000  0.0000000 14.0702180  G(3)=  0.0000000  0.0000000  0.0710721
 Unit cell volume ucvol=  1.9649273E+03 bohr^3
 Angles (23,13,12)=  9.00000000E+01  9.00000000E+01  1.09080555E+02 degrees

 getcut: wavevector=  0.0000  0.0000  0.0000  ngfft=  72  72  90
         ecut(hartree)=     43.000   => boxcut(ratio)=   2.00655

--- Pseudopotential description ------------------------------------------------
- pspini: atom type   1  psp file is /scratch/users/j/a/jabreu/pseudos/PBEsol/K.psp8
- pspatm: opening atomic psp file    /scratch/users/j/a/jabreu/pseudos/PBEsol/K.psp8
- K     ONCVPSP-3.3.0  r_core=   1.36296   1.46408   1.61068
- 19.00000   9.00000    180112                znucl, zion, pspdat
    8 -116133    2    4       400   0.00000   pspcod,pspxc,lmax,lloc,mmax,r2well
    3.99000000000000    5.00000000000000    0.00000000000000   rchrg,fchrg,qchrg
     nproj     2     2     2
     extension_switch     1
  pspatm : epsatm=    8.32487830
         --- l  ekb(1:nproj) -->
             0   10.921326    0.816676
             1    4.431000    0.560368
             2   -3.384038   -1.043186
 pspatm: atomic psp has been read  and splines computed

- pspini: atom type   2  psp file is /scratch/users/j/a/jabreu/pseudos/PBEsol/Se.psp8
- pspatm: opening atomic psp file    /scratch/users/j/a/jabreu/pseudos/PBEsol/Se.psp8
- Se    ONCVPSP-3.3.0  r_core=   1.81943   1.50330   1.90835
- 34.00000  16.00000    180112                znucl, zion, pspdat
    8 -116133    2    4       600   0.00000   pspcod,pspxc,lmax,lloc,mmax,r2well
    5.99000000000000    5.00000000000000    0.00000000000000   rchrg,fchrg,qchrg
     nproj     2     2     2
     extension_switch     1
  pspatm : epsatm=   29.17862020
         --- l  ekb(1:nproj) -->
             0    8.973804    1.019550
             1    6.849857    1.297308
             2   -9.203962   -3.731027
 pspatm: atomic psp has been read  and splines computed

   2.75050029E+04                                ecore*ucvol(ha*bohr**3)

 ==>  initialize data related to q vector <==

 The list of irreducible perturbations for this q vector is:
    1)    idir= 1    ipert=  11
    2)    idir= 2    ipert=  11
    3)    idir= 3    ipert=  11

 Perturbation wavevector (in red.coord.)   0.000000  0.000000  0.000000
 Perturbation : derivative vs k along direction   1

 dfpt_looppert : COMMENT -
  In a d/dk calculation, iscf is set to -3 automatically.
 The set of symmetries contains only one element for this perturbation.
 symkpt : not enough symmetry to change the number of k points.

 Initialisation of the first-order wave-functions :
  ireadwf=   0

--- !BeginCycle
iteration_state: {dtset: 1, }
solver: {iscf: 7, nstep: 2000, nline: 4, wfoptalg: 0, }
tolerances: {tolwfr: 1.00E-20, }
...

     iter   2DEtotal(Ha)        deltaE(Ha) residm    vres2
-ETOT  1  -84.064659672270     -8.406E+01 5.749E-02 0.000E+00
 ETOT  2  -84.215223437260     -1.506E-01 7.158E-03 0.000E+00
 ETOT  3  -84.217089220417     -1.866E-03 9.002E-04 0.000E+00
 ETOT  4  -84.217141070904     -5.185E-05 1.597E-04 0.000E+00
 ETOT  5  -84.217142964982     -1.894E-06 2.650E-05 0.000E+00
 ETOT  6  -84.217143044362     -7.938E-08 5.367E-06 0.000E+00
 ETOT  7  -84.217143047957     -3.595E-09 9.245E-07 0.000E+00
 ETOT  8  -84.217143048127     -1.695E-10 1.982E-07 0.000E+00
 ETOT  9  -84.217143048135     -8.185E-12 3.536E-08 0.000E+00
 ETOT 10  -84.217143048135     -4.405E-13 7.763E-09 0.000E+00
 ETOT 11  -84.217143048135     -7.105E-14 1.421E-09 0.000E+00
 ETOT 12  -84.217143048135      0.000E+00 3.160E-10 0.000E+00
 ETOT 13  -84.217143048135      5.684E-14 5.895E-11 0.000E+00
[...]
   0.00001    0.00001   -0.00002   -0.00002    0.00001    0.00002   -0.00000   -0.00000
   0.00000    0.00000   -0.00001   -0.00001    0.00001    0.00001    0.00003   -0.00001
  -0.00000    0.00001   -0.02229    0.01187    0.00684   -0.01164   -0.00396    0.00172
   0.00053    0.00326    0.00709    0.00195   -0.00148    0.00003    0.00374    0.00379
   0.00804    0.01465   -0.05393    0.03641   -0.05100    0.11070   -0.10107   -0.03529
   0.01934    0.00923    0.01642    0.06520    0.00538    0.03285   -0.02121    0.05743
  -0.03801   -0.00402   -0.15166   -0.09697    0.07899    0.11182    0.12027    0.04276
  -0.01076   -0.01501   -0.07017
 prteigrs : prtvol=0 or 1, do not print more k-points.

 Eight components of 2nd-order total energy (hartree) are
 1,2,3: 0th-order hamiltonian combined with 1st-order wavefunctions
     kin0=   9.79215349E+01 eigvalue=   1.59325339E+01  local=  -4.45640913E+01
 4,5,6: 1st-order hamiltonian combined with 1st and 0th-order wfs
     kin1=  -7.99666407E+01  Hartree=   0.00000000E+00     xc=   0.00000000E+00
 7,8,9: eventually, occupation + non-local contributions
    edocc=   6.81517902E+00     enl0=   8.11198651E+00   enl1=  -8.84676454E+01
 1-9 gives the relaxation energy (to be shifted if some occ is /=2.0)
   erelax=  -8.42171430E+01
  No Ewald or frozen-wf contrib.: the relaxation energy is the total one
 2DEtotal=   -0.8421714305E+02 Ha. Also 2DEtotal=   -0.229166500708E+04 eV
    (  non-var. 2DEtotal :   -8.4217143048E+01 Ha)

 Perturbation wavevector (in red.coord.)   0.000000  0.000000  0.000000
 Perturbation : derivative vs k along direction   2
 The set of symmetries contains only one element for this perturbation.
 symkpt : not enough symmetry to change the number of k points.

[...]

 Perturbation wavevector (in red.coord.)   0.000000  0.000000  0.000000
 Perturbation : derivative vs k along direction   3
 The set of symmetries contains only one element for this perturbation.
 symkpt : not enough symmetry to change the number of k points.

 Initialisation of the first-order wave-functions :
  ireadwf=   0

--- !BeginCycle
iteration_state: {dtset: 1, }
solver: {iscf: 7, nstep: 2000, nline: 4, wfoptalg: 0, }
tolerances: {tolwfr: 1.00E-20, }
...

     iter   2DEtotal(Ha)        deltaE(Ha) residm    vres2
-ETOT  1  -55.895630044429     -5.590E+01 9.387E-02 0.000E+00
 ETOT  2  -55.992002661743     -9.637E-02 1.606E-02 0.000E+00
 ETOT  3  -55.993237177072     -1.235E-03 2.196E-03 0.000E+00
 ETOT  4  -55.993271096276     -3.392E-05 7.463E-04 0.000E+00
 ETOT  5  -55.993272279045     -1.183E-06 1.599E-04 0.000E+00
 ETOT  6  -55.993272325538     -4.649E-08 5.951E-05 0.000E+00
 ETOT  7  -55.993272327510     -1.972E-09 1.463E-05 0.000E+00
 ETOT  8  -55.993272327597     -8.737E-11 5.458E-06 0.000E+00
 ETOT  9  -55.993272327602     -4.036E-12 1.387E-06 0.000E+00
 ETOT 10  -55.993272327602     -1.563E-13 5.184E-07 0.000E+00
 ETOT 11  -55.993272327602     -4.974E-14 1.328E-07 0.000E+00
 ETOT 12  -55.993272327602      7.105E-15 4.957E-08 0.000E+00
 ETOT 13  -55.993272327602      1.421E-14 1.278E-08 0.000E+00
 ETOT 14  -55.993272327602     -1.421E-14 4.778E-09 0.000E+00
 ETOT 15  -55.993272327602     -4.263E-14 1.233E-09 0.000E+00
 ETOT 16  -55.993272327602      2.842E-14 4.626E-10 0.000E+00
 ETOT 17  -55.993272327602     -1.421E-14 1.192E-10 0.000E+00
 ETOT 18  -55.993272327602      2.132E-14 4.491E-11 0.000E+00
 ETOT 19  -55.993272327602     -1.421E-14 1.154E-11 0.000E+00
 ETOT 20  -55.993272327602      0.000E+00 4.369E-12 0.000E+00
 ETOT 21  -55.993272327602     -7.105E-15 1.118E-12 0.000E+00
 ETOT 22  -55.993272327602      1.421E-14 4.255E-13 0.000E+00
 ETOT 23  -55.993272327602     -7.105E-15 1.084E-13 0.000E+00
 ETOT 24  -55.993272327602      7.105E-15 4.150E-14 0.000E+00
 ETOT 25  -55.993272327602     -7.105E-15 1.052E-14 0.000E+00
 ETOT 26  -55.993272327602      7.105E-15 4.051E-15 0.000E+00
 ETOT 27  -55.993272327602     -1.421E-14 1.022E-15 0.000E+00
 ETOT 28  -55.993272327602      1.421E-14 3.957E-16 0.000E+00
 ETOT 29  -55.993272327602      0.000E+00 9.924E-17 0.000E+00
 ETOT 30  -55.993272327602     -7.105E-15 3.869E-17 0.000E+00
 ETOT 31  -55.993272327602      7.105E-15 9.646E-18 0.000E+00
 ETOT 32  -55.993272327602      0.000E+00 3.785E-18 0.000E+00
 ETOT 33  -55.993272327602     -1.421E-14 9.380E-19 0.000E+00
 ETOT 34  -55.993272327602      1.421E-14 3.706E-19 0.000E+00
 ETOT 35  -55.993272327602     -1.421E-14 9.125E-20 0.000E+00
 ETOT 36  -55.993272327602     -1.421E-14 3.630E-20 0.000E+00
 ETOT 37  -55.993272327602      0.000E+00 9.803E-21 0.000E+00

 At SCF step   37   max residual=  9.80E-21 < tolwfr=  1.00E-20 =>converged.

 ----iterations are completed or convergence reached----

 dfpt_looppert: DFPT cycle converged with prtwf=-1. Will skip output of the 1st-order WFK file.
 dfpt_looppert : ek2=    5.2645591780E+01
          f-sum rule ratio=    1.0080463550E+00
 prteigrs : about to open file /scratch/users/j/a/jabreu/flow_simple_10atoms/flow/w504/t1/tmpdata/tmp_1WF1_EIG
 Expectation of eigenvalue derivatives (hartree) for nkpt=   2  k points:
  (in case of degenerate eigenvalues, averaged derivative)
 kpt#   1, nband= 75, wtk=  0.50000, kpt=  0.3203  0.3203  0.0000 (reduced coord)
   0.00000   -0.00000   -0.00000   -0.00000   -0.00000    0.00000    0.00000    0.00000
   0.00000    0.00000   -0.00000    0.00000   -0.00000   -0.00000    0.00000   -0.00000
   0.00000   -0.00000   -0.00000   -0.00000    0.00000    0.00000   -0.00000   -0.00000
   0.00000    0.00000    0.00000    0.00000    0.00000    0.00000   -0.00000   -0.00000
   0.00000    0.00000   -0.00000   -0.00000   -0.00000   -0.00000    0.00000    0.00000
   0.00000   -0.00000   -0.00000   -0.00000    0.00000    0.00000    0.00000    0.00000
   0.00000    0.00000   -0.00000   -0.00000   -0.00000   -0.00000    0.00000   -0.00000
   0.00000    0.00000    0.00000   -0.00000    0.00000   -0.00000    0.00000    0.00000
  -0.00000   -0.00000   -0.00000   -0.00000   -0.00000    0.00000   -0.00000   -0.00000
   0.00000   -0.00000    0.00007
 prteigrs : prtvol=0 or 1, do not print more k-points.

 Eight components of 2nd-order total energy (hartree) are
 1,2,3: 0th-order hamiltonian combined with 1st-order wavefunctions
     kin0=   6.61475272E+01 eigvalue=   1.04597246E+01  local=  -3.02038963E+01
 4,5,6: 1st-order hamiltonian combined with 1st and 0th-order wfs
     kin1=  -5.30691969E+01  Hartree=   0.00000000E+00     xc=   0.00000000E+00
 7,8,9: eventually, occupation + non-local contributions
    edocc=   4.15939930E+00     enl0=   5.43051752E+00   enl1=  -5.89173478E+01
 1-9 gives the relaxation energy (to be shifted if some occ is /=2.0)
   erelax=  -5.59932723E+01
  No Ewald or frozen-wf contrib.: the relaxation energy is the total one
 2DEtotal=   -0.5599327233E+02 Ha. Also 2DEtotal=   -0.152365442688E+04 eV
    (  non-var. 2DEtotal :   -5.5993272327E+01 Ha)

 CALCULATION OF EFFECTIVE MASSES
 NOTE : Additional infos (eff. mass eigenvalues, eigenvectors and, if degenerate, average mass) are available in stdout.

 K-point ( 0.320, 0.320, 0.000) | band =    66
 Effective mass tensor:
             -4.6161826241              2.7717343579             -0.0000294065
              2.7717343579             -2.6981773032              0.0000452968
             -0.0000294065              0.0000452968             -0.6530501696
 Effective mass tensor eigenvalues:
             -6.5901302626             -0.7242296706             -0.6530501637
 Angular average effective mass 1/(<1/m>)=  -0.9791776384
 Angular average effective mass for Frohlich model (<m**0.5>)**2=  -1.1837447297
 Effective masses along directions: (cart. coord. / red. coord. -> eff. mass)
    1:   1.000000  0.000000  0.000000 /   0.950503 -0.310717  0.000000 ->  -1.7688859164
    2:   0.000000  1.000000  0.000000 /   0.000000  1.000000  0.000000 ->  -1.0339209291
    3:   0.000000  0.000000  1.000000 /   0.000000  0.000000  1.000000 ->  -0.6530501687
    4:   0.577350  0.577350  0.577350 /   0.606133  0.374689  0.701577 ->  -0.7099943409
    5:   0.000000  0.707107  0.707107 /   0.000000  0.632453  0.774599 ->  -0.8004643508
    6:   0.707107  0.000000  0.707107 /   0.639322 -0.208993  0.739993 ->  -0.9539103177
    7:   0.707107  0.707107  0.000000 /   0.850602  0.525810  0.000000 ->  -0.7423909529

 K-point (-0.500, 0.500, 0.000) | band =    67
 Effective mass tensor:
             61.8882459727            -43.8957117003             -0.0023626689
            -43.8957117003             31.5210978608              0.0016790910
             -0.0023626689              0.0016790910              0.7550700644
 Effective mass tensor eigenvalues:
              0.2571270216              0.7550699735             93.1522169028
 Angular average effective mass 1/(<1/m>)=   0.5742457579
 Angular average effective mass for Frohlich model (<m**0.5>)**2=   0.9621274594
 Effective masses along directions: (cart. coord. / red. coord. -> eff. mass)
    1:   1.000000  0.000000  0.000000 /   0.950503 -0.310717  0.000000 ->   0.7598704887
    2:   0.000000  1.000000  0.000000 /   0.000000  1.000000  0.000000 ->   0.3870194038
    3:   0.000000  0.000000  1.000000 /   0.000000  0.000000  1.000000 ->   0.7550699741
    4:   0.577350  0.577350  0.577350 /   0.606133  0.374689  0.701577 ->   0.3374722285
    5:   0.000000  0.707107  0.707107 /   0.000000  0.632453  0.774599 ->   0.5117435320
    6:   0.707107  0.000000  0.707107 /   0.639322 -0.208993  0.739993 ->   0.7574382295
    7:   0.707107  0.707107  0.000000 /   0.850602  0.525810  0.000000 ->   0.2643692124

 END OF EFFECTIVE MASSES SECTION

 ---- first-order wavefunction calculations are completed ----

 Total localisation tensor (bohr^2) in cartesian coordinates
  WARNING : still subject to testing - especially symmetries.
      direction              matrix element
   alpha     beta       real part   imaginary part
     1        1       1.4433776244    0.0000000000
     1        2      -0.4028644894    0.0000000000
     1        3       0.0000000000    0.0000000000
     2        1      -0.4028644894    0.0000000000
     2        2       1.1646814483    0.0000000000
     2        3       0.0000000000    0.0000000000
     3        1       0.0000000000    0.0000000000
     3        2       0.0000000000    0.0000000000
     3        3       0.9882888869    0.0000000000

 respfn : d/dk was computed, but no 2DTE, so no DDB output.

== END DATASET(S) ==============================================================

 -outvars: echo values of variables after computation  --------
            acell      1.0000000000E+00  1.0000000000E+00  1.0000000000E+00 Bohr
              amu      3.90983000E+01  7.89600000E+01
             ecut      4.30000000E+01 Hartree
           etotal     -5.5993272328E+01
            fcart      0.0000000000E+00  0.0000000000E+00  0.0000000000E+00
                       0.0000000000E+00  0.0000000000E+00  0.0000000000E+00
                       0.0000000000E+00  0.0000000000E+00  0.0000000000E+00
                       0.0000000000E+00  0.0000000000E+00  0.0000000000E+00
                       0.0000000000E+00  0.0000000000E+00  0.0000000000E+00
                       0.0000000000E+00  0.0000000000E+00  0.0000000000E+00
                       0.0000000000E+00  0.0000000000E+00  0.0000000000E+00
                       0.0000000000E+00  0.0000000000E+00  0.0000000000E+00
                       0.0000000000E+00  0.0000000000E+00  0.0000000000E+00
                       0.0000000000E+00  0.0000000000E+00  0.0000000000E+00
-          fftalg         512
           irdden           1
           irdwfk           1
              ixc     -116133
              kpt      3.20296107E-01  3.20296107E-01  0.00000000E+00
                      -5.00000000E-01  5.00000000E-01  0.00000000E+00
           kptopt           0
P           mkmem           2
P          mkqmem           2
P          mk1mem           2
            natom          10
            nband          75
           nbdbuf           4
            ngfft          72      72      90
             nkpt           2
            nstep        2000
             nsym           4
           ntypat           2
              occ      2.000000  2.000000  2.000000  2.000000  2.000000  2.000000
                       2.000000  2.000000  2.000000  2.000000  2.000000  2.000000
                       2.000000  2.000000  2.000000  2.000000  2.000000  2.000000
                       2.000000  2.000000  2.000000  2.000000  2.000000  2.000000
                       2.000000  2.000000  2.000000  2.000000  2.000000  2.000000
                       2.000000  2.000000  2.000000  2.000000  2.000000  2.000000
                       2.000000  2.000000  2.000000  2.000000  2.000000  2.000000
                       2.000000  2.000000  2.000000  2.000000  2.000000  2.000000
                       2.000000  2.000000  2.000000  2.000000  2.000000  2.000000
                       2.000000  2.000000  2.000000  2.000000  2.000000  2.000000
                       2.000000  2.000000  2.000000  2.000000  2.000000  2.000000
                       0.000000  0.000000  0.000000  0.000000  0.000000  0.000000
                       0.000000  0.000000  0.000000
        optdriver           1
            prtwf          -1
            rfdir           1       1       1
           rfelfd           2
            rprim      1.2156068983E+01  0.0000000000E+00  0.0000000000E+00
                      -3.9737846437E+00  1.1488213470E+01  0.0000000000E+00
                       0.0000000000E+00  0.0000000000E+00  1.4070217985E+01
          spgroup          36
           strten      0.0000000000E+00  0.0000000000E+00  0.0000000000E+00
                       0.0000000000E+00  0.0000000000E+00  0.0000000000E+00
           symrel      1  0  0   0  1  0   0  0  1       0  1  0   1  0  0   0  0  1
                      -1  0  0   0 -1  0   0  0  1       0 -1  0  -1  0  0   0  0  1
            tnons      0.0000000  0.0000000  0.0000000     0.0000000  0.0000000  0.5000000
                       0.0000000  0.0000000  0.5000000     0.0000000  0.0000000  0.0000000
           tolwfr      1.00000000E-20
            typat      1  1  1  1  2  2  2  2  2  2
           useylm           1
              wtk        0.50000    0.50000
           xangst     -1.2993080375E+00  5.5070014436E+00  9.7033052372E-01
                       5.6291864241E+00  5.7229929195E-01  4.6931498624E+00
                       2.9020266928E+00  2.5146723528E+00  6.3207218035E+00
                       1.4278516939E+00  3.5646283828E+00  2.5979024648E+00
                       4.6192515040E+00  1.2916082343E+00  1.4113729308E+00
                      -2.8937311742E-01  4.7876925013E+00  5.1341922695E+00
                       1.8427197008E+00  5.5407537213E+00  7.4210904067E+00
                       2.4871586858E+00  5.3854701426E-01  3.6982710680E+00
                      -3.0408596182E-01  2.5265634650E+00  7.4210904067E+00
                       4.6339643484E+00  3.5527372706E+00  3.6982710680E+00
            xcart     -2.4553363531E+00  1.0406724542E+01  1.8336589482E+00
                       1.0637620693E+01  1.0814889278E+00  8.8687679406E+00
                       5.4840356796E+00  4.7520420607E+00  1.1944433171E+01
                       2.6982486598E+00  6.7361714090E+00  4.9093241784E+00
                       8.7291202816E+00  2.4407858338E+00  2.6671083105E+00
                      -5.4683594215E-01  9.0474276359E+00  9.7022173029E+00
                       3.4822355742E+00  1.0470507103E+01  1.4023828476E+01
                       4.7000487652E+00  1.0177063666E+00  6.9887194837E+00
                      -5.7463918870E-01  4.7745130062E+00  1.4023828476E+01
                       8.7569235281E+00  6.7137004635E+00  6.9887194837E+00
             xred      9.4139000000E-02  9.0586100000E-01  1.3032200000E-01
                       9.0586100000E-01  9.4139000000E-02  6.3032200000E-01
                       5.8635500000E-01  4.1364500000E-01  8.4891600000E-01
                       4.1364500000E-01  5.8635500000E-01  3.4891600000E-01
                       7.8754000000E-01  2.1246000000E-01  1.8955700000E-01
                       2.1246000000E-01  7.8754000000E-01  6.8955700000E-01
                       5.8439900000E-01  9.1141300000E-01  9.9670300000E-01
                       4.1560100000E-01  8.8587000000E-02  4.9670300000E-01
                       8.8587000000E-02  4.1560100000E-01  9.9670300000E-01
                       9.1141300000E-01  5.8439900000E-01  4.9670300000E-01
            znucl       19.00000   34.00000

- Timing analysis has been suppressed with timopt=0

 Suggested references for the acknowledgment of ABINIT usage.

 Calculation completed.
.Delivered   2 WARNINGs and   7 COMMENTs to log file.