.Version 9.5.1 of ABINIT

 ABINIT is a project of the Universite Catholique de Louvain,
 Corning Inc. and other collaborators, see ~abinit/doc/developers/contributors.txt .
 acknowledgments of the ABINIT effort.

.Starting date : Wed 19 May 2021.
- ( at 01h39 )

- input  file    -> /scratch/users/j/a/jabreu/flow_simple_8atoms/flow/w461/t1/run.abi
- output file    -> /scratch/users/j/a/jabreu/flow_simple_8atoms/flow/w461/t1/run.abo
- root for input  files -> /scratch/users/j/a/jabreu/flow_simple_8atoms/flow/w461/t1/indata/in
- root for output files -> /scratch/users/j/a/jabreu/flow_simple_8atoms/flow/w461/t1/outdata/out

 Symmetries : space group Cm c m (# 63); Bravais oC (1-face-center ortho.)
     intxc =       0      iscf =       7    lmnmax =      18     lnmax =       6
     mgfft =      75  mpssoang =       3    mqgrid =    3126     natom =       8
  nloc_mem =       1    nspden =       1   nspinor =       1    nsppol =       1
      nsym =       8    n1xccc =    2501    ntypat =       3    occopt =       1
   xclevel =       2
-    mband =          49        mffmem =           1         mkmem =           2
-   mkqmem =           2        mk1mem =           2           mpw =       15498
      nfft =      360000          nkpt =           2
  Rough estimation (10% accuracy) of disk space for files :

------------- Echo of variables that govern the present computation ------------
-
- outvars: echo of selected default values
-   iomode0 =  0 , fftalg0 =512 , wfoptalg0 =  0
-
- outvars: echo of global parameters not present in the input file
-  max_nthreads =    0
-
 -outvars: echo values of preprocessed input variables --------
            acell      1.0000000000E+00  1.0000000000E+00  1.0000000000E+00 Bohr
              amu      8.54678000E+01  6.35460000E+01  1.59994000E+01
             ecut      4.60000000E+01 Hartree
-          fftalg         512
           irdden           1
           irdwfk           1
              ixc     -116133
              kpt      2.03929257E-01  2.03929257E-01  0.00000000E+00
                      -5.00000000E-01  5.00000000E-01  4.72222222E-01
           kptopt           0
P           mkmem           2
P          mkqmem           2
P          mk1mem           2
            natom           8
            nband          49
           nbdbuf           4
            ngfft          75      75      64
             nkpt           2
            nstep        2000
             nsym           8
           ntypat           3
              occ      2.000000  2.000000  2.000000  2.000000  2.000000  2.000000
                       2.000000  2.000000  2.000000  2.000000  2.000000  2.000000
                       2.000000  2.000000  2.000000  2.000000  2.000000  2.000000
                       2.000000  2.000000  2.000000  2.000000  2.000000  2.000000
                       2.000000  2.000000  2.000000  2.000000  2.000000  2.000000
                       2.000000  2.000000  2.000000  2.000000  2.000000  2.000000
                       2.000000  2.000000  2.000000  2.000000  0.000000  0.000000
                       0.000000  0.000000  0.000000  0.000000  0.000000  0.000000
                       0.000000
        optdriver           1
            prtwf          -1
            rfdir           1       1       1
           rfelfd           2
            rprim      1.1967040605E+01  0.0000000000E+00  0.0000000000E+00
                      -8.4441989243E+00  8.4797149341E+00  0.0000000000E+00
                       0.0000000000E+00  0.0000000000E+00  1.0237410830E+01
          spgroup          63
           symrel      1  0  0   0  1  0   0  0  1      -1  0  0   0 -1  0   0  0 -1
                       0  1  0   1  0  0   0  0 -1       0 -1  0  -1  0  0   0  0  1
                      -1  0  0   0 -1  0   0  0  1       1  0  0   0  1  0   0  0 -1
                       0 -1  0  -1  0  0   0  0 -1       0  1  0   1  0  0   0  0  1
            tnons      0.0000000  0.0000000  0.0000000     0.0000000  0.0000000  0.0000000
                      -0.0000000  0.0000000  0.0000000     0.0000000  0.0000000  0.0000000
                       0.0000000  0.0000000  0.5000000     0.0000000  0.0000000  0.5000000
                       0.0000000  0.0000000  0.5000000    -0.0000000  0.0000000  0.5000000
           tolwfr      1.00000000E-20
            typat      1  1  2  2  3  3  3  3
           useylm           1
              wtk        0.50000    0.50000
           xangst      2.9869493699E+00  1.3899638753E+00  1.3543511216E+00
                      -1.1227418431E+00  3.0973080032E+00  4.0630533647E+00
                      -4.4448122679E+00  4.4774402658E+00  4.0630533647E+00
                       6.3090197947E+00  9.8316126857E-03  1.3543511216E+00
                      -3.3478785817E+00  4.0217263956E+00  2.6861279187E+00
                       5.2120861085E+00  4.6554548285E-01  2.7312765677E+00
                      -3.3478785817E+00  4.0217263956E+00  2.2574324494E-02
                       5.2120861085E+00  4.6554548285E-01  5.3948301618E+00
            xcart      5.6445162820E+00  2.6266510588E+00  2.5593527075E+00
                      -2.1216746015E+00  5.8530638753E+00  7.6780581227E+00
                      -8.3994778985E+00  8.4611358787E+00  7.6780581227E+00
                       1.1922319579E+01  1.8579055421E-02  2.5593527075E+00
                      -6.3265736456E+00  7.5999614691E+00  5.0760461242E+00
                       9.8494153261E+00  8.7975346498E-01  5.1613647060E+00
                      -6.3265736456E+00  7.5999614691E+00  4.2659290929E-02
                       9.8494153261E+00  8.7975346498E-01  1.0194751539E+01
             xred      6.9024300000E-01  3.0975700000E-01  2.5000000000E-01
                       3.0975700000E-01  6.9024300000E-01  7.5000000000E-01
                       2.1910000000E-03  9.9780900000E-01  7.5000000000E-01
                       9.9780900000E-01  2.1910000000E-03  2.5000000000E-01
                       1.0374800000E-01  8.9625200000E-01  4.9583300000E-01
                       8.9625200000E-01  1.0374800000E-01  5.0416700000E-01
                       1.0374800000E-01  8.9625200000E-01  4.1670000000E-03
                       8.9625200000E-01  1.0374800000E-01  9.9583300000E-01
            znucl       37.00000   29.00000    8.00000

 chkinp: Checking input parameters for consistency.

== DATASET  1 ==================================================================
-   mpi_nproc: 1, omp_nthreads: -1 (-1 if OMP is not activated)

--- !DatasetInfo
iteration_state: {dtset: 1, }
dimensions: {natom: 8, nkpt: 2, mband: 49, nsppol: 1, nspinor: 1, nspden: 1, mpw: 15498, }
cutoff_energies: {ecut:  46.0, pawecutdg:  -1.0, }
electrons: {nelect:   8.00000000E+01, charge:   0.00000000E+00, occopt:   1.00000000E+00, tsmear:   1.00000000E-02, }
meta: {optdriver: 1, rfelfd: 2, }
...

 Real(R)+Recip(G) space primitive vectors, cartesian coordinates (Bohr,Bohr^-1):
 R(1)= 11.9670406  0.0000000  0.0000000  G(1)=  0.0835628  0.0832129  0.0000000
 R(2)= -8.4441989  8.4797149  0.0000000  G(2)=  0.0000000  0.1179285  0.0000000
 R(3)=  0.0000000  0.0000000 10.2374108  G(3)=  0.0000000  0.0000000  0.0976809
 Unit cell volume ucvol=  1.0388627E+03 bohr^3
 Angles (23,13,12)=  9.00000000E+01  9.00000000E+01  1.34879761E+02 degrees

 getcut: wavevector=  0.0000  0.0000  0.0000  ngfft=  75  75  64
         ecut(hartree)=     46.000   => boxcut(ratio)=   2.02537

--- Pseudopotential description ------------------------------------------------
- pspini: atom type   1  psp file is /scratch/users/j/a/jabreu/pseudos/PBEsol/Rb.psp8
- pspatm: opening atomic psp file    /scratch/users/j/a/jabreu/pseudos/PBEsol/Rb.psp8
- Rb    ONCVPSP-3.3.0  r_core=   1.71227   1.75361   1.90633
- 37.00000   9.00000    180112                znucl, zion, pspdat
    8 -116133    2    4       600   0.00000   pspcod,pspxc,lmax,lloc,mmax,r2well
    5.99000000000000    7.00000000000000    0.00000000000000   rchrg,fchrg,qchrg
     nproj     2     2     2
     extension_switch     1
  pspatm : epsatm=   34.48400912
         --- l  ekb(1:nproj) -->
             0    8.196957   -0.477221
             1    3.231347   -0.378736
             2   -1.047201    0.996637
 pspatm: atomic psp has been read  and splines computed

- pspini: atom type   2  psp file is /scratch/users/j/a/jabreu/pseudos/PBEsol/Cu.psp8
- pspatm: opening atomic psp file    /scratch/users/j/a/jabreu/pseudos/PBEsol/Cu.psp8
- Cu    ONCVPSP-3.3.0  r_core=   1.26204   1.45626   1.76249
- 29.00000  19.00000    180112                znucl, zion, pspdat
    8 -116133    2    4       600   0.00000   pspcod,pspxc,lmax,lloc,mmax,r2well
    5.99000000000000    3.50000000000000    0.00000000000000   rchrg,fchrg,qchrg
     nproj     2     2     2
     extension_switch     1
  pspatm : epsatm=   21.63488701
         --- l  ekb(1:nproj) -->
             0    5.008230   -0.401634
             1   -3.496700   -0.765945
             2   -6.895851   -2.521180
 pspatm: atomic psp has been read  and splines computed

- pspini: atom type   3  psp file is /scratch/users/j/a/jabreu/pseudos/PBEsol/O.psp8
- pspatm: opening atomic psp file    /scratch/users/j/a/jabreu/pseudos/PBEsol/O.psp8
- O     ONCVPSP-3.3.0  r_core=   1.35509   1.45563   1.26150
-  8.00000   6.00000    180112                znucl, zion, pspdat
    8 -116133    2    4       600   0.00000   pspcod,pspxc,lmax,lloc,mmax,r2well
    5.99000000000000    4.00000000000000    0.00000000000000   rchrg,fchrg,qchrg
     nproj     2     2     1
     extension_switch     1
  pspatm : epsatm=    6.22910522
         --- l  ekb(1:nproj) -->
             0    6.050032    0.820363
             1   -4.739617   -1.153841
             2   -1.335834
 pspatm: atomic psp has been read  and splines computed

   1.09723370E+04                                ecore*ucvol(ha*bohr**3)

-inwffil : will read wavefunctions from disk file /scratch/users/j/a/jabreu/flow_simple_8atoms/flow/w461/t1/indata/in_WFK

 ==>  initialize data related to q vector <==

 The list of irreducible perturbations for this q vector is:
    1)    idir= 1    ipert=   9
    2)    idir= 2    ipert=   9
    3)    idir= 3    ipert=   9

 Perturbation wavevector (in red.coord.)   0.000000  0.000000  0.000000
 Perturbation : derivative vs k along direction   1

 dfpt_looppert : COMMENT -
  In a d/dk calculation, iscf is set to -3 automatically.
 The set of symmetries contains only one element for this perturbation.
 symkpt : not enough symmetry to change the number of k points.

[...]

 Initialisation of the first-order wave-functions :
  ireadwf=   0

--- !BeginCycle
iteration_state: {dtset: 1, }
solver: {iscf: 7, nstep: 2000, nline: 4, wfoptalg: 0, }
tolerances: {tolwfr: 1.00E-20, }
...

     iter   2DEtotal(Ha)        deltaE(Ha) residm    vres2
-ETOT  1  -47.977473578203     -4.798E+01 7.701E-02 0.000E+00
 ETOT  2  -48.131480436046     -1.540E-01 2.602E-03 0.000E+00
 ETOT  3  -48.134710047699     -3.230E-03 6.079E-05 0.000E+00
 ETOT  4  -48.134827754336     -1.177E-04 9.083E-06 0.000E+00
 ETOT  5  -48.134832982095     -5.228E-06 3.032E-07 0.000E+00
 ETOT  6  -48.134833235718     -2.536E-07 4.913E-08 0.000E+00
 ETOT  7  -48.134833248827     -1.311E-08 1.798E-09 0.000E+00
 ETOT  8  -48.134833249538     -7.112E-10 3.076E-10 0.000E+00
 ETOT  9  -48.134833249578     -4.029E-11 1.170E-11 0.000E+00
 ETOT 10  -48.134833249581     -2.444E-12 2.079E-12 0.000E+00
 ETOT 11  -48.134833249581     -8.527E-14 8.359E-14 0.000E+00
 ETOT 12  -48.134833249581     -6.395E-14 1.497E-14 0.000E+00
 ETOT 13  -48.134833249581      0.000E+00 6.195E-16 0.000E+00
 ETOT 14  -48.134833249581      4.263E-14 1.118E-16 0.000E+00
 ETOT 15  -48.134833249581      7.105E-15 4.661E-18 0.000E+00
 ETOT 16  -48.134833249581     -2.132E-14 8.435E-19 0.000E+00
 ETOT 17  -48.134833249581      2.842E-14 3.538E-20 0.000E+00
 ETOT 18  -48.134833249581     -7.105E-15 9.948E-21 0.000E+00

 At SCF step   18   max residual=  9.95E-21 < tolwfr=  1.00E-20 =>converged.

 ----iterations are completed or convergence reached----

 dfpt_looppert: DFPT cycle converged with prtwf=-1. Will skip output of the 1st-order WFK file.
 dfpt_looppert : ek2=    8.7845033757E+01
          f-sum rule ratio=    1.0055544222E+00
 prteigrs : about to open file /scratch/users/j/a/jabreu/flow_simple_8atoms/flow/w461/t1/tmpdata/tmp_1WF1_EIG
 Expectation of eigenvalue derivatives (hartree) for nkpt=   2  k points:
  (in case of degenerate eigenvalues, averaged derivative)
 kpt#   1, nband= 49, wtk=  0.50000, kpt=  0.2039  0.2039  0.0000 (reduced coord)
  -0.00000   -0.00000   -0.00000    0.00000    0.00000   -0.00000    0.00000    0.00000
   0.00519   -0.00436   -0.00447    0.00201    0.00156   -0.00120    0.00528    0.01815
   0.01997   -0.01372   -0.02400   -0.01854    0.01568    0.01041    0.00031    0.00127
   0.00253   -0.00581   -0.01491   -0.00707    0.00102   -0.00131    0.00463    0.00107
  -0.00010    0.00801   -0.00047   -0.00092    0.00276    0.01444   -0.01582   -0.00002
  -0.00321    0.00043    0.10120    0.01594   -0.02204   -0.06674   -0.11021   -0.09999
   0.06522
 prteigrs : prtvol=0 or 1, do not print more k-points.

 Eight components of 2nd-order total energy (hartree) are
 1,2,3: 0th-order hamiltonian combined with 1st-order wavefunctions
     kin0=   7.16611589E+01 eigvalue=   4.05828040E+00  local=  -3.01272705E+01
 4,5,6: 1st-order hamiltonian combined with 1st and 0th-order wfs
     kin1=  -8.83329622E+01  Hartree=   0.00000000E+00     xc=   0.00000000E+00
 7,8,9: eventually, occupation + non-local contributions
    edocc=   5.76366764E+00     enl0=  -3.22100321E+00   enl1=  -7.93670433E+00
 1-9 gives the relaxation energy (to be shifted if some occ is /=2.0)
   erelax=  -4.81348332E+01
  No Ewald or frozen-wf contrib.: the relaxation energy is the total one
 2DEtotal=   -0.4813483325E+02 Ha. Also 2DEtotal=   -0.130981542459E+04 eV
    (  non-var. 2DEtotal :   -4.8134833249E+01 Ha)

 Perturbation wavevector (in red.coord.)   0.000000  0.000000  0.000000
 Perturbation : derivative vs k along direction   2
 The set of symmetries contains only one element for this perturbation.
 symkpt : not enough symmetry to change the number of k points.

[...]

 Perturbation wavevector (in red.coord.)   0.000000  0.000000  0.000000
 Perturbation : derivative vs k along direction   3
 The set of symmetries contains only one element for this perturbation.
 symkpt : not enough symmetry to change the number of k points.

-inwffil : will read wavefunctions from disk file /scratch/users/j/a/jabreu/flow_simple_8atoms/flow/w461/t1/indata/in_WFK

 Initialisation of the first-order wave-functions :
  ireadwf=   0

--- !BeginCycle
iteration_state: {dtset: 1, }
solver: {iscf: 7, nstep: 2000, nline: 4, wfoptalg: 0, }
tolerances: {tolwfr: 1.00E-20, }
...

     iter   2DEtotal(Ha)        deltaE(Ha) residm    vres2
-ETOT  1  -33.098725710068     -3.310E+01 2.034E-01 0.000E+00
 ETOT  2  -33.174968895297     -7.624E-02 3.754E-03 0.000E+00
 ETOT  3  -33.176229332145     -1.260E-03 2.917E-04 0.000E+00
 ETOT  4  -33.176268699745     -3.937E-05 2.348E-05 0.000E+00
 ETOT  5  -33.176270339198     -1.639E-06 2.701E-06 0.000E+00
 ETOT  6  -33.176270419695     -8.050E-08 2.278E-07 0.000E+00
 ETOT  7  -33.176270424075     -4.380E-09 2.634E-08 0.000E+00
 ETOT  8  -33.176270424329     -2.544E-10 2.310E-09 0.000E+00
 ETOT  9  -33.176270424345     -1.554E-11 2.672E-10 0.000E+00
 ETOT 10  -33.176270424346     -9.734E-13 2.383E-11 0.000E+00
 ETOT 11  -33.176270424346     -2.842E-14 2.755E-12 0.000E+00
 ETOT 12  -33.176270424346     -3.553E-14 2.479E-13 0.000E+00
 ETOT 13  -33.176270424346      7.105E-15 2.863E-14 0.000E+00
 ETOT 14  -33.176270424346      1.421E-14 2.593E-15 0.000E+00
 ETOT 15  -33.176270424346      0.000E+00 2.992E-16 0.000E+00
 ETOT 16  -33.176270424346      1.421E-14 2.721E-17 0.000E+00
 ETOT 17  -33.176270424346     -1.421E-14 3.143E-18 0.000E+00
 ETOT 18  -33.176270424346      0.000E+00 2.865E-19 0.000E+00
 ETOT 19  -33.176270424346      0.000E+00 3.316E-20 0.000E+00
 ETOT 20  -33.176270424346      1.421E-14 9.971E-21 0.000E+00

 At SCF step   20   max residual=  9.97E-21 < tolwfr=  1.00E-20 =>converged.

 ----iterations are completed or convergence reached----

 dfpt_looppert: DFPT cycle converged with prtwf=-1. Will skip output of the 1st-order WFK file.
 dfpt_looppert : ek2=    6.0269759071E+01
          f-sum rule ratio=    1.0224651235E+00
 prteigrs : about to open file /scratch/users/j/a/jabreu/flow_simple_8atoms/flow/w461/t1/tmpdata/tmp_1WF1_EIG
 Expectation of eigenvalue derivatives (hartree) for nkpt=   2  k points:
  (in case of degenerate eigenvalues, averaged derivative)
 kpt#   1, nband= 49, wtk=  0.50000, kpt=  0.2039  0.2039  0.0000 (reduced coord)
   0.00000    0.00000   -0.00000   -0.00000    0.00000   -0.00000   -0.00000   -0.00000
  -0.00000    0.00000    0.00000    0.00000    0.00000   -0.00000   -0.00000    0.00000
   0.00000   -0.00000   -0.00000   -0.00000   -0.00000   -0.00000   -0.00000   -0.00000
  -0.00000   -0.00000   -0.00000    0.00000    0.00000   -0.00000   -0.00000   -0.00000
   0.00000    0.00000    0.00000    0.00000    0.00000   -0.00000    0.00000   -0.00000
   0.00000    0.00000   -0.00000    0.00000    0.00000    0.00000    0.00000    0.00000
  -0.00000
 prteigrs : prtvol=0 or 1, do not print more k-points.

 Eight components of 2nd-order total energy (hartree) are
 1,2,3: 0th-order hamiltonian combined with 1st-order wavefunctions
     kin0=   4.91165596E+01 eigvalue=   2.56156695E+00  local=  -2.14433274E+01
 4,5,6: 1st-order hamiltonian combined with 1st and 0th-order wfs
     kin1=  -6.16237267E+01  Hartree=   0.00000000E+00     xc=   0.00000000E+00
 7,8,9: eventually, occupation + non-local contributions
    edocc=   5.66710634E+00     enl0=  -2.72563504E+00   enl1=  -4.72881420E+00
 1-9 gives the relaxation energy (to be shifted if some occ is /=2.0)
   erelax=  -3.31762704E+01
  No Ewald or frozen-wf contrib.: the relaxation energy is the total one
 2DEtotal=   -0.3317627042E+02 Ha. Also 2DEtotal=   -0.902772229560E+03 eV
    (  non-var. 2DEtotal :   -3.3176270424E+01 Ha)

 CALCULATION OF EFFECTIVE MASSES
 NOTE : Additional infos (eff. mass eigenvalues, eigenvectors and, if degenerate, average mass) are available in stdout.

 K-point ( 0.204, 0.204, 0.000) | band =    40
 Effective mass tensor:
            -14.3080742186              2.4188219418             -0.0000015494
              2.4188219418             -9.4908678295              0.0000006401
             -0.0000015494              0.0000006401             -0.9156203362
 Effective mass tensor eigenvalues:
            -15.3129837214             -8.4859583267             -0.9156203362
 Angular average effective mass 1/(<1/m>)=  -2.3523848662
 Angular average effective mass for Frohlich model (<m**0.5>)**2=  -3.6869915067
 Effective masses along directions: (cart. coord. / red. coord. -> eff. mass)
    1:   1.000000  0.000000  0.000000 /   0.817068 -0.576541  0.000000 -> -13.6916185171
    2:   0.000000  1.000000  0.000000 /   0.000000  1.000000  0.000000 ->  -9.0819588809
    3:   0.000000  0.000000  1.000000 /   0.000000  0.000000  1.000000 ->  -0.9156203362
    4:   0.577350  0.577350  0.577350 /   0.759883  0.002255  0.650055 ->  -2.2856625826
    5:   0.000000  0.707107  0.707107 /   0.000000  0.637897  0.770122 ->  -1.6635278270
    6:   0.707107  0.000000  0.707107 /   0.669691 -0.472548  0.572898 ->  -1.7164539932
    7:   0.707107  0.707107  0.000000 /   0.999996  0.002968  0.000000 ->  -9.0754772253

 K-point (-0.500, 0.500, 0.472) | band =    41
 Effective mass tensor:
              4.2139487911              0.1025844109              0.0000822866
              0.1025844109              4.4175116591             -0.0000708451
              0.0000822866             -0.0000708451              0.6713596930
 Effective mass tensor eigenvalues:
              0.6713596896              4.1712206379              4.4602398156
 Angular average effective mass 1/(<1/m>)=   1.5357399866
 Angular average effective mass for Frohlich model (<m**0.5>)**2=   1.9892607027
 Effective masses along directions: (cart. coord. / red. coord. -> eff. mass)
    1:   1.000000  0.000000  0.000000 /   0.817068 -0.576541  0.000000 ->   4.2115665432
    2:   0.000000  1.000000  0.000000 /   0.000000  1.000000  0.000000 ->   4.4150143352
    3:   0.000000  0.000000  1.000000 /   0.000000  0.000000  1.000000 ->   0.6713596901
    4:   0.577350  0.577350  0.577350 /   0.759883  0.002255  0.650055 ->   1.5444670309
    5:   0.000000  0.707107  0.707107 /   0.000000  0.637897  0.770122 ->   1.1654580413
    6:   0.707107  0.000000  0.707107 /   0.669691 -0.472548  0.572898 ->   1.1581470125
    7:   0.707107  0.707107  0.000000 /   0.999996  0.002968  0.000000 ->   4.4158557938

 END OF EFFECTIVE MASSES SECTION

 ---- first-order wavefunction calculations are completed ----

 Total localisation tensor (bohr^2) in cartesian coordinates
  WARNING : still subject to testing - especially symmetries.
      direction              matrix element
   alpha     beta       real part   imaginary part
     1        1       1.5288406483    0.0000000000
     1        2      -0.5103202516    0.0000000000
     1        3       0.0000000000    0.0000000000
     2        1      -0.5103202516    0.0000000000
     2        2       0.5124666410    0.0000000000
     2        3       0.0000000000    0.0000000000
     3        1       0.0000000000    0.0000000000
     3        2       0.0000000000    0.0000000000
     3        3       0.7502209313    0.0000000000

 respfn : d/dk was computed, but no 2DTE, so no DDB output.

== END DATASET(S) ==============================================================

 -outvars: echo values of variables after computation  --------
            acell      1.0000000000E+00  1.0000000000E+00  1.0000000000E+00 Bohr
              amu      8.54678000E+01  6.35460000E+01  1.59994000E+01
             ecut      4.60000000E+01 Hartree
           etotal     -3.3176270424E+01
            fcart      0.0000000000E+00  0.0000000000E+00  0.0000000000E+00
                       0.0000000000E+00  0.0000000000E+00  0.0000000000E+00
                       0.0000000000E+00  0.0000000000E+00  0.0000000000E+00
                       0.0000000000E+00  0.0000000000E+00  0.0000000000E+00
                       0.0000000000E+00  0.0000000000E+00  0.0000000000E+00
                       0.0000000000E+00  0.0000000000E+00  0.0000000000E+00
                       0.0000000000E+00  0.0000000000E+00  0.0000000000E+00
                       0.0000000000E+00  0.0000000000E+00  0.0000000000E+00
-          fftalg         512
           irdden           1
           irdwfk           1
              ixc     -116133
              kpt      2.03929257E-01  2.03929257E-01  0.00000000E+00
                      -5.00000000E-01  5.00000000E-01  4.72222222E-01
           kptopt           0
P           mkmem           2
P          mkqmem           2
P          mk1mem           2
            natom           8
            nband          49
           nbdbuf           4
            ngfft          75      75      64
             nkpt           2
            nstep        2000
             nsym           8
           ntypat           3
              occ      2.000000  2.000000  2.000000  2.000000  2.000000  2.000000
                       2.000000  2.000000  2.000000  2.000000  2.000000  2.000000
                       2.000000  2.000000  2.000000  2.000000  2.000000  2.000000
                       2.000000  2.000000  2.000000  2.000000  2.000000  2.000000
                       2.000000  2.000000  2.000000  2.000000  2.000000  2.000000
                       2.000000  2.000000  2.000000  2.000000  2.000000  2.000000
                       2.000000  2.000000  2.000000  2.000000  0.000000  0.000000
                       0.000000  0.000000  0.000000  0.000000  0.000000  0.000000
                       0.000000
        optdriver           1
            prtwf          -1
            rfdir           1       1       1
           rfelfd           2
            rprim      1.1967040605E+01  0.0000000000E+00  0.0000000000E+00
                      -8.4441989243E+00  8.4797149341E+00  0.0000000000E+00
                       0.0000000000E+00  0.0000000000E+00  1.0237410830E+01
          spgroup          63
           strten      0.0000000000E+00  0.0000000000E+00  0.0000000000E+00
                       0.0000000000E+00  0.0000000000E+00  0.0000000000E+00
           symrel      1  0  0   0  1  0   0  0  1      -1  0  0   0 -1  0   0  0 -1
                       0  1  0   1  0  0   0  0 -1       0 -1  0  -1  0  0   0  0  1
                      -1  0  0   0 -1  0   0  0  1       1  0  0   0  1  0   0  0 -1
                       0 -1  0  -1  0  0   0  0 -1       0  1  0   1  0  0   0  0  1
            tnons      0.0000000  0.0000000  0.0000000     0.0000000  0.0000000  0.0000000
                      -0.0000000  0.0000000  0.0000000     0.0000000  0.0000000  0.0000000
                       0.0000000  0.0000000  0.5000000     0.0000000  0.0000000  0.5000000
                       0.0000000  0.0000000  0.5000000    -0.0000000  0.0000000  0.5000000
           tolwfr      1.00000000E-20
            typat      1  1  2  2  3  3  3  3
           useylm           1
              wtk        0.50000    0.50000
           xangst      2.9869493699E+00  1.3899638753E+00  1.3543511216E+00
                      -1.1227418431E+00  3.0973080032E+00  4.0630533647E+00
                      -4.4448122679E+00  4.4774402658E+00  4.0630533647E+00
                       6.3090197947E+00  9.8316126857E-03  1.3543511216E+00
                      -3.3478785817E+00  4.0217263956E+00  2.6861279187E+00
                       5.2120861085E+00  4.6554548285E-01  2.7312765677E+00
                      -3.3478785817E+00  4.0217263956E+00  2.2574324494E-02
                       5.2120861085E+00  4.6554548285E-01  5.3948301618E+00
            xcart      5.6445162820E+00  2.6266510588E+00  2.5593527075E+00
                      -2.1216746015E+00  5.8530638753E+00  7.6780581227E+00
                      -8.3994778985E+00  8.4611358787E+00  7.6780581227E+00
                       1.1922319579E+01  1.8579055421E-02  2.5593527075E+00
                      -6.3265736456E+00  7.5999614691E+00  5.0760461242E+00
                       9.8494153261E+00  8.7975346498E-01  5.1613647060E+00
                      -6.3265736456E+00  7.5999614691E+00  4.2659290929E-02
                       9.8494153261E+00  8.7975346498E-01  1.0194751539E+01
             xred      6.9024300000E-01  3.0975700000E-01  2.5000000000E-01
                       3.0975700000E-01  6.9024300000E-01  7.5000000000E-01
                       2.1910000000E-03  9.9780900000E-01  7.5000000000E-01
                       9.9780900000E-01  2.1910000000E-03  2.5000000000E-01
                       1.0374800000E-01  8.9625200000E-01  4.9583300000E-01
                       8.9625200000E-01  1.0374800000E-01  5.0416700000E-01
                       1.0374800000E-01  8.9625200000E-01  4.1670000000E-03
                       8.9625200000E-01  1.0374800000E-01  9.9583300000E-01
            znucl       37.00000   29.00000    8.00000

- Timing analysis has been suppressed with timopt=0

 Suggested references for the acknowledgment of ABINIT usage.

 Calculation completed.
.Delivered  14 WARNINGs and   9 COMMENTs to log file.