.Version 9.5.1 of ABINIT

 ABINIT is a project of the Universite Catholique de Louvain,
 Corning Inc. and other collaborators, see ~abinit/doc/developers/contributors.txt .
 acknowledgments of the ABINIT effort.

.Starting date : Tue 11 May 2021.
- ( at 21h12 )

- input  file    -> /scratch/users/j/a/jabreu/flow_simple_8atoms/flow/w267/t1/run.abi
- output file    -> /scratch/users/j/a/jabreu/flow_simple_8atoms/flow/w267/t1/run.abo
- root for input  files -> /scratch/users/j/a/jabreu/flow_simple_8atoms/flow/w267/t1/indata/in
- root for output files -> /scratch/users/j/a/jabreu/flow_simple_8atoms/flow/w267/t1/outdata/out

 Symmetries : space group R-3 (#148); Bravais hR (rhombohedral)
     intxc =       0      iscf =       7    lmnmax =      18     lnmax =       6
     mgfft =      60  mpssoang =       3    mqgrid =    3001     natom =       8
  nloc_mem =       1    nspden =       1   nspinor =       1    nsppol =       1
      nsym =       6    n1xccc =    2501    ntypat =       3    occopt =       1
   xclevel =       2
-    mband =          44        mffmem =           1         mkmem =           1
-   mkqmem =           1        mk1mem =           1           mpw =        8566
      nfft =      216000          nkpt =           1
  Rough estimation (10% accuracy) of disk space for files :

------------- Echo of variables that govern the present computation ------------
-
- outvars: echo of selected default values
-   iomode0 =  0 , fftalg0 =512 , wfoptalg0 =  0
-
- outvars: echo of global parameters not present in the input file
-  max_nthreads =    0
-
 -outvars: echo values of preprocessed input variables --------
            acell      1.0000000000E+00  1.0000000000E+00  1.0000000000E+00 Bohr
              amu      2.43050000E+01  1.06420000E+02  1.89984032E+01
             ecut      4.20000000E+01 Hartree
-          fftalg         512
           irdden           1
           irdwfk           1
           istwfk        1
              ixc     -116133
              kpt      5.00000000E-01  5.00000000E-01  5.55111512E-17
           kptopt           0
P           mkmem           1
P          mkqmem           1
P          mk1mem           1
            natom           8
            nband          44
           nbdbuf           4
            ngfft          60      60      60
             nkpt           1
            nstep        2000
             nsym           6
           ntypat           3
              occ      2.000000  2.000000  2.000000  2.000000  2.000000  2.000000
                       2.000000  2.000000  2.000000  2.000000  2.000000  2.000000
                       2.000000  2.000000  2.000000  2.000000  2.000000  2.000000
                       2.000000  2.000000  2.000000  2.000000  2.000000  2.000000
                       2.000000  2.000000  2.000000  2.000000  2.000000  2.000000
                       2.000000  2.000000  2.000000  2.000000  2.000000  0.000000
                       0.000000  0.000000  0.000000  0.000000  0.000000  0.000000
                       0.000000  0.000000
        optdriver           1
            prtwf          -1
            rfdir           1       1       1
           rfelfd           2
            rprim      8.3580482450E+00  0.0000000000E+00  5.6894987622E+00
                       3.0096418618E+00  7.7973730403E+00  5.6894987622E+00
                       0.0000000000E+00  0.0000000000E+00  1.0110754998E+01
          spgroup         148
           symrel      1  0  0   0  1  0   0  0  1      -1  0  0   0 -1  0   0  0 -1
                       0  0  1   1  0  0   0  1  0       0  0 -1  -1  0  0   0 -1  0
                       0  1  0   0  0  1   1  0  0       0 -1  0   0  0 -1  -1  0  0
           tolwfr      1.00000000E-20
            typat      1  2  3  3  3  3  3  3
           useylm           1
           xangst      3.0077612594E+00  2.0630960499E+00  5.6859436266E+00
                       0.0000000000E+00  0.0000000000E+00  0.0000000000E+00
                       2.4884746021E+00  3.6872684152E+00  6.7281229520E+00
                       3.1218597396E+00  9.9379749343E-01  7.3703765831E+00
                       1.0770967268E+00  1.5716088041E+00  5.5287590199E+00
                       2.8936627792E+00  3.1323946064E+00  4.0015106701E+00
                       3.5270479167E+00  4.3892368462E-01  4.6437643012E+00
                       4.9384257921E+00  2.5545832957E+00  5.8431282332E+00
            xcart      5.6838450534E+00  3.8986865202E+00  1.0744876261E+01
                       0.0000000000E+00  0.0000000000E+00  0.0000000000E+00
                       4.7025354866E+00  6.9679274831E+00  1.2714309768E+01
                       5.8994599332E+00  1.8780050941E+00  1.3927993238E+01
                       2.0354178322E+00  2.9699102278E+00  1.0447840402E+01
                       5.4682301736E+00  5.9193679462E+00  7.5617592843E+00
                       6.6651546202E+00  8.2944555716E-01  8.7754427549E+00
                       9.3322722746E+00  4.8274628125E+00  1.1041912120E+01
             xred      5.0000000000E-01  5.0000000000E-01  5.0000000000E-01
                       0.0000000000E+00  0.0000000000E+00  0.0000000000E+00
                       2.4085100000E-01  8.9362500000E-01  6.1911400000E-01
                       6.1911400000E-01  2.4085100000E-01  8.9362500000E-01
                       1.0637500000E-01  3.8088600000E-01  7.5914900000E-01
                       3.8088600000E-01  7.5914900000E-01  1.0637500000E-01
                       7.5914900000E-01  1.0637500000E-01  3.8088600000E-01
                       8.9362500000E-01  6.1911400000E-01  2.4085100000E-01
            znucl       12.00000   46.00000    9.00000

 chkinp: Checking input parameters for consistency.

== DATASET  1 ==================================================================
-   mpi_nproc: 1, omp_nthreads: -1 (-1 if OMP is not activated)

--- !DatasetInfo
iteration_state: {dtset: 1, }
dimensions: {natom: 8, nkpt: 1, mband: 44, nsppol: 1, nspinor: 1, nspden: 1, mpw: 8566, }
cutoff_energies: {ecut:  42.0, pawecutdg:  -1.0, }
electrons: {nelect:   7.00000000E+01, charge:   0.00000000E+00, occopt:   1.00000000E+00, tsmear:   1.00000000E-02, }
meta: {optdriver: 1, rfelfd: 2, }
...

 Real(R)+Recip(G) space primitive vectors, cartesian coordinates (Bohr,Bohr^-1):
 R(1)=  8.3580482  0.0000000  5.6894988  G(1)=  0.1196452 -0.0461808  0.0000000
 R(2)=  3.0096419  7.7973730  5.6894988  G(2)=  0.0000000  0.1282483  0.0000000
 R(3)=  0.0000000  0.0000000 10.1107550  G(3)= -0.0673264 -0.0461808  0.0989046
 Unit cell volume ucvol=  6.5892619E+02 bohr^3
 Angles (23,13,12)=  5.57560600E+01  5.57560600E+01  5.57560600E+01 degrees

 getcut: wavevector=  0.0000  0.0000  0.0000  ngfft=  60  60  60
         ecut(hartree)=     42.000   => boxcut(ratio)=   2.03416

--- Pseudopotential description ------------------------------------------------
- pspini: atom type   1  psp file is /scratch/users/j/a/jabreu/pseudos/PBEsol/Mg.psp8
- pspatm: opening atomic psp file    /scratch/users/j/a/jabreu/pseudos/PBEsol/Mg.psp8
- Mg    ONCVPSP-3.3.0  r_core=   1.16056   1.56380
- 12.00000  10.00000    180112                znucl, zion, pspdat
    8 -116133    1    4       400   0.00000   pspcod,pspxc,lmax,lloc,mmax,r2well
    3.99000000000000    0.00000000000000    0.00000000000000   rchrg,fchrg,qchrg
     nproj     2     2
     extension_switch     1
  pspatm : epsatm=    9.18164846
         --- l  ekb(1:nproj) -->
             0    2.230603   -0.826587
             1   -6.503151   -2.501445
 pspatm: atomic psp has been read  and splines computed

- pspini: atom type   2  psp file is /scratch/users/j/a/jabreu/pseudos/PBEsol/Pd.psp8
- pspatm: opening atomic psp file    /scratch/users/j/a/jabreu/pseudos/PBEsol/Pd.psp8
- Pd    ONCVPSP-3.3.0  r_core=   1.41052   1.46191   1.55175
- 46.00000  18.00000    180112                znucl, zion, pspdat
    8 -116133    2    4       600   0.00000   pspcod,pspxc,lmax,lloc,mmax,r2well
    5.99000000000000    7.00000000000000    0.00000000000000   rchrg,fchrg,qchrg
     nproj     2     2     2
     extension_switch     1
  pspatm : epsatm=   26.17262427
         --- l  ekb(1:nproj) -->
             0    7.952303   -2.096627
             1    3.304793   -0.572651
             2   -1.185452   -0.410427
 pspatm: atomic psp has been read  and splines computed

- pspini: atom type   3  psp file is /scratch/users/j/a/jabreu/pseudos/PBEsol/F.psp8
- pspatm: opening atomic psp file    /scratch/users/j/a/jabreu/pseudos/PBEsol/F.psp8
- F     ONCVPSP-3.3.0  r_core=   1.30942   1.45782   1.60379
-  9.00000   7.00000    180112                znucl, zion, pspdat
    8 -116133    2    4       600   0.00000   pspcod,pspxc,lmax,lloc,mmax,r2well
    5.99000000000000    2.50000000000000    0.00000000000000   rchrg,fchrg,qchrg
     nproj     2     2     1
     extension_switch     1
  pspatm : epsatm=    4.89824824
         --- l  ekb(1:nproj) -->
             0    6.506434    1.065875
             1   -3.978753   -1.295852
             2   -2.394754
 pspatm: atomic psp has been read  and splines computed

   4.53206335E+03                                ecore*ucvol(ha*bohr**3)

-inwffil : will read wavefunctions from disk file /scratch/users/j/a/jabreu/flow_simple_8atoms/flow/w267/t1/indata/in_WFK

 ==>  initialize data related to q vector <==

 The list of irreducible perturbations for this q vector is:
    1)    idir= 1    ipert=   9
    2)    idir= 2    ipert=   9
    3)    idir= 3    ipert=   9

 Perturbation wavevector (in red.coord.)   0.000000  0.000000  0.000000
 Perturbation : derivative vs k along direction   1

 dfpt_looppert : COMMENT -
  In a d/dk calculation, iscf is set to -3 automatically.
 The set of symmetries contains only one element for this perturbation.
 symkpt : not enough symmetry to change the number of k points.

[...]

 Initialisation of the first-order wave-functions :
  ireadwf=   0

--- !BeginCycle
iteration_state: {dtset: 1, }
solver: {iscf: 7, nstep: 2000, nline: 4, wfoptalg: 0, }
tolerances: {tolwfr: 1.00E-20, }
...

     iter   2DEtotal(Ha)        deltaE(Ha) residm    vres2
-ETOT  1  -48.406583511389     -4.841E+01 1.883E-02 0.000E+00
 ETOT  2  -48.429043313021     -2.246E-02 8.816E-05 0.000E+00
 ETOT  3  -48.429060645824     -1.733E-05 4.678E-07 0.000E+00
 ETOT  4  -48.429060679263     -3.344E-08 3.130E-09 0.000E+00
 ETOT  5  -48.429060679350     -8.734E-11 4.286E-11 0.000E+00
 ETOT  6  -48.429060679350     -2.487E-13 4.307E-13 0.000E+00
 ETOT  7  -48.429060679350      7.105E-15 6.371E-15 0.000E+00
 ETOT  8  -48.429060679350     -1.421E-14 6.831E-17 0.000E+00
 ETOT  9  -48.429060679350      1.421E-14 1.036E-18 0.000E+00
 ETOT 10  -48.429060679350      0.000E+00 1.153E-20 0.000E+00
 ETOT 11  -48.429060679350      0.000E+00 9.857E-21 0.000E+00

 At SCF step   11   max residual=  9.86E-21 < tolwfr=  1.00E-20 =>converged.

 ----iterations are completed or convergence reached----

 dfpt_looppert: DFPT cycle converged with prtwf=-1. Will skip output of the 1st-order WFK file.
 dfpt_looppert : ek2=    9.0905706856E+01
          f-sum rule ratio=    9.9530640108E-01
 prteigrs : about to open file /scratch/users/j/a/jabreu/flow_simple_8atoms/flow/w267/t1/tmpdata/tmp_1WF1_EIG
 Expectation of eigenvalue derivatives (hartree) for nkpt=   1  k points:
  (in case of degenerate eigenvalues, averaged derivative)
 kpt#   1, nband= 44, wtk=  1.00000, kpt=  0.5000  0.5000  0.0000 (reduced coord)
   0.00000    0.00000   -0.00000    0.00000   -0.00000    0.00000    0.00000   -0.00000
  -0.00000    0.00000   -0.00000    0.00000   -0.00000   -0.00000   -0.00000   -0.00000
   0.00000    0.00000   -0.00000    0.00000    0.00000    0.00000    0.00000   -0.00000
  -0.00000    0.00000    0.00000   -0.00000   -0.00000    0.00000    0.00000    0.00000
  -0.00000   -0.00000    0.00000    0.00000   -0.00000    0.00000    0.00000    0.00000
  -0.00000   -0.00000    0.00000    0.00000

 Eight components of 2nd-order total energy (hartree) are
 1,2,3: 0th-order hamiltonian combined with 1st-order wavefunctions
     kin0=   6.68666963E+01 eigvalue=   4.29426995E+00  local=  -2.83670423E+01
 4,5,6: 1st-order hamiltonian combined with 1st and 0th-order wfs
     kin1=  -9.04790319E+01  Hartree=   0.00000000E+00     xc=   0.00000000E+00
 7,8,9: eventually, occupation + non-local contributions
    edocc=   6.24172913E+00     enl0=  -6.06592389E-01   enl1=  -6.37908943E+00
 1-9 gives the relaxation energy (to be shifted if some occ is /=2.0)
   erelax=  -4.84290607E+01
  No Ewald or frozen-wf contrib.: the relaxation energy is the total one
 2DEtotal=   -0.4842906068E+02 Ha. Also 2DEtotal=   -0.131782176013E+04 eV
    (  non-var. 2DEtotal :   -4.8429060679E+01 Ha)

 Perturbation wavevector (in red.coord.)   0.000000  0.000000  0.000000
 Perturbation : derivative vs k along direction   2
 The set of symmetries contains only one element for this perturbation.
 symkpt : not enough symmetry to change the number of k points.

[...]

 Perturbation wavevector (in red.coord.)   0.000000  0.000000  0.000000
 Perturbation : derivative vs k along direction   3
 The set of symmetries contains only one element for this perturbation.
 symkpt : not enough symmetry to change the number of k points.

-inwffil : will read wavefunctions from disk file /scratch/users/j/a/jabreu/flow_simple_8atoms/flow/w267/t1/indata/in_WFK

 Initialisation of the first-order wave-functions :
  ireadwf=   0

--- !BeginCycle
iteration_state: {dtset: 1, }
solver: {iscf: 7, nstep: 2000, nline: 4, wfoptalg: 0, }
tolerances: {tolwfr: 1.00E-20, }
...

     iter   2DEtotal(Ha)        deltaE(Ha) residm    vres2
-ETOT  1  -48.484938963810     -4.848E+01 1.582E-02 0.000E+00
 ETOT  2  -48.509694762004     -2.476E-02 1.017E-04 0.000E+00
 ETOT  3  -48.509713423380     -1.866E-05 3.262E-07 0.000E+00
 ETOT  4  -48.509713459757     -3.638E-08 4.706E-09 0.000E+00
 ETOT  5  -48.509713459856     -9.901E-11 2.050E-11 0.000E+00
 ETOT  6  -48.509713459857     -3.411E-13 4.081E-13 0.000E+00
 ETOT  7  -48.509713459857     -1.421E-14 1.931E-15 0.000E+00
 ETOT  8  -48.509713459857      7.105E-15 4.471E-17 0.000E+00
 ETOT  9  -48.509713459857     -1.421E-14 2.133E-19 0.000E+00
 ETOT 10  -48.509713459857      0.000E+00 9.718E-21 0.000E+00

 At SCF step   10   max residual=  9.72E-21 < tolwfr=  1.00E-20 =>converged.

 ----iterations are completed or convergence reached----

 dfpt_looppert: DFPT cycle converged with prtwf=-1. Will skip output of the 1st-order WFK file.
 dfpt_looppert : ek2=    9.0905706855E+01
          f-sum rule ratio=    9.9748561467E-01
 prteigrs : about to open file /scratch/users/j/a/jabreu/flow_simple_8atoms/flow/w267/t1/tmpdata/tmp_1WF1_EIG
 Expectation of eigenvalue derivatives (hartree) for nkpt=   1  k points:
  (in case of degenerate eigenvalues, averaged derivative)
 kpt#   1, nband= 44, wtk=  1.00000, kpt=  0.5000  0.5000  0.0000 (reduced coord)
  -0.00000    0.00000   -0.00000   -0.00000   -0.00000   -0.00000   -0.00000    0.00000
  -0.00000   -0.00000   -0.00000   -0.00000    0.00000    0.00000    0.00000    0.00000
   0.00000    0.00000    0.00000    0.00000    0.00000    0.00000   -0.00000    0.00000
   0.00000    0.00000    0.00000   -0.00000   -0.00000   -0.00000   -0.00000    0.00000
   0.00000   -0.00000   -0.00000   -0.00000    0.00000   -0.00000    0.00000   -0.00000
  -0.00000    0.00000   -0.00000   -0.00000

 Eight components of 2nd-order total energy (hartree) are
 1,2,3: 0th-order hamiltonian combined with 1st-order wavefunctions
     kin0=   6.71793343E+01 eigvalue=   4.26826065E+00  local=  -2.84083096E+01
 4,5,6: 1st-order hamiltonian combined with 1st and 0th-order wfs
     kin1=  -9.06771349E+01  Hartree=   0.00000000E+00     xc=   0.00000000E+00
 7,8,9: eventually, occupation + non-local contributions
    edocc=   6.11146992E+00     enl0=  -6.41041817E-01   enl1=  -6.34229204E+00
 1-9 gives the relaxation energy (to be shifted if some occ is /=2.0)
   erelax=  -4.85097135E+01
  No Ewald or frozen-wf contrib.: the relaxation energy is the total one
 2DEtotal=   -0.4850971346E+02 Ha. Also 2DEtotal=   -0.132001643389E+04 eV
    (  non-var. 2DEtotal :   -4.8509713460E+01 Ha)

 CALCULATION OF EFFECTIVE MASSES
 NOTE : Additional infos (eff. mass eigenvalues, eigenvectors and, if degenerate, average mass) are available in stdout.

 K-point ( 0.500, 0.500, 0.000) | band =    35
 Effective mass tensor:
             -7.7085600903              2.0498329693              2.8372957532
              2.0498329693             -3.1446575353             -0.8832837448
              2.8372957532             -0.8832837448             -5.3804801428
 Effective mass tensor eigenvalues:
            -10.2877712589             -3.6091954753             -2.3367310341
 Angular average effective mass 1/(<1/m>)=  -3.7396173737
 Angular average effective mass for Frohlich model (<m**0.5>)**2=  -4.1062094212
 Effective masses along directions: (cart. coord. / red. coord. -> eff. mass)
    1:   1.000000  0.000000  0.000000 /   0.940861  0.338794  0.000000 ->  -5.3758640244
    2:   0.000000  1.000000  0.000000 /   0.000000  1.000000  0.000000 ->  -2.5957473710
    3:   0.000000  0.000000  1.000000 /   0.440309  0.440309  0.782468 ->  -4.3297728585
    4:   0.577350  0.577350  0.577350 /   0.587514  0.689937  0.422864 ->  -2.6322031923
    5:   0.000000  0.707107  0.707107 /   0.319810  0.758104  0.568331 ->  -3.3708735401
    6:   0.707107  0.000000  0.707107 /   0.725184  0.449080  0.521953 ->  -3.4428845822
    7:   0.707107  0.707107  0.000000 /   0.611776  0.791031  0.000000 ->  -2.6051011717

 K-point ( 0.500, 0.500, 0.000) | band =    36
 Effective mass tensor:
             18.5495881247             -2.6159862573             -8.7185673498
             -2.6159862573              5.2818421648              0.0659087677
             -8.7185673498              0.0659087677              8.8044202371
 Effective mass tensor eigenvalues:
              2.9259995950              5.7630035969             23.9468473346
 Angular average effective mass 1/(<1/m>)=   5.3855775060
 Angular average effective mass for Frohlich model (<m**0.5>)**2=   6.3831809843
 Effective masses along directions: (cart. coord. / red. coord. -> eff. mass)
    1:   1.000000  0.000000  0.000000 /   0.940861  0.338794  0.000000 ->   8.6841213835
    2:   0.000000  1.000000  0.000000 /   0.000000  1.000000  0.000000 ->   4.6252223730
    3:   0.000000  0.000000  1.000000 /   0.440309  0.440309  0.782468 ->   4.4309584438
    4:   0.577350  0.577350  0.577350 /   0.587514  0.689937  0.422864 ->   2.9927909387
    5:   0.000000  0.707107  0.707107 /   0.319810  0.758104  0.568331 ->   3.6443210528
    6:   0.707107  0.000000  0.707107 /   0.725184  0.449080  0.521953 ->   3.5207268932
    7:   0.707107  0.707107  0.000000 /   0.611776  0.791031  0.000000 ->   4.5188696840

 END OF EFFECTIVE MASSES SECTION

 ---- first-order wavefunction calculations are completed ----

 Total localisation tensor (bohr^2) in cartesian coordinates
  WARNING : still subject to testing - especially symmetries.
      direction              matrix element
   alpha     beta       real part   imaginary part
     1        1       0.5623628153    0.0000000000
     1        2       0.1676780456    0.0000000000
     1        3       0.4611048923    0.0000000000
     2        1       0.1676780456    0.0000000000
     2        2       0.4344198853    0.0000000000
     2        3       0.3169825769    0.0000000000
     3        1       0.4611048923    0.0000000000
     3        2       0.3169825769    0.0000000000
     3        3       1.1908373498    0.0000000000

 respfn : d/dk was computed, but no 2DTE, so no DDB output.

== END DATASET(S) ==============================================================

 -outvars: echo values of variables after computation  --------
            acell      1.0000000000E+00  1.0000000000E+00  1.0000000000E+00 Bohr
              amu      2.43050000E+01  1.06420000E+02  1.89984032E+01
             ecut      4.20000000E+01 Hartree
           etotal     -4.8509713460E+01
            fcart      0.0000000000E+00  0.0000000000E+00  0.0000000000E+00
                       0.0000000000E+00  0.0000000000E+00  0.0000000000E+00
                       0.0000000000E+00  0.0000000000E+00  0.0000000000E+00
                       0.0000000000E+00  0.0000000000E+00  0.0000000000E+00
                       0.0000000000E+00  0.0000000000E+00  0.0000000000E+00
                       0.0000000000E+00  0.0000000000E+00  0.0000000000E+00
                       0.0000000000E+00  0.0000000000E+00  0.0000000000E+00
                       0.0000000000E+00  0.0000000000E+00  0.0000000000E+00
-          fftalg         512
           irdden           1
           irdwfk           1
           istwfk        1
              ixc     -116133
              kpt      5.00000000E-01  5.00000000E-01  5.55111512E-17
           kptopt           0
P           mkmem           1
P          mkqmem           1
P          mk1mem           1
            natom           8
            nband          44
           nbdbuf           4
            ngfft          60      60      60
             nkpt           1
            nstep        2000
             nsym           6
           ntypat           3
              occ      2.000000  2.000000  2.000000  2.000000  2.000000  2.000000
                       2.000000  2.000000  2.000000  2.000000  2.000000  2.000000
                       2.000000  2.000000  2.000000  2.000000  2.000000  2.000000
                       2.000000  2.000000  2.000000  2.000000  2.000000  2.000000
                       2.000000  2.000000  2.000000  2.000000  2.000000  2.000000
                       2.000000  2.000000  2.000000  2.000000  2.000000  0.000000
                       0.000000  0.000000  0.000000  0.000000  0.000000  0.000000
                       0.000000  0.000000
        optdriver           1
            prtwf          -1
            rfdir           1       1       1
           rfelfd           2
            rprim      8.3580482450E+00  0.0000000000E+00  5.6894987622E+00
                       3.0096418618E+00  7.7973730403E+00  5.6894987622E+00
                       0.0000000000E+00  0.0000000000E+00  1.0110754998E+01
          spgroup         148
           strten      0.0000000000E+00  0.0000000000E+00  0.0000000000E+00
                       0.0000000000E+00  0.0000000000E+00  0.0000000000E+00
           symrel      1  0  0   0  1  0   0  0  1      -1  0  0   0 -1  0   0  0 -1
                       0  0  1   1  0  0   0  1  0       0  0 -1  -1  0  0   0 -1  0
                       0  1  0   0  0  1   1  0  0       0 -1  0   0  0 -1  -1  0  0
           tolwfr      1.00000000E-20
            typat      1  2  3  3  3  3  3  3
           useylm           1
           xangst      3.0077612594E+00  2.0630960499E+00  5.6859436266E+00
                       0.0000000000E+00  0.0000000000E+00  0.0000000000E+00
                       2.4884746021E+00  3.6872684152E+00  6.7281229520E+00
                       3.1218597396E+00  9.9379749343E-01  7.3703765831E+00
                       1.0770967268E+00  1.5716088041E+00  5.5287590199E+00
                       2.8936627792E+00  3.1323946064E+00  4.0015106701E+00
                       3.5270479167E+00  4.3892368462E-01  4.6437643012E+00
                       4.9384257921E+00  2.5545832957E+00  5.8431282332E+00
            xcart      5.6838450534E+00  3.8986865202E+00  1.0744876261E+01
                       0.0000000000E+00  0.0000000000E+00  0.0000000000E+00
                       4.7025354866E+00  6.9679274831E+00  1.2714309768E+01
                       5.8994599332E+00  1.8780050941E+00  1.3927993238E+01
                       2.0354178322E+00  2.9699102278E+00  1.0447840402E+01
                       5.4682301736E+00  5.9193679462E+00  7.5617592843E+00
                       6.6651546202E+00  8.2944555716E-01  8.7754427549E+00
                       9.3322722746E+00  4.8274628125E+00  1.1041912120E+01
             xred      5.0000000000E-01  5.0000000000E-01  5.0000000000E-01
                       0.0000000000E+00  0.0000000000E+00  0.0000000000E+00
                       2.4085100000E-01  8.9362500000E-01  6.1911400000E-01
                       6.1911400000E-01  2.4085100000E-01  8.9362500000E-01
                       1.0637500000E-01  3.8088600000E-01  7.5914900000E-01
                       3.8088600000E-01  7.5914900000E-01  1.0637500000E-01
                       7.5914900000E-01  1.0637500000E-01  3.8088600000E-01
                       8.9362500000E-01  6.1911400000E-01  2.4085100000E-01
            znucl       12.00000   46.00000    9.00000

- Timing analysis has been suppressed with timopt=0

 Suggested references for the acknowledgment of ABINIT usage.

 Calculation completed.
.Delivered   6 WARNINGs and   5 COMMENTs to log file.