.Version 9.5.1 of ABINIT

 ABINIT is a project of the Universite Catholique de Louvain,
 Corning Inc. and other collaborators, see ~abinit/doc/developers/contributors.txt .
 acknowledgments of the ABINIT effort.

.Starting date : Wed 19 May 2021.
- ( at 15h32 )

- input  file    -> /scratch/users/j/a/jabreu/flow_simple_9atoms/flow/w161/t1/run.abi
- output file    -> /scratch/users/j/a/jabreu/flow_simple_9atoms/flow/w161/t1/run.abo
- root for input  files -> /scratch/users/j/a/jabreu/flow_simple_9atoms/flow/w161/t1/indata/in
- root for output files -> /scratch/users/j/a/jabreu/flow_simple_9atoms/flow/w161/t1/outdata/out

 Symmetries : space group P-3 1 m (#162); Bravais hP (primitive hexag.)
     intxc =       0      iscf =       7    lmnmax =      18     lnmax =       6
     mgfft =      90  mpssoang =       3    mqgrid =    3681     natom =       9
  nloc_mem =       1    nspden =       1   nspinor =       1    nsppol =       1
      nsym =      12    n1xccc =    2501    ntypat =       3    occopt =       1
   xclevel =       2
-    mband =          45        mffmem =           1         mkmem =           2
-   mkqmem =           2        mk1mem =           2           mpw =       28712
      nfft =      607500          nkpt =           2
  Rough estimation (10% accuracy) of disk space for files :

------------- Echo of variables that govern the present computation ------------
-
- outvars: echo of selected default values
-   iomode0 =  0 , fftalg0 =512 , wfoptalg0 =  0
-
- outvars: echo of global parameters not present in the input file
-  max_nthreads =    0
-
 -outvars: echo values of preprocessed input variables --------
            acell      1.0000000000E+00  1.0000000000E+00  1.0000000000E+00 Bohr
              amu      1.37327000E+02  8.76200000E+01  1.26904470E+02
             ecut      3.50000000E+01 Hartree
-          fftalg         512
           irdden           1
           irdwfk           1
           istwfk        1    1
              ixc     -116133
              kpt      0.00000000E+00  0.00000000E+00  0.00000000E+00
                       5.00000000E-01  0.00000000E+00  0.00000000E+00
           kptopt           0
P           mkmem           2
P          mkqmem           2
P          mk1mem           2
            natom           9
            nband          45
           nbdbuf           4
            ngfft          90      90      75
             nkpt           2
            nstep        2000
             nsym          12
           ntypat           3
              occ      2.000000  2.000000  2.000000  2.000000  2.000000  2.000000
                       2.000000  2.000000  2.000000  2.000000  2.000000  2.000000
                       2.000000  2.000000  2.000000  2.000000  2.000000  2.000000
                       2.000000  2.000000  2.000000  2.000000  2.000000  2.000000
                       2.000000  2.000000  2.000000  2.000000  2.000000  2.000000
                       2.000000  2.000000  2.000000  2.000000  2.000000  2.000000
                       0.000000  0.000000  0.000000  0.000000  0.000000  0.000000
                       0.000000  0.000000  0.000000
        optdriver           1
            prtwf          -1
            rfdir           1       1       1
           rfelfd           2
            rprim      1.5565024401E+01  0.0000000000E+00  0.0000000000E+00
                      -7.7825122004E+00  1.3479706542E+01  0.0000000000E+00
                       0.0000000000E+00  0.0000000000E+00  1.3818506295E+01
          spgroup         162
           symrel      1  0  0   0  1  0   0  0  1      -1  0  0   0 -1  0   0  0 -1
                       0  1  0   1  0  0   0  0  1       0 -1  0  -1  0  0   0  0 -1
                       0  1  0  -1 -1  0   0  0  1       0 -1  0   1  1  0   0  0 -1
                      -1 -1  0   0  1  0   0  0  1       1  1  0   0 -1  0   0  0 -1
                      -1 -1  0   1  0  0   0  0  1       1  1  0  -1  0  0   0  0 -1
                       1  0  0  -1 -1  0   0  0  1      -1  0  0   1  1  0   0  0 -1
           tolwfr      1.00000000E-20
            typat      1  2  2  3  3  3  3  3  3
           useylm           1
              wtk        0.50000    0.50000
           xangst      0.0000000000E+00  0.0000000000E+00  0.0000000000E+00
                      -1.7640181753E-11  4.7554356535E+00  3.6562192940E+00
                       4.1183280820E+00  2.3777178267E+00  3.6562192940E+00
                       1.4515912174E+00  2.5142297403E+00  5.4950928506E+00
                       2.6667368646E+00  4.6189237399E+00  1.8173457374E+00
                       5.3334737292E+00  0.0000000000E+00  5.4950928506E+00
                       2.9031824348E+00  0.0000000000E+00  1.8173457374E+00
                      -1.4515912174E+00  2.5142297403E+00  1.8173457374E+00
                      -2.6667368646E+00  4.6189237399E+00  5.4950928506E+00
            xcart      0.0000000000E+00  0.0000000000E+00  0.0000000000E+00
                      -3.3335112448E-11  8.9864710277E+00  6.9092531475E+00
                       7.7825122003E+00  4.4932355138E+00  6.9092531475E+00
                       2.7431098578E+00  4.7512056444E+00  1.0384220562E+01
                       5.0394023425E+00  8.7285008971E+00  3.4342857325E+00
                       1.0078804685E+01  0.0000000000E+00  1.0384220562E+01
                       5.4862197155E+00  0.0000000000E+00  3.4342857325E+00
                      -2.7431098578E+00  4.7512056444E+00  3.4342857325E+00
                      -5.0394023426E+00  8.7285008971E+00  1.0384220562E+01
             xred      0.0000000000E+00  0.0000000000E+00  0.0000000000E+00
                       3.3333333333E-01  6.6666666667E-01  5.0000000000E-01
                       6.6666666667E-01  3.3333333333E-01  5.0000000000E-01
                       3.5247100000E-01  3.5247100000E-01  7.5147200000E-01
                       6.4752900000E-01  6.4752900000E-01  2.4852800000E-01
                       6.4752900000E-01  0.0000000000E+00  7.5147200000E-01
                       3.5247100000E-01  0.0000000000E+00  2.4852800000E-01
                       0.0000000000E+00  3.5247100000E-01  2.4852800000E-01
                       0.0000000000E+00  6.4752900000E-01  7.5147200000E-01
            znucl       56.00000   38.00000   53.00000

 chkinp: Checking input parameters for consistency.

== DATASET  1 ==================================================================
-   mpi_nproc: 1, omp_nthreads: -1 (-1 if OMP is not activated)

--- !DatasetInfo
iteration_state: {dtset: 1, }
dimensions: {natom: 9, nkpt: 2, mband: 45, nsppol: 1, nspinor: 1, nspden: 1, mpw: 28712, }
cutoff_energies: {ecut:  35.0, pawecutdg:  -1.0, }
electrons: {nelect:   7.20000000E+01, charge:   0.00000000E+00, occopt:   1.00000000E+00, tsmear:   1.00000000E-02, }
meta: {optdriver: 1, rfelfd: 2, }
...

 Real(R)+Recip(G) space primitive vectors, cartesian coordinates (Bohr,Bohr^-1):
 R(1)= 15.5650244  0.0000000  0.0000000  G(1)=  0.0642466  0.0370928  0.0000000
 R(2)= -7.7825122 13.4797065  0.0000000  G(2)=  0.0000000  0.0741856  0.0000000
 R(3)=  0.0000000  0.0000000 13.8185063  G(3)=  0.0000000  0.0000000  0.0723667
 Unit cell volume ucvol=  2.8992879E+03 bohr^3
 Angles (23,13,12)=  9.00000000E+01  9.00000000E+01  1.20000000E+02 degrees

 getcut: wavevector=  0.0000  0.0000  0.0000  ngfft=  90  90  75
         ecut(hartree)=     35.000   => boxcut(ratio)=   2.01081

--- Pseudopotential description ------------------------------------------------
- pspini: atom type   1  psp file is /scratch/users/j/a/jabreu/pseudos/PBEsol/Ba.psp8
- pspatm: opening atomic psp file    /scratch/users/j/a/jabreu/pseudos/PBEsol/Ba.psp8
- Ba    ONCVPSP-3.3.0  r_core=   2.15444   1.91218   2.15444
- 56.00000  10.00000    180112                znucl, zion, pspdat
    8 -116133    2    4       600   0.00000   pspcod,pspxc,lmax,lloc,mmax,r2well
    5.99000000000000    5.00000000000000    0.00000000000000   rchrg,fchrg,qchrg
     nproj     2     2     2
     extension_switch     1
  pspatm : epsatm=   26.37418029
         --- l  ekb(1:nproj) -->
             0    6.652372    0.677024
             1    5.027722    0.408462
             2    2.543237    0.416854
 pspatm: atomic psp has been read  and splines computed

- pspini: atom type   2  psp file is /scratch/users/j/a/jabreu/pseudos/PBEsol/Sr.psp8
- pspatm: opening atomic psp file    /scratch/users/j/a/jabreu/pseudos/PBEsol/Sr.psp8
- Sr    ONCVPSP-3.3.0  r_core=   1.66721   1.31335   1.51547
- 38.00000  10.00000    180112                znucl, zion, pspdat
    8 -116133    2    4       600   0.00000   pspcod,pspxc,lmax,lloc,mmax,r2well
    5.99000000000000    6.00000000000000    0.00000000000000   rchrg,fchrg,qchrg
     nproj     2     2     2
     extension_switch     1
  pspatm : epsatm=   12.46450977
         --- l  ekb(1:nproj) -->
             0   10.029206    1.044171
             1    7.472414    1.670829
             2    4.142950    0.968140
 pspatm: atomic psp has been read  and splines computed

- pspini: atom type   3  psp file is /scratch/users/j/a/jabreu/pseudos/PBEsol/I.psp8
- pspatm: opening atomic psp file    /scratch/users/j/a/jabreu/pseudos/PBEsol/I.psp8
- I     ONCVPSP-3.3.0  r_core=   2.02042   2.17032   2.27639
- 53.00000   7.00000    180112                znucl, zion, pspdat
    8 -116133    2    4       600   0.00000   pspcod,pspxc,lmax,lloc,mmax,r2well
    5.99000000000000    4.00000000000000    0.00000000000000   rchrg,fchrg,qchrg
     nproj     2     2     2
     extension_switch     1
  pspatm : epsatm=   18.14229533
         --- l  ekb(1:nproj) -->
             0    6.015861    0.935228
             1    4.063749    0.754139
             2    4.149534    0.722940
 pspatm: atomic psp has been read  and splines computed

   1.15313020E+04                                ecore*ucvol(ha*bohr**3)

-inwffil : will read wavefunctions from disk file /scratch/users/j/a/jabreu/flow_simple_9atoms/flow/w161/t1/indata/in_WFK

 ==>  initialize data related to q vector <==

 The list of irreducible perturbations for this q vector is:
    1)    idir= 1    ipert=  10
    2)    idir= 2    ipert=  10
    3)    idir= 3    ipert=  10

 Perturbation wavevector (in red.coord.)   0.000000  0.000000  0.000000
 Perturbation : derivative vs k along direction   1

 dfpt_looppert : COMMENT -
  In a d/dk calculation, iscf is set to -3 automatically.
 The set of symmetries contains only one element for this perturbation.
 symkpt : not enough symmetry to change the number of k points.

[...]

 Initialisation of the first-order wave-functions :
  ireadwf=   0

--- !BeginCycle
iteration_state: {dtset: 1, }
solver: {iscf: 7, nstep: 2000, nline: 4, wfoptalg: 0, }
tolerances: {tolwfr: 1.00E-20, }
...

     iter   2DEtotal(Ha)        deltaE(Ha) residm    vres2
-ETOT  1  -17.635202593981     -1.764E+01 1.608E-02 0.000E+00
 ETOT  2  -17.666392309736     -3.119E-02 4.525E-03 0.000E+00
 ETOT  3  -17.666615830374     -2.235E-04 4.488E-04 0.000E+00
 ETOT  4  -17.666618151536     -2.321E-06 1.183E-04 0.000E+00
 ETOT  5  -17.666618180119     -2.858E-08 1.479E-05 0.000E+00
 ETOT  6  -17.666618180496     -3.765E-10 6.636E-06 0.000E+00
[...]
 ETOT 29  -17.666618180501      0.000E+00 1.881E-18 0.000E+00
 ETOT 30  -17.666618180501     -3.553E-15 9.139E-19 0.000E+00
 ETOT 31  -17.666618180501      3.553E-15 2.386E-19 0.000E+00
 ETOT 32  -17.666618180501      0.000E+00 1.160E-19 0.000E+00
 ETOT 33  -17.666618180501      3.553E-15 3.030E-20 0.000E+00
 ETOT 34  -17.666618180501      3.553E-15 1.475E-20 0.000E+00
 ETOT 35  -17.666618180501     -7.105E-15 9.771E-21 0.000E+00

 At SCF step   35   max residual=  9.77E-21 < tolwfr=  1.00E-20 =>converged.

 ----iterations are completed or convergence reached----

 dfpt_looppert: DFPT cycle converged with prtwf=-1. Will skip output of the 1st-order WFK file.
 dfpt_looppert : ek2=    3.1286814967E+01
          f-sum rule ratio=    1.0117015909E+00
 prteigrs : about to open file /scratch/users/j/a/jabreu/flow_simple_9atoms/flow/w161/t1/tmpdata/tmp_1WF1_EIG
 Expectation of eigenvalue derivatives (hartree) for nkpt=   2  k points:
  (in case of degenerate eigenvalues, averaged derivative)
 kpt#   1, nband= 45, wtk=  0.50000, kpt=  0.0000  0.0000  0.0000 (reduced coord)
   0.00000    0.00000    0.00000   -0.00000   -0.00000   -0.00000    0.00000   -0.00000
  -0.00000    0.00000    0.00000   -0.00000   -0.00000    0.00000    0.00000    0.00000
   0.00000    0.00000   -0.00000    0.00000   -0.00000   -0.00000    0.00000    0.00000
  -0.00000   -0.00000   -0.00000   -0.00000   -0.00000   -0.00000    0.00000   -0.00000
  -0.00000   -0.00000   -0.00000   -0.00000    0.00000   -0.00000   -0.00000   -0.00000
   0.00000    0.00000    0.00000    0.00092   -0.00549
 prteigrs : prtvol=0 or 1, do not print more k-points.

 Eight components of 2nd-order total energy (hartree) are
 1,2,3: 0th-order hamiltonian combined with 1st-order wavefunctions
     kin0=   2.36186551E+01 eigvalue=   1.99886743E+00  local=  -1.76571710E+01
 4,5,6: 1st-order hamiltonian combined with 1st and 0th-order wfs
     kin1=  -3.16529205E+01  Hartree=   0.00000000E+00     xc=   0.00000000E+00
 7,8,9: eventually, occupation + non-local contributions
    edocc=   4.23644768E+00     enl0=   5.46981904E+00   enl1=  -3.68031588E+00
 1-9 gives the relaxation energy (to be shifted if some occ is /=2.0)
   erelax=  -1.76666182E+01
  No Ewald or frozen-wf contrib.: the relaxation energy is the total one
 2DEtotal=   -0.1766661818E+02 Ha. Also 2DEtotal=   -0.480733128818E+03 eV
    (  non-var. 2DEtotal :   -1.7666618180E+01 Ha)

 Perturbation wavevector (in red.coord.)   0.000000  0.000000  0.000000
 Perturbation : derivative vs k along direction   2
 The set of symmetries contains only one element for this perturbation.
 symkpt : not enough symmetry to change the number of k points.

[...]

 Perturbation wavevector (in red.coord.)   0.000000  0.000000  0.000000
 Perturbation : derivative vs k along direction   3
 The set of symmetries contains only one element for this perturbation.
 symkpt : not enough symmetry to change the number of k points.

-inwffil : will read wavefunctions from disk file /scratch/users/j/a/jabreu/flow_simple_9atoms/flow/w161/t1/indata/in_WFK

 Initialisation of the first-order wave-functions :
  ireadwf=   0

--- !BeginCycle
iteration_state: {dtset: 1, }
solver: {iscf: 7, nstep: 2000, nline: 4, wfoptalg: 0, }
tolerances: {tolwfr: 1.00E-20, }
...

     iter   2DEtotal(Ha)        deltaE(Ha) residm    vres2
-ETOT  1  -16.751515478431     -1.675E+01 1.546E-02 0.000E+00
 ETOT  2  -16.778860910382     -2.735E-02 2.426E-03 0.000E+00
 ETOT  3  -16.779051011838     -1.901E-04 1.928E-04 0.000E+00
 ETOT  4  -16.779052931148     -1.919E-06 2.340E-05 0.000E+00
 ETOT  5  -16.779052954290     -2.314E-08 4.398E-06 0.000E+00
 ETOT  6  -16.779052954594     -3.041E-10 1.518E-06 0.000E+00
 ETOT  7  -16.779052954599     -4.309E-12 1.240E-07 0.000E+00
 ETOT  8  -16.779052954599     -6.750E-14 1.358E-07 0.000E+00
 ETOT  9  -16.779052954599     -7.105E-15 1.197E-08 0.000E+00
 ETOT 10  -16.779052954599      7.105E-15 1.291E-08 0.000E+00
 ETOT 11  -16.779052954599      0.000E+00 1.163E-09 0.000E+00
 ETOT 12  -16.779052954599      0.000E+00 1.249E-09 0.000E+00
 ETOT 13  -16.779052954599      0.000E+00 1.132E-10 0.000E+00
 ETOT 14  -16.779052954599     -3.553E-15 1.215E-10 0.000E+00
 ETOT 15  -16.779052954599     -3.553E-15 1.101E-11 0.000E+00
 ETOT 16  -16.779052954599      0.000E+00 1.183E-11 0.000E+00
 ETOT 17  -16.779052954599      7.105E-15 1.071E-12 0.000E+00
 ETOT 18  -16.779052954599     -3.553E-15 1.152E-12 0.000E+00
 ETOT 19  -16.779052954599      0.000E+00 1.042E-13 0.000E+00
 ETOT 20  -16.779052954599      0.000E+00 1.123E-13 0.000E+00
 ETOT 21  -16.779052954599      3.553E-15 1.014E-14 0.000E+00
 ETOT 22  -16.779052954599      3.553E-15 1.094E-14 0.000E+00
 ETOT 23  -16.779052954599     -3.553E-15 9.867E-16 0.000E+00
 ETOT 24  -16.779052954599      3.553E-15 1.066E-15 0.000E+00
 ETOT 25  -16.779052954599      0.000E+00 9.600E-17 0.000E+00
 ETOT 26  -16.779052954599     -3.553E-15 1.039E-16 0.000E+00
 ETOT 27  -16.779052954599      0.000E+00 9.342E-18 0.000E+00
 ETOT 28  -16.779052954599      0.000E+00 1.012E-17 0.000E+00
 ETOT 29  -16.779052954599      0.000E+00 9.092E-19 0.000E+00
 ETOT 30  -16.779052954599      7.105E-15 9.858E-19 0.000E+00
 ETOT 31  -16.779052954599      0.000E+00 8.849E-20 0.000E+00
 ETOT 32  -16.779052954599      3.553E-15 9.604E-20 0.000E+00
 ETOT 33  -16.779052954599      0.000E+00 9.921E-21 0.000E+00

 At SCF step   33   max residual=  9.92E-21 < tolwfr=  1.00E-20 =>converged.

 ----iterations are completed or convergence reached----

 dfpt_looppert: DFPT cycle converged with prtwf=-1. Will skip output of the 1st-order WFK file.
 dfpt_looppert : ek2=    2.9771452754E+01
          f-sum rule ratio=    1.0093152201E+00
 prteigrs : about to open file /scratch/users/j/a/jabreu/flow_simple_9atoms/flow/w161/t1/tmpdata/tmp_1WF1_EIG
 Expectation of eigenvalue derivatives (hartree) for nkpt=   2  k points:
  (in case of degenerate eigenvalues, averaged derivative)
 kpt#   1, nband= 45, wtk=  0.50000, kpt=  0.0000  0.0000  0.0000 (reduced coord)
   0.00000   -0.00000   -0.00000   -0.00000   -0.00000    0.00000   -0.00000   -0.00000
  -0.00000   -0.00000   -0.00000    0.00000   -0.00000    0.00000    0.00000   -0.00000
  -0.00000    0.00000   -0.00000   -0.00000   -0.00000   -0.00000   -0.00000   -0.00000
  -0.00000   -0.00000   -0.00000    0.00000    0.00000    0.00000    0.00000    0.00000
   0.00000    0.00000    0.00000   -0.00000    0.00000    0.00000    0.00000    0.00000
  -0.00000   -0.00000   -0.00000   -0.00001    0.00084
 prteigrs : prtvol=0 or 1, do not print more k-points.

 Eight components of 2nd-order total energy (hartree) are
 1,2,3: 0th-order hamiltonian combined with 1st-order wavefunctions
     kin0=   2.18552023E+01 eigvalue=   2.01964543E+00  local=  -1.60872488E+01
 4,5,6: 1st-order hamiltonian combined with 1st and 0th-order wfs
     kin1=  -3.00487804E+01  Hartree=   0.00000000E+00     xc=   0.00000000E+00
 7,8,9: eventually, occupation + non-local contributions
    edocc=   4.05244414E+00     enl0=   4.93900987E+00   enl1=  -3.50932552E+00
 1-9 gives the relaxation energy (to be shifted if some occ is /=2.0)
   erelax=  -1.67790530E+01
  No Ewald or frozen-wf contrib.: the relaxation energy is the total one
 2DEtotal=   -0.1677905295E+02 Ha. Also 2DEtotal=   -0.456581250755E+03 eV
    (  non-var. 2DEtotal :   -1.6779052954E+01 Ha)

 CALCULATION OF EFFECTIVE MASSES
 NOTE : Additional infos (eff. mass eigenvalues, eigenvectors and, if degenerate, average mass) are available in stdout.

 K-point ( 0.000, 0.000, 0.000) | band =    36
 Effective mass tensor:
             -3.1323340855              0.0000034015             -0.0000102844
              0.0000034015             -3.1323034157             -0.0000258519
             -0.0000102844             -0.0000258519             -0.3976497778
 Effective mass tensor eigenvalues:
             -3.1323344583             -3.1323030433             -0.3976497775
 Angular average effective mass 1/(<1/m>)=  -0.9513901994
 Angular average effective mass for Frohlich model (<m**0.5>)**2=  -1.3035865559
 Effective masses along directions: (cart. coord. / red. coord. -> eff. mass)
    1:   1.000000  0.000000  0.000000 /   0.894427 -0.447214  0.000000 ->  -3.1323340853
    2:   0.000000  1.000000  0.000000 /   0.000000  1.000000  0.000000 ->  -3.1323034140
    3:   0.000000  0.000000  1.000000 /   0.000000  0.000000  1.000000 ->  -0.3976497776
    4:   0.577350  0.577350  0.577350 /   0.721284  0.264008  0.640350 ->  -0.9514074972
    5:   0.000000  0.707107  0.707107 /   0.000000  0.698277  0.715828 ->  -0.7057192730
    6:   0.707107  0.000000  0.707107 /   0.700453 -0.350227  0.621857 ->  -0.7057138268
    7:   0.707107  0.707107  0.000000 /   0.939071  0.343724  0.000000 ->  -3.1323153474

 K-point ( 0.500, 0.000, 0.000) | band =    37
 Effective mass tensor:
              0.5267582031             -0.2373829062              0.0488763792
             -0.2373829062              0.8008643753             -0.0846563692
              0.0488763792             -0.0846563692              0.8376974770
 Effective mass tensor eigenvalues:
              0.3897051189              0.7779593344              0.9976556021
 Angular average effective mass 1/(<1/m>)=   0.6180715593
 Angular average effective mass for Frohlich model (<m**0.5>)**2=   0.6502914950
 Effective masses along directions: (cart. coord. / red. coord. -> eff. mass)
    1:   1.000000  0.000000  0.000000 /   0.894427 -0.447214  0.000000 ->   0.4557133800
    2:   0.000000  1.000000  0.000000 /   0.000000  1.000000  0.000000 ->   0.6891800442
    3:   0.000000  0.000000  1.000000 /   0.000000  0.000000  1.000000 ->   0.8275093723
    4:   0.577350  0.577350  0.577350 /   0.721284  0.264008  0.640350 ->   0.4812668372
    5:   0.000000  0.707107  0.707107 /   0.000000  0.698277  0.715828 ->   0.6950251764
    6:   0.707107  0.000000  0.707107 /   0.700453 -0.350227  0.621857 ->   0.6103405375
    7:   0.707107  0.707107  0.000000 /   0.939071  0.343724  0.000000 ->   0.4054408332

 END OF EFFECTIVE MASSES SECTION

 ---- first-order wavefunction calculations are completed ----

 Total localisation tensor (bohr^2) in cartesian coordinates
  WARNING : still subject to testing - especially symmetries.
      direction              matrix element
   alpha     beta       real part   imaginary part
     1        1       2.4687989121    0.0000000000
     1        2      -0.8654022653    0.0000000000
     1        3       0.0000000000    0.0000000000
     2        1      -0.8654022653    0.0000000000
     2        2       1.4989206924    0.0000000000
     2        3       0.0000000000    0.0000000000
     3        1       0.0000000000    0.0000000000
     3        2       0.0000000000    0.0000000000
     3        3       1.4507527023    0.0000000000

 respfn : d/dk was computed, but no 2DTE, so no DDB output.

== END DATASET(S) ==============================================================

 -outvars: echo values of variables after computation  --------
            acell      1.0000000000E+00  1.0000000000E+00  1.0000000000E+00 Bohr
              amu      1.37327000E+02  8.76200000E+01  1.26904470E+02
             ecut      3.50000000E+01 Hartree
           etotal     -1.6779052955E+01
            fcart      0.0000000000E+00  0.0000000000E+00  0.0000000000E+00
                       0.0000000000E+00  0.0000000000E+00  0.0000000000E+00
                       0.0000000000E+00  0.0000000000E+00  0.0000000000E+00
                       0.0000000000E+00  0.0000000000E+00  0.0000000000E+00
                       0.0000000000E+00  0.0000000000E+00  0.0000000000E+00
                       0.0000000000E+00  0.0000000000E+00  0.0000000000E+00
                       0.0000000000E+00  0.0000000000E+00  0.0000000000E+00
                       0.0000000000E+00  0.0000000000E+00  0.0000000000E+00
                       0.0000000000E+00  0.0000000000E+00  0.0000000000E+00
-          fftalg         512
           irdden           1
           irdwfk           1
           istwfk        1    1
              ixc     -116133
              kpt      0.00000000E+00  0.00000000E+00  0.00000000E+00
                       5.00000000E-01  0.00000000E+00  0.00000000E+00
           kptopt           0
P           mkmem           2
P          mkqmem           2
P          mk1mem           2
            natom           9
            nband          45
           nbdbuf           4
            ngfft          90      90      75
             nkpt           2
            nstep        2000
             nsym          12
           ntypat           3
              occ      2.000000  2.000000  2.000000  2.000000  2.000000  2.000000
                       2.000000  2.000000  2.000000  2.000000  2.000000  2.000000
                       2.000000  2.000000  2.000000  2.000000  2.000000  2.000000
                       2.000000  2.000000  2.000000  2.000000  2.000000  2.000000
                       2.000000  2.000000  2.000000  2.000000  2.000000  2.000000
                       2.000000  2.000000  2.000000  2.000000  2.000000  2.000000
                       0.000000  0.000000  0.000000  0.000000  0.000000  0.000000
                       0.000000  0.000000  0.000000
        optdriver           1
            prtwf          -1
            rfdir           1       1       1
           rfelfd           2
            rprim      1.5565024401E+01  0.0000000000E+00  0.0000000000E+00
                      -7.7825122004E+00  1.3479706542E+01  0.0000000000E+00
                       0.0000000000E+00  0.0000000000E+00  1.3818506295E+01
          spgroup         162
           strten      0.0000000000E+00  0.0000000000E+00  0.0000000000E+00
                       0.0000000000E+00  0.0000000000E+00  0.0000000000E+00
           symrel      1  0  0   0  1  0   0  0  1      -1  0  0   0 -1  0   0  0 -1
                       0  1  0   1  0  0   0  0  1       0 -1  0  -1  0  0   0  0 -1
                       0  1  0  -1 -1  0   0  0  1       0 -1  0   1  1  0   0  0 -1
                      -1 -1  0   0  1  0   0  0  1       1  1  0   0 -1  0   0  0 -1
                      -1 -1  0   1  0  0   0  0  1       1  1  0  -1  0  0   0  0 -1
                       1  0  0  -1 -1  0   0  0  1      -1  0  0   1  1  0   0  0 -1
           tolwfr      1.00000000E-20
            typat      1  2  2  3  3  3  3  3  3
           useylm           1
              wtk        0.50000    0.50000
           xangst      0.0000000000E+00  0.0000000000E+00  0.0000000000E+00
                      -1.7640181753E-11  4.7554356535E+00  3.6562192940E+00
                       4.1183280820E+00  2.3777178267E+00  3.6562192940E+00
                       1.4515912174E+00  2.5142297403E+00  5.4950928506E+00
                       2.6667368646E+00  4.6189237399E+00  1.8173457374E+00
                       5.3334737292E+00  0.0000000000E+00  5.4950928506E+00
                       2.9031824348E+00  0.0000000000E+00  1.8173457374E+00
                      -1.4515912174E+00  2.5142297403E+00  1.8173457374E+00
                      -2.6667368646E+00  4.6189237399E+00  5.4950928506E+00
            xcart      0.0000000000E+00  0.0000000000E+00  0.0000000000E+00
                      -3.3335112448E-11  8.9864710277E+00  6.9092531475E+00
                       7.7825122003E+00  4.4932355138E+00  6.9092531475E+00
                       2.7431098578E+00  4.7512056444E+00  1.0384220562E+01
                       5.0394023425E+00  8.7285008971E+00  3.4342857325E+00
                       1.0078804685E+01  0.0000000000E+00  1.0384220562E+01
                       5.4862197155E+00  0.0000000000E+00  3.4342857325E+00
                      -2.7431098578E+00  4.7512056444E+00  3.4342857325E+00
                      -5.0394023426E+00  8.7285008971E+00  1.0384220562E+01
             xred      0.0000000000E+00  0.0000000000E+00  0.0000000000E+00
                       3.3333333333E-01  6.6666666667E-01  5.0000000000E-01
                       6.6666666667E-01  3.3333333333E-01  5.0000000000E-01
                       3.5247100000E-01  3.5247100000E-01  7.5147200000E-01
                       6.4752900000E-01  6.4752900000E-01  2.4852800000E-01
                       6.4752900000E-01  0.0000000000E+00  7.5147200000E-01
                       3.5247100000E-01  0.0000000000E+00  2.4852800000E-01
                       0.0000000000E+00  3.5247100000E-01  2.4852800000E-01
                       0.0000000000E+00  6.4752900000E-01  7.5147200000E-01
            znucl       56.00000   38.00000   53.00000

- Timing analysis has been suppressed with timopt=0

 Suggested references for the acknowledgment of ABINIT usage.

 Calculation completed.
.Delivered  14 WARNINGs and  11 COMMENTs to log file.