.Version 9.5.1 of ABINIT

 ABINIT is a project of the Universite Catholique de Louvain,
 Corning Inc. and other collaborators, see ~abinit/doc/developers/contributors.txt .
 acknowledgments of the ABINIT effort.

.Starting date : Tue  4 May 2021.
- ( at 21h48 )

- input  file    -> /scratch/users/j/a/jabreu/flow_simple_6atoms/flow/w257/t1/run.abi
- output file    -> /scratch/users/j/a/jabreu/flow_simple_6atoms/flow/w257/t1/run.abo
- root for input  files -> /scratch/users/j/a/jabreu/flow_simple_6atoms/flow/w257/t1/indata/in
- root for output files -> /scratch/users/j/a/jabreu/flow_simple_6atoms/flow/w257/t1/outdata/out

 Symmetries : space group P4_2/m n m (#136); Bravais tP (primitive tetrag.)
     intxc =       0      iscf =       7    lmnmax =      32     lnmax =       8
     mgfft =      60  mpssoang =       4    mqgrid =    3001     natom =       6
  nloc_mem =       1    nspden =       1   nspinor =       1    nsppol =       1
      nsym =      16    n1xccc =    2501    ntypat =       2    occopt =       1
   xclevel =       2
-    mband =          33        mffmem =           1         mkmem =           1
-   mkqmem =           1        mk1mem =           1           mpw =        6987
      nfft =      144000          nkpt =           1
  Rough estimation (10% accuracy) of disk space for files :

------------- Echo of variables that govern the present computation ------------
-
- outvars: echo of selected default values
-   iomode0 =  0 , fftalg0 =512 , wfoptalg0 =  0
-
- outvars: echo of global parameters not present in the input file
-  max_nthreads =    0
-
 -outvars: echo values of preprocessed input variables --------
            acell      1.0000000000E+00  1.0000000000E+00  1.0000000000E+00 Bohr
              amu      1.78490000E+02  1.59994000E+01
             ecut      4.40000000E+01 Hartree
-          fftalg         512
           irdden           1
           irdwfk           1
           istwfk        1
              ixc     -116133
           kptopt           0
P           mkmem           1
P          mkqmem           1
P          mk1mem           1
            natom           6
            nband          33
           nbdbuf           4
            ngfft          60      60      40
             nkpt           1
            nstep        1000
             nsym          16
           ntypat           2
              occ      2.000000  2.000000  2.000000  2.000000  2.000000  2.000000
                       2.000000  2.000000  2.000000  2.000000  2.000000  2.000000
                       2.000000  2.000000  2.000000  2.000000  2.000000  2.000000
                       2.000000  2.000000  2.000000  2.000000  2.000000  2.000000
                       0.000000  0.000000  0.000000  0.000000  0.000000  0.000000
                       0.000000  0.000000  0.000000
        optdriver           1
            prtwf          -1
            rfdir           1       1       1
           rfelfd           2
            rprim      9.0943550305E+00  0.0000000000E+00  0.0000000000E+00
                       0.0000000000E+00  9.0943550305E+00  0.0000000000E+00
                       0.0000000000E+00  0.0000000000E+00  6.0512179550E+00
          spgroup         136
           symrel      1  0  0   0  1  0   0  0  1      -1  0  0   0 -1  0   0  0 -1
                      -1  0  0   0  1  0   0  0 -1       1  0  0   0 -1  0   0  0  1
                      -1  0  0   0 -1  0   0  0  1       1  0  0   0  1  0   0  0 -1
                       1  0  0   0 -1  0   0  0 -1      -1  0  0   0  1  0   0  0  1
                       0  1  0   1  0  0   0  0  1       0 -1  0  -1  0  0   0  0 -1
                       0 -1  0   1  0  0   0  0 -1       0  1  0  -1  0  0   0  0  1
                       0 -1  0  -1  0  0   0  0  1       0  1  0   1  0  0   0  0 -1
                       0  1  0  -1  0  0   0  0 -1       0 -1  0   1  0  0   0  0  1
            tnons      0.0000000  0.0000000  0.0000000     0.0000000  0.0000000  0.0000000
                       0.5000000  0.5000000  0.5000000     0.5000000  0.5000000  0.5000000
                       0.0000000  0.0000000  0.0000000     0.0000000  0.0000000  0.0000000
                       0.5000000  0.5000000  0.5000000     0.5000000  0.5000000  0.5000000
                       0.0000000  0.0000000  0.0000000     0.0000000  0.0000000  0.0000000
                       0.5000000  0.5000000  0.5000000     0.5000000  0.5000000  0.5000000
                       0.0000000  0.0000000  0.0000000     0.0000000  0.0000000  0.0000000
                       0.5000000  0.5000000  0.5000000     0.5000000  0.5000000  0.5000000
           tolwfr      1.00000000E-20
            typat      1  1  2  2  2  2
           useylm           1
           xangst      0.0000000000E+00  0.0000000000E+00  0.0000000000E+00
                       2.4062627045E+00  2.4062627045E+00  1.6010833130E+00
                       9.3738369916E-01  3.8751417098E+00  1.6010833130E+00
                       1.4688790053E+00  1.4688790053E+00  0.0000000000E+00
                       3.3436464036E+00  3.3436464036E+00  0.0000000000E+00
                       3.8751417098E+00  9.3738369916E-01  1.6010833130E+00
            xcart      0.0000000000E+00  0.0000000000E+00  0.0000000000E+00
                       4.5471775152E+00  4.5471775152E+00  3.0256089775E+00
                       1.7713984728E+00  7.3229565577E+00  3.0256089775E+00
                       2.7757790424E+00  2.7757790424E+00  0.0000000000E+00
                       6.3185759881E+00  6.3185759881E+00  0.0000000000E+00
                       7.3229565577E+00  1.7713984728E+00  3.0256089775E+00
             xred      0.0000000000E+00  0.0000000000E+00  0.0000000000E+00
                       5.0000000000E-01  5.0000000000E-01  5.0000000000E-01
                       1.9478000000E-01  8.0522000000E-01  5.0000000000E-01
                       3.0522000000E-01  3.0522000000E-01  0.0000000000E+00
                       6.9478000000E-01  6.9478000000E-01  0.0000000000E+00
                       8.0522000000E-01  1.9478000000E-01  5.0000000000E-01
            znucl       72.00000    8.00000

 chkinp: Checking input parameters for consistency.

== DATASET  1 ==================================================================
-   mpi_nproc: 1, omp_nthreads: -1 (-1 if OMP is not activated)

--- !DatasetInfo
iteration_state: {dtset: 1, }
dimensions: {natom: 6, nkpt: 1, mband: 33, nsppol: 1, nspinor: 1, nspden: 1, mpw: 6987, }
cutoff_energies: {ecut:  44.0, pawecutdg:  -1.0, }
electrons: {nelect:   4.80000000E+01, charge:   0.00000000E+00, occopt:   1.00000000E+00, tsmear:   1.00000000E-02, }
meta: {optdriver: 1, rfelfd: 2, }
...

 Real(R)+Recip(G) space primitive vectors, cartesian coordinates (Bohr,Bohr^-1):
 R(1)=  9.0943550  0.0000000  0.0000000  G(1)=  0.1099583  0.0000000  0.0000000
 R(2)=  0.0000000  9.0943550  0.0000000  G(2)=  0.0000000  0.1099583  0.0000000
 R(3)=  0.0000000  0.0000000  6.0512180  G(3)=  0.0000000  0.0000000  0.1652560
 Unit cell volume ucvol=  5.0047986E+02 bohr^3
 Angles (23,13,12)=  9.00000000E+01  9.00000000E+01  9.00000000E+01 degrees

 getcut: wavevector=  0.0000  0.0000  0.0000  ngfft=  60  60  40
         ecut(hartree)=     44.000   => boxcut(ratio)=   2.20947

 getcut : COMMENT -
  Note that boxcut > 2.2 ; recall that boxcut=Gcut(box)/Gcut(sphere) = 2
  is sufficient for exact treatment of convolution.
  Such a large boxcut is a waste : you could raise ecut
  e.g. ecut=   53.699278 Hartrees makes boxcut=2

--- Pseudopotential description ------------------------------------------------
- pspini: atom type   1  psp file is /scratch/users/j/a/jabreu/pseudos/PBEsol/Hf.psp8
- pspatm: opening atomic psp file    /scratch/users/j/a/jabreu/pseudos/PBEsol/Hf.psp8
- Hf    ONCVPSP-3.3.0  r_core=   1.71613   1.71613   1.71613   2.42541
- 72.00000  12.00000    180112                znucl, zion, pspdat
    8 -116133    3    4       600   0.00000   pspcod,pspxc,lmax,lloc,mmax,r2well
    5.99000000000000    5.40000000000000    0.00000000000000   rchrg,fchrg,qchrg
     nproj     2     2     2     2
     extension_switch     1
  pspatm : epsatm=   21.99082902
         --- l  ekb(1:nproj) -->
             0    5.882750   -0.519107
             1    2.555685   -1.768609
             2    1.383259    0.138001
             3    9.464546    0.347497
 pspatm: atomic psp has been read  and splines computed

- pspini: atom type   2  psp file is /scratch/users/j/a/jabreu/pseudos/PBEsol/O.psp8
- pspatm: opening atomic psp file    /scratch/users/j/a/jabreu/pseudos/PBEsol/O.psp8
- O     ONCVPSP-3.3.0  r_core=   1.35509   1.45563   1.26150
-  8.00000   6.00000    180112                znucl, zion, pspdat
    8 -116133    2    4       600   0.00000   pspcod,pspxc,lmax,lloc,mmax,r2well
    5.99000000000000    4.00000000000000    0.00000000000000   rchrg,fchrg,qchrg
     nproj     2     2     1
     extension_switch     1
  pspatm : epsatm=    6.22910522
         --- l  ekb(1:nproj) -->
             0    6.050032    0.820363
             1   -4.739617   -1.153841
             2   -1.335834
 pspatm: atomic psp has been read  and splines computed

   3.30710779E+03                                ecore*ucvol(ha*bohr**3)

-inwffil : will read wavefunctions from disk file /scratch/users/j/a/jabreu/flow_simple_6atoms/flow/w257/t1/indata/in_WFK

 ==>  initialize data related to q vector <==

 The list of irreducible perturbations for this q vector is:
    1)    idir= 1    ipert=   7
    2)    idir= 2    ipert=   7
    3)    idir= 3    ipert=   7

 Perturbation wavevector (in red.coord.)   0.000000  0.000000  0.000000
 Perturbation : derivative vs k along direction   1

 dfpt_looppert : COMMENT -
  In a d/dk calculation, iscf is set to -3 automatically.
 The set of symmetries contains only one element for this perturbation.
 symkpt : not enough symmetry to change the number of k points.

[...]

 Initialisation of the first-order wave-functions :
  ireadwf=   0

--- !BeginCycle
iteration_state: {dtset: 1, }
solver: {iscf: 7, nstep: 1000, nline: 4, wfoptalg: 0, }
tolerances: {tolwfr: 1.00E-20, }
...

     iter   2DEtotal(Ha)        deltaE(Ha) residm    vres2
-ETOT  1  -27.657008698151     -2.766E+01 1.476E-02 0.000E+00
 ETOT  2  -27.669273470319     -1.226E-02 3.475E-04 0.000E+00
 ETOT  3  -27.669299255909     -2.579E-05 2.255E-07 0.000E+00
 ETOT  4  -27.669299346932     -9.102E-08 1.036E-08 0.000E+00
 ETOT  5  -27.669299347373     -4.409E-10 8.779E-12 0.000E+00
 ETOT  6  -27.669299347376     -2.775E-12 4.781E-13 0.000E+00
 ETOT  7  -27.669299347376      8.527E-14 3.157E-15 0.000E+00
 ETOT  8  -27.669299347376     -2.132E-14 1.311E-16 0.000E+00
 ETOT  9  -27.669299347376     -7.105E-15 2.679E-18 0.000E+00
 ETOT 10  -27.669299347376     -7.105E-15 1.095E-19 0.000E+00
 ETOT 11  -27.669299347376      0.000E+00 9.687E-21 0.000E+00

 At SCF step   11   max residual=  9.69E-21 < tolwfr=  1.00E-20 =>converged.

 ----iterations are completed or convergence reached----

 dfpt_looppert: DFPT cycle converged with prtwf=-1. Will skip output of the 1st-order WFK file.
 dfpt_looppert : ek2=    4.5823384290E+01
          f-sum rule ratio=    1.1777490917E+00
 prteigrs : about to open file /scratch/users/j/a/jabreu/flow_simple_6atoms/flow/w257/t1/tmpdata/tmp_1WF1_EIG
 Expectation of eigenvalue derivatives (hartree) for nkpt=   1  k points:
  (in case of degenerate eigenvalues, averaged derivative)
 kpt#   1, nband= 33, wtk=  1.00000, kpt=  0.0000  0.0000  0.0000 (reduced coord)
  -0.00000    0.00000    0.00000    0.00000    0.00000    0.00000   -0.00000    0.00000
   0.00000   -0.00000    0.00000    0.00000   -0.00000   -0.00000   -0.00000    0.00000
   0.00000    0.00000    0.00000    0.00000    0.00000   -0.00000   -0.00000   -0.00000
   0.00000    0.00000    0.00000    0.00000    0.00000    0.00000    0.00000   -0.00000
   0.00004

 Eight components of 2nd-order total energy (hartree) are
 1,2,3: 0th-order hamiltonian combined with 1st-order wavefunctions
     kin0=   2.88972345E+01 eigvalue=  -1.52980963E-01  local=  -1.26878391E+01
 4,5,6: 1st-order hamiltonian combined with 1st and 0th-order wfs
     kin1=  -5.39684492E+01  Hartree=   0.00000000E+00     xc=   0.00000000E+00
 7,8,9: eventually, occupation + non-local contributions
    edocc=   1.20232018E+01     enl0=  -4.10316904E-01   enl1=  -1.37014947E+00
 1-9 gives the relaxation energy (to be shifted if some occ is /=2.0)
   erelax=  -2.76692993E+01
  No Ewald or frozen-wf contrib.: the relaxation energy is the total one
 2DEtotal=   -0.2766929935E+02 Ha. Also 2DEtotal=   -0.752919925679E+03 eV
    (  non-var. 2DEtotal :   -2.7669299347E+01 Ha)

 Perturbation wavevector (in red.coord.)   0.000000  0.000000  0.000000
 Perturbation : derivative vs k along direction   2
 The set of symmetries contains only one element for this perturbation.
 symkpt : not enough symmetry to change the number of k points.

[...]

 Perturbation wavevector (in red.coord.)   0.000000  0.000000  0.000000
 Perturbation : derivative vs k along direction   3
 The set of symmetries contains only one element for this perturbation.
 symkpt : not enough symmetry to change the number of k points.

-inwffil : will read wavefunctions from disk file /scratch/users/j/a/jabreu/flow_simple_6atoms/flow/w257/t1/indata/in_WFK

 Initialisation of the first-order wave-functions :
  ireadwf=   0

--- !BeginCycle
iteration_state: {dtset: 1, }
solver: {iscf: 7, nstep: 1000, nline: 4, wfoptalg: 0, }
tolerances: {tolwfr: 1.00E-20, }
...

     iter   2DEtotal(Ha)        deltaE(Ha) residm    vres2
-ETOT  1  -61.051485413830     -6.105E+01 1.849E-01 0.000E+00
 ETOT  2  -61.086451182941     -3.497E-02 2.089E-03 0.000E+00
 ETOT  3  -61.086557435416     -1.063E-04 1.452E-05 0.000E+00
 ETOT  4  -61.086557975918     -5.405E-07 3.443E-07 0.000E+00
 ETOT  5  -61.086557979396     -3.478E-09 2.565E-09 0.000E+00
 ETOT  6  -61.086557979425     -2.937E-11 6.947E-11 0.000E+00
 ETOT  7  -61.086557979426     -2.416E-13 5.944E-13 0.000E+00
 ETOT  8  -61.086557979426      2.842E-14 2.762E-14 0.000E+00
 ETOT  9  -61.086557979426     -5.684E-14 6.021E-16 0.000E+00
 ETOT 10  -61.086557979426      4.263E-14 4.810E-17 0.000E+00
 ETOT 11  -61.086557979426     -2.132E-14 1.403E-18 0.000E+00
 ETOT 12  -61.086557979426      0.000E+00 1.185E-19 0.000E+00
 ETOT 13  -61.086557979426     -1.421E-14 9.710E-21 0.000E+00

 At SCF step   13   max residual=  9.71E-21 < tolwfr=  1.00E-20 =>converged.

 ----iterations are completed or convergence reached----

 dfpt_looppert: DFPT cycle converged with prtwf=-1. Will skip output of the 1st-order WFK file.
 dfpt_looppert : ek2=    1.0350119836E+02
          f-sum rule ratio=    1.1543914293E+00
 prteigrs : about to open file /scratch/users/j/a/jabreu/flow_simple_6atoms/flow/w257/t1/tmpdata/tmp_1WF1_EIG
 Expectation of eigenvalue derivatives (hartree) for nkpt=   1  k points:
  (in case of degenerate eigenvalues, averaged derivative)
 kpt#   1, nband= 33, wtk=  1.00000, kpt=  0.0000  0.0000  0.0000 (reduced coord)
   0.00000    0.00000    0.00000    0.00000   -0.00000   -0.00000    0.00000    0.00000
   0.00000    0.00000    0.00000    0.00000    0.00000    0.00000    0.00000    0.00000
   0.00000   -0.00000   -0.00000    0.00000   -0.00000   -0.00000   -0.00000    0.00000
  -0.00000    0.00000   -0.00000   -0.00000   -0.00000    0.00000    0.00000   -0.00000
  -0.00018

 Eight components of 2nd-order total energy (hartree) are
 1,2,3: 0th-order hamiltonian combined with 1st-order wavefunctions
     kin0=   7.71314631E+01 eigvalue=  -4.72984891E-01  local=  -3.72192501E+01
 4,5,6: 1st-order hamiltonian combined with 1st and 0th-order wfs
     kin1=  -1.19480896E+02  Hartree=   0.00000000E+00     xc=   0.00000000E+00
 7,8,9: eventually, occupation + non-local contributions
    edocc=   2.42256222E+01     enl0=  -2.57829236E+00   enl1=  -2.69221966E+00
 1-9 gives the relaxation energy (to be shifted if some occ is /=2.0)
   erelax=  -6.10865580E+01
  No Ewald or frozen-wf contrib.: the relaxation energy is the total one
 2DEtotal=   -0.6108655798E+02 Ha. Also 2DEtotal=   -0.166224977786E+04 eV
    (  non-var. 2DEtotal :   -6.1086557979E+01 Ha)

 CALCULATION OF EFFECTIVE MASSES
 NOTE : Additional infos (eff. mass eigenvalues, eigenvectors and, if degenerate, average mass) are available in stdout.

 K-point ( 0.000, 0.000, 0.000) | band =    24
 Effective mass tensor:
             -1.8904267841             -0.0000115103             -0.0000030679
             -0.0000115103             -1.8904342810              0.0000037057
             -0.0000030679              0.0000037057             -2.3044930474
 Effective mass tensor eigenvalues:
             -2.3044930475             -1.8904426379             -1.8904184272
 Angular average effective mass 1/(<1/m>)=  -2.0108654062
 Angular average effective mass for Frohlich model (<m**0.5>)**2=  -2.0159408136
 Effective masses along directions: (cart. coord. / red. coord. -> eff. mass)
    1:   1.000000  0.000000  0.000000 /   1.000000  0.000000  0.000000 ->  -1.8904267840
    2:   0.000000  1.000000  0.000000 /   0.000000  1.000000  0.000000 ->  -1.8904342810
    3:   0.000000  0.000000  1.000000 /   0.000000  0.000000  1.000000 ->  -2.3044930474
    4:   0.577350  0.577350  0.577350 /   0.639826  0.639826  0.425729 ->  -2.0108736940
    5:   0.000000  0.707107  0.707107 /   0.000000  0.832544  0.553959 ->  -2.0770252351
    6:   0.707107  0.000000  0.707107 /   0.832544  0.000000  0.553959 ->  -2.0770274178
    7:   0.707107  0.707107  0.000000 /   0.707107  0.707107  0.000000 ->  -1.8904420429

 K-point ( 0.000, 0.000, 0.000) | band =    25
 Effective mass tensor:
              0.7903197007              0.0000002673             -0.0000004760
              0.0000002673              0.7903263144             -0.0000003454
             -0.0000004760             -0.0000003454              0.6102202065
 Effective mass tensor eigenvalues:
              0.6102202065              0.7903196899              0.7903263252
 Angular average effective mass 1/(<1/m>)=   0.7195342783
 Angular average effective mass for Frohlich model (<m**0.5>)**2=   0.7228858396
 Effective masses along directions: (cart. coord. / red. coord. -> eff. mass)
    1:   1.000000  0.000000  0.000000 /   1.000000  0.000000  0.000000 ->   0.7903197007
    2:   0.000000  1.000000  0.000000 /   0.000000  1.000000  0.000000 ->   0.7903263144
    3:   0.000000  0.000000  1.000000 /   0.000000  0.000000  1.000000 ->   0.6102202065
    4:   0.577350  0.577350  0.577350 /   0.639826  0.639826  0.425729 ->   0.7195338381
    5:   0.000000  0.707107  0.707107 /   0.000000  0.832544  0.553959 ->   0.6886923665
    6:   0.707107  0.000000  0.707107 /   0.832544  0.000000  0.553959 ->   0.6886897269
    7:   0.707107  0.707107  0.000000 /   0.707107  0.707107  0.000000 ->   0.7903232749

 END OF EFFECTIVE MASSES SECTION

 ---- first-order wavefunction calculations are completed ----

 Total localisation tensor (bohr^2) in cartesian coordinates
  WARNING : still subject to testing - especially symmetries.
      direction              matrix element
   alpha     beta       real part   imaginary part
     1        1       1.0048572109    0.0000000000
     1        2       0.0000000000    0.0000000000
     1        3       0.0000000000    0.0000000000
     2        1       0.0000000000    0.0000000000
     2        2       1.0048568930    0.0000000000
     2        3       0.0000000000    0.0000000000
     3        1       0.0000000000    0.0000000000
     3        2       0.0000000000    0.0000000000
     3        3       1.0797711309    0.0000000000

 respfn : d/dk was computed, but no 2DTE, so no DDB output.

== END DATASET(S) ==============================================================

 -outvars: echo values of variables after computation  --------
            acell      1.0000000000E+00  1.0000000000E+00  1.0000000000E+00 Bohr
              amu      1.78490000E+02  1.59994000E+01
             ecut      4.40000000E+01 Hartree
           etotal     -6.1086557979E+01
            fcart      0.0000000000E+00  0.0000000000E+00  0.0000000000E+00
                       0.0000000000E+00  0.0000000000E+00  0.0000000000E+00
                       0.0000000000E+00  0.0000000000E+00  0.0000000000E+00
                       0.0000000000E+00  0.0000000000E+00  0.0000000000E+00
                       0.0000000000E+00  0.0000000000E+00  0.0000000000E+00
                       0.0000000000E+00  0.0000000000E+00  0.0000000000E+00
-          fftalg         512
           irdden           1
           irdwfk           1
           istwfk        1
              ixc     -116133
           kptopt           0
P           mkmem           1
P          mkqmem           1
P          mk1mem           1
            natom           6
            nband          33
           nbdbuf           4
            ngfft          60      60      40
             nkpt           1
            nstep        1000
             nsym          16
           ntypat           2
              occ      2.000000  2.000000  2.000000  2.000000  2.000000  2.000000
                       2.000000  2.000000  2.000000  2.000000  2.000000  2.000000
                       2.000000  2.000000  2.000000  2.000000  2.000000  2.000000
                       2.000000  2.000000  2.000000  2.000000  2.000000  2.000000
                       0.000000  0.000000  0.000000  0.000000  0.000000  0.000000
                       0.000000  0.000000  0.000000
        optdriver           1
            prtwf          -1
            rfdir           1       1       1
           rfelfd           2
            rprim      9.0943550305E+00  0.0000000000E+00  0.0000000000E+00
                       0.0000000000E+00  9.0943550305E+00  0.0000000000E+00
                       0.0000000000E+00  0.0000000000E+00  6.0512179550E+00
          spgroup         136
           strten      0.0000000000E+00  0.0000000000E+00  0.0000000000E+00
                       0.0000000000E+00  0.0000000000E+00  0.0000000000E+00
           symrel      1  0  0   0  1  0   0  0  1      -1  0  0   0 -1  0   0  0 -1
                      -1  0  0   0  1  0   0  0 -1       1  0  0   0 -1  0   0  0  1
                      -1  0  0   0 -1  0   0  0  1       1  0  0   0  1  0   0  0 -1
                       1  0  0   0 -1  0   0  0 -1      -1  0  0   0  1  0   0  0  1
                       0  1  0   1  0  0   0  0  1       0 -1  0  -1  0  0   0  0 -1
                       0 -1  0   1  0  0   0  0 -1       0  1  0  -1  0  0   0  0  1
                       0 -1  0  -1  0  0   0  0  1       0  1  0   1  0  0   0  0 -1
                       0  1  0  -1  0  0   0  0 -1       0 -1  0   1  0  0   0  0  1
            tnons      0.0000000  0.0000000  0.0000000     0.0000000  0.0000000  0.0000000
                       0.5000000  0.5000000  0.5000000     0.5000000  0.5000000  0.5000000
                       0.0000000  0.0000000  0.0000000     0.0000000  0.0000000  0.0000000
                       0.5000000  0.5000000  0.5000000     0.5000000  0.5000000  0.5000000
                       0.0000000  0.0000000  0.0000000     0.0000000  0.0000000  0.0000000
                       0.5000000  0.5000000  0.5000000     0.5000000  0.5000000  0.5000000
                       0.0000000  0.0000000  0.0000000     0.0000000  0.0000000  0.0000000
                       0.5000000  0.5000000  0.5000000     0.5000000  0.5000000  0.5000000
           tolwfr      1.00000000E-20
            typat      1  1  2  2  2  2
           useylm           1
           xangst      0.0000000000E+00  0.0000000000E+00  0.0000000000E+00
                       2.4062627045E+00  2.4062627045E+00  1.6010833130E+00
                       9.3738369916E-01  3.8751417098E+00  1.6010833130E+00
                       1.4688790053E+00  1.4688790053E+00  0.0000000000E+00
                       3.3436464036E+00  3.3436464036E+00  0.0000000000E+00
                       3.8751417098E+00  9.3738369916E-01  1.6010833130E+00
            xcart      0.0000000000E+00  0.0000000000E+00  0.0000000000E+00
                       4.5471775152E+00  4.5471775152E+00  3.0256089775E+00
                       1.7713984728E+00  7.3229565577E+00  3.0256089775E+00
                       2.7757790424E+00  2.7757790424E+00  0.0000000000E+00
                       6.3185759881E+00  6.3185759881E+00  0.0000000000E+00
                       7.3229565577E+00  1.7713984728E+00  3.0256089775E+00
             xred      0.0000000000E+00  0.0000000000E+00  0.0000000000E+00
                       5.0000000000E-01  5.0000000000E-01  5.0000000000E-01
                       1.9478000000E-01  8.0522000000E-01  5.0000000000E-01
                       3.0522000000E-01  3.0522000000E-01  0.0000000000E+00
                       6.9478000000E-01  6.9478000000E-01  0.0000000000E+00
                       8.0522000000E-01  1.9478000000E-01  5.0000000000E-01
            znucl       72.00000    8.00000

- Timing analysis has been suppressed with timopt=0

 Suggested references for the acknowledgment of ABINIT usage.

 Calculation completed.
.Delivered   6 WARNINGs and  11 COMMENTs to log file.