.Version 9.5.1 of ABINIT

 ABINIT is a project of the Universite Catholique de Louvain,
 Corning Inc. and other collaborators, see ~abinit/doc/developers/contributors.txt .
 acknowledgments of the ABINIT effort.

.Starting date : Tue 11 May 2021.
- ( at 21h41 )

- input  file    -> /scratch/users/j/a/jabreu/flow_simple_8atoms/flow/w341/t1/run.abi
- output file    -> /scratch/users/j/a/jabreu/flow_simple_8atoms/flow/w341/t1/run.abo
- root for input  files -> /scratch/users/j/a/jabreu/flow_simple_8atoms/flow/w341/t1/indata/in
- root for output files -> /scratch/users/j/a/jabreu/flow_simple_8atoms/flow/w341/t1/outdata/out

 Symmetries : space group Cm m m (# 65); Bravais oC (1-face-center ortho.)
     intxc =       0      iscf =       7    lmnmax =      18     lnmax =       6
     mgfft =      72  mpssoang =       3    mqgrid =    3315     natom =       8
  nloc_mem =       1    nspden =       1   nspinor =       1    nsppol =       1
      nsym =       8    n1xccc =    2501    ntypat =       3    occopt =       1
   xclevel =       2
-    mband =          46        mffmem =           1         mkmem =           2
-   mkqmem =           2        mk1mem =           2           mpw =       12505
      nfft =      233280          nkpt =           2
  Rough estimation (10% accuracy) of disk space for files :

------------- Echo of variables that govern the present computation ------------
-
- outvars: echo of selected default values
-   iomode0 =  0 , fftalg0 =512 , wfoptalg0 =  0
-
- outvars: echo of global parameters not present in the input file
-  max_nthreads =    0
-
 -outvars: echo values of preprocessed input variables --------
            acell      1.0000000000E+00  1.0000000000E+00  1.0000000000E+00 Bohr
              amu      4.00780000E+01  1.12411000E+02  1.59994000E+01
             ecut      5.10000000E+01 Hartree
-          fftalg         512
           irdden           1
           irdwfk           1
           istwfk        1    1
              ixc     -116133
              kpt     -2.77555756E-17  5.00000000E-01  0.00000000E+00
                       0.00000000E+00  0.00000000E+00  0.00000000E+00
           kptopt           0
P           mkmem           2
P          mkqmem           2
P          mk1mem           2
            natom           8
            nband          46
           nbdbuf           4
            ngfft          72      72      45
             nkpt           2
            nstep        2000
             nsym           8
           ntypat           3
              occ      2.000000  2.000000  2.000000  2.000000  2.000000  2.000000
                       2.000000  2.000000  2.000000  2.000000  2.000000  2.000000
                       2.000000  2.000000  2.000000  2.000000  2.000000  2.000000
                       2.000000  2.000000  2.000000  2.000000  2.000000  2.000000
                       2.000000  2.000000  2.000000  2.000000  2.000000  2.000000
                       2.000000  2.000000  2.000000  2.000000  2.000000  2.000000
                       2.000000  0.000000  0.000000  0.000000  0.000000  0.000000
                       0.000000  0.000000  0.000000  0.000000
        optdriver           1
            prtwf          -1
            rfdir           1       1       1
           rfelfd           2
            rprim      1.0954402080E+01  0.0000000000E+00  0.0000000000E+00
                      -3.7047338470E+00  1.0308921964E+01  0.0000000000E+00
                       0.0000000000E+00  0.0000000000E+00  6.3587185742E+00
          spgroup          65
           symrel      1  0  0   0  1  0   0  0  1      -1  0  0   0 -1  0   0  0 -1
                       0 -1  0  -1  0  0   0  0 -1       0  1  0   1  0  0   0  0  1
                      -1  0  0   0 -1  0   0  0  1       1  0  0   0  1  0   0  0 -1
                       0  1  0   1  0  0   0  0 -1       0 -1  0  -1  0  0   0  0  1
           tolwfr      1.00000000E-20
            typat      1  1  1  2  3  3  3  3
           useylm           1
              wtk        0.50000    0.50000
           xangst      1.9181795995E+00  2.7276232743E+00  0.0000000000E+00
                       2.8984099573E+00  0.0000000000E+00  1.6824444727E+00
                      -9.8023035786E-01  2.7276232743E+00  1.6824444727E+00
                       0.0000000000E+00  0.0000000000E+00  0.0000000000E+00
                       3.8300777700E+00  1.3830959337E+00  0.0000000000E+00
                       2.8657104489E+00  4.0749982536E+00  1.6824444727E+00
                       9.7064875001E-01  1.3802482950E+00  1.6824444727E+00
                       6.2814289049E-03  4.0721506149E+00  0.0000000000E+00
            xcart      3.6248341167E+00  5.1544609820E+00  0.0000000000E+00
                       5.4772010402E+00  0.0000000000E+00  3.1793592871E+00
                      -1.8523669235E+00  5.1544609820E+00  3.1793592871E+00
                       0.0000000000E+00  0.0000000000E+00  0.0000000000E+00
                       7.2377980530E+00  2.6136725302E+00  0.0000000000E+00
                       5.4154079247E+00  7.7006306912E+00  3.1793592871E+00
                       1.8342603087E+00  2.6082912729E+00  3.1793592871E+00
                       1.1870180353E-02  7.6952494339E+00  0.0000000000E+00
             xred      5.0000000000E-01  5.0000000000E-01  0.0000000000E+00
                       5.0000000000E-01  0.0000000000E+00  5.0000000000E-01
                      -2.7755575616E-17  5.0000000000E-01  5.0000000000E-01
                       0.0000000000E+00  0.0000000000E+00  0.0000000000E+00
                       7.4646500000E-01  2.5353500000E-01  0.0000000000E+00
                       7.4698700000E-01  7.4698700000E-01  5.0000000000E-01
                       2.5301300000E-01  2.5301300000E-01  5.0000000000E-01
                       2.5353500000E-01  7.4646500000E-01  0.0000000000E+00
            znucl       20.00000   48.00000    8.00000

 chkinp: Checking input parameters for consistency.

== DATASET  1 ==================================================================
-   mpi_nproc: 1, omp_nthreads: -1 (-1 if OMP is not activated)

--- !DatasetInfo
iteration_state: {dtset: 1, }
dimensions: {natom: 8, nkpt: 2, mband: 46, nsppol: 1, nspinor: 1, nspden: 1, mpw: 12505, }
cutoff_energies: {ecut:  51.0, pawecutdg:  -1.0, }
electrons: {nelect:   7.40000000E+01, charge:   0.00000000E+00, occopt:   1.00000000E+00, tsmear:   1.00000000E-02, }
meta: {optdriver: 1, rfelfd: 2, }
...

 Real(R)+Recip(G) space primitive vectors, cartesian coordinates (Bohr,Bohr^-1):
 R(1)= 10.9544021  0.0000000  0.0000000  G(1)=  0.0912875  0.0328061  0.0000000
 R(2)= -3.7047338 10.3089220  0.0000000  G(2)=  0.0000000  0.0970034  0.0000000
 R(3)=  0.0000000  0.0000000  6.3587186  G(3)=  0.0000000  0.0000000  0.1572644
 Unit cell volume ucvol=  7.1807786E+02 bohr^3
 Angles (23,13,12)=  9.00000000E+01  9.00000000E+01  1.09766996E+02 degrees

 getcut: wavevector=  0.0000  0.0000  0.0000  ngfft=  72  72  45
         ecut(hartree)=     51.000   => boxcut(ratio)=   2.04456

--- Pseudopotential description ------------------------------------------------
- pspini: atom type   1  psp file is /scratch/users/j/a/jabreu/pseudos/PBEsol/Ca.psp8
- pspatm: opening atomic psp file    /scratch/users/j/a/jabreu/pseudos/PBEsol/Ca.psp8
- Ca    ONCVPSP-3.3.0  r_core=   1.45885   1.45885   1.85192
- 20.00000  10.00000    180112                znucl, zion, pspdat
    8 -116133    2    4       400   0.00000   pspcod,pspxc,lmax,lloc,mmax,r2well
    3.99000000000000    6.00000000000000    0.00000000000000   rchrg,fchrg,qchrg
     nproj     2     2     2
     extension_switch     1
  pspatm : epsatm=   12.46045226
         --- l  ekb(1:nproj) -->
             0   10.054847    0.973777
             1    2.998958    0.458102
             2   -3.447298   -1.091650
 pspatm: atomic psp has been read  and splines computed

- pspini: atom type   2  psp file is /scratch/users/j/a/jabreu/pseudos/PBEsol/Cd.psp8
- pspatm: opening atomic psp file    /scratch/users/j/a/jabreu/pseudos/PBEsol/Cd.psp8
- Cd    ONCVPSP-3.3.0  r_core=   1.25838   1.30423   1.35174
- 48.00000  20.00000    180112                znucl, zion, pspdat
    8 -116133    2    4       600   0.00000   pspcod,pspxc,lmax,lloc,mmax,r2well
    5.99000000000000    6.00000000000000    0.00000000000000   rchrg,fchrg,qchrg
     nproj     2     2     2
     extension_switch     1
  pspatm : epsatm=   23.26728021
         --- l  ekb(1:nproj) -->
             0   63.701523    3.700425
             1    8.703569    1.290373
             2    0.983656   -0.721725
 pspatm: atomic psp has been read  and splines computed

- pspini: atom type   3  psp file is /scratch/users/j/a/jabreu/pseudos/PBEsol/O.psp8
- pspatm: opening atomic psp file    /scratch/users/j/a/jabreu/pseudos/PBEsol/O.psp8
- O     ONCVPSP-3.3.0  r_core=   1.35509   1.45563   1.26150
-  8.00000   6.00000    180112                znucl, zion, pspdat
    8 -116133    2    4       600   0.00000   pspcod,pspxc,lmax,lloc,mmax,r2well
    5.99000000000000    4.00000000000000    0.00000000000000   rchrg,fchrg,qchrg
     nproj     2     2     1
     extension_switch     1
  pspatm : epsatm=    6.22910522
         --- l  ekb(1:nproj) -->
             0    6.050032    0.820363
             1   -4.739617   -1.153841
             2   -1.335834
 pspatm: atomic psp has been read  and splines computed

   6.33181428E+03                                ecore*ucvol(ha*bohr**3)

-inwffil : will read wavefunctions from disk file /scratch/users/j/a/jabreu/flow_simple_8atoms/flow/w341/t1/indata/in_WFK

 ==>  initialize data related to q vector <==

 The list of irreducible perturbations for this q vector is:
    1)    idir= 1    ipert=   9
    2)    idir= 2    ipert=   9
    3)    idir= 3    ipert=   9

 Perturbation wavevector (in red.coord.)   0.000000  0.000000  0.000000
 Perturbation : derivative vs k along direction   1

 dfpt_looppert : COMMENT -
  In a d/dk calculation, iscf is set to -3 automatically.
 The set of symmetries contains only one element for this perturbation.
 symkpt : not enough symmetry to change the number of k points.

[...]

 Initialisation of the first-order wave-functions :
  ireadwf=   0

--- !BeginCycle
iteration_state: {dtset: 1, }
solver: {iscf: 7, nstep: 2000, nline: 4, wfoptalg: 0, }
tolerances: {tolwfr: 1.00E-20, }
...

     iter   2DEtotal(Ha)        deltaE(Ha) residm    vres2
-ETOT  1  -27.204699561909     -2.720E+01 1.987E-01 0.000E+00
 ETOT  2  -27.334369539248     -1.297E-01 6.184E-02 0.000E+00
 ETOT  3  -27.339150943122     -4.781E-03 2.450E-03 0.000E+00
 ETOT  4  -27.339445637723     -2.947E-04 4.233E-03 0.000E+00
 ETOT  5  -27.339467127449     -2.149E-05 2.734E-04 0.000E+00
 ETOT  6  -27.339468787170     -1.660E-06 5.869E-04 0.000E+00
 ETOT  7  -27.339468920807     -1.336E-07 3.863E-05 0.000E+00
 ETOT  8  -27.339468931749     -1.094E-08 8.620E-05 0.000E+00
 ETOT  9  -27.339468932660     -9.112E-10 5.639E-06 0.000E+00
 ETOT 10  -27.339468932737     -7.657E-11 1.281E-05 0.000E+00
 ETOT 11  -27.339468932743     -6.459E-12 8.329E-07 0.000E+00
 ETOT 12  -27.339468932744     -5.755E-13 1.913E-06 0.000E+00
[...]
  -0.00000   -0.00000    0.00000   -0.00000    0.00000    0.00000    0.00000    0.00000
   0.00000   -0.00000    0.00000   -0.00000    0.00000   -0.00000   -0.00000   -0.00000
   0.00000    0.00000    0.00000    0.00000   -0.00000   -0.00000   -0.00000   -0.00000
  -0.00000    0.00000   -0.00000    0.00000   -0.00000    0.00000    0.00000    0.00000
   0.00000    0.00000    0.00000   -0.00000   -0.00000   -0.00000
 prteigrs : prtvol=0 or 1, do not print more k-points.

 Eight components of 2nd-order total energy (hartree) are
 1,2,3: 0th-order hamiltonian combined with 1st-order wavefunctions
     kin0=   4.64648480E+01 eigvalue=  -2.52620553E-01  local=  -2.34230278E+01
 4,5,6: 1st-order hamiltonian combined with 1st and 0th-order wfs
     kin1=  -5.70964316E+01  Hartree=   0.00000000E+00     xc=   0.00000000E+00
 7,8,9: eventually, occupation + non-local contributions
    edocc=   5.67412947E+00     enl0=  -1.12386016E+00   enl1=   2.41749374E+00
 1-9 gives the relaxation energy (to be shifted if some occ is /=2.0)
   erelax=  -2.73394689E+01
  No Ewald or frozen-wf contrib.: the relaxation energy is the total one
 2DEtotal=   -0.2733946893E+02 Ha. Also 2DEtotal=   -0.743944783657E+03 eV
    (  non-var. 2DEtotal :   -2.7339468932E+01 Ha)

 Perturbation wavevector (in red.coord.)   0.000000  0.000000  0.000000
 Perturbation : derivative vs k along direction   2
 The set of symmetries contains only one element for this perturbation.
 symkpt : not enough symmetry to change the number of k points.

[...]

 Perturbation wavevector (in red.coord.)   0.000000  0.000000  0.000000
 Perturbation : derivative vs k along direction   3
 The set of symmetries contains only one element for this perturbation.
 symkpt : not enough symmetry to change the number of k points.

-inwffil : will read wavefunctions from disk file /scratch/users/j/a/jabreu/flow_simple_8atoms/flow/w341/t1/indata/in_WFK

 Initialisation of the first-order wave-functions :
  ireadwf=   0

--- !BeginCycle
iteration_state: {dtset: 1, }
solver: {iscf: 7, nstep: 2000, nline: 4, wfoptalg: 0, }
tolerances: {tolwfr: 1.00E-20, }
...

     iter   2DEtotal(Ha)        deltaE(Ha) residm    vres2
-ETOT  1  -75.352498681108     -7.535E+01 5.896E-01 0.000E+00
 ETOT  2  -75.643258002313     -2.908E-01 3.139E-02 0.000E+00
 ETOT  3  -75.652235597872     -8.978E-03 6.927E-03 0.000E+00
 ETOT  4  -75.652778524524     -5.429E-04 1.573E-02 0.000E+00
 ETOT  5  -75.652818102178     -3.958E-05 1.107E-03 0.000E+00
 ETOT  6  -75.652821140479     -3.038E-06 1.991E-03 0.000E+00
 ETOT  7  -75.652821381580     -2.411E-07 3.832E-04 0.000E+00
 ETOT  8  -75.652821400994     -1.941E-08 3.815E-04 0.000E+00
 ETOT  9  -75.652821402585     -1.591E-09 7.045E-05 0.000E+00
 ETOT 10  -75.652821402716     -1.315E-10 8.045E-05 0.000E+00
 ETOT 11  -75.652821402727     -1.093E-11 1.449E-05 0.000E+00
 ETOT 12  -75.652821402728     -9.948E-13 1.709E-05 0.000E+00
 ETOT 13  -75.652821402728     -5.684E-14 3.050E-06 0.000E+00
 ETOT 14  -75.652821402728      1.421E-14 3.653E-06 0.000E+00
 ETOT 15  -75.652821402728      0.000E+00 6.463E-07 0.000E+00
 ETOT 16  -75.652821402728     -2.842E-14 7.882E-07 0.000E+00
 ETOT 17  -75.652821402728      4.263E-14 1.371E-07 0.000E+00
 ETOT 18  -75.652821402728     -1.421E-14 1.723E-07 0.000E+00
 ETOT 19  -75.652821402728      0.000E+00 2.914E-08 0.000E+00
 ETOT 20  -75.652821402728      1.421E-14 3.835E-08 0.000E+00
 ETOT 21  -75.652821402728     -1.421E-14 6.208E-09 0.000E+00
 ETOT 22  -75.652821402728     -2.842E-14 8.729E-09 0.000E+00
 ETOT 23  -75.652821402728      4.263E-14 1.330E-09 0.000E+00
 ETOT 24  -75.652821402728     -1.421E-14 2.031E-09 0.000E+00
 ETOT 25  -75.652821402728      1.421E-14 2.871E-10 0.000E+00
 ETOT 26  -75.652821402728      1.421E-14 4.800E-10 0.000E+00
 ETOT 27  -75.652821402728     -1.421E-14 6.273E-11 0.000E+00
 ETOT 28  -75.652821402728      0.000E+00 1.144E-10 0.000E+00
 ETOT 29  -75.652821402728     -7.105E-14 1.393E-11 0.000E+00
 ETOT 30  -75.652821402728      1.421E-14 2.730E-11 0.000E+00
 ETOT 31  -75.652821402728      5.684E-14 3.152E-12 0.000E+00
 ETOT 32  -75.652821402728      1.421E-14 6.515E-12 0.000E+00
 ETOT 33  -75.652821402728      0.000E+00 7.246E-13 0.000E+00
 ETOT 34  -75.652821402728     -1.421E-14 1.552E-12 0.000E+00
 ETOT 35  -75.652821402728      0.000E+00 1.685E-13 0.000E+00
 ETOT 36  -75.652821402728      1.421E-14 3.692E-13 0.000E+00
 ETOT 37  -75.652821402728     -8.527E-14 3.946E-14 0.000E+00
 ETOT 38  -75.652821402728      0.000E+00 8.771E-14 0.000E+00
 ETOT 39  -75.652821402728      1.421E-14 9.281E-15 0.000E+00
 ETOT 40  -75.652821402728      0.000E+00 2.082E-14 0.000E+00
 ETOT 41  -75.652821402728      2.842E-14 2.189E-15 0.000E+00
 ETOT 42  -75.652821402728     -2.842E-14 4.938E-15 0.000E+00
 ETOT 43  -75.652821402728      0.000E+00 5.168E-16 0.000E+00
 ETOT 44  -75.652821402728     -1.421E-14 1.171E-15 0.000E+00
 ETOT 45  -75.652821402728      5.684E-14 1.221E-16 0.000E+00
 ETOT 46  -75.652821402728     -5.684E-14 2.775E-16 0.000E+00
 ETOT 47  -75.652821402728      0.000E+00 2.888E-17 0.000E+00
 ETOT 48  -75.652821402728      4.263E-14 6.576E-17 0.000E+00
 ETOT 49  -75.652821402728      0.000E+00 6.832E-18 0.000E+00
 ETOT 50  -75.652821402728      0.000E+00 1.558E-17 0.000E+00
 ETOT 51  -75.652821402728     -2.842E-14 1.616E-18 0.000E+00
 ETOT 52  -75.652821402728     -1.421E-14 3.694E-18 0.000E+00
 ETOT 53  -75.652821402728      1.421E-14 3.825E-19 0.000E+00
 ETOT 54  -75.652821402728      2.842E-14 8.777E-19 0.000E+00
 ETOT 55  -75.652821402728     -4.263E-14 9.058E-20 0.000E+00
 ETOT 56  -75.652821402728      1.421E-14 2.084E-19 0.000E+00
 ETOT 57  -75.652821402728     -1.421E-14 2.146E-20 0.000E+00
 ETOT 58  -75.652821402728      2.842E-14 4.935E-20 0.000E+00
 ETOT 59  -75.652821402728     -1.421E-14 9.821E-21 0.000E+00

 At SCF step   59   max residual=  9.82E-21 < tolwfr=  1.00E-20 =>converged.

 ----iterations are completed or convergence reached----

 dfpt_looppert: DFPT cycle converged with prtwf=-1. Will skip output of the 1st-order WFK file.
 dfpt_looppert : ek2=    1.4450479011E+02
          f-sum rule ratio=    1.0967087507E+00
 prteigrs : about to open file /scratch/users/j/a/jabreu/flow_simple_8atoms/flow/w341/t1/tmpdata/tmp_1WF1_EIG
 Expectation of eigenvalue derivatives (hartree) for nkpt=   2  k points:
  (in case of degenerate eigenvalues, averaged derivative)
 kpt#   1, nband= 46, wtk=  0.50000, kpt=  0.0000  0.5000  0.0000 (reduced coord)
   0.00000   -0.00000   -0.00000    0.00000    0.00000    0.00000   -0.00000    0.00000
  -0.00000   -0.00000    0.00000   -0.00000    0.00000    0.00000   -0.00000   -0.00000
   0.00000   -0.00000   -0.00000    0.00000    0.00000    0.00000    0.00000    0.00000
   0.00000    0.00000    0.00000   -0.00000   -0.00000    0.00000   -0.00000   -0.00000
  -0.00000   -0.00000   -0.00000    0.00000    0.00000    0.00000    0.00000   -0.00000
  -0.00000    0.00000   -0.00000   -0.00000    0.00000   -0.00000
 prteigrs : prtvol=0 or 1, do not print more k-points.

 Eight components of 2nd-order total energy (hartree) are
 1,2,3: 0th-order hamiltonian combined with 1st-order wavefunctions
     kin0=   1.28250508E+02 eigvalue=  -1.22724585E+00  local=  -6.47739925E+01
 4,5,6: 1st-order hamiltonian combined with 1st and 0th-order wfs
     kin1=  -1.58479668E+02  Hartree=   0.00000000E+00     xc=   0.00000000E+00
 7,8,9: eventually, occupation + non-local contributions
    edocc=   1.68175217E+01     enl0=  -3.41396991E+00   enl1=   7.17402502E+00
 1-9 gives the relaxation energy (to be shifted if some occ is /=2.0)
   erelax=  -7.56528214E+01
  No Ewald or frozen-wf contrib.: the relaxation energy is the total one
 2DEtotal=   -0.7565282140E+02 Ha. Also 2DEtotal=   -0.205861796328E+04 eV
    (  non-var. 2DEtotal :   -7.5652821402E+01 Ha)

 CALCULATION OF EFFECTIVE MASSES
 NOTE : Additional infos (eff. mass eigenvalues, eigenvectors and, if degenerate, average mass) are available in stdout.

 K-point (-0.000, 0.500, 0.000) | band =    37
 Effective mass tensor:
             -0.6900425624             -0.4287145423              0.0000000018
             -0.4287145423             -2.8269647671              0.0000000072
              0.0000000018              0.0000000072             -2.1879624465
 Effective mass tensor eigenvalues:
             -2.9097661396             -2.1879624465             -0.6072411899
 Angular average effective mass 1/(<1/m>)=  -1.2257362568
 Angular average effective mass for Frohlich model (<m**0.5>)**2=  -1.4300139248
 Effective masses along directions: (cart. coord. / red. coord. -> eff. mass)
    1:   1.000000  0.000000  0.000000 /   0.947292 -0.320370  0.000000 ->  -0.6250271929
    2:   0.000000  1.000000  0.000000 /   0.000000  1.000000  0.000000 ->  -2.5606099525
    3:   0.000000  0.000000  1.000000 /   0.000000  0.000000  1.000000 ->  -2.1879624465
    4:   0.577350  0.577350  0.577350 /   0.766872  0.462332  0.445147 ->  -1.5288621246
    5:   0.000000  0.707107  0.707107 /   0.000000  0.851114  0.524981 ->  -2.3596643080
    6:   0.707107  0.000000  0.707107 /   0.830076 -0.280728  0.481835 ->  -0.9723007907
    7:   0.707107  0.707107  0.000000 /   0.856403  0.516308  0.000000 ->  -1.3287293624

 K-point ( 0.000, 0.000, 0.000) | band =    38
 Effective mass tensor:
              0.3361749008             -0.0029772558              0.0000000000
             -0.0029772558              0.3340350188              0.0000000001
              0.0000000000              0.0000000001              0.3409272018
 Effective mass tensor eigenvalues:
              0.3319412869              0.3382686326              0.3409272018
 Angular average effective mass 1/(<1/m>)=   0.3370033439
 Angular average effective mass for Frohlich model (<m**0.5>)**2=   0.3370160864
 Effective masses along directions: (cart. coord. / red. coord. -> eff. mass)
    1:   1.000000  0.000000  0.000000 /   0.947292 -0.320370  0.000000 ->   0.3361483645
    2:   0.000000  1.000000  0.000000 /   0.000000  1.000000  0.000000 ->   0.3340086514
    3:   0.000000  0.000000  1.000000 /   0.000000  0.000000  1.000000 ->   0.3409272018
    4:   0.577350  0.577350  0.577350 /   0.766872  0.462332  0.445147 ->   0.3350076643
    5:   0.000000  0.707107  0.707107 /   0.000000  0.851114  0.524981 ->   0.3374324668
    6:   0.707107  0.000000  0.707107 /   0.830076 -0.280728  0.481835 ->   0.3385209185
    7:   0.707107  0.707107  0.000000 /   0.856403  0.516308  0.000000 ->   0.3321243179

 END OF EFFECTIVE MASSES SECTION

 ---- first-order wavefunction calculations are completed ----

 Total localisation tensor (bohr^2) in cartesian coordinates
  WARNING : still subject to testing - especially symmetries.
      direction              matrix element
   alpha     beta       real part   imaginary part
     1        1       0.8863571255    0.0000000000
     1        2      -0.2382399422    0.0000000000
     1        3       0.0000000000    0.0000000000
     2        1      -0.2382399422    0.0000000000
     2        2       0.6629347949    0.0000000000
     2        3       0.0000000000    0.0000000000
     3        1       0.0000000000    0.0000000000
     3        2       0.0000000000    0.0000000000
     3        3       0.8072991278    0.0000000000

 respfn : d/dk was computed, but no 2DTE, so no DDB output.

== END DATASET(S) ==============================================================

 -outvars: echo values of variables after computation  --------
            acell      1.0000000000E+00  1.0000000000E+00  1.0000000000E+00 Bohr
              amu      4.00780000E+01  1.12411000E+02  1.59994000E+01
             ecut      5.10000000E+01 Hartree
           etotal     -7.5652821403E+01
            fcart      0.0000000000E+00  0.0000000000E+00  0.0000000000E+00
                       0.0000000000E+00  0.0000000000E+00  0.0000000000E+00
                       0.0000000000E+00  0.0000000000E+00  0.0000000000E+00
                       0.0000000000E+00  0.0000000000E+00  0.0000000000E+00
                       0.0000000000E+00  0.0000000000E+00  0.0000000000E+00
                       0.0000000000E+00  0.0000000000E+00  0.0000000000E+00
                       0.0000000000E+00  0.0000000000E+00  0.0000000000E+00
                       0.0000000000E+00  0.0000000000E+00  0.0000000000E+00
-          fftalg         512
           irdden           1
           irdwfk           1
           istwfk        1    1
              ixc     -116133
              kpt     -2.77555756E-17  5.00000000E-01  0.00000000E+00
                       0.00000000E+00  0.00000000E+00  0.00000000E+00
           kptopt           0
P           mkmem           2
P          mkqmem           2
P          mk1mem           2
            natom           8
            nband          46
           nbdbuf           4
            ngfft          72      72      45
             nkpt           2
            nstep        2000
             nsym           8
           ntypat           3
              occ      2.000000  2.000000  2.000000  2.000000  2.000000  2.000000
                       2.000000  2.000000  2.000000  2.000000  2.000000  2.000000
                       2.000000  2.000000  2.000000  2.000000  2.000000  2.000000
                       2.000000  2.000000  2.000000  2.000000  2.000000  2.000000
                       2.000000  2.000000  2.000000  2.000000  2.000000  2.000000
                       2.000000  2.000000  2.000000  2.000000  2.000000  2.000000
                       2.000000  0.000000  0.000000  0.000000  0.000000  0.000000
                       0.000000  0.000000  0.000000  0.000000
        optdriver           1
            prtwf          -1
            rfdir           1       1       1
           rfelfd           2
            rprim      1.0954402080E+01  0.0000000000E+00  0.0000000000E+00
                      -3.7047338470E+00  1.0308921964E+01  0.0000000000E+00
                       0.0000000000E+00  0.0000000000E+00  6.3587185742E+00
          spgroup          65
           strten      0.0000000000E+00  0.0000000000E+00  0.0000000000E+00
                       0.0000000000E+00  0.0000000000E+00  0.0000000000E+00
           symrel      1  0  0   0  1  0   0  0  1      -1  0  0   0 -1  0   0  0 -1
                       0 -1  0  -1  0  0   0  0 -1       0  1  0   1  0  0   0  0  1
                      -1  0  0   0 -1  0   0  0  1       1  0  0   0  1  0   0  0 -1
                       0  1  0   1  0  0   0  0 -1       0 -1  0  -1  0  0   0  0  1
           tolwfr      1.00000000E-20
            typat      1  1  1  2  3  3  3  3
           useylm           1
              wtk        0.50000    0.50000
           xangst      1.9181795995E+00  2.7276232743E+00  0.0000000000E+00
                       2.8984099573E+00  0.0000000000E+00  1.6824444727E+00
                      -9.8023035786E-01  2.7276232743E+00  1.6824444727E+00
                       0.0000000000E+00  0.0000000000E+00  0.0000000000E+00
                       3.8300777700E+00  1.3830959337E+00  0.0000000000E+00
                       2.8657104489E+00  4.0749982536E+00  1.6824444727E+00
                       9.7064875001E-01  1.3802482950E+00  1.6824444727E+00
                       6.2814289049E-03  4.0721506149E+00  0.0000000000E+00
            xcart      3.6248341167E+00  5.1544609820E+00  0.0000000000E+00
                       5.4772010402E+00  0.0000000000E+00  3.1793592871E+00
                      -1.8523669235E+00  5.1544609820E+00  3.1793592871E+00
                       0.0000000000E+00  0.0000000000E+00  0.0000000000E+00
                       7.2377980530E+00  2.6136725302E+00  0.0000000000E+00
                       5.4154079247E+00  7.7006306912E+00  3.1793592871E+00
                       1.8342603087E+00  2.6082912729E+00  3.1793592871E+00
                       1.1870180353E-02  7.6952494339E+00  0.0000000000E+00
             xred      5.0000000000E-01  5.0000000000E-01  0.0000000000E+00
                       5.0000000000E-01  0.0000000000E+00  5.0000000000E-01
                      -2.7755575616E-17  5.0000000000E-01  5.0000000000E-01
                       0.0000000000E+00  0.0000000000E+00  0.0000000000E+00
                       7.4646500000E-01  2.5353500000E-01  0.0000000000E+00
                       7.4698700000E-01  7.4698700000E-01  5.0000000000E-01
                       2.5301300000E-01  2.5301300000E-01  5.0000000000E-01
                       2.5353500000E-01  7.4646500000E-01  0.0000000000E+00
            znucl       20.00000   48.00000    8.00000

- Timing analysis has been suppressed with timopt=0

 Suggested references for the acknowledgment of ABINIT usage.

 Calculation completed.
.Delivered  14 WARNINGs and   9 COMMENTs to log file.