.Version 9.7.2 of ABINIT

 ABINIT is a project of the Universite Catholique de Louvain,
 Corning Inc. and other collaborators, see ~abinit/doc/developers/contributors.txt .
 acknowledgments of the ABINIT effort.

.Starting date : Wed  1 Dec 2021.
- ( at 22h01 )

- input  file    -> /scratch/users/j/a/jabreu/flow_simple_remain_atoms/flow/w273/t1/run.abi
- output file    -> /scratch/users/j/a/jabreu/flow_simple_remain_atoms/flow/w273/t1/run.abo
- root for input  files -> /scratch/users/j/a/jabreu/flow_simple_remain_atoms/flow/w273/t1/indata/in
- root for output files -> /scratch/users/j/a/jabreu/flow_simple_remain_atoms/flow/w273/t1/outdata/out

 Symmetries : space group R3 2 (#155); Bravais hR (rhombohedral)
     intxc =       0      iscf =       7    lmnmax =      18     lnmax =       6
     mgfft =      60  mpssoang =       3    mqgrid =    3001     natom =       5
  nloc_mem =       1    nspden =       1   nspinor =       1    nsppol =       1
      nsym =       6    n1xccc =    2501    ntypat =       3    occopt =       1
   xclevel =       2
-    mband =          25        mffmem =           1         mkmem =           2
-   mkqmem =           2        mk1mem =           2           mpw =        9252
      nfft =      216000          nkpt =           2
  Rough estimation (10% accuracy) of disk space for files :

------------- Echo of variables that govern the present computation ------------
-
- outvars: echo of selected default values
-   iomode0 =  0 , fftalg0 =512 , wfoptalg0 =  0
-
- outvars: echo of global parameters not present in the input file
-  max_nthreads =    0
-
 -outvars: echo values of preprocessed input variables --------
            acell      1.0000000000E+00  1.0000000000E+00  1.0000000000E+00 Bohr
              amu      8.54678000E+01  1.40067400E+01  1.59994000E+01
             ecut      4.40000000E+01 Hartree
-          fftalg         512
           irdden           1
           irdwfk           1
           istwfk        1    1
              ixc     -116133
              kpt      5.00000000E-01  5.00000000E-01  0.00000000E+00
                       5.00000000E-01  5.00000000E-01  5.00000000E-01
           kptopt           0
P           mkmem           2
P          mkqmem           2
P          mk1mem           2
            natom           5
            nband          25
           nbdbuf           4
            ngfft          60      60      60
             nkpt           2
            nstep        2000
             nsym           6
           ntypat           3
              occ      2.000000  2.000000  2.000000  2.000000  2.000000  2.000000
                       2.000000  2.000000  2.000000  2.000000  2.000000  2.000000
                       2.000000  2.000000  2.000000  2.000000  0.000000  0.000000
                       0.000000  0.000000  0.000000  0.000000  0.000000  0.000000
                       0.000000
        optdriver           1
            prtwf          -1
            rfdir           1       1       1
           rfelfd           2
            rprim      8.6827551268E+00  0.0000000000E+00  2.5806269030E+00
                       1.9252000391E+00  8.4666310538E+00  2.5806269030E+00
                       0.0000000000E+00  0.0000000000E+00  9.0581384293E+00
          spgroup         155
           symrel      1  0  0   0  1  0   0  0  1       0 -1  0  -1  0  0   0  0 -1
                       0  0  1   1  0  0   0  1  0      -1  0  0   0  0 -1   0 -1  0
                       0  1  0   0  0  1   1  0  0       0  0 -1   0 -1  0  -1  0  0
           tolwfr      1.00000000E-20
            typat      1  2  3  3  3
           useylm           1
              wtk        0.50000    0.50000
           xangst      2.8067440518E+00  2.2401740936E+00  3.7622891455E+00
                       0.0000000000E+00  0.0000000000E+00  0.0000000000E+00
                       3.5863091791E+00  0.0000000000E+00  2.1179009834E+00
                       2.2359090581E-01  9.8330649700E-01  4.0410683666E+00
                       1.8035880186E+00  3.4970416902E+00  1.3656089409E+00
            xcart      5.3039775829E+00  4.2333155269E+00  7.1096961176E+00
                       0.0000000000E+00  0.0000000000E+00  0.0000000000E+00
                       6.7771421764E+00  0.0000000000E+00  4.0022528352E+00
                       4.2252557778E-01  1.8581799840E+00  7.6365124971E+00
                       3.4082874118E+00  6.6084510698E+00  2.5806269030E+00
             xred      5.0000000000E-01  5.0000000000E-01  5.0000000000E-01
                       0.0000000000E+00  0.0000000000E+00  0.0000000000E+00
                       7.8052900000E-01  0.0000000000E+00  2.1947100000E-01
                       0.0000000000E+00  2.1947100000E-01  7.8052900000E-01
                       2.1947100000E-01  7.8052900000E-01 -1.3877787808E-17
            znucl       37.00000    7.00000    8.00000

 chkinp: Checking input parameters for consistency.

== DATASET  1 ==================================================================
-   mpi_nproc: 1, omp_nthreads: -1 (-1 if OMP is not activated)

--- !DatasetInfo
iteration_state: {dtset: 1, }
dimensions: {natom: 5, nkpt: 2, mband: 25, nsppol: 1, nspinor: 1, nspden: 1, mpw: 9252, }
cutoff_energies: {ecut:  44.0, pawecutdg:  -1.0, }
electrons: {nelect:   3.20000000E+01, charge:   0.00000000E+00, occopt:   1.00000000E+00, tsmear:   1.00000000E-02, }
meta: {optdriver: 1, rfelfd: 2, }
...

 Real(R)+Recip(G) space primitive vectors, cartesian coordinates (Bohr,Bohr^-1):
 R(1)=  8.6827551  0.0000000  2.5806269  G(1)=  0.1151708 -0.0261883  0.0000000
 R(2)=  1.9252000  8.4666311  2.5806269  G(2)=  0.0000000  0.1181107  0.0000000
 R(3)=  0.0000000  0.0000000  9.0581384  G(3)= -0.0328117 -0.0261883  0.1103980
 Unit cell volume ucvol=  6.6589713E+02 bohr^3
 Angles (23,13,12)=  7.34473712E+01  7.34473712E+01  7.34473712E+01 degrees

 getcut: wavevector=  0.0000  0.0000  0.0000  ngfft=  60  60  60
         ecut(hartree)=     44.000   => boxcut(ratio)=   2.21875

 getcut : COMMENT -
  Note that boxcut > 2.2 ; recall that boxcut=Gcut(box)/Gcut(sphere) = 2
  is sufficient for exact treatment of convolution.
  Such a large boxcut is a waste : you could raise ecut
  e.g. ecut=   54.151543 Hartrees makes boxcut=2

--- Pseudopotential description ------------------------------------------------
- pspini: atom type   1  psp file is /scratch/users/j/a/jabreu/pseudos/PBEsol/Rb.psp8
- pspatm: opening atomic psp file    /scratch/users/j/a/jabreu/pseudos/PBEsol/Rb.psp8
- Rb    ONCVPSP-3.3.0  r_core=   1.71227   1.75361   1.90633
- 37.00000   9.00000    180112                znucl, zion, pspdat
    8 -116133    2    4       600   0.00000   pspcod,pspxc,lmax,lloc,mmax,r2well
    5.99000000000000    7.00000000000000    0.00000000000000   rchrg,fchrg,qchrg
     nproj     2     2     2
     extension_switch     1
  pspatm : epsatm=   34.48400912
         --- l  ekb(1:nproj) -->
             0    8.196957   -0.477221
             1    3.231347   -0.378736
             2   -1.047201    0.996637
 pspatm: atomic psp has been read  and splines computed

- pspini: atom type   2  psp file is /scratch/users/j/a/jabreu/pseudos/PBEsol/N.psp8
- pspatm: opening atomic psp file    /scratch/users/j/a/jabreu/pseudos/PBEsol/N.psp8
- N     ONCVPSP-3.3.0  r_core=   1.20551   1.35824
-  7.00000   5.00000    180112                znucl, zion, pspdat
    8 -116133    1    4       600   0.00000   pspcod,pspxc,lmax,lloc,mmax,r2well
    5.99000000000000    4.00000000000000    0.00000000000000   rchrg,fchrg,qchrg
     nproj     2     2
     extension_switch     1
  pspatm : epsatm=    5.26508895
         --- l  ekb(1:nproj) -->
             0    7.464189    0.625868
             1   -4.309714   -1.012941
 pspatm: atomic psp has been read  and splines computed

- pspini: atom type   3  psp file is /scratch/users/j/a/jabreu/pseudos/PBEsol/O.psp8
- pspatm: opening atomic psp file    /scratch/users/j/a/jabreu/pseudos/PBEsol/O.psp8
- O     ONCVPSP-3.3.0  r_core=   1.35509   1.45563   1.26150
-  8.00000   6.00000    180112                znucl, zion, pspdat
    8 -116133    2    4       600   0.00000   pspcod,pspxc,lmax,lloc,mmax,r2well
    5.99000000000000    4.00000000000000    0.00000000000000   rchrg,fchrg,qchrg
     nproj     2     2     1
     extension_switch     1
  pspatm : epsatm=    6.22910522
         --- l  ekb(1:nproj) -->
             0    6.050032    0.820363
             1   -4.739617   -1.153841
             2   -1.335834
 pspatm: atomic psp has been read  and splines computed

   1.86996524E+03                                ecore*ucvol(ha*bohr**3)

 ==>  initialize data related to q vector <==

 The list of irreducible perturbations for this q vector is:
    1)    idir= 1    ipert=   6
    2)    idir= 2    ipert=   6
    3)    idir= 3    ipert=   6

 Perturbation wavevector (in red.coord.)   0.000000  0.000000  0.000000
 Perturbation : derivative vs k along direction   1

 dfpt_looppert : COMMENT -
  In a d/dk calculation, iscf is set to -3 automatically.
 The set of symmetries contains only one element for this perturbation.
 symkpt : not enough symmetry to change the number of k points.

 Initialisation of the first-order wave-functions :
  ireadwf=   0

--- !BeginCycle
iteration_state: {dtset: 1, }
solver: {iscf: 7, nstep: 2000, nline: 4, wfoptalg: 0, }
tolerances: {tolwfr: 1.00E-20, }
...

     iter   2DEtotal(Ha)        deltaE(Ha) residm    vres2
-ETOT  1  -18.141115552924     -1.814E+01 8.383E-02 0.000E+00
 ETOT  2  -18.186146438902     -4.503E-02 9.746E-03 0.000E+00
 ETOT  3  -18.186706502015     -5.601E-04 7.203E-04 0.000E+00
 ETOT  4  -18.186716361290     -9.859E-06 2.346E-04 0.000E+00
 ETOT  5  -18.186716570287     -2.090E-07 1.941E-05 0.000E+00
 ETOT  6  -18.186716575213     -4.927E-09 6.443E-06 0.000E+00
 ETOT  7  -18.186716575339     -1.256E-10 5.388E-07 0.000E+00
 ETOT  8  -18.186716575342     -3.396E-12 1.828E-07 0.000E+00
 ETOT  9  -18.186716575342     -8.171E-14 1.538E-08 0.000E+00
 ETOT 10  -18.186716575342      3.553E-15 5.287E-09 0.000E+00
 ETOT 11  -18.186716575342      0.000E+00 4.469E-10 0.000E+00
 ETOT 12  -18.186716575342     -7.105E-15 1.550E-10 0.000E+00
 ETOT 13  -18.186716575342      7.105E-15 1.315E-11 0.000E+00
 ETOT 14  -18.186716575342      0.000E+00 4.590E-12 0.000E+00
 ETOT 15  -18.186716575342      0.000E+00 3.904E-13 0.000E+00
 ETOT 16  -18.186716575342     -7.105E-15 1.368E-13 0.000E+00
 ETOT 17  -18.186716575342      3.553E-15 1.167E-14 0.000E+00
 ETOT 18  -18.186716575342     -3.553E-15 4.100E-15 0.000E+00
 ETOT 19  -18.186716575342      0.000E+00 3.504E-16 0.000E+00
 ETOT 20  -18.186716575342      7.105E-15 1.233E-16 0.000E+00
 ETOT 21  -18.186716575342     -7.105E-15 1.056E-17 0.000E+00
 ETOT 22  -18.186716575342      7.105E-15 3.717E-18 0.000E+00
 ETOT 23  -18.186716575342     -7.105E-15 3.189E-19 0.000E+00
 ETOT 24  -18.186716575342      0.000E+00 1.123E-19 0.000E+00
 ETOT 25  -18.186716575342      0.000E+00 9.951E-21 0.000E+00

 At SCF step   25   max residual=  9.95E-21 < tolwfr=  1.00E-20 =>converged.

 ----iterations are completed or convergence reached----

 dfpt_looppert: DFPT cycle converged with prtwf=-1. Will skip output of the 1st-order WFK file.
 dfpt_looppert : ek2=    3.5246698242E+01
          f-sum rule ratio=    1.0122906015E+00
 prteigrs : about to open file /scratch/users/j/a/jabreu/flow_simple_remain_atoms/flow/w273/t1/tmpdata/tmp_1WF1_EIG
 Expectation of eigenvalue derivatives (hartree) for nkpt=   2  k points:
  (in case of degenerate eigenvalues, averaged derivative)
 kpt#   1, nband= 25, wtk=  0.50000, kpt=  0.5000  0.5000  0.0000 (reduced coord)
   0.00000   -0.00000   -0.00000    0.00000    0.00000   -0.00000    0.00000   -0.00000
  -0.00000   -0.00000    0.00000    0.00000   -0.00000   -0.00000   -0.00000    0.00000
   0.00000   -0.00000    0.00000   -0.00000    0.00000   -0.00000   -0.00000   -0.00001
   0.00091
 prteigrs : prtvol=0 or 1, do not print more k-points.

 Eight components of 2nd-order total energy (hartree) are
 1,2,3: 0th-order hamiltonian combined with 1st-order wavefunctions
     kin0=   2.19524437E+01 eigvalue=   2.29185274E+00  local=  -9.98050269E+00
 4,5,6: 1st-order hamiltonian combined with 1st and 0th-order wfs
     kin1=  -3.56799014E+01  Hartree=   0.00000000E+00     xc=   0.00000000E+00
 7,8,9: eventually, occupation + non-local contributions
    edocc=   5.63663142E+00     enl0=  -1.71370863E+00   enl1=  -6.93531788E-01
 1-9 gives the relaxation energy (to be shifted if some occ is /=2.0)
   erelax=  -1.81867166E+01
  No Ewald or frozen-wf contrib.: the relaxation energy is the total one
 2DEtotal=   -0.1818671658E+02 Ha. Also 2DEtotal=   -0.494885725885E+03 eV
    (  non-var. 2DEtotal :   -1.8186716575E+01 Ha)

 Perturbation wavevector (in red.coord.)   0.000000  0.000000  0.000000
 Perturbation : derivative vs k along direction   2
 The set of symmetries contains only one element for this perturbation.
 symkpt : not enough symmetry to change the number of k points.

[...]

 Perturbation wavevector (in red.coord.)   0.000000  0.000000  0.000000
 Perturbation : derivative vs k along direction   3
 The set of symmetries contains only one element for this perturbation.
 symkpt : not enough symmetry to change the number of k points.

 Initialisation of the first-order wave-functions :
  ireadwf=   0

--- !BeginCycle
iteration_state: {dtset: 1, }
solver: {iscf: 7, nstep: 2000, nline: 4, wfoptalg: 0, }
tolerances: {tolwfr: 1.00E-20, }
...

     iter   2DEtotal(Ha)        deltaE(Ha) residm    vres2
-ETOT  1  -17.964747827070     -1.796E+01 7.315E-02 0.000E+00
 ETOT  2  -18.005210705688     -4.046E-02 5.659E-03 0.000E+00
 ETOT  3  -18.005729913845     -5.192E-04 2.319E-04 0.000E+00
 ETOT  4  -18.005739793894     -9.880E-06 2.958E-05 0.000E+00
 ETOT  5  -18.005740026957     -2.331E-07 3.837E-06 0.000E+00
 ETOT  6  -18.005740033251     -6.294E-09 3.439E-07 0.000E+00
 ETOT  7  -18.005740033440     -1.896E-10 7.076E-08 0.000E+00
 ETOT  8  -18.005740033446     -6.171E-12 6.144E-09 0.000E+00
 ETOT  9  -18.005740033446     -1.990E-13 1.364E-09 0.000E+00
 ETOT 10  -18.005740033446     -3.553E-15 1.223E-10 0.000E+00
 ETOT 11  -18.005740033446      1.421E-14 2.672E-11 0.000E+00
 ETOT 12  -18.005740033446     -1.776E-14 2.470E-12 0.000E+00
 ETOT 13  -18.005740033446      3.553E-15 5.282E-13 0.000E+00
 ETOT 14  -18.005740033446     -7.105E-15 5.013E-14 0.000E+00
 ETOT 15  -18.005740033446      7.105E-15 1.050E-14 0.000E+00
 ETOT 16  -18.005740033446      0.000E+00 1.022E-15 0.000E+00
 ETOT 17  -18.005740033446      7.105E-15 2.099E-16 0.000E+00
 ETOT 18  -18.005740033446      0.000E+00 2.089E-17 0.000E+00
 ETOT 19  -18.005740033446     -1.066E-14 4.211E-18 0.000E+00
 ETOT 20  -18.005740033446      7.105E-15 4.280E-19 0.000E+00
 ETOT 21  -18.005740033446     -3.553E-15 8.481E-20 0.000E+00
 ETOT 22  -18.005740033446      7.105E-15 1.068E-20 0.000E+00
 ETOT 23  -18.005740033446     -7.105E-15 9.798E-21 0.000E+00

 At SCF step   23   max residual=  9.80E-21 < tolwfr=  1.00E-20 =>converged.

 ----iterations are completed or convergence reached----

 dfpt_looppert: DFPT cycle converged with prtwf=-1. Will skip output of the 1st-order WFK file.
 dfpt_looppert : ek2=    3.5246698242E+01
          f-sum rule ratio=    1.0020000631E+00
 prteigrs : about to open file /scratch/users/j/a/jabreu/flow_simple_remain_atoms/flow/w273/t1/tmpdata/tmp_1WF1_EIG
 Expectation of eigenvalue derivatives (hartree) for nkpt=   2  k points:
  (in case of degenerate eigenvalues, averaged derivative)
 kpt#   1, nband= 25, wtk=  0.50000, kpt=  0.5000  0.5000  0.0000 (reduced coord)
  -0.00000    0.00000   -0.00000   -0.00000   -0.00000    0.00000   -0.00000    0.00000
   0.00000    0.00000    0.00000   -0.00000    0.00000   -0.00000    0.00000    0.00000
  -0.00000   -0.00000   -0.00000    0.00000    0.00000    0.00000    0.00000   -0.00000
  -0.00033
 prteigrs : prtvol=0 or 1, do not print more k-points.

 Eight components of 2nd-order total energy (hartree) are
 1,2,3: 0th-order hamiltonian combined with 1st-order wavefunctions
     kin0=   2.18652072E+01 eigvalue=   2.26276148E+00  local=  -9.90523145E+00
 4,5,6: 1st-order hamiltonian combined with 1st and 0th-order wfs
     kin1=  -3.53171939E+01  Hartree=   0.00000000E+00     xc=   0.00000000E+00
 7,8,9: eventually, occupation + non-local contributions
    edocc=   5.49309393E+00     enl0=  -1.71009114E+00   enl1=  -6.94286204E-01
 1-9 gives the relaxation energy (to be shifted if some occ is /=2.0)
   erelax=  -1.80057400E+01
  No Ewald or frozen-wf contrib.: the relaxation energy is the total one
 2DEtotal=   -0.1800574003E+02 Ha. Also 2DEtotal=   -0.489961103733E+03 eV
    (  non-var. 2DEtotal :   -1.8005740033E+01 Ha)

 CALCULATION OF EFFECTIVE MASSES
 NOTE : Additional infos (eff. mass eigenvalues, eigenvectors and, if degenerate, average mass) are available in stdout.

 K-point ( 0.500, 0.500, 0.000) | band =    16
 Effective mass tensor:
             -8.0902958865              0.5393070516             -2.7842392995
              0.5393070516             -8.3390874538             -2.2219452123
             -2.7842392995             -2.2219452123             -6.4584931866
 Effective mass tensor eigenvalues:
            -10.6724319237             -8.7681561891             -3.4472884141
 Angular average effective mass 1/(<1/m>)=  -6.0261354990
 Angular average effective mass for Frohlich model (<m**0.5>)**2=  -6.5313097406
 Effective masses along directions: (cart. coord. / red. coord. -> eff. mass)
    1:   1.000000  0.000000  0.000000 /   0.976289  0.216470  0.000000 ->  -6.5940898628
    2:   0.000000  1.000000  0.000000 /   0.000000  1.000000  0.000000 ->  -7.2493279472
    3:   0.000000  0.000000  1.000000 /   0.264254  0.264254  0.927545 ->  -4.8022271204
    4:   0.577350  0.577350  0.577350 /   0.579941  0.667940  0.466395 -> -10.5025580598
    5:   0.000000  0.707107  0.707107 /   0.177762  0.760973  0.623956 ->  -8.8722675716
    6:   0.707107  0.000000  0.707107 /   0.743954  0.297613  0.598296 ->  -9.5918534322
    7:   0.707107  0.707107  0.000000 /   0.641182  0.767389  0.000000 ->  -5.7217338980

 K-point ( 0.500, 0.500, 0.500) | band =    17
 Effective mass tensor:
              2.0019658616              0.4592170239              0.7712382765
              0.4592170239              1.7931300328              0.6155571292
              0.7712382765              0.6155571292              2.4604127237
 Effective mass tensor eigenvalues:
              1.4266074833              1.4266094700              3.4022916647
 Angular average effective mass 1/(<1/m>)=   1.7690286814
 Angular average effective mass for Frohlich model (<m**0.5>)**2=   1.8443380603
 Effective masses along directions: (cart. coord. / red. coord. -> eff. mass)
    1:   1.000000  0.000000  0.000000 /   0.976289  0.216470  0.000000 ->   1.7169613761
    2:   0.000000  1.000000  0.000000 /   0.000000  1.000000  0.000000 ->   1.5988496217
    3:   0.000000  0.000000  1.000000 /   0.264254  0.264254  0.927545 ->   2.0492983065
    4:   0.577350  0.577350  0.577350 /   0.579941  0.667940  0.466395 ->   3.2079045930
    5:   0.000000  0.707107  0.707107 /   0.177762  0.760973  0.623956 ->   2.3261785852
    6:   0.707107  0.000000  0.707107 /   0.743954  0.297613  0.598296 ->   2.6574386409
    7:   0.707107  0.707107  0.000000 /   0.641182  0.767389  0.000000 ->   1.9633787139

 END OF EFFECTIVE MASSES SECTION

 ---- first-order wavefunction calculations are completed ----

 Total localisation tensor (bohr^2) in cartesian coordinates
  WARNING : still subject to testing - especially symmetries.
      direction              matrix element
   alpha     beta       real part   imaginary part
     1        1       0.7329865424    0.0000000000
     1        2       0.1510545437    0.0000000000
     1        3       0.2536858351    0.0000000000
     2        1       0.1510545437    0.0000000000
     2        2       0.6643065989    0.0000000000
     2        3       0.2024804754    0.0000000000
     3        1       0.2536858351    0.0000000000
     3        2       0.2024804754    0.0000000000
     3        3       0.8571031525    0.0000000000

 respfn : d/dk was computed, but no 2DTE, so no DDB output.

== END DATASET(S) ==============================================================

 -outvars: echo values of variables after computation  --------
            acell      1.0000000000E+00  1.0000000000E+00  1.0000000000E+00 Bohr
              amu      8.54678000E+01  1.40067400E+01  1.59994000E+01
             ecut      4.40000000E+01 Hartree
           etotal     -1.8005740033E+01
            fcart      0.0000000000E+00  0.0000000000E+00  0.0000000000E+00
                       0.0000000000E+00  0.0000000000E+00  0.0000000000E+00
                       0.0000000000E+00  0.0000000000E+00  0.0000000000E+00
                       0.0000000000E+00  0.0000000000E+00  0.0000000000E+00
                       0.0000000000E+00  0.0000000000E+00  0.0000000000E+00
-          fftalg         512
           irdden           1
           irdwfk           1
           istwfk        1    1
              ixc     -116133
              kpt      5.00000000E-01  5.00000000E-01  0.00000000E+00
                       5.00000000E-01  5.00000000E-01  5.00000000E-01
           kptopt           0
P           mkmem           2
P          mkqmem           2
P          mk1mem           2
            natom           5
            nband          25
           nbdbuf           4
            ngfft          60      60      60
             nkpt           2
            nstep        2000
             nsym           6
           ntypat           3
              occ      2.000000  2.000000  2.000000  2.000000  2.000000  2.000000
                       2.000000  2.000000  2.000000  2.000000  2.000000  2.000000
                       2.000000  2.000000  2.000000  2.000000  0.000000  0.000000
                       0.000000  0.000000  0.000000  0.000000  0.000000  0.000000
                       0.000000
        optdriver           1
            prtwf          -1
            rfdir           1       1       1
           rfelfd           2
            rprim      8.6827551268E+00  0.0000000000E+00  2.5806269030E+00
                       1.9252000391E+00  8.4666310538E+00  2.5806269030E+00
                       0.0000000000E+00  0.0000000000E+00  9.0581384293E+00
          spgroup         155
           strten      0.0000000000E+00  0.0000000000E+00  0.0000000000E+00
                       0.0000000000E+00  0.0000000000E+00  0.0000000000E+00
           symrel      1  0  0   0  1  0   0  0  1       0 -1  0  -1  0  0   0  0 -1
                       0  0  1   1  0  0   0  1  0      -1  0  0   0  0 -1   0 -1  0
                       0  1  0   0  0  1   1  0  0       0  0 -1   0 -1  0  -1  0  0
           tolwfr      1.00000000E-20
            typat      1  2  3  3  3
           useylm           1
              wtk        0.50000    0.50000
           xangst      2.8067440518E+00  2.2401740936E+00  3.7622891455E+00
                       0.0000000000E+00  0.0000000000E+00  0.0000000000E+00
                       3.5863091791E+00  0.0000000000E+00  2.1179009834E+00
                       2.2359090581E-01  9.8330649700E-01  4.0410683666E+00
                       1.8035880186E+00  3.4970416902E+00  1.3656089409E+00
            xcart      5.3039775829E+00  4.2333155269E+00  7.1096961176E+00
                       0.0000000000E+00  0.0000000000E+00  0.0000000000E+00
                       6.7771421764E+00  0.0000000000E+00  4.0022528352E+00
                       4.2252557778E-01  1.8581799840E+00  7.6365124971E+00
                       3.4082874118E+00  6.6084510698E+00  2.5806269030E+00
             xred      5.0000000000E-01  5.0000000000E-01  5.0000000000E-01
                       0.0000000000E+00  0.0000000000E+00  0.0000000000E+00
                       7.8052900000E-01  0.0000000000E+00  2.1947100000E-01
                       0.0000000000E+00  2.1947100000E-01  7.8052900000E-01
                       2.1947100000E-01  7.8052900000E-01 -1.3877787808E-17
            znucl       37.00000    7.00000    8.00000

- Timing analysis has been suppressed with timopt=0

 Suggested references for the acknowledgment of ABINIT usage.

 Calculation completed.
.Delivered   2 WARNINGs and  11 COMMENTs to log file.