.Version 9.5.2 of ABINIT

 ABINIT is a project of the Universite Catholique de Louvain,
 Corning Inc. and other collaborators, see ~abinit/doc/developers/contributors.txt .
 acknowledgments of the ABINIT effort.

.Starting date : Mon 31 May 2021.
- ( at 22h29 )

- input  file    -> /scratch/users/j/a/jabreu/flow_simple_11atoms/flow/w360/t1/run.abi
- output file    -> /scratch/users/j/a/jabreu/flow_simple_11atoms/flow/w360/t1/run.abo
- root for input  files -> /scratch/users/j/a/jabreu/flow_simple_11atoms/flow/w360/t1/indata/in
- root for output files -> /scratch/users/j/a/jabreu/flow_simple_11atoms/flow/w360/t1/outdata/out

 Symmetries : space group Cm c 2_1 (# 36); Bravais oC (1-face-center ortho.)
     intxc =       0      iscf =       7    lmnmax =      18     lnmax =       6
     mgfft =     120  mpssoang =       3    mqgrid =    5747     natom =      16
  nloc_mem =       1    nspden =       1   nspinor =       1    nsppol =       1
      nsym =       4    n1xccc =    2501    ntypat =       3    occopt =       1
   xclevel =       2
-    mband =          73        mffmem =           1         mkmem =           2
-   mkqmem =           2        mk1mem =           2           mpw =       18515
      nfft =      491520          nkpt =           2
  Rough estimation (10% accuracy) of disk space for files :

------------- Echo of variables that govern the present computation ------------
-
- outvars: echo of selected default values
-   iomode0 =  0 , fftalg0 =512 , wfoptalg0 =  0
-
- outvars: echo of global parameters not present in the input file
-  max_nthreads =    0
-
 -outvars: echo values of preprocessed input variables --------
            acell      1.0000000000E+00  1.0000000000E+00  1.0000000000E+00 Bohr
              amu      4.49559100E+01  4.78800000E+01  1.59994000E+01
             ecut      4.40000000E+01 Hartree
-          fftalg         512
           irdden           1
           irdwfk           1
           istwfk        1    0
              ixc     -116133
              kpt      0.00000000E+00  0.00000000E+00  0.00000000E+00
                      -3.42105263E-01  3.42105263E-01  0.00000000E+00
           kptopt           0
P           mkmem           2
P          mkqmem           2
P          mk1mem           2
            natom          16
            nband          73
           nbdbuf           4
            ngfft          64      64     120
             nkpt           2
            nstep        2000
             nsym           4
           ntypat           3
              occ      2.000000  2.000000  2.000000  2.000000  2.000000  2.000000
                       2.000000  2.000000  2.000000  2.000000  2.000000  2.000000
                       2.000000  2.000000  2.000000  2.000000  2.000000  2.000000
                       2.000000  2.000000  2.000000  2.000000  2.000000  2.000000
                       2.000000  2.000000  2.000000  2.000000  2.000000  2.000000
                       2.000000  2.000000  2.000000  2.000000  2.000000  2.000000
                       2.000000  2.000000  2.000000  2.000000  2.000000  2.000000
                       2.000000  2.000000  2.000000  2.000000  2.000000  2.000000
                       2.000000  2.000000  2.000000  2.000000  2.000000  2.000000
                       2.000000  2.000000  2.000000  2.000000  2.000000  2.000000
                       2.000000  2.000000  2.000000  2.000000  0.000000  0.000000
                       0.000000  0.000000  0.000000  0.000000  0.000000  0.000000
                       0.000000
        optdriver           1
            prtwf          -1
            rfdir           1       1       1
           rfelfd           2
            rprim      1.0204217092E+01  0.0000000000E+00  0.0000000000E+00
                      -7.6404221461E+00  6.7638743248E+00  0.0000000000E+00
                       0.0000000000E+00  0.0000000000E+00  1.9245545009E+01
          spgroup          36
           symrel      1  0  0   0  1  0   0  0  1       0 -1  0  -1  0  0   0  0  1
                      -1  0  0   0 -1  0   0  0  1       0  1  0   1  0  0   0  0  1
            tnons      0.0000000  0.0000000  0.0000000     0.0000000  0.0000000  0.0000000
                       0.0000000  0.0000000  0.5000000    -0.0000000  0.0000000  0.5000000
           tolwfr      1.00000000E-20
            typat      1  1  1  1  2  2  3  3  3  3  3  3  3  3  3  3
           useylm           1
              wtk        0.50000    0.50000
           xangst      1.9742294609E+00  1.2984511980E+00  5.7334575021E+00
                       2.5188059088E+00  1.0920336512E+00  2.5506894360E+00
                      -1.1621040561E+00  2.4872544832E+00  7.6428413287E+00
                      -6.1752760827E-01  2.2808369365E+00  6.4130560937E-01
                       1.9369674761E+00  1.3125750689E+00  9.5832974662E+00
                      -5.8026562347E-01  2.2667130655E+00  4.4911455735E+00
                       1.1845605611E+00  1.5977691682E+00  1.1088466276E+00
                       3.6500367072E+00  6.6324924989E-01  4.3806764303E+00
                       2.8351361745E+00  9.7213107803E-01  7.7212502836E+00
                       3.5152476623E+00  7.1434000872E-01  6.8872372780E-01
                       1.0313293834E+00  1.6558502768E+00  3.8781014071E+00
                      -1.4784343219E+00  2.6071570564E+00  2.6290983908E+00
                      -2.2933348545E+00  2.9160388846E+00  9.4728283230E+00
                       1.7214129152E-01  1.9815189662E+00  6.2009985203E+00
                       3.2537246924E-01  1.9234378577E+00  8.9702532998E+00
                      -2.1585458097E+00  2.8649481257E+00  5.7808756205E+00
            xcart      3.7307530046E+00  2.4537171611E+00  1.0834664474E+01
                       4.7598533495E+00  2.0636445287E+00  4.8201044841E+00
                      -2.1960584040E+00  4.7002297961E+00  1.4442876988E+01
                      -1.1669580591E+00  4.3101571637E+00  1.2118919692E+00
                       3.6603380582E+00  2.4804074091E+00  1.8109807661E+01
                      -1.0965431127E+00  4.2834669157E+00  8.4870351568E+00
                       2.2384950484E+00  3.0193461515E+00  2.0954164495E+00
                       6.8975697516E+00  1.2533594401E+00  8.2782787300E+00
                       5.3576309193E+00  1.8370615027E+00  1.4591048439E+01
                       6.6428553711E+00  1.3499069822E+00  1.3014992268E+00
                       1.9489300875E+00  3.1291035401E+00  7.3285495750E+00
                      -2.7938359738E+00  4.9268128221E+00  4.9682759351E+00
                      -4.3337748061E+00  5.5105148847E+00  1.7901051234E+01
                       3.2529989713E-01  3.7445281733E+00  1.1718188954E+01
                       6.1486485804E-01  3.6347707847E+00  1.6951322079E+01
                      -4.0790604256E+00  5.4139673426E+00  1.0924271731E+01
             xred      6.3723200000E-01  3.6276800000E-01  5.6297000000E-01
                       6.9490200000E-01  3.0509800000E-01  2.5045300000E-01
                       3.0509800000E-01  6.9490200000E-01  7.5045300000E-01
                       3.6276800000E-01  6.3723200000E-01  6.2970000000E-02
                       6.3328600000E-01  3.6671400000E-01  9.4098700000E-01
                       3.6671400000E-01  6.3328600000E-01  4.4098700000E-01
                       5.5360700000E-01  4.4639300000E-01  1.0887800000E-01
                       8.1469800000E-01  1.8530200000E-01  4.3014000000E-01
                       7.2840100000E-01  2.7159900000E-01  7.5815200000E-01
                       8.0042400000E-01  1.9957600000E-01  6.7626000000E-02
                       5.3738000000E-01  4.6262000000E-01  3.8079200000E-01
                       2.7159900000E-01  7.2840100000E-01  2.5815200000E-01
                       1.8530200000E-01  8.1469800000E-01  9.3014000000E-01
                       4.4639300000E-01  5.5360700000E-01  6.0887800000E-01
                       4.6262000000E-01  5.3738000000E-01  8.8079200000E-01
                       1.9957600000E-01  8.0042400000E-01  5.6762600000E-01
            znucl       21.00000   22.00000    8.00000

 chkinp: Checking input parameters for consistency.

== DATASET  1 ==================================================================
-   mpi_nproc: 1, omp_nthreads: -1 (-1 if OMP is not activated)

--- !DatasetInfo
iteration_state: {dtset: 1, }
dimensions: {natom: 16, nkpt: 2, mband: 73, nsppol: 1, nspinor: 1, nspden: 1, mpw: 18515, }
cutoff_energies: {ecut:  44.0, pawecutdg:  -1.0, }
electrons: {nelect:   1.28000000E+02, charge:   0.00000000E+00, occopt:   1.00000000E+00, tsmear:   1.00000000E-02, }
meta: {optdriver: 1, rfelfd: 2, }
...

 Real(R)+Recip(G) space primitive vectors, cartesian coordinates (Bohr,Bohr^-1):
 R(1)= 10.2042171  0.0000000  0.0000000  G(1)=  0.0979987  0.1106986  0.0000000
 R(2)= -7.6404221  6.7638743  0.0000000  G(2)=  0.0000000  0.1478443  0.0000000
 R(3)=  0.0000000  0.0000000 19.2455450  G(3)=  0.0000000  0.0000000  0.0519601
 Unit cell volume ucvol=  1.3283283E+03 bohr^3
 Angles (23,13,12)=  9.00000000E+01  9.00000000E+01  1.38482338E+02 degrees

 getcut: wavevector=  0.0000  0.0000  0.0000  ngfft=  64  64 120
         ecut(hartree)=     44.000   => boxcut(ratio)=   2.08814

--- Pseudopotential description ------------------------------------------------
- pspini: atom type   1  psp file is /scratch/users/j/a/jabreu/pseudos/PBEsol/Sc.psp8
- pspatm: opening atomic psp file    /scratch/users/j/a/jabreu/pseudos/PBEsol/Sc.psp8
- Sc    ONCVPSP-3.3.0  r_core=   1.35663   1.35663   1.66161
- 21.00000  11.00000    180112                znucl, zion, pspdat
    8 -116133    2    4       600   0.00000   pspcod,pspxc,lmax,lloc,mmax,r2well
    5.99000000000000    5.00000000000000    0.00000000000000   rchrg,fchrg,qchrg
     nproj     2     2     2
     extension_switch     1
  pspatm : epsatm=   13.58981094
         --- l  ekb(1:nproj) -->
             0   10.810997    0.948773
             1    2.871172    0.364831
             2   -4.789751   -1.321945
 pspatm: atomic psp has been read  and splines computed

- pspini: atom type   2  psp file is /scratch/users/j/a/jabreu/pseudos/PBEsol/Ti.psp8
- pspatm: opening atomic psp file    /scratch/users/j/a/jabreu/pseudos/PBEsol/Ti.psp8
- Ti    ONCVPSP-3.3.0  r_core=   1.35825   1.31050   1.66360
- 22.00000  12.00000    180112                znucl, zion, pspdat
    8 -116133    2    4       600   0.00000   pspcod,pspxc,lmax,lloc,mmax,r2well
    5.99000000000000    2.50000000000000    0.00000000000000   rchrg,fchrg,qchrg
     nproj     2     2     2
     extension_switch     1
  pspatm : epsatm=   14.76919902
         --- l  ekb(1:nproj) -->
             0   11.321950    1.254474
             1    1.946894   -0.084268
             2   -5.237105   -1.488377
 pspatm: atomic psp has been read  and splines computed

- pspini: atom type   3  psp file is /scratch/users/j/a/jabreu/pseudos/PBEsol/O.psp8
- pspatm: opening atomic psp file    /scratch/users/j/a/jabreu/pseudos/PBEsol/O.psp8
- O     ONCVPSP-3.3.0  r_core=   1.35509   1.45563   1.26150
-  8.00000   6.00000    180112                znucl, zion, pspdat
[...]
 ETOT 34  -13.055332048868      0.000E+00 3.110E-11 0.000E+00
 ETOT 35  -13.055332048868     -3.553E-15 7.844E-12 0.000E+00
 ETOT 36  -13.055332048868      3.553E-15 1.181E-11 0.000E+00
 ETOT 37  -13.055332048868      3.553E-15 2.972E-12 0.000E+00
 ETOT 38  -13.055332048868      0.000E+00 4.484E-12 0.000E+00
 ETOT 39  -13.055332048867      3.553E-15 1.126E-12 0.000E+00
 ETOT 40  -13.055332048868     -3.553E-15 1.703E-12 0.000E+00
 ETOT 41  -13.055332048868     -1.776E-15 4.270E-13 0.000E+00
 ETOT 42  -13.055332048868      0.000E+00 6.472E-13 0.000E+00
 ETOT 43  -13.055332048868     -1.066E-14 1.619E-13 0.000E+00
 ETOT 44  -13.055332048868      8.882E-15 2.460E-13 0.000E+00
 ETOT 45  -13.055332048868     -1.776E-15 6.142E-14 0.000E+00
 ETOT 46  -13.055332048868     -1.776E-15 9.349E-14 0.000E+00
 ETOT 47  -13.055332048868     -3.553E-15 2.330E-14 0.000E+00
 ETOT 48  -13.055332048868      1.776E-15 3.554E-14 0.000E+00
 ETOT 49  -13.055332048868     -3.553E-15 8.841E-15 0.000E+00
 ETOT 50  -13.055332048868      8.882E-15 1.352E-14 0.000E+00
 ETOT 51  -13.055332048868     -1.776E-15 3.355E-15 0.000E+00
 ETOT 52  -13.055332048868      0.000E+00 5.140E-15 0.000E+00
 ETOT 53  -13.055332048868      7.105E-15 1.274E-15 0.000E+00
 ETOT 54  -13.055332048868     -5.329E-15 1.955E-15 0.000E+00
 ETOT 55  -13.055332048868      1.776E-15 4.835E-16 0.000E+00
 ETOT 56  -13.055332048867      5.329E-15 7.436E-16 0.000E+00
 ETOT 57  -13.055332048868     -1.776E-15 1.836E-16 0.000E+00
 ETOT 58  -13.055332048868      0.000E+00 2.829E-16 0.000E+00
 ETOT 59  -13.055332048867      1.776E-15 6.971E-17 0.000E+00
 ETOT 60  -13.055332048868     -1.776E-15 1.076E-16 0.000E+00
 ETOT 61  -13.055332048868      0.000E+00 2.648E-17 0.000E+00
[...]
 ETOT 65  -13.055332048867      1.776E-15 3.821E-18 0.000E+00
 ETOT 66  -13.055332048867      0.000E+00 5.932E-18 0.000E+00
 ETOT 67  -13.055332048868     -3.553E-15 1.452E-18 0.000E+00
 ETOT 68  -13.055332048867      3.553E-15 2.258E-18 0.000E+00
 ETOT 69  -13.055332048867      0.000E+00 5.517E-19 0.000E+00
 ETOT 70  -13.055332048867      0.000E+00 8.594E-19 0.000E+00
 ETOT 71  -13.055332048867      0.000E+00 2.097E-19 0.000E+00
 ETOT 72  -13.055332048867      0.000E+00 3.272E-19 0.000E+00
 ETOT 73  -13.055332048867      0.000E+00 7.969E-20 0.000E+00
 ETOT 74  -13.055332048867      0.000E+00 1.246E-19 0.000E+00
 ETOT 75  -13.055332048867      0.000E+00 3.029E-20 0.000E+00
 ETOT 76  -13.055332048867      0.000E+00 4.742E-20 0.000E+00
 ETOT 77  -13.055332048867      0.000E+00 1.151E-20 0.000E+00
 ETOT 78  -13.055332048867      3.553E-15 1.806E-20 0.000E+00
 ETOT 79  -13.055332048867      0.000E+00 9.992E-21 0.000E+00

 At SCF step   79   max residual=  9.99E-21 < tolwfr=  1.00E-20 =>converged.

 ----iterations are completed or convergence reached----

 dfpt_looppert: DFPT cycle converged with prtwf=-1. Will skip output of the 1st-order WFK file.
 dfpt_looppert : ek2=    2.7285962222E+01
          f-sum rule ratio=    1.0063370173E+00
 prteigrs : about to open file /scratch/users/j/a/jabreu/flow_simple_11atoms/flow/w360/t1/tmpdata/tmp_1WF1_EIG
 Expectation of eigenvalue derivatives (hartree) for nkpt=   2  k points:
  (in case of degenerate eigenvalues, averaged derivative)
 kpt#   1, nband= 73, wtk=  0.50000, kpt=  0.0000  0.0000  0.0000 (reduced coord)
   0.00000    0.00000    0.00000   -0.00000   -0.00000   -0.00000    0.00000   -0.00000
   0.00000   -0.00000    0.00000   -0.00000   -0.00000    0.00000    0.00000   -0.00000
   0.00000    0.00000    0.00000   -0.00000    0.00000   -0.00000   -0.00000    0.00000
  -0.00000   -0.00000    0.00000    0.00000   -0.00000   -0.00000    0.00000    0.00000
  -0.00000   -0.00000   -0.00000    0.00000    0.00000   -0.00000    0.00000   -0.00000
   0.00000   -0.00000   -0.00000   -0.00000    0.00000    0.00000   -0.00000   -0.00000
   0.00000    0.00000   -0.00000   -0.00000   -0.00000   -0.00000    0.00000   -0.00000
   0.00000    0.00000   -0.00000    0.00000   -0.00000   -0.00000   -0.00000    0.00000
  -0.00000   -0.00000    0.00000    0.00000   -0.00000   -0.00000   -0.00000    0.00000
  -0.00011
 prteigrs : prtvol=0 or 1, do not print more k-points.

 Eight components of 2nd-order total energy (hartree) are
 1,2,3: 0th-order hamiltonian combined with 1st-order wavefunctions
     kin0=   3.21399435E+01 eigvalue=   3.08796856E-01  local=  -1.80876218E+01
 4,5,6: 1st-order hamiltonian combined with 1st and 0th-order wfs
     kin1=  -2.74588738E+01  Hartree=   0.00000000E+00     xc=   0.00000000E+00
 7,8,9: eventually, occupation + non-local contributions
    edocc=   1.52614801E+00     enl0=  -2.83193457E+00   enl1=   1.34820974E+00
 1-9 gives the relaxation energy (to be shifted if some occ is /=2.0)
   erelax=  -1.30553320E+01
  No Ewald or frozen-wf contrib.: the relaxation energy is the total one
 2DEtotal=   -0.1305533205E+02 Ha. Also 2DEtotal=   -0.355253651801E+03 eV
    (  non-var. 2DEtotal :   -1.3055332049E+01 Ha)

 CALCULATION OF EFFECTIVE MASSES
 NOTE : Additional infos (eff. mass eigenvalues, eigenvectors and, if degenerate, average mass) are available in stdout.

 K-point ( 0.000, 0.000, 0.000) | band =    64
 Effective mass tensor:
             -4.2921892128              0.2537246126              0.0000771259
              0.2537246126             -3.7192091557              0.0000570992
              0.0000771259              0.0000570992             -0.5092925258
 Effective mass tensor eigenvalues:
             -4.3883905952             -3.6230077760             -0.5092925230
 Angular average effective mass 1/(<1/m>)=  -1.2158567935
 Angular average effective mass for Frohlich model (<m**0.5>)**2=  -1.6629149972
 Effective masses along directions: (cart. coord. / red. coord. -> eff. mass)
    1:   1.000000  0.000000  0.000000 /   0.800479 -0.599360  0.000000 ->  -4.2748800956
    2:   0.000000  1.000000  0.000000 /   0.000000  1.000000  0.000000 ->  -3.7042106997
    3:   0.000000  0.000000  1.000000 /   0.000000  0.000000  1.000000 ->  -0.5092925234
    4:   0.577350  0.577350  0.577350 /   0.468061 -0.040207  0.882781 ->  -1.2002629313
    5:   0.000000  0.707107  0.707107 /   0.000000  0.331570  0.943431 ->  -0.8954409209
    6:   0.707107  0.000000  0.707107 /   0.442038 -0.330977  0.833701 ->  -0.9101221487
    7:   0.707107  0.707107  0.000000 /   0.996331 -0.085585  0.000000 ->  -3.7327051553

 K-point (-0.342, 0.342, 0.000) | band =    65
 Effective mass tensor:
             17.4545110841             -6.2375120223              0.0002210577
             -6.2375120223              3.3629352643             -0.0001175881
              0.0002210577             -0.0001175881              4.6853719474
 Effective mass tensor eigenvalues:
              0.9986390352              4.6853719436             19.8188073171
 Angular average effective mass 1/(<1/m>)=   2.3710725915
 Angular average effective mass for Frohlich model (<m**0.5>)**2=   3.4110898575
 Effective masses along directions: (cart. coord. / red. coord. -> eff. mass)
    1:   1.000000  0.000000  0.000000 /   0.800479 -0.599360  0.000000 ->   5.8852856397
    2:   0.000000  1.000000  0.000000 /   0.000000  1.000000  0.000000 ->   1.1339094242
    3:   0.000000  0.000000  1.000000 /   0.000000  0.000000  1.000000 ->   4.6853719433
    4:   0.577350  0.577350  0.577350 /   0.468061 -0.040207  0.882781 ->   1.5826322870
    5:   0.000000  0.707107  0.707107 /   0.000000  0.331570  0.943431 ->   1.8259013796
    6:   0.707107  0.000000  0.707107 /   0.442038 -0.330977  0.833701 ->   5.2172284322
    7:   0.707107  0.707107  0.000000 /   0.996331 -0.085585  0.000000 ->   1.1889676183

 END OF EFFECTIVE MASSES SECTION

 ---- first-order wavefunction calculations are completed ----

 Total localisation tensor (bohr^2) in cartesian coordinates
  WARNING : still subject to testing - especially symmetries.
      direction              matrix element
   alpha     beta       real part   imaginary part
     1        1       2.3763234539    0.0000000000
     1        2      -0.7557188398    0.0000000000
     1        3       0.0000000000    0.0000000000
     2        1      -0.7557188398    0.0000000000
     2        2       0.6690189572    0.0000000000
     2        3       0.0000000000    0.0000000000
     3        1       0.0000000000    0.0000000000
     3        2       0.0000000000    0.0000000000
     3        3       0.6427079968    0.0000000000

 respfn : d/dk was computed, but no 2DTE, so no DDB output.

== END DATASET(S) ==============================================================

 -outvars: echo values of variables after computation  --------
            acell      1.0000000000E+00  1.0000000000E+00  1.0000000000E+00 Bohr
              amu      4.49559100E+01  4.78800000E+01  1.59994000E+01
             ecut      4.40000000E+01 Hartree
           etotal     -1.3055332049E+01
            fcart      0.0000000000E+00  0.0000000000E+00  0.0000000000E+00
                       0.0000000000E+00  0.0000000000E+00  0.0000000000E+00
                       0.0000000000E+00  0.0000000000E+00  0.0000000000E+00
                       0.0000000000E+00  0.0000000000E+00  0.0000000000E+00
                       0.0000000000E+00  0.0000000000E+00  0.0000000000E+00
                       0.0000000000E+00  0.0000000000E+00  0.0000000000E+00
                       0.0000000000E+00  0.0000000000E+00  0.0000000000E+00
                       0.0000000000E+00  0.0000000000E+00  0.0000000000E+00
                       0.0000000000E+00  0.0000000000E+00  0.0000000000E+00
                       0.0000000000E+00  0.0000000000E+00  0.0000000000E+00
                       0.0000000000E+00  0.0000000000E+00  0.0000000000E+00
                       0.0000000000E+00  0.0000000000E+00  0.0000000000E+00
                       0.0000000000E+00  0.0000000000E+00  0.0000000000E+00
                       0.0000000000E+00  0.0000000000E+00  0.0000000000E+00
                       0.0000000000E+00  0.0000000000E+00  0.0000000000E+00
                       0.0000000000E+00  0.0000000000E+00  0.0000000000E+00
-          fftalg         512
           irdden           1
           irdwfk           1
           istwfk        1    0
              ixc     -116133
              kpt      0.00000000E+00  0.00000000E+00  0.00000000E+00
                      -3.42105263E-01  3.42105263E-01  0.00000000E+00
           kptopt           0
P           mkmem           2
P          mkqmem           2
P          mk1mem           2
            natom          16
            nband          73
           nbdbuf           4
            ngfft          64      64     120
             nkpt           2
            nstep        2000
             nsym           4
           ntypat           3
              occ      2.000000  2.000000  2.000000  2.000000  2.000000  2.000000
                       2.000000  2.000000  2.000000  2.000000  2.000000  2.000000
                       2.000000  2.000000  2.000000  2.000000  2.000000  2.000000
                       2.000000  2.000000  2.000000  2.000000  2.000000  2.000000
                       2.000000  2.000000  2.000000  2.000000  2.000000  2.000000
                       2.000000  2.000000  2.000000  2.000000  2.000000  2.000000
                       2.000000  2.000000  2.000000  2.000000  2.000000  2.000000
                       2.000000  2.000000  2.000000  2.000000  2.000000  2.000000
                       2.000000  2.000000  2.000000  2.000000  2.000000  2.000000
                       2.000000  2.000000  2.000000  2.000000  2.000000  2.000000
                       2.000000  2.000000  2.000000  2.000000  0.000000  0.000000
                       0.000000  0.000000  0.000000  0.000000  0.000000  0.000000
                       0.000000
        optdriver           1
            prtwf          -1
            rfdir           1       1       1
           rfelfd           2
            rprim      1.0204217092E+01  0.0000000000E+00  0.0000000000E+00
                      -7.6404221461E+00  6.7638743248E+00  0.0000000000E+00
                       0.0000000000E+00  0.0000000000E+00  1.9245545009E+01
          spgroup          36
           strten      0.0000000000E+00  0.0000000000E+00  0.0000000000E+00
                       0.0000000000E+00  0.0000000000E+00  0.0000000000E+00
           symrel      1  0  0   0  1  0   0  0  1       0 -1  0  -1  0  0   0  0  1
                      -1  0  0   0 -1  0   0  0  1       0  1  0   1  0  0   0  0  1
            tnons      0.0000000  0.0000000  0.0000000     0.0000000  0.0000000  0.0000000
                       0.0000000  0.0000000  0.5000000    -0.0000000  0.0000000  0.5000000
           tolwfr      1.00000000E-20
            typat      1  1  1  1  2  2  3  3  3  3  3  3  3  3  3  3
           useylm           1
              wtk        0.50000    0.50000
           xangst      1.9742294609E+00  1.2984511980E+00  5.7334575021E+00
                       2.5188059088E+00  1.0920336512E+00  2.5506894360E+00
                      -1.1621040561E+00  2.4872544832E+00  7.6428413287E+00
                      -6.1752760827E-01  2.2808369365E+00  6.4130560937E-01
                       1.9369674761E+00  1.3125750689E+00  9.5832974662E+00
                      -5.8026562347E-01  2.2667130655E+00  4.4911455735E+00
                       1.1845605611E+00  1.5977691682E+00  1.1088466276E+00
                       3.6500367072E+00  6.6324924989E-01  4.3806764303E+00
                       2.8351361745E+00  9.7213107803E-01  7.7212502836E+00
                       3.5152476623E+00  7.1434000872E-01  6.8872372780E-01
                       1.0313293834E+00  1.6558502768E+00  3.8781014071E+00
                      -1.4784343219E+00  2.6071570564E+00  2.6290983908E+00
                      -2.2933348545E+00  2.9160388846E+00  9.4728283230E+00
                       1.7214129152E-01  1.9815189662E+00  6.2009985203E+00
                       3.2537246924E-01  1.9234378577E+00  8.9702532998E+00
                      -2.1585458097E+00  2.8649481257E+00  5.7808756205E+00
            xcart      3.7307530046E+00  2.4537171611E+00  1.0834664474E+01
                       4.7598533495E+00  2.0636445287E+00  4.8201044841E+00
                      -2.1960584040E+00  4.7002297961E+00  1.4442876988E+01
                      -1.1669580591E+00  4.3101571637E+00  1.2118919692E+00
                       3.6603380582E+00  2.4804074091E+00  1.8109807661E+01
                      -1.0965431127E+00  4.2834669157E+00  8.4870351568E+00
                       2.2384950484E+00  3.0193461515E+00  2.0954164495E+00
                       6.8975697516E+00  1.2533594401E+00  8.2782787300E+00
                       5.3576309193E+00  1.8370615027E+00  1.4591048439E+01
                       6.6428553711E+00  1.3499069822E+00  1.3014992268E+00
                       1.9489300875E+00  3.1291035401E+00  7.3285495750E+00
                      -2.7938359738E+00  4.9268128221E+00  4.9682759351E+00
                      -4.3337748061E+00  5.5105148847E+00  1.7901051234E+01
                       3.2529989713E-01  3.7445281733E+00  1.1718188954E+01
                       6.1486485804E-01  3.6347707847E+00  1.6951322079E+01
                      -4.0790604256E+00  5.4139673426E+00  1.0924271731E+01
             xred      6.3723200000E-01  3.6276800000E-01  5.6297000000E-01
                       6.9490200000E-01  3.0509800000E-01  2.5045300000E-01
                       3.0509800000E-01  6.9490200000E-01  7.5045300000E-01
                       3.6276800000E-01  6.3723200000E-01  6.2970000000E-02
                       6.3328600000E-01  3.6671400000E-01  9.4098700000E-01
                       3.6671400000E-01  6.3328600000E-01  4.4098700000E-01
                       5.5360700000E-01  4.4639300000E-01  1.0887800000E-01
                       8.1469800000E-01  1.8530200000E-01  4.3014000000E-01
                       7.2840100000E-01  2.7159900000E-01  7.5815200000E-01
                       8.0042400000E-01  1.9957600000E-01  6.7626000000E-02
                       5.3738000000E-01  4.6262000000E-01  3.8079200000E-01
                       2.7159900000E-01  7.2840100000E-01  2.5815200000E-01
                       1.8530200000E-01  8.1469800000E-01  9.3014000000E-01
                       4.4639300000E-01  5.5360700000E-01  6.0887800000E-01
                       4.6262000000E-01  5.3738000000E-01  8.8079200000E-01
                       1.9957600000E-01  8.0042400000E-01  5.6762600000E-01
            znucl       21.00000   22.00000    8.00000

- Timing analysis has been suppressed with timopt=0

 Suggested references for the acknowledgment of ABINIT usage.

 Calculation completed.
.Delivered   2 WARNINGs and   5 COMMENTs to log file.