.Version 9.5.2 of ABINIT

 ABINIT is a project of the Universite Catholique de Louvain,
 Corning Inc. and other collaborators, see ~abinit/doc/developers/contributors.txt .
 acknowledgments of the ABINIT effort.

.Starting date : Mon 31 May 2021.
- ( at 22h55 )

- input  file    -> /scratch/users/j/a/jabreu/flow_simple_11atoms/flow/w392/t1/run.abi
- output file    -> /scratch/users/j/a/jabreu/flow_simple_11atoms/flow/w392/t1/run.abo
- root for input  files -> /scratch/users/j/a/jabreu/flow_simple_11atoms/flow/w392/t1/indata/in
- root for output files -> /scratch/users/j/a/jabreu/flow_simple_11atoms/flow/w392/t1/outdata/out

 Symmetries : space group P-6 2 m (#189); Bravais hP (primitive hexag.)
     intxc =       0      iscf =       7    lmnmax =      18     lnmax =       6
     mgfft =      80  mpssoang =       3    mqgrid =    3433     natom =      12
  nloc_mem =       1    nspden =       1   nspinor =       1    nsppol =       1
      nsym =      12    n1xccc =    2501    ntypat =       2    occopt =       1
   xclevel =       2
-    mband =          54        mffmem =           1         mkmem =           2
-   mkqmem =           2        mk1mem =           2           mpw =       21065
      nfft =      384000          nkpt =           2
  Rough estimation (10% accuracy) of disk space for files :

------------- Echo of variables that govern the present computation ------------
-
- outvars: echo of selected default values
-   iomode0 =  0 , fftalg0 =512 , wfoptalg0 =  0
-
- outvars: echo of global parameters not present in the input file
-  max_nthreads =    0
-
 -outvars: echo values of preprocessed input variables --------
            acell      1.0000000000E+00  1.0000000000E+00  1.0000000000E+00 Bohr
              amu      8.76200000E+01  3.09737620E+01
             ecut      3.40000000E+01 Hartree
-          fftalg         512
           irdden           1
           irdwfk           1
           istwfk        1    1
              ixc     -116133
              kpt      0.00000000E+00  0.00000000E+00  0.00000000E+00
                       0.00000000E+00  0.00000000E+00  5.00000000E-01
           kptopt           0
P           mkmem           2
P          mkqmem           2
P          mk1mem           2
            natom          12
            nband          54
           nbdbuf           4
            ngfft          80      80      60
             nkpt           2
            nstep        2000
             nsym          12
           ntypat           2
              occ      2.000000  2.000000  2.000000  2.000000  2.000000  2.000000
                       2.000000  2.000000  2.000000  2.000000  2.000000  2.000000
                       2.000000  2.000000  2.000000  2.000000  2.000000  2.000000
                       2.000000  2.000000  2.000000  2.000000  2.000000  2.000000
                       2.000000  2.000000  2.000000  2.000000  2.000000  2.000000
                       2.000000  2.000000  2.000000  2.000000  2.000000  2.000000
                       2.000000  2.000000  2.000000  2.000000  2.000000  2.000000
                       2.000000  2.000000  2.000000  0.000000  0.000000  0.000000
                       0.000000  0.000000  0.000000  0.000000  0.000000  0.000000
        optdriver           1
            prtwf          -1
            rfdir           1       1       1
           rfelfd           2
            rprim      1.5099504165E+01  0.0000000000E+00  0.0000000000E+00
                      -7.5497520824E+00  1.3076554191E+01  0.0000000000E+00
                       0.0000000000E+00  0.0000000000E+00  1.1250287271E+01
          spgroup         189
           symrel      1  0  0   0  1  0   0  0  1       0  1  0   1  0  0   0  0  1
                      -1 -1  0   1  0  0   0  0 -1       1  0  0  -1 -1  0   0  0 -1
                       0  1  0  -1 -1  0   0  0  1      -1 -1  0   0  1  0   0  0  1
                       1  0  0   0  1  0   0  0 -1       0  1  0   1  0  0   0  0 -1
                      -1 -1  0   1  0  0   0  0  1       1  0  0  -1 -1  0   0  0  1
                       0  1  0  -1 -1  0   0  0 -1      -1 -1  0   0  1  0   0  0 -1
           tolwfr      1.00000000E-20
            typat      1  1  1  1  1  1  2  2  2  2  2  2
           useylm           1
              wtk        0.50000    0.50000
           xangst      2.8709356086E+00 -2.5608457743E-16  2.9766978070E+00
                      -1.4354678043E+00  2.4863031697E+00  2.9766978070E+00
                       2.5596889282E+00  4.4335112753E+00  2.9766978070E+00
                       5.5475867454E+00 -2.5608457743E-16  0.0000000000E+00
                      -2.7737933727E+00  4.8043510512E+00  0.0000000000E+00
                       1.2213633599E+00  2.1154633938E+00  0.0000000000E+00
                       1.7639241746E-11  4.6132096300E+00  1.1530417557E+00
                       1.7639241746E-11  4.6132096300E+00  4.8003538582E+00
                       3.9951567325E+00  2.3066048150E+00  4.8003538582E+00
                       3.9951567325E+00  2.3066048150E+00  1.1530417557E+00
                       7.3925249857E-17 -2.5608457743E-16  4.0990081345E+00
                       7.3925249857E-17 -2.5608457743E-16  1.8543874794E+00
            xcart      5.4252820455E+00 -4.8392971820E-16  5.6251436355E+00
                      -2.7126410227E+00  4.6984320741E+00  5.6251436355E+00
                       4.8371110598E+00  8.3781221173E+00  5.6251436355E+00
                       1.0483419647E+01 -4.8392971820E-16  0.0000000000E+00
                      -5.2417098235E+00  9.0789077330E+00  0.0000000000E+00
                       2.3080422589E+00  3.9976464584E+00  0.0000000000E+00
                       3.3333336091E-11  8.7177027943E+00  2.1789331381E+00
                       3.3333336091E-11  8.7177027943E+00  9.0713541330E+00
                       7.5497520825E+00  4.3588513971E+00  9.0713541330E+00
                       7.5497520825E+00  4.3588513971E+00  2.1789331381E+00
                       1.3969847653E-16 -4.8392971820E-16  7.7460027907E+00
                       1.3969847653E-16 -4.8392971820E-16  3.5042844804E+00
             xred      3.5930200000E-01 -3.7007434154E-17  5.0000000000E-01
                      -9.2518585385E-18  3.5930200000E-01  5.0000000000E-01
                       6.4069800000E-01  6.4069800000E-01  5.0000000000E-01
                       6.9428900000E-01 -3.7007434154E-17  0.0000000000E+00
                      -9.2518585385E-18  6.9428900000E-01  0.0000000000E+00
                       3.0571100000E-01  3.0571100000E-01  0.0000000000E+00
                       3.3333333333E-01  6.6666666667E-01  1.9367800000E-01
                       3.3333333333E-01  6.6666666667E-01  8.0632200000E-01
                       6.6666666667E-01  3.3333333333E-01  8.0632200000E-01
                       6.6666666667E-01  3.3333333333E-01  1.9367800000E-01
                      -9.2518585385E-18 -3.7007434154E-17  6.8851600000E-01
                      -9.2518585385E-18 -3.7007434154E-17  3.1148400000E-01
            znucl       38.00000   15.00000

 chkinp: Checking input parameters for consistency.

== DATASET  1 ==================================================================
-   mpi_nproc: 1, omp_nthreads: -1 (-1 if OMP is not activated)

--- !DatasetInfo
iteration_state: {dtset: 1, }
dimensions: {natom: 12, nkpt: 2, mband: 54, nsppol: 1, nspinor: 1, nspden: 1, mpw: 21065, }
cutoff_energies: {ecut:  34.0, pawecutdg:  -1.0, }
electrons: {nelect:   9.00000000E+01, charge:   0.00000000E+00, occopt:   1.00000000E+00, tsmear:   1.00000000E-02, }
meta: {optdriver: 1, rfelfd: 2, }
...

 Real(R)+Recip(G) space primitive vectors, cartesian coordinates (Bohr,Bohr^-1):
 R(1)= 15.0995042  0.0000000  0.0000000  G(1)=  0.0662273  0.0382364  0.0000000
 R(2)= -7.5497521 13.0765542  0.0000000  G(2)=  0.0000000  0.0764727  0.0000000
 R(3)=  0.0000000  0.0000000 11.2502873  G(3)=  0.0000000  0.0000000  0.0888866
 Unit cell volume ucvol=  2.2213634E+03 bohr^3
 Angles (23,13,12)=  9.00000000E+01  9.00000000E+01  1.20000000E+02 degrees

 getcut: wavevector=  0.0000  0.0000  0.0000  ngfft=  80  80  60
         ecut(hartree)=     34.000   => boxcut(ratio)=   2.01847

--- Pseudopotential description ------------------------------------------------
- pspini: atom type   1  psp file is /scratch/users/j/a/jabreu/pseudos/PBEsol/Sr.psp8
- pspatm: opening atomic psp file    /scratch/users/j/a/jabreu/pseudos/PBEsol/Sr.psp8
- Sr    ONCVPSP-3.3.0  r_core=   1.66721   1.31335   1.51547
- 38.00000  10.00000    180112                znucl, zion, pspdat
    8 -116133    2    4       600   0.00000   pspcod,pspxc,lmax,lloc,mmax,r2well
    5.99000000000000    6.00000000000000    0.00000000000000   rchrg,fchrg,qchrg
     nproj     2     2     2
     extension_switch     1
  pspatm : epsatm=   12.46450977
         --- l  ekb(1:nproj) -->
             0   10.029206    1.044171
             1    7.472414    1.670829
             2    4.142950    0.968140
 pspatm: atomic psp has been read  and splines computed

- pspini: atom type   2  psp file is /scratch/users/j/a/jabreu/pseudos/PBEsol/P.psp8
- pspatm: opening atomic psp file    /scratch/users/j/a/jabreu/pseudos/PBEsol/P.psp8
- P     ONCVPSP-3.3.0  r_core=   1.46089   1.55067   1.70594
- 15.00000   5.00000    180112                znucl, zion, pspdat
    8 -116133    2    4       600   0.00000   pspcod,pspxc,lmax,lloc,mmax,r2well
    5.99000000000000    5.00000000000000    0.00000000000000   rchrg,fchrg,qchrg
     nproj     2     2     2
     extension_switch     1
  pspatm : epsatm=    7.31221086
         --- l  ekb(1:nproj) -->
             0    6.742364    1.063650
             1    3.449117    0.910422
             2   -3.077645   -0.799176
 pspatm: atomic psp has been read  and splines computed

   1.06794291E+04                                ecore*ucvol(ha*bohr**3)

 ==>  initialize data related to q vector <==

 The list of irreducible perturbations for this q vector is:
    1)    idir= 1    ipert=  13
    2)    idir= 2    ipert=  13
    3)    idir= 3    ipert=  13

 Perturbation wavevector (in red.coord.)   0.000000  0.000000  0.000000
 Perturbation : derivative vs k along direction   1

 dfpt_looppert : COMMENT -
  In a d/dk calculation, iscf is set to -3 automatically.
 The set of symmetries contains only one element for this perturbation.
 symkpt : not enough symmetry to change the number of k points.

 Initialisation of the first-order wave-functions :
  ireadwf=   0

--- !BeginCycle
iteration_state: {dtset: 1, }
solver: {iscf: 7, nstep: 2000, nline: 4, wfoptalg: 0, }
tolerances: {tolwfr: 1.00E-20, }
...

     iter   2DEtotal(Ha)        deltaE(Ha) residm    vres2
-ETOT  1  -21.080784038149     -2.108E+01 5.163E-02 0.000E+00
 ETOT  2  -21.121759204251     -4.098E-02 8.869E-03 0.000E+00
 ETOT  3  -21.122170108804     -4.109E-04 2.401E-03 0.000E+00
 ETOT  4  -21.122176571816     -6.463E-06 2.834E-04 0.000E+00
 ETOT  5  -21.122176697096     -1.253E-07 1.059E-04 0.000E+00
 ETOT  6  -21.122176699970     -2.874E-09 1.277E-05 0.000E+00
 ETOT  7  -21.122176700047     -7.708E-11 5.251E-06 0.000E+00
[...]
 2DEtotal=   -0.2112217670E+02 Ha. Also 2DEtotal=   -0.574763658144E+03 eV
    (  non-var. 2DEtotal :   -2.1122176700E+01 Ha)

 Perturbation wavevector (in red.coord.)   0.000000  0.000000  0.000000
 Perturbation : derivative vs k along direction   2
 The set of symmetries contains only one element for this perturbation.
 symkpt : not enough symmetry to change the number of k points.

[...]

 Perturbation wavevector (in red.coord.)   0.000000  0.000000  0.000000
 Perturbation : derivative vs k along direction   3
 The set of symmetries contains only one element for this perturbation.
 symkpt : not enough symmetry to change the number of k points.

 Initialisation of the first-order wave-functions :
  ireadwf=   0

--- !BeginCycle
iteration_state: {dtset: 1, }
solver: {iscf: 7, nstep: 2000, nline: 4, wfoptalg: 0, }
tolerances: {tolwfr: 1.00E-20, }
...

     iter   2DEtotal(Ha)        deltaE(Ha) residm    vres2
-ETOT  1  -31.221682158105     -3.122E+01 1.401E-01 0.000E+00
 ETOT  2  -31.244361108190     -2.268E-02 4.373E-03 0.000E+00
 ETOT  3  -31.244448073924     -8.697E-05 5.387E-04 0.000E+00
 ETOT  4  -31.244448635627     -5.617E-07 2.370E-05 0.000E+00
 ETOT  5  -31.244448640395     -4.767E-09 4.073E-06 0.000E+00
 ETOT  6  -31.244448640446     -5.105E-11 6.042E-07 0.000E+00
 ETOT  7  -31.244448640446     -6.395E-13 7.447E-08 0.000E+00
 ETOT  8  -31.244448640446     -9.592E-14 5.296E-09 0.000E+00
 ETOT  9  -31.244448640446      8.882E-14 1.061E-09 0.000E+00
 ETOT 10  -31.244448640446     -1.421E-14 8.829E-11 0.000E+00
 ETOT 11  -31.244448640446      7.105E-15 2.369E-11 0.000E+00
 ETOT 12  -31.244448640446      1.776E-14 1.935E-12 0.000E+00
 ETOT 13  -31.244448640446      0.000E+00 5.540E-13 0.000E+00
 ETOT 14  -31.244448640446      0.000E+00 4.445E-14 0.000E+00
 ETOT 15  -31.244448640446     -1.421E-14 1.316E-14 0.000E+00
 ETOT 16  -31.244448640446      0.000E+00 1.046E-15 0.000E+00
 ETOT 17  -31.244448640446      1.421E-14 3.165E-16 0.000E+00
 ETOT 18  -31.244448640446      1.421E-14 2.508E-17 0.000E+00
 ETOT 19  -31.244448640446     -1.066E-14 7.682E-18 0.000E+00
 ETOT 20  -31.244448640446     -1.776E-14 6.096E-19 0.000E+00
 ETOT 21  -31.244448640446      1.421E-14 1.880E-19 0.000E+00
 ETOT 22  -31.244448640446     -7.105E-15 1.498E-20 0.000E+00
 ETOT 23  -31.244448640446      0.000E+00 9.835E-21 0.000E+00

 At SCF step   23   max residual=  9.84E-21 < tolwfr=  1.00E-20 =>converged.

 ----iterations are completed or convergence reached----

 dfpt_looppert: DFPT cycle converged with prtwf=-1. Will skip output of the 1st-order WFK file.
 dfpt_looppert : ek2=    5.6144215470E+01
          f-sum rule ratio=    1.1287017902E+00
 prteigrs : about to open file /scratch/users/j/a/jabreu/flow_simple_11atoms/flow/w392/t1/tmpdata/tmp_1WF1_EIG
 Expectation of eigenvalue derivatives (hartree) for nkpt=   2  k points:
  (in case of degenerate eigenvalues, averaged derivative)
 kpt#   1, nband= 54, wtk=  0.50000, kpt=  0.0000  0.0000  0.0000 (reduced coord)
  -0.00000   -0.00000   -0.00000    0.00000    0.00000    0.00000   -0.00000   -0.00000
  -0.00000   -0.00000   -0.00000    0.00000    0.00000    0.00000    0.00000    0.00000
   0.00000    0.00000   -0.00000   -0.00000   -0.00000   -0.00000   -0.00000   -0.00000
  -0.00000   -0.00000   -0.00000    0.00000   -0.00000   -0.00000    0.00000    0.00000
   0.00000    0.00000    0.00000    0.00000    0.00000   -0.00000   -0.00000   -0.00000
  -0.00000   -0.00000   -0.00000   -0.00000   -0.00000    0.00000    0.00000    0.00000
  -0.00000   -0.00000    0.00000    0.00000    0.00000   -0.00000
 prteigrs : prtvol=0 or 1, do not print more k-points.

 Eight components of 2nd-order total energy (hartree) are
 1,2,3: 0th-order hamiltonian combined with 1st-order wavefunctions
     kin0=   4.48272981E+01 eigvalue=   9.41699223E-01  local=  -3.22717870E+01
 4,5,6: 1st-order hamiltonian combined with 1st and 0th-order wfs
     kin1=  -6.33700765E+01  Hartree=   0.00000000E+00     xc=   0.00000000E+00
 7,8,9: eventually, occupation + non-local contributions
    edocc=   1.06093973E+01     enl0=   7.13784113E+00   enl1=   8.81179232E-01
 1-9 gives the relaxation energy (to be shifted if some occ is /=2.0)
   erelax=  -3.12444486E+01
  No Ewald or frozen-wf contrib.: the relaxation energy is the total one
 2DEtotal=   -0.3124444864E+02 Ha. Also 2DEtotal=   -0.850204685449E+03 eV
    (  non-var. 2DEtotal :   -3.1244448640E+01 Ha)

 CALCULATION OF EFFECTIVE MASSES
 NOTE : Additional infos (eff. mass eigenvalues, eigenvectors and, if degenerate, average mass) are available in stdout.

 COMMENTS:
 - At k-point ( 0.000, 0.000, 0.000), bands    44 through    45
   are DEGENERATE (effective mass tensor is therefore not defined).
   See Section IIIB Eqs. (67)-(70) and Appendix E of PRB 93 205147 (2016).
 - Angular average effective mass for Frohlich model is to be averaged over degenerate bands. See later.
 - Associated theta integrals calculated with ntheta=   1000 points.

 K-point ( 0.000, 0.000, 0.000) | band =    44
 Transport equivalent effective mass tensor:
             -0.6996666677             -0.0000000704             -0.0000163369
             -0.0000000704             -0.6996668988              0.0000203702
             -0.0000163369              0.0000203702             -0.3534075857
 Transport equivalent effective mass tensor eigenvalues:
             -0.6996669192             -0.6996666492             -0.3534075837
 Angular average effective mass 1/(<1/m>)=  -0.5274170992
 Angular average effective mass for Frohlich model (<m**0.5>)**2=  -0.5457013529
 Effective masses along directions: (cart. coord. / red. coord. -> eff. mass)
    1:   1.000000  0.000000  0.000000 /   0.894427 -0.447214  0.000000 ->  -0.6996667212
    2:   0.000000  1.000000  0.000000 /   0.000000  1.000000  0.000000 ->  -0.6996667213
    3:   0.000000  0.000000  1.000000 /   0.000000  0.000000  1.000000 ->  -0.3534072845
    4:   0.577350  0.577350  0.577350 /   0.769433  0.281632  0.573286 ->  -0.5274473160
    5:   0.000000  0.707107  0.707107 /   0.000000  0.758058  0.652188 ->  -0.4695706762
    6:   0.707107  0.000000  0.707107 /   0.744294 -0.372147  0.554556 ->  -0.4696079269
    7:   0.707107  0.707107  0.000000 /   0.939071  0.343724  0.000000 ->  -0.6996668262

 K-point ( 0.000, 0.000, 0.000) | band =    45
 Transport equivalent effective mass tensor:
             -0.8189776149              0.0000000886             -0.0000180269
              0.0000000886             -0.8189773384              0.0000238432
             -0.0000180269              0.0000238432             -0.3534076362
 Transport equivalent effective mass tensor eigenvalues:
             -0.8189776421             -0.8189773131             -0.3534076343
 Angular average effective mass 1/(<1/m>)=  -0.5690803449
 Angular average effective mass for Frohlich model (<m**0.5>)**2=  -0.5996193709
 Effective masses along directions: (cart. coord. / red. coord. -> eff. mass)
    1:   1.000000  0.000000  0.000000 /   0.894427 -0.447214  0.000000 ->  -0.8189775392
    2:   0.000000  1.000000  0.000000 /   0.000000  1.000000  0.000000 ->  -0.8189775327
    3:   0.000000  0.000000  1.000000 /   0.000000  0.000000  1.000000 ->  -0.3534079201
    4:   0.577350  0.577350  0.577350 /   0.769433  0.281632  0.573286 ->  -0.5690373092
    5:   0.000000  0.707107  0.707107 /   0.000000  0.758058  0.652188 ->  -0.4937547150
    6:   0.707107  0.000000  0.707107 /   0.744294 -0.372147  0.554556 ->  -0.4937849939
    7:   0.707107  0.707107  0.000000 /   0.939071  0.343724  0.000000 ->  -0.8189773881

 Angular average effective mass for Frohlich model, averaged over degenerate bands.
 Value of     (<<m**0.5>>)**2 =     5.723429E-01
 Absolute Value of <<m**0.5>> =     7.565335E-01

 K-point ( 0.000, 0.000, 0.500) | band =    46
 Effective mass tensor:
              0.8255506383             -0.0000000000             -0.0000000000
             -0.0000000000              0.8255506383             -0.0000000000
             -0.0000000000             -0.0000000000              0.1236262226
 Effective mass tensor eigenvalues:
              0.1236262226              0.8255506383              0.8255506383
 Angular average effective mass 1/(<1/m>)=   0.2854010449
 Angular average effective mass for Frohlich model (<m**0.5>)**2=   0.3735308570
 Effective masses along directions: (cart. coord. / red. coord. -> eff. mass)
    1:   1.000000  0.000000  0.000000 /   0.894427 -0.447214  0.000000 ->   0.8255506383
    2:   0.000000  1.000000  0.000000 /   0.000000  1.000000  0.000000 ->   0.8255506383
    3:   0.000000  0.000000  1.000000 /   0.000000  0.000000  1.000000 ->   0.1236262226
    4:   0.577350  0.577350  0.577350 /   0.769433  0.281632  0.573286 ->   0.2854010448
    5:   0.000000  0.707107  0.707107 /   0.000000  0.758058  0.652188 ->   0.2150488727
    6:   0.707107  0.000000  0.707107 /   0.744294 -0.372147  0.554556 ->   0.2150488727
    7:   0.707107  0.707107  0.000000 /   0.939071  0.343724  0.000000 ->   0.8255506383

 END OF EFFECTIVE MASSES SECTION

 ---- first-order wavefunction calculations are completed ----

 Total localisation tensor (bohr^2) in cartesian coordinates
  WARNING : still subject to testing - especially symmetries.
      direction              matrix element
   alpha     beta       real part   imaginary part
     1        1       2.5058869671    0.0000000000
     1        2      -0.8680646894    0.0000000000
     1        3       0.0000000000    0.0000000000
     2        1      -0.8680646894    0.0000000000
     2        2       1.5035321464    0.0000000000
     2        3       0.0000000000    0.0000000000
     3        1       0.0000000000    0.0000000000
     3        2       0.0000000000    0.0000000000
     3        3       2.3378584395    0.0000000000

 respfn : d/dk was computed, but no 2DTE, so no DDB output.

== END DATASET(S) ==============================================================

 -outvars: echo values of variables after computation  --------
            acell      1.0000000000E+00  1.0000000000E+00  1.0000000000E+00 Bohr
              amu      8.76200000E+01  3.09737620E+01
             ecut      3.40000000E+01 Hartree
           etotal     -3.1244448640E+01
            fcart      0.0000000000E+00  0.0000000000E+00  0.0000000000E+00
                       0.0000000000E+00  0.0000000000E+00  0.0000000000E+00
                       0.0000000000E+00  0.0000000000E+00  0.0000000000E+00
                       0.0000000000E+00  0.0000000000E+00  0.0000000000E+00
                       0.0000000000E+00  0.0000000000E+00  0.0000000000E+00
                       0.0000000000E+00  0.0000000000E+00  0.0000000000E+00
                       0.0000000000E+00  0.0000000000E+00  0.0000000000E+00
                       0.0000000000E+00  0.0000000000E+00  0.0000000000E+00
                       0.0000000000E+00  0.0000000000E+00  0.0000000000E+00
                       0.0000000000E+00  0.0000000000E+00  0.0000000000E+00
                       0.0000000000E+00  0.0000000000E+00  0.0000000000E+00
                       0.0000000000E+00  0.0000000000E+00  0.0000000000E+00
-          fftalg         512
           irdden           1
           irdwfk           1
           istwfk        1    1
              ixc     -116133
              kpt      0.00000000E+00  0.00000000E+00  0.00000000E+00
                       0.00000000E+00  0.00000000E+00  5.00000000E-01
           kptopt           0
P           mkmem           2
P          mkqmem           2
P          mk1mem           2
            natom          12
            nband          54
           nbdbuf           4
            ngfft          80      80      60
             nkpt           2
            nstep        2000
             nsym          12
           ntypat           2
              occ      2.000000  2.000000  2.000000  2.000000  2.000000  2.000000
                       2.000000  2.000000  2.000000  2.000000  2.000000  2.000000
                       2.000000  2.000000  2.000000  2.000000  2.000000  2.000000
                       2.000000  2.000000  2.000000  2.000000  2.000000  2.000000
                       2.000000  2.000000  2.000000  2.000000  2.000000  2.000000
                       2.000000  2.000000  2.000000  2.000000  2.000000  2.000000
                       2.000000  2.000000  2.000000  2.000000  2.000000  2.000000
                       2.000000  2.000000  2.000000  0.000000  0.000000  0.000000
                       0.000000  0.000000  0.000000  0.000000  0.000000  0.000000
        optdriver           1
            prtwf          -1
            rfdir           1       1       1
           rfelfd           2
            rprim      1.5099504165E+01  0.0000000000E+00  0.0000000000E+00
                      -7.5497520824E+00  1.3076554191E+01  0.0000000000E+00
                       0.0000000000E+00  0.0000000000E+00  1.1250287271E+01
          spgroup         189
           strten      0.0000000000E+00  0.0000000000E+00  0.0000000000E+00
                       0.0000000000E+00  0.0000000000E+00  0.0000000000E+00
           symrel      1  0  0   0  1  0   0  0  1       0  1  0   1  0  0   0  0  1
                      -1 -1  0   1  0  0   0  0 -1       1  0  0  -1 -1  0   0  0 -1
                       0  1  0  -1 -1  0   0  0  1      -1 -1  0   0  1  0   0  0  1
                       1  0  0   0  1  0   0  0 -1       0  1  0   1  0  0   0  0 -1
                      -1 -1  0   1  0  0   0  0  1       1  0  0  -1 -1  0   0  0  1
                       0  1  0  -1 -1  0   0  0 -1      -1 -1  0   0  1  0   0  0 -1
           tolwfr      1.00000000E-20
            typat      1  1  1  1  1  1  2  2  2  2  2  2
           useylm           1
              wtk        0.50000    0.50000
           xangst      2.8709356086E+00 -2.5608457743E-16  2.9766978070E+00
                      -1.4354678043E+00  2.4863031697E+00  2.9766978070E+00
                       2.5596889282E+00  4.4335112753E+00  2.9766978070E+00
                       5.5475867454E+00 -2.5608457743E-16  0.0000000000E+00
                      -2.7737933727E+00  4.8043510512E+00  0.0000000000E+00
                       1.2213633599E+00  2.1154633938E+00  0.0000000000E+00
                       1.7639241746E-11  4.6132096300E+00  1.1530417557E+00
                       1.7639241746E-11  4.6132096300E+00  4.8003538582E+00
                       3.9951567325E+00  2.3066048150E+00  4.8003538582E+00
                       3.9951567325E+00  2.3066048150E+00  1.1530417557E+00
                       7.3925249857E-17 -2.5608457743E-16  4.0990081345E+00
                       7.3925249857E-17 -2.5608457743E-16  1.8543874794E+00
            xcart      5.4252820455E+00 -4.8392971820E-16  5.6251436355E+00
                      -2.7126410227E+00  4.6984320741E+00  5.6251436355E+00
                       4.8371110598E+00  8.3781221173E+00  5.6251436355E+00
                       1.0483419647E+01 -4.8392971820E-16  0.0000000000E+00
                      -5.2417098235E+00  9.0789077330E+00  0.0000000000E+00
                       2.3080422589E+00  3.9976464584E+00  0.0000000000E+00
                       3.3333336091E-11  8.7177027943E+00  2.1789331381E+00
                       3.3333336091E-11  8.7177027943E+00  9.0713541330E+00
                       7.5497520825E+00  4.3588513971E+00  9.0713541330E+00
                       7.5497520825E+00  4.3588513971E+00  2.1789331381E+00
                       1.3969847653E-16 -4.8392971820E-16  7.7460027907E+00
                       1.3969847653E-16 -4.8392971820E-16  3.5042844804E+00
             xred      3.5930200000E-01 -3.7007434154E-17  5.0000000000E-01
                      -9.2518585385E-18  3.5930200000E-01  5.0000000000E-01
                       6.4069800000E-01  6.4069800000E-01  5.0000000000E-01
                       6.9428900000E-01 -3.7007434154E-17  0.0000000000E+00
                      -9.2518585385E-18  6.9428900000E-01  0.0000000000E+00
                       3.0571100000E-01  3.0571100000E-01  0.0000000000E+00
                       3.3333333333E-01  6.6666666667E-01  1.9367800000E-01
                       3.3333333333E-01  6.6666666667E-01  8.0632200000E-01
                       6.6666666667E-01  3.3333333333E-01  8.0632200000E-01
                       6.6666666667E-01  3.3333333333E-01  1.9367800000E-01
                      -9.2518585385E-18 -3.7007434154E-17  6.8851600000E-01
                      -9.2518585385E-18 -3.7007434154E-17  3.1148400000E-01
            znucl       38.00000   15.00000

- Timing analysis has been suppressed with timopt=0

 Suggested references for the acknowledgment of ABINIT usage.

 Calculation completed.
.Delivered   2 WARNINGs and   5 COMMENTs to log file.