.Version 9.7.2 of ABINIT

 ABINIT is a project of the Universite Catholique de Louvain,
 Corning Inc. and other collaborators, see ~abinit/doc/developers/contributors.txt .
 acknowledgments of the ABINIT effort.

.Starting date : Wed  1 Dec 2021.
- ( at 22h08 )

- input  file    -> /scratch/users/j/a/jabreu/flow_simple_remain_atoms/flow/w284/t1/run.abi
- output file    -> /scratch/users/j/a/jabreu/flow_simple_remain_atoms/flow/w284/t1/run.abo
- root for input  files -> /scratch/users/j/a/jabreu/flow_simple_remain_atoms/flow/w284/t1/indata/in
- root for output files -> /scratch/users/j/a/jabreu/flow_simple_remain_atoms/flow/w284/t1/outdata/out

 Symmetries : space group Pn n m (# 58); Bravais oP (primitive ortho.)
     intxc =       0      iscf =       7    lmnmax =      18     lnmax =       6
     mgfft =      72  mpssoang =       3    mqgrid =    3317     natom =       6
  nloc_mem =       1    nspden =       1   nspinor =       1    nsppol =       1
      nsym =       8    n1xccc =    2501    ntypat =       2    occopt =       1
   xclevel =       2
-    mband =          57        mffmem =           1         mkmem =           2
-   mkqmem =           2        mk1mem =           2           mpw =        9920
      nfft =      194400          nkpt =           2
  Rough estimation (10% accuracy) of disk space for files :

------------- Echo of variables that govern the present computation ------------
-
- outvars: echo of selected default values
-   iomode0 =  0 , fftalg0 =512 , wfoptalg0 =  0
-
- outvars: echo of global parameters not present in the input file
-  max_nthreads =    0
-
 -outvars: echo values of preprocessed input variables --------
            acell      1.0000000000E+00  1.0000000000E+00  1.0000000000E+00 Bohr
              amu      5.58470000E+01  7.89600000E+01
             ecut      4.70000000E+01 Hartree
-          fftalg         512
           irdden           1
           irdwfk           1
           istwfk        0    1
              ixc     -116133
              kpt      0.00000000E+00  3.50000000E-01  0.00000000E+00
                       5.00000000E-01  0.00000000E+00  5.00000000E-01
           kptopt           0
P           mkmem           2
P          mkqmem           2
P          mk1mem           2
            natom           6
            nband          57
           nbdbuf           4
            ngfft          45      60      72
             nkpt           2
            nstep        2000
             nsym           8
           ntypat           2
              occ      2.000000  2.000000  2.000000  2.000000  2.000000  2.000000
                       2.000000  2.000000  2.000000  2.000000  2.000000  2.000000
                       2.000000  2.000000  2.000000  2.000000  2.000000  2.000000
                       2.000000  2.000000  2.000000  2.000000  2.000000  2.000000
                       2.000000  2.000000  2.000000  2.000000  2.000000  2.000000
                       2.000000  2.000000  2.000000  2.000000  2.000000  2.000000
                       2.000000  2.000000  2.000000  2.000000  2.000000  2.000000
                       2.000000  2.000000  2.000000  2.000000  2.000000  2.000000
                       0.000000  0.000000  0.000000  0.000000  0.000000  0.000000
                       0.000000  0.000000  0.000000
        optdriver           1
            prtwf          -1
            rfdir           1       1       1
           rfelfd           2
            rprim      6.6989366831E+00  0.0000000000E+00  0.0000000000E+00
                       0.0000000000E+00  8.9204834274E+00  0.0000000000E+00
                       0.0000000000E+00  0.0000000000E+00  1.0745839263E+01
          spgroup          58
           symrel      1  0  0   0  1  0   0  0  1      -1  0  0   0 -1  0   0  0 -1
                      -1  0  0   0  1  0   0  0 -1       1  0  0   0 -1  0   0  0  1
                      -1  0  0   0 -1  0   0  0  1       1  0  0   0  1  0   0  0 -1
                       1  0  0   0 -1  0   0  0 -1      -1  0  0   0  1  0   0  0  1
            tnons      0.0000000  0.0000000  0.0000000     0.0000000  0.0000000  0.0000000
                       0.5000000  0.5000000  0.5000000     0.5000000  0.5000000  0.5000000
                       0.5000000  0.5000000  0.5000000     0.5000000  0.5000000  0.5000000
                       0.0000000  0.0000000  0.0000000     0.0000000  0.0000000  0.0000000
           tolwfr      1.00000000E-20
            typat      1  1  2  2  2  2
           useylm           1
              wtk        0.50000    0.50000
           xangst      0.0000000000E+00  0.0000000000E+00  0.0000000000E+00
                       1.7724623072E+00  2.3602582597E+00  2.8432266126E+00
                       0.0000000000E+00  1.0345767235E+00  2.0841590309E+00
                       0.0000000000E+00  3.6859397959E+00  3.6022941942E+00
                       1.7724623072E+00  3.3948349832E+00  7.5906758167E-01
                       1.7724623072E+00  1.3256815362E+00  4.9273856435E+00
            xcart      0.0000000000E+00  0.0000000000E+00  0.0000000000E+00
                       3.3494683416E+00  4.4602417137E+00  5.3729196315E+00
                       0.0000000000E+00  1.9550666708E+00  3.9384897858E+00
                       0.0000000000E+00  6.9654167566E+00  6.8073494772E+00
                       3.3494683416E+00  6.4153083845E+00  1.4344298457E+00
                       3.3494683416E+00  2.5051750429E+00  9.3114094173E+00
             xred      0.0000000000E+00  0.0000000000E+00  0.0000000000E+00
                       5.0000000000E-01  5.0000000000E-01  5.0000000000E-01
                       0.0000000000E+00  2.1916600000E-01  3.6651300000E-01
                       0.0000000000E+00  7.8083400000E-01  6.3348700000E-01
                       5.0000000000E-01  7.1916600000E-01  1.3348700000E-01
                       5.0000000000E-01  2.8083400000E-01  8.6651300000E-01
            znucl       26.00000   34.00000

 chkinp: Checking input parameters for consistency.

== DATASET  1 ==================================================================
-   mpi_nproc: 1, omp_nthreads: -1 (-1 if OMP is not activated)

--- !DatasetInfo
iteration_state: {dtset: 1, }
dimensions: {natom: 6, nkpt: 2, mband: 57, nsppol: 1, nspinor: 1, nspden: 1, mpw: 9920, }
cutoff_energies: {ecut:  47.0, pawecutdg:  -1.0, }
electrons: {nelect:   9.60000000E+01, charge:   0.00000000E+00, occopt:   1.00000000E+00, tsmear:   1.00000000E-02, }
meta: {optdriver: 1, rfelfd: 2, }
...

 Real(R)+Recip(G) space primitive vectors, cartesian coordinates (Bohr,Bohr^-1):
 R(1)=  6.6989367  0.0000000  0.0000000  G(1)=  0.1492774  0.0000000  0.0000000
 R(2)=  0.0000000  8.9204834  0.0000000  G(2)=  0.0000000  0.1121015  0.0000000
 R(3)=  0.0000000  0.0000000 10.7458393  G(3)=  0.0000000  0.0000000  0.0930593
 Unit cell volume ucvol=  6.4214722E+02 bohr^3
 Angles (23,13,12)=  9.00000000E+01  9.00000000E+01  9.00000000E+01 degrees

 getcut: wavevector=  0.0000  0.0000  0.0000  ngfft=  45  60  72
         ecut(hartree)=     47.000   => boxcut(ratio)=   2.12830

--- Pseudopotential description ------------------------------------------------
- pspini: atom type   1  psp file is /scratch/users/j/a/jabreu/pseudos/PBEsol/Fe.psp8
- pspatm: opening atomic psp file    /scratch/users/j/a/jabreu/pseudos/PBEsol/Fe.psp8
- Fe    ONCVPSP-3.3.0  r_core=   1.26437   1.20546   1.56719
- 26.00000  16.00000    180112                znucl, zion, pspdat
    8 -116133    2    4       600   0.00000   pspcod,pspxc,lmax,lloc,mmax,r2well
    5.99000000000000    3.00000000000000    0.00000000000000   rchrg,fchrg,qchrg
     nproj     2     2     2
     extension_switch     1
  pspatm : epsatm=   15.04792780
         --- l  ekb(1:nproj) -->
             0   10.133364    1.456638
             1    1.580231   -0.508538
             2   -5.545701   -2.037616
 pspatm: atomic psp has been read  and splines computed

- pspini: atom type   2  psp file is /scratch/users/j/a/jabreu/pseudos/PBEsol/Se.psp8
- pspatm: opening atomic psp file    /scratch/users/j/a/jabreu/pseudos/PBEsol/Se.psp8
- Se    ONCVPSP-3.3.0  r_core=   1.81943   1.50330   1.90835
- 34.00000  16.00000    180112                znucl, zion, pspdat
    8 -116133    2    4       600   0.00000   pspcod,pspxc,lmax,lloc,mmax,r2well
    5.99000000000000    5.00000000000000    0.00000000000000   rchrg,fchrg,qchrg
     nproj     2     2     2
     extension_switch     1
  pspatm : epsatm=   29.17862020
         --- l  ekb(1:nproj) -->
             0    8.973804    1.019550
             1    6.849857    1.297308
             2   -9.203962   -3.731027
 pspatm: atomic psp has been read  and splines computed

   1.40937923E+04                                ecore*ucvol(ha*bohr**3)

 ==>  initialize data related to q vector <==

 The list of irreducible perturbations for this q vector is:
    1)    idir= 1    ipert=   7
    2)    idir= 2    ipert=   7
    3)    idir= 3    ipert=   7

 Perturbation wavevector (in red.coord.)   0.000000  0.000000  0.000000
 Perturbation : derivative vs k along direction   1

 dfpt_looppert : COMMENT -
  In a d/dk calculation, iscf is set to -3 automatically.
 The set of symmetries contains only one element for this perturbation.
 symkpt : not enough symmetry to change the number of k points.

 Initialisation of the first-order wave-functions :
  ireadwf=   0

--- !BeginCycle
iteration_state: {dtset: 1, }
solver: {iscf: 7, nstep: 2000, nline: 4, wfoptalg: 0, }
tolerances: {tolwfr: 1.00E-20, }
...

     iter   2DEtotal(Ha)        deltaE(Ha) residm    vres2
-ETOT  1  -175.56856658422     -1.756E+02 6.508E-01 0.000E+00
 ETOT  2  -175.92250370908     -3.539E-01 1.976E-02 0.000E+00
 ETOT  3  -175.93227965554     -9.776E-03 1.558E-03 0.000E+00
 ETOT  4  -175.93278259352     -5.029E-04 1.982E-04 0.000E+00
 ETOT  5  -175.93281309042     -3.050E-05 1.664E-05 0.000E+00
 ETOT  6  -175.93281511899     -2.029E-06 2.619E-06 0.000E+00
 ETOT  7  -175.93281526339     -1.444E-07 2.098E-07 0.000E+00
 ETOT  8  -175.93281527422     -1.083E-08 3.980E-08 0.000E+00
 ETOT  9  -175.93281527506     -8.434E-10 3.041E-09 0.000E+00
 ETOT 10  -175.93281527513     -6.798E-11 6.271E-10 0.000E+00
 ETOT 11  -175.93281527513     -5.627E-12 4.710E-11 0.000E+00
 ETOT 12  -175.93281527513     -4.547E-13 1.008E-11 0.000E+00
 ETOT 13  -175.93281527513     -5.684E-14 7.422E-13 0.000E+00
 ETOT 14  -175.93281527513      0.000E+00 1.645E-13 0.000E+00
 ETOT 15  -175.93281527513      5.684E-14 1.187E-14 0.000E+00
 ETOT 16  -175.93281527513     -8.527E-14 2.715E-15 0.000E+00
 ETOT 17  -175.93281527513      5.684E-14 1.922E-16 0.000E+00
 ETOT 18  -175.93281527513      2.842E-14 4.519E-17 0.000E+00
 ETOT 19  -175.93281527513     -2.842E-14 3.150E-18 0.000E+00
 ETOT 20  -175.93281527513      2.842E-14 7.577E-19 0.000E+00
 ETOT 21  -175.93281527513      2.842E-14 5.216E-20 0.000E+00
 ETOT 22  -175.93281527513     -8.527E-14 1.278E-20 0.000E+00
 ETOT 23  -175.93281527513      2.842E-14 9.954E-21 0.000E+00

 At SCF step   23   max residual=  9.95E-21 < tolwfr=  1.00E-20 =>converged.

 ----iterations are completed or convergence reached----

[...]
  -0.00000    0.00000   -0.00000    0.00000   -0.00000    0.00000    0.00000   -0.00000
   0.00000    0.00000   -0.00000    0.00000   -0.00000    0.00000   -0.00000   -0.00000
   0.00000   -0.00000   -0.00000   -0.00000   -0.00000   -0.00000   -0.00000    0.00000
  -0.00000   -0.00000    0.00000    0.00000   -0.00000   -0.00000   -0.00000    0.00000
  -0.00000
 prteigrs : prtvol=0 or 1, do not print more k-points.

 Eight components of 2nd-order total energy (hartree) are
 1,2,3: 0th-order hamiltonian combined with 1st-order wavefunctions
     kin0=   2.09139288E+02 eigvalue=   1.76071712E+01  local=  -8.44375212E+01
 4,5,6: 1st-order hamiltonian combined with 1st and 0th-order wfs
     kin1=  -1.73733601E+02  Hartree=   0.00000000E+00     xc=   0.00000000E+00
 7,8,9: eventually, occupation + non-local contributions
    edocc=   2.14364364E+01     enl0=   1.21874409E+01   enl1=  -1.78132029E+02
 1-9 gives the relaxation energy (to be shifted if some occ is /=2.0)
   erelax=  -1.75932815E+02
  No Ewald or frozen-wf contrib.: the relaxation energy is the total one
 2DEtotal=   -0.1759328153E+03 Ha. Also 2DEtotal=   -0.478737537002E+04 eV
    (  non-var. 2DEtotal :   -1.7593281527E+02 Ha)

 Perturbation wavevector (in red.coord.)   0.000000  0.000000  0.000000
 Perturbation : derivative vs k along direction   2
 The set of symmetries contains only one element for this perturbation.
 symkpt : not enough symmetry to change the number of k points.

[...]

 Perturbation wavevector (in red.coord.)   0.000000  0.000000  0.000000
 Perturbation : derivative vs k along direction   3
 The set of symmetries contains only one element for this perturbation.
 symkpt : not enough symmetry to change the number of k points.

 Initialisation of the first-order wave-functions :
  ireadwf=   0

--- !BeginCycle
iteration_state: {dtset: 1, }
solver: {iscf: 7, nstep: 2000, nline: 4, wfoptalg: 0, }
tolerances: {tolwfr: 1.00E-20, }
...

     iter   2DEtotal(Ha)        deltaE(Ha) residm    vres2
-ETOT  1  -68.466925273294     -6.847E+01 3.787E-01 0.000E+00
 ETOT  2  -68.584650189387     -1.177E-01 1.070E-02 0.000E+00
 ETOT  3  -68.587116545925     -2.466E-03 1.668E-03 0.000E+00
 ETOT  4  -68.587226531423     -1.100E-04 6.842E-05 0.000E+00
 ETOT  5  -68.587232995333     -6.464E-06 1.813E-05 0.000E+00
 ETOT  6  -68.587233436411     -4.411E-07 7.647E-07 0.000E+00
 ETOT  7  -68.587233469642     -3.323E-08 2.324E-07 0.000E+00
 ETOT  8  -68.587233472299     -2.656E-09 1.002E-08 0.000E+00
 ETOT  9  -68.587233472519     -2.209E-10 3.117E-09 0.000E+00
 ETOT 10  -68.587233472538     -1.883E-11 1.362E-10 0.000E+00
 ETOT 11  -68.587233472540     -1.663E-12 4.269E-11 0.000E+00
 ETOT 12  -68.587233472540     -9.948E-14 1.885E-12 0.000E+00
 ETOT 13  -68.587233472540     -2.842E-14 5.943E-13 0.000E+00
 ETOT 14  -68.587233472540      1.421E-14 2.639E-14 0.000E+00
 ETOT 15  -68.587233472540      1.421E-14 8.357E-15 0.000E+00
 ETOT 16  -68.587233472540     -4.263E-14 3.880E-16 0.000E+00
 ETOT 17  -68.587233472540      4.263E-14 1.184E-16 0.000E+00
 ETOT 18  -68.587233472540     -2.842E-14 6.734E-18 0.000E+00
 ETOT 19  -68.587233472540      1.421E-14 1.687E-18 0.000E+00
 ETOT 20  -68.587233472540     -1.421E-14 1.171E-19 0.000E+00
 ETOT 21  -68.587233472540      0.000E+00 2.414E-20 0.000E+00
 ETOT 22  -68.587233472540      2.842E-14 9.998E-21 0.000E+00

 At SCF step   22   max residual=  1.00E-20 < tolwfr=  1.00E-20 =>converged.

 ----iterations are completed or convergence reached----

 dfpt_looppert: DFPT cycle converged with prtwf=-1. Will skip output of the 1st-order WFK file.
 dfpt_looppert : ek2=    6.5641770330E+01
          f-sum rule ratio=    1.0331667970E+00
 prteigrs : about to open file /scratch/users/j/a/jabreu/flow_simple_remain_atoms/flow/w284/t1/tmpdata/tmp_1WF1_EIG
 Expectation of eigenvalue derivatives (hartree) for nkpt=   2  k points:
  (in case of degenerate eigenvalues, averaged derivative)
 kpt#   1, nband= 57, wtk=  0.50000, kpt=  0.0000  0.3500  0.0000 (reduced coord)
   0.00000   -0.00000    0.00000   -0.00000    0.00000   -0.00000   -0.00000    0.00000
  -0.00000    0.00000    0.00000   -0.00000   -0.00000    0.00000    0.00000    0.00000
   0.00000   -0.00000    0.00000   -0.00000   -0.00000    0.00000   -0.00000    0.00000
   0.00000   -0.00000    0.00000   -0.00000   -0.00000    0.00000   -0.00000    0.00000
  -0.00000    0.00000    0.00000   -0.00000    0.00000   -0.00000   -0.00000   -0.00000
   0.00000    0.00000   -0.00000    0.00000   -0.00000    0.00000    0.00000   -0.00000
   0.00000   -0.00000   -0.00000   -0.00000    0.00000    0.00000   -0.00000   -0.00000
   0.00000
 prteigrs : prtvol=0 or 1, do not print more k-points.

 Eight components of 2nd-order total energy (hartree) are
 1,2,3: 0th-order hamiltonian combined with 1st-order wavefunctions
     kin0=   7.70100047E+01 eigvalue=   7.30893906E+00  local=  -2.98472251E+01
 4,5,6: 1st-order hamiltonian combined with 1st and 0th-order wfs
     kin1=  -6.78188976E+01  Hartree=   0.00000000E+00     xc=   0.00000000E+00
 7,8,9: eventually, occupation + non-local contributions
    edocc=   9.19389324E+00     enl0=   4.92162163E+00   enl1=  -6.93555693E+01
 1-9 gives the relaxation energy (to be shifted if some occ is /=2.0)
   erelax=  -6.85872335E+01
  No Ewald or frozen-wf contrib.: the relaxation energy is the total one
 2DEtotal=   -0.6858723347E+02 Ha. Also 2DEtotal=   -0.186635353792E+04 eV
    (  non-var. 2DEtotal :   -6.8587233472E+01 Ha)

 CALCULATION OF EFFECTIVE MASSES
 NOTE : Additional infos (eff. mass eigenvalues, eigenvectors and, if degenerate, average mass) are available in stdout.

--- !WARNING
src_file: m_efmas.F90
src_line: 0
message: |
    Effective masses calculations require given k-point(s) to be band extrema for given bands, but max abs gradient of band(s) was found to be greater than 1e-5. Abinit will continue anyway.
...

--- !WARNING
src_file: m_efmas.F90
src_line: 0
message: |
    Effective masses calculations require given k-point(s) to be band extrema for given bands, but max abs gradient of band(s) was found to be greater than 1e-5. Abinit will continue anyway.
...

 K-point ( 0.000, 0.350, 0.000) | band =    48
 Effective mass tensor:
             -0.6709135912              0.0000000001             -0.0000000003
              0.0000000001             -0.4402518865              0.0000002914
             -0.0000000003              0.0000002914             -1.3973353857
 Effective mass tensor eigenvalues:
             -1.3973353857             -0.6709135912             -0.4402518865
 Angular average effective mass 1/(<1/m>)=  -0.6700048300
 Angular average effective mass for Frohlich model (<m**0.5>)**2=  -0.7119051955
 Effective masses along directions: (cart. coord. / red. coord. -> eff. mass)
    1:   1.000000  0.000000  0.000000 /   1.000000  0.000000  0.000000 ->  -0.6709135912
    2:   0.000000  1.000000  0.000000 /   0.000000  1.000000  0.000000 ->  -0.4402518865
    3:   0.000000  0.000000  1.000000 /   0.000000  0.000000  1.000000 ->  -1.3973353857
    4:   0.577350  0.577350  0.577350 /   0.432483  0.575906  0.693751 ->  -0.6700046883
    5:   0.000000  0.707107  0.707107 /   0.000000  0.638730  0.769431 ->  -0.6695511596
    6:   0.707107  0.000000  0.707107 /   0.529021  0.000000  0.848609 ->  -0.9065555574
    7:   0.707107  0.707107  0.000000 /   0.600492  0.799631  0.000000 ->  -0.5316417403

 COMMENTS:
 - At k-point ( 0.500, 0.000, 0.500), bands    49 through    50
   are DEGENERATE (effective mass tensor is therefore not defined).
   See Section IIIB Eqs. (67)-(70) and Appendix E of PRB 93 205147 (2016).
 - Angular average effective mass for Frohlich model is to be averaged over degenerate bands. See later.
 - Associated theta integrals calculated with ntheta=   1000 points.

 K-point ( 0.500, 0.000, 0.500) | band =    49
 Transport equivalent effective mass tensor:
             15.1345599672             -0.0000033088              0.0000014906
             -0.0000033088             12.2936885459             -0.0000037779
              0.0000014906             -0.0000037779              7.3604490670
 Transport equivalent effective mass tensor eigenvalues:
             15.1345599672             12.2936885459              7.3604490670
 Angular average effective mass 1/(<1/m>)=   2.4626997598
 Angular average effective mass for Frohlich model (<m**0.5>)**2=   2.8483155083
 Effective masses along directions: (cart. coord. / red. coord. -> eff. mass)
    1:   1.000000  0.000000  0.000000 /   1.000000  0.000000  0.000000 ->   1.7448858594
    2:   0.000000  1.000000  0.000000 /   0.000000  1.000000  0.000000 ->   1.3164906496
    3:   0.000000  0.000000  1.000000 /   0.000000  0.000000  1.000000 ->   0.9198650401
    4:   0.577350  0.577350  0.577350 /   0.432483  0.575906  0.693751 ->   4.4277649458
    5:   0.000000  0.707107  0.707107 /   0.000000  0.638730  0.769431 ->   6.9160973424
    6:   0.707107  0.000000  0.707107 /   0.529021  0.000000  0.848609 ->   2.2741683759
    7:   0.707107  0.707107  0.000000 /   0.600492  0.799631  0.000000 ->   1.5007144712

 K-point ( 0.500, 0.000, 0.500) | band =    50
 Transport equivalent effective mass tensor:
              2.0230818392             -0.0000001575              0.0000000682
             -0.0000001575              1.2110250126             -0.0000000916
              0.0000000682             -0.0000000916              0.5952260031
 Transport equivalent effective mass tensor eigenvalues:
              2.0230818392              1.2110250126              0.5952260031
 Angular average effective mass 1/(<1/m>)=   0.8283962187
 Angular average effective mass for Frohlich model (<m**0.5>)**2=   0.8732997458
 Effective masses along directions: (cart. coord. / red. coord. -> eff. mass)
    1:   1.000000  0.000000  0.000000 /   1.000000  0.000000  0.000000 ->   1.7448825052
    2:   0.000000  1.000000  0.000000 /   0.000000  1.000000  0.000000 ->   1.3164904032
    3:   0.000000  0.000000  1.000000 /   0.000000  0.000000  1.000000 ->   0.9198647930
    4:   0.577350  0.577350  0.577350 /   0.432483  0.575906  0.693751 ->   0.7207919603
    5:   0.000000  0.707107  0.707107 /   0.000000  0.638730  0.769431 ->   0.5875021888
    6:   0.707107  0.000000  0.707107 /   0.529021  0.000000  0.848609 ->   0.8193371254
    7:   0.707107  0.707107  0.000000 /   0.600492  0.799631  0.000000 ->   1.5007123275

 Angular average effective mass for Frohlich model, averaged over degenerate bands.
 Value of     (<<m**0.5>>)**2 =     1.718984E+00
 Absolute Value of <<m**0.5>> =     1.311100E+00

 END OF EFFECTIVE MASSES SECTION

 ---- first-order wavefunction calculations are completed ----

 Total localisation tensor (bohr^2) in cartesian coordinates
  WARNING : still subject to testing - especially symmetries.
      direction              matrix element
   alpha     beta       real part   imaginary part
     1        1       0.9309314822    0.0000000000
     1        2       0.0000000000    0.0000000000
     1        3       0.0000000000    0.0000000000
     2        1       0.0000000000    0.0000000000
     2        2       1.0097463373    0.0000000000
     2        3       0.0000000000    0.0000000000
     3        1       0.0000000000    0.0000000000
     3        2       0.0000000000    0.0000000000
     3        3       1.0239985611    0.0000000000

 respfn : d/dk was computed, but no 2DTE, so no DDB output.

== END DATASET(S) ==============================================================

 -outvars: echo values of variables after computation  --------
            acell      1.0000000000E+00  1.0000000000E+00  1.0000000000E+00 Bohr
              amu      5.58470000E+01  7.89600000E+01
             ecut      4.70000000E+01 Hartree
           etotal     -6.8587233473E+01
            fcart      0.0000000000E+00  0.0000000000E+00  0.0000000000E+00
                       0.0000000000E+00  0.0000000000E+00  0.0000000000E+00
                       0.0000000000E+00  0.0000000000E+00  0.0000000000E+00
                       0.0000000000E+00  0.0000000000E+00  0.0000000000E+00
                       0.0000000000E+00  0.0000000000E+00  0.0000000000E+00
                       0.0000000000E+00  0.0000000000E+00  0.0000000000E+00
-          fftalg         512
           irdden           1
           irdwfk           1
           istwfk        0    1
              ixc     -116133
              kpt      0.00000000E+00  3.50000000E-01  0.00000000E+00
                       5.00000000E-01  0.00000000E+00  5.00000000E-01
           kptopt           0
P           mkmem           2
P          mkqmem           2
P          mk1mem           2
            natom           6
            nband          57
           nbdbuf           4
            ngfft          45      60      72
             nkpt           2
            nstep        2000
             nsym           8
           ntypat           2
              occ      2.000000  2.000000  2.000000  2.000000  2.000000  2.000000
                       2.000000  2.000000  2.000000  2.000000  2.000000  2.000000
                       2.000000  2.000000  2.000000  2.000000  2.000000  2.000000
                       2.000000  2.000000  2.000000  2.000000  2.000000  2.000000
                       2.000000  2.000000  2.000000  2.000000  2.000000  2.000000
                       2.000000  2.000000  2.000000  2.000000  2.000000  2.000000
                       2.000000  2.000000  2.000000  2.000000  2.000000  2.000000
                       2.000000  2.000000  2.000000  2.000000  2.000000  2.000000
                       0.000000  0.000000  0.000000  0.000000  0.000000  0.000000
                       0.000000  0.000000  0.000000
        optdriver           1
            prtwf          -1
            rfdir           1       1       1
           rfelfd           2
            rprim      6.6989366831E+00  0.0000000000E+00  0.0000000000E+00
                       0.0000000000E+00  8.9204834274E+00  0.0000000000E+00
                       0.0000000000E+00  0.0000000000E+00  1.0745839263E+01
          spgroup          58
           strten      0.0000000000E+00  0.0000000000E+00  0.0000000000E+00
                       0.0000000000E+00  0.0000000000E+00  0.0000000000E+00
           symrel      1  0  0   0  1  0   0  0  1      -1  0  0   0 -1  0   0  0 -1
                      -1  0  0   0  1  0   0  0 -1       1  0  0   0 -1  0   0  0  1
                      -1  0  0   0 -1  0   0  0  1       1  0  0   0  1  0   0  0 -1
                       1  0  0   0 -1  0   0  0 -1      -1  0  0   0  1  0   0  0  1
            tnons      0.0000000  0.0000000  0.0000000     0.0000000  0.0000000  0.0000000
                       0.5000000  0.5000000  0.5000000     0.5000000  0.5000000  0.5000000
                       0.5000000  0.5000000  0.5000000     0.5000000  0.5000000  0.5000000
                       0.0000000  0.0000000  0.0000000     0.0000000  0.0000000  0.0000000
           tolwfr      1.00000000E-20
            typat      1  1  2  2  2  2
           useylm           1
              wtk        0.50000    0.50000
           xangst      0.0000000000E+00  0.0000000000E+00  0.0000000000E+00
                       1.7724623072E+00  2.3602582597E+00  2.8432266126E+00
                       0.0000000000E+00  1.0345767235E+00  2.0841590309E+00
                       0.0000000000E+00  3.6859397959E+00  3.6022941942E+00
                       1.7724623072E+00  3.3948349832E+00  7.5906758167E-01
                       1.7724623072E+00  1.3256815362E+00  4.9273856435E+00
            xcart      0.0000000000E+00  0.0000000000E+00  0.0000000000E+00
                       3.3494683416E+00  4.4602417137E+00  5.3729196315E+00
                       0.0000000000E+00  1.9550666708E+00  3.9384897858E+00
                       0.0000000000E+00  6.9654167566E+00  6.8073494772E+00
                       3.3494683416E+00  6.4153083845E+00  1.4344298457E+00
                       3.3494683416E+00  2.5051750429E+00  9.3114094173E+00
             xred      0.0000000000E+00  0.0000000000E+00  0.0000000000E+00
                       5.0000000000E-01  5.0000000000E-01  5.0000000000E-01
                       0.0000000000E+00  2.1916600000E-01  3.6651300000E-01
                       0.0000000000E+00  7.8083400000E-01  6.3348700000E-01
                       5.0000000000E-01  7.1916600000E-01  1.3348700000E-01
                       5.0000000000E-01  2.8083400000E-01  8.6651300000E-01
            znucl       26.00000   34.00000

- Timing analysis has been suppressed with timopt=0

 Suggested references for the acknowledgment of ABINIT usage.

 Calculation completed.
.Delivered   6 WARNINGs and   5 COMMENTs to log file.