.Version 9.7.2 of ABINIT

 ABINIT is a project of the Universite Catholique de Louvain,
 Corning Inc. and other collaborators, see ~abinit/doc/developers/contributors.txt .
 acknowledgments of the ABINIT effort.

.Starting date : Wed  1 Dec 2021.
- ( at 22h09 )

- input  file    -> /scratch/users/j/a/jabreu/flow_simple_remain_atoms/flow/w287/t1/run.abi
- output file    -> /scratch/users/j/a/jabreu/flow_simple_remain_atoms/flow/w287/t1/run.abo
- root for input  files -> /scratch/users/j/a/jabreu/flow_simple_remain_atoms/flow/w287/t1/indata/in
- root for output files -> /scratch/users/j/a/jabreu/flow_simple_remain_atoms/flow/w287/t1/outdata/out

 Symmetries : space group P-3 m 1 (#164); Bravais hP (primitive hexag.)
     intxc =       0      iscf =       7    lmnmax =      18     lnmax =       6
     mgfft =      75  mpssoang =       3    mqgrid =    3688     natom =       5
  nloc_mem =       1    nspden =       1   nspinor =       1    nsppol =       1
      nsym =      12    n1xccc =    2501    ntypat =       2    occopt =       1
   xclevel =       2
-    mband =          39        mffmem =           1         mkmem =           1
-   mkqmem =           1        mk1mem =           1           mpw =        9175
      nfft =      172800          nkpt =           1
  Rough estimation (10% accuracy) of disk space for files :

------------- Echo of variables that govern the present computation ------------
-
- outvars: echo of selected default values
-   iomode0 =  0 , fftalg0 =512 , wfoptalg0 =  0
-
- outvars: echo of global parameters not present in the input file
-  max_nthreads =    0
-
 -outvars: echo values of preprocessed input variables --------
            acell      1.0000000000E+00  1.0000000000E+00  1.0000000000E+00 Bohr
              amu      2.43050000E+01  7.49215900E+01
             ecut      4.20000000E+01 Hartree
-          fftalg         512
           irdden           1
           irdwfk           1
           istwfk        1
              ixc     -116133
           kptopt           0
P           mkmem           1
P          mkqmem           1
P          mk1mem           1
            natom           5
            nband          39
           nbdbuf           4
            ngfft          48      48      75
             nkpt           1
            nstep        2000
             nsym          12
           ntypat           2
              occ      2.000000  2.000000  2.000000  2.000000  2.000000  2.000000
                       2.000000  2.000000  2.000000  2.000000  2.000000  2.000000
                       2.000000  2.000000  2.000000  2.000000  2.000000  2.000000
                       2.000000  2.000000  2.000000  2.000000  2.000000  2.000000
                       2.000000  2.000000  2.000000  2.000000  2.000000  2.000000
                       0.000000  0.000000  0.000000  0.000000  0.000000  0.000000
                       0.000000  0.000000  0.000000
        optdriver           1
            prtwf          -1
            rfdir           1       1       1
           rfelfd           2
            rprim      8.0503828627E+00  0.0000000000E+00  0.0000000000E+00
                      -4.0251914314E+00  6.9718360693E+00  0.0000000000E+00
                       0.0000000000E+00  0.0000000000E+00  1.2638928439E+01
          spgroup         164
           symrel      1  0  0   0  1  0   0  0  1      -1  0  0   0 -1  0   0  0 -1
                      -1  0  0   1  1  0   0  0  1       1  0  0  -1 -1  0   0  0 -1
                       0  1  0  -1 -1  0   0  0  1       0 -1  0   1  1  0   0  0 -1
                       0 -1  0  -1  0  0   0  0  1       0  1  0   1  0  0   0  0 -1
                      -1 -1  0   1  0  0   0  0  1       1  1  0  -1  0  0   0  0 -1
                       1  1  0   0 -1  0   0  0  1      -1 -1  0   0  1  0   0  0 -1
           tolwfr      1.00000000E-20
            typat      1  1  1  2  2
           useylm           1
           xangst     -1.7639711750E-11  2.4595578333E+00  9.4761558606E-01
                       2.1300395657E+00  1.2297789166E+00  5.7406172847E+00
                      -1.9706824743E-16 -6.8266443422E-17  3.3441164354E+00
                      -1.7639711750E-11  2.4595578333E+00  4.8766714919E+00
                       2.1300395657E+00  1.2297789166E+00  1.8115613789E+00
            xcart     -3.3334224270E-11  4.6478907129E+00  1.7907339369E+00
                       4.0251914313E+00  2.3239453564E+00  1.0848194502E+01
                      -3.7240501713E-16 -1.2900488213E-16  6.3194642194E+00
                      -3.3334224270E-11  4.6478907129E+00  9.2155735597E+00
                       4.0251914313E+00  2.3239453564E+00  3.4233548790E+00
             xred      3.3333333333E-01  6.6666666667E-01  1.4168400000E-01
                       6.6666666667E-01  3.3333333333E-01  8.5831600000E-01
                      -5.5511151231E-17 -1.8503717077E-17  5.0000000000E-01
                       3.3333333333E-01  6.6666666667E-01  7.2914200000E-01
                       6.6666666667E-01  3.3333333333E-01  2.7085800000E-01
            znucl       12.00000   33.00000

 chkinp: Checking input parameters for consistency.

== DATASET  1 ==================================================================
-   mpi_nproc: 1, omp_nthreads: -1 (-1 if OMP is not activated)

--- !DatasetInfo
iteration_state: {dtset: 1, }
dimensions: {natom: 5, nkpt: 1, mband: 39, nsppol: 1, nspinor: 1, nspden: 1, mpw: 9175, }
cutoff_energies: {ecut:  42.0, pawecutdg:  -1.0, }
electrons: {nelect:   6.00000000E+01, charge:   0.00000000E+00, occopt:   1.00000000E+00, tsmear:   1.00000000E-02, }
meta: {optdriver: 1, rfelfd: 2, }
...

 Real(R)+Recip(G) space primitive vectors, cartesian coordinates (Bohr,Bohr^-1):
 R(1)=  8.0503829  0.0000000  0.0000000  G(1)=  0.1242177  0.0717171  0.0000000
 R(2)= -4.0251914  6.9718361  0.0000000  G(2)=  0.0000000  0.1434342  0.0000000
 R(3)=  0.0000000  0.0000000 12.6389284  G(3)=  0.0000000  0.0000000  0.0791206
 Unit cell volume ucvol=  7.0937186E+02 bohr^3
 Angles (23,13,12)=  9.00000000E+01  9.00000000E+01  1.20000000E+02 degrees

 getcut: wavevector=  0.0000  0.0000  0.0000  ngfft=  48  48  75
         ecut(hartree)=     42.000   => boxcut(ratio)=   2.00693

--- Pseudopotential description ------------------------------------------------
- pspini: atom type   1  psp file is /scratch/users/j/a/jabreu/pseudos/PBEsol/Mg.psp8
- pspatm: opening atomic psp file    /scratch/users/j/a/jabreu/pseudos/PBEsol/Mg.psp8
- Mg    ONCVPSP-3.3.0  r_core=   1.16056   1.56380
- 12.00000  10.00000    180112                znucl, zion, pspdat
    8 -116133    1    4       400   0.00000   pspcod,pspxc,lmax,lloc,mmax,r2well
    3.99000000000000    0.00000000000000    0.00000000000000   rchrg,fchrg,qchrg
     nproj     2     2
     extension_switch     1
  pspatm : epsatm=    9.18164846
         --- l  ekb(1:nproj) -->
             0    2.230603   -0.826587
             1   -6.503151   -2.501445
 pspatm: atomic psp has been read  and splines computed

- pspini: atom type   2  psp file is /scratch/users/j/a/jabreu/pseudos/PBEsol/As.psp8
- pspatm: opening atomic psp file    /scratch/users/j/a/jabreu/pseudos/PBEsol/As.psp8
- As    ONCVPSP-3.3.0  r_core=   1.76603   1.70395   1.80867
- 33.00000  15.00000    180112                znucl, zion, pspdat
    8 -116133    2    4       600   0.00000   pspcod,pspxc,lmax,lloc,mmax,r2well
    5.99000000000000    5.00000000000000    0.00000000000000   rchrg,fchrg,qchrg
     nproj     2     2     2
     extension_switch     1
  pspatm : epsatm=   28.79155382
         --- l  ekb(1:nproj) -->
             0    8.270760    0.868950
             1    4.919053    0.756587
             2  -10.048665   -4.076802
 pspatm: atomic psp has been read  and splines computed

   5.10768318E+03                                ecore*ucvol(ha*bohr**3)

 ==>  initialize data related to q vector <==

 The list of irreducible perturbations for this q vector is:
    1)    idir= 1    ipert=   6
    2)    idir= 2    ipert=   6
    3)    idir= 3    ipert=   6

 Perturbation wavevector (in red.coord.)   0.000000  0.000000  0.000000
 Perturbation : derivative vs k along direction   1

 dfpt_looppert : COMMENT -
  In a d/dk calculation, iscf is set to -3 automatically.
 The set of symmetries contains only one element for this perturbation.
 symkpt : not enough symmetry to change the number of k points.

 Initialisation of the first-order wave-functions :
  ireadwf=   0

--- !BeginCycle
iteration_state: {dtset: 1, }
solver: {iscf: 7, nstep: 2000, nline: 4, wfoptalg: 0, }
tolerances: {tolwfr: 1.00E-20, }
...

     iter   2DEtotal(Ha)        deltaE(Ha) residm    vres2
-ETOT  1  -121.40627786902     -1.214E+02 2.877E-01 0.000E+00
 ETOT  2  -121.46569332948     -5.942E-02 8.380E-04 0.000E+00
 ETOT  3  -121.46572881597     -3.549E-05 1.063E-05 0.000E+00
 ETOT  4  -121.46572887645     -6.047E-08 2.108E-07 0.000E+00
 ETOT  5  -121.46572887658     -1.348E-10 3.374E-09 0.000E+00
 ETOT  6  -121.46572887658     -5.400E-13 7.638E-11 0.000E+00
 ETOT  7  -121.46572887658     -8.527E-14 1.231E-12 0.000E+00
 ETOT  8  -121.46572887658      7.105E-14 2.999E-14 0.000E+00
 ETOT  9  -121.46572887658      0.000E+00 4.745E-16 0.000E+00
 ETOT 10  -121.46572887658      1.421E-14 1.235E-17 0.000E+00
 ETOT 11  -121.46572887658      0.000E+00 1.906E-19 0.000E+00
 ETOT 12  -121.46572887658     -1.421E-14 9.925E-21 0.000E+00

 At SCF step   12   max residual=  9.93E-21 < tolwfr=  1.00E-20 =>converged.

 ----iterations are completed or convergence reached----

 dfpt_looppert: DFPT cycle converged with prtwf=-1. Will skip output of the 1st-order WFK file.
 dfpt_looppert : ek2=    9.7464542607E+01
          f-sum rule ratio=    1.5997104846E+00
 prteigrs : about to open file /scratch/users/j/a/jabreu/flow_simple_remain_atoms/flow/w287/t1/tmpdata/tmp_1WF1_EIG
 Expectation of eigenvalue derivatives (hartree) for nkpt=   1  k points:
  (in case of degenerate eigenvalues, averaged derivative)
 kpt#   1, nband= 39, wtk=  1.00000, kpt=  0.0000  0.0000  0.0000 (reduced coord)
  -0.00000    0.00000   -0.00000   -0.00000    0.00000    0.00000   -0.00000    0.00000
   0.00000   -0.00000   -0.00000   -0.00000    0.00000    0.00000    0.00000    0.00000
   0.00000    0.00000    0.00000    0.00000    0.00000    0.00000    0.00000   -0.00000
  -0.00000    0.00000    0.00000    0.00000    0.00000   -0.00000    0.00000   -0.00000
   0.00000    0.00000   -0.00000    0.00000    0.00000    0.00000    0.00000

 Eight components of 2nd-order total energy (hartree) are
 1,2,3: 0th-order hamiltonian combined with 1st-order wavefunctions
     kin0=   9.19116359E+01 eigvalue=   1.62456627E+01  local=  -3.48989874E+01
 4,5,6: 1st-order hamiltonian combined with 1st and 0th-order wfs
     kin1=  -1.55915051E+02  Hartree=   0.00000000E+00     xc=   0.00000000E+00
 7,8,9: eventually, occupation + non-local contributions
    edocc=   4.14140734E+01     enl0=   6.79334424E+00   enl1=  -8.70164071E+01
 1-9 gives the relaxation energy (to be shifted if some occ is /=2.0)
   erelax=  -1.21465729E+02
  No Ewald or frozen-wf contrib.: the relaxation energy is the total one
 2DEtotal=   -0.1214657289E+03 Ha. Also 2DEtotal=   -0.330525057430E+04 eV
    (  non-var. 2DEtotal :   -1.2146572888E+02 Ha)

 Perturbation wavevector (in red.coord.)   0.000000  0.000000  0.000000
 Perturbation : derivative vs k along direction   2
 The set of symmetries contains only one element for this perturbation.
 symkpt : not enough symmetry to change the number of k points.

[...]

 Perturbation wavevector (in red.coord.)   0.000000  0.000000  0.000000
 Perturbation : derivative vs k along direction   3
 The set of symmetries contains only one element for this perturbation.
 symkpt : not enough symmetry to change the number of k points.

 Initialisation of the first-order wave-functions :
  ireadwf=   0

--- !BeginCycle
iteration_state: {dtset: 1, }
solver: {iscf: 7, nstep: 2000, nline: 4, wfoptalg: 0, }
tolerances: {tolwfr: 1.00E-20, }
...

     iter   2DEtotal(Ha)        deltaE(Ha) residm    vres2
-ETOT  1  -35.378798579311     -3.538E+01 5.709E-02 0.000E+00
 ETOT  2  -35.395308525014     -1.651E-02 3.696E-05 0.000E+00
 ETOT  3  -35.395316799421     -8.274E-06 1.021E-06 0.000E+00
 ETOT  4  -35.395316810435     -1.101E-08 3.575E-09 0.000E+00
 ETOT  5  -35.395316810456     -2.083E-11 1.247E-10 0.000E+00
 ETOT  6  -35.395316810455      1.918E-13 6.042E-13 0.000E+00
 ETOT  7  -35.395316810456     -1.990E-13 2.238E-14 0.000E+00
 ETOT  8  -35.395316810456      4.263E-14 1.163E-16 0.000E+00
 ETOT  9  -35.395316810456      0.000E+00 4.200E-18 0.000E+00
 ETOT 10  -35.395316810456      7.105E-15 2.674E-20 0.000E+00
 ETOT 11  -35.395316810456     -7.105E-15 9.929E-21 0.000E+00

 At SCF step   11   max residual=  9.93E-21 < tolwfr=  1.00E-20 =>converged.

 ----iterations are completed or convergence reached----

 dfpt_looppert: DFPT cycle converged with prtwf=-1. Will skip output of the 1st-order WFK file.
 dfpt_looppert : ek2=    2.9656539458E+01
          f-sum rule ratio=    1.4942374429E+00
 prteigrs : about to open file /scratch/users/j/a/jabreu/flow_simple_remain_atoms/flow/w287/t1/tmpdata/tmp_1WF1_EIG
 Expectation of eigenvalue derivatives (hartree) for nkpt=   1  k points:
  (in case of degenerate eigenvalues, averaged derivative)
 kpt#   1, nband= 39, wtk=  1.00000, kpt=  0.0000  0.0000  0.0000 (reduced coord)
   0.00000    0.00000    0.00000    0.00000    0.00000    0.00000   -0.00000    0.00000
   0.00000    0.00000   -0.00000   -0.00000    0.00000    0.00000   -0.00000   -0.00000
   0.00000    0.00000    0.00000    0.00000    0.00000    0.00000    0.00000    0.00000
   0.00000    0.00000    0.00000   -0.00000   -0.00000   -0.00000   -0.00000    0.00000
   0.00000    0.00000    0.00000    0.00000    0.00000    0.00000    0.00000

 Eight components of 2nd-order total energy (hartree) are
 1,2,3: 0th-order hamiltonian combined with 1st-order wavefunctions
     kin0=   2.92959437E+01 eigvalue=   4.79234814E+00  local=  -1.11333821E+01
 4,5,6: 1st-order hamiltonian combined with 1st and 0th-order wfs
     kin1=  -4.43139117E+01  Hartree=   0.00000000E+00     xc=   0.00000000E+00
 7,8,9: eventually, occupation + non-local contributions
    edocc=   1.05917350E+01     enl0=   1.84867199E+00   enl1=  -2.64767219E+01
 1-9 gives the relaxation energy (to be shifted if some occ is /=2.0)
   erelax=  -3.53953168E+01
  No Ewald or frozen-wf contrib.: the relaxation energy is the total one
 2DEtotal=   -0.3539531681E+02 Ha. Also 2DEtotal=   -0.963155552576E+03 eV
    (  non-var. 2DEtotal :   -3.5395316810E+01 Ha)

 CALCULATION OF EFFECTIVE MASSES
 NOTE : Additional infos (eff. mass eigenvalues, eigenvectors and, if degenerate, average mass) are available in stdout.

 K-point ( 0.000, 0.000, 0.000) | band =    30
 Effective mass tensor:
             -1.2721292515             -0.0000000190              0.0000000001
             -0.0000000190             -1.2721292648              0.0000000001
              0.0000000001              0.0000000001             -0.0589201135
 Effective mass tensor eigenvalues:
             -1.2721292783             -1.2721292380             -0.0589201135
 Angular average effective mass 1/(<1/m>)=  -0.1617747750
 Angular average effective mass for Frohlich model (<m**0.5>)**2=  -0.3037974284
 Effective masses along directions: (cart. coord. / red. coord. -> eff. mass)
    1:   1.000000  0.000000  0.000000 /   0.894427 -0.447214  0.000000 ->  -1.2721292515
    2:   0.000000  1.000000  0.000000 /   0.000000  1.000000  0.000000 ->  -1.2721292648
    3:   0.000000  0.000000  1.000000 /   0.000000  0.000000  1.000000 ->  -0.0589201135
    4:   0.577350  0.577350  0.577350 /   0.527134  0.192944  0.827588 ->  -0.1617747751
    5:   0.000000  0.707107  0.707107 /   0.000000  0.483005  0.875618 ->  -0.1126239219
    6:   0.707107  0.000000  0.707107 /   0.518836 -0.259418  0.814562 ->  -0.1126239218
    7:   0.707107  0.707107  0.000000 /   0.939071  0.343724  0.000000 ->  -1.2721292772

 K-point ( 0.000, 0.000, 0.000) | band =    31
 Effective mass tensor:
              0.0917155916              0.0000000000             -0.0000000000
              0.0000000000              0.0917155917             -0.0000000000
             -0.0000000000             -0.0000000000              0.0657819667
 Effective mass tensor eigenvalues:
              0.0657819667              0.0917155916              0.0917155917
 Angular average effective mass 1/(<1/m>)=   0.0810629456
 Angular average effective mass for Frohlich model (<m**0.5>)**2=   0.0816939505
 Effective masses along directions: (cart. coord. / red. coord. -> eff. mass)
    1:   1.000000  0.000000  0.000000 /   0.894427 -0.447214  0.000000 ->   0.0917155916
    2:   0.000000  1.000000  0.000000 /   0.000000  1.000000  0.000000 ->   0.0917155917
    3:   0.000000  0.000000  1.000000 /   0.000000  0.000000  1.000000 ->   0.0657819667
    4:   0.577350  0.577350  0.577350 /   0.527134  0.192944  0.827588 ->   0.0810629456
    5:   0.000000  0.707107  0.707107 /   0.000000  0.483005  0.875618 ->   0.0766136575
    6:   0.707107  0.000000  0.707107 /   0.518836 -0.259418  0.814562 ->   0.0766136575
    7:   0.707107  0.707107  0.000000 /   0.939071  0.343724  0.000000 ->   0.0917155917

 END OF EFFECTIVE MASSES SECTION

 ---- first-order wavefunction calculations are completed ----

 Total localisation tensor (bohr^2) in cartesian coordinates
  WARNING : still subject to testing - especially symmetries.
      direction              matrix element
   alpha     beta       real part   imaginary part
     1        1       8.4320990810    0.0000000000
     1        2      -2.9209648047    0.0000000000
     1        3       0.0000000000    0.0000000000
     2        1      -2.9209648047    0.0000000000
     2        2       5.0592594487    0.0000000000
     2        3       0.0000000000    0.0000000000
     3        1       0.0000000000    0.0000000000
     3        2       0.0000000000    0.0000000000
     3        3       8.0068136068    0.0000000000

 respfn : d/dk was computed, but no 2DTE, so no DDB output.

== END DATASET(S) ==============================================================

 -outvars: echo values of variables after computation  --------
            acell      1.0000000000E+00  1.0000000000E+00  1.0000000000E+00 Bohr
              amu      2.43050000E+01  7.49215900E+01
             ecut      4.20000000E+01 Hartree
           etotal     -3.5395316810E+01
            fcart      0.0000000000E+00  0.0000000000E+00  0.0000000000E+00
                       0.0000000000E+00  0.0000000000E+00  0.0000000000E+00
                       0.0000000000E+00  0.0000000000E+00  0.0000000000E+00
                       0.0000000000E+00  0.0000000000E+00  0.0000000000E+00
                       0.0000000000E+00  0.0000000000E+00  0.0000000000E+00
-          fftalg         512
           irdden           1
           irdwfk           1
           istwfk        1
              ixc     -116133
           kptopt           0
P           mkmem           1
P          mkqmem           1
P          mk1mem           1
            natom           5
            nband          39
           nbdbuf           4
            ngfft          48      48      75
             nkpt           1
            nstep        2000
             nsym          12
           ntypat           2
              occ      2.000000  2.000000  2.000000  2.000000  2.000000  2.000000
                       2.000000  2.000000  2.000000  2.000000  2.000000  2.000000
                       2.000000  2.000000  2.000000  2.000000  2.000000  2.000000
                       2.000000  2.000000  2.000000  2.000000  2.000000  2.000000
                       2.000000  2.000000  2.000000  2.000000  2.000000  2.000000
                       0.000000  0.000000  0.000000  0.000000  0.000000  0.000000
                       0.000000  0.000000  0.000000
        optdriver           1
            prtwf          -1
            rfdir           1       1       1
           rfelfd           2
            rprim      8.0503828627E+00  0.0000000000E+00  0.0000000000E+00
                      -4.0251914314E+00  6.9718360693E+00  0.0000000000E+00
                       0.0000000000E+00  0.0000000000E+00  1.2638928439E+01
          spgroup         164
           strten      0.0000000000E+00  0.0000000000E+00  0.0000000000E+00
                       0.0000000000E+00  0.0000000000E+00  0.0000000000E+00
           symrel      1  0  0   0  1  0   0  0  1      -1  0  0   0 -1  0   0  0 -1
                      -1  0  0   1  1  0   0  0  1       1  0  0  -1 -1  0   0  0 -1
                       0  1  0  -1 -1  0   0  0  1       0 -1  0   1  1  0   0  0 -1
                       0 -1  0  -1  0  0   0  0  1       0  1  0   1  0  0   0  0 -1
                      -1 -1  0   1  0  0   0  0  1       1  1  0  -1  0  0   0  0 -1
                       1  1  0   0 -1  0   0  0  1      -1 -1  0   0  1  0   0  0 -1
           tolwfr      1.00000000E-20
            typat      1  1  1  2  2
           useylm           1
           xangst     -1.7639711750E-11  2.4595578333E+00  9.4761558606E-01
                       2.1300395657E+00  1.2297789166E+00  5.7406172847E+00
                      -1.9706824743E-16 -6.8266443422E-17  3.3441164354E+00
                      -1.7639711750E-11  2.4595578333E+00  4.8766714919E+00
                       2.1300395657E+00  1.2297789166E+00  1.8115613789E+00
            xcart     -3.3334224270E-11  4.6478907129E+00  1.7907339369E+00
                       4.0251914313E+00  2.3239453564E+00  1.0848194502E+01
                      -3.7240501713E-16 -1.2900488213E-16  6.3194642194E+00
                      -3.3334224270E-11  4.6478907129E+00  9.2155735597E+00
                       4.0251914313E+00  2.3239453564E+00  3.4233548790E+00
             xred      3.3333333333E-01  6.6666666667E-01  1.4168400000E-01
                       6.6666666667E-01  3.3333333333E-01  8.5831600000E-01
                      -5.5511151231E-17 -1.8503717077E-17  5.0000000000E-01
                       3.3333333333E-01  6.6666666667E-01  7.2914200000E-01
                       6.6666666667E-01  3.3333333333E-01  2.7085800000E-01
            znucl       12.00000   33.00000

- Timing analysis has been suppressed with timopt=0

 Suggested references for the acknowledgment of ABINIT usage.

 Calculation completed.
.Delivered   2 WARNINGs and   5 COMMENTs to log file.