.Version 9.5.1 of ABINIT

 ABINIT is a project of the Universite Catholique de Louvain,
 Corning Inc. and other collaborators, see ~abinit/doc/developers/contributors.txt .
 acknowledgments of the ABINIT effort.

.Starting date : Tue 27 Apr 2021.
- ( at 18h36 )

- input  file    -> /scratch/users/j/a/jabreu/flow_simple_4atoms/flow/w207/t1/run.abi
- output file    -> /scratch/users/j/a/jabreu/flow_simple_4atoms/flow/w207/t1/run.abo
- root for input  files -> /scratch/users/j/a/jabreu/flow_simple_4atoms/flow/w207/t1/indata/in
- root for output files -> /scratch/users/j/a/jabreu/flow_simple_4atoms/flow/w207/t1/outdata/out

 Symmetries : space group R-3 m (#166); Bravais hR (rhombohedral)
     intxc =       0      iscf =       7    lmnmax =      18     lnmax =       6
     mgfft =      72  mpssoang =       3    mqgrid =    3001     natom =       4
  nloc_mem =       1    nspden =       1   nspinor =       1    nsppol =       1
      nsym =      12    n1xccc =    2501    ntypat =       3    occopt =       1
   xclevel =       2
-    mband =          25        mffmem =           1         mkmem =           2
-   mkqmem =           2        mk1mem =           2           mpw =        4348
      nfft =      373248          nkpt =           2
  Rough estimation (10% accuracy) of disk space for files :

------------- Echo of variables that govern the present computation ------------
-
- outvars: echo of selected default values
-   iomode0 =  0 , fftalg0 =512 , wfoptalg0 =  0
-
- outvars: echo of global parameters not present in the input file
-  max_nthreads =    0
-
 -outvars: echo values of preprocessed input variables --------
            acell      1.0000000000E+00  1.0000000000E+00  1.0000000000E+00 Bohr
              amu      2.29897680E+01  4.49559100E+01  1.59994000E+01
             ecut      4.40000000E+01 Hartree
-          fftalg         512
           irdden           1
           irdwfk           1
           istwfk        1    1
              ixc     -116133
              kpt      0.00000000E+00  0.00000000E+00  0.00000000E+00
                       5.00000000E-01  5.00000000E-01  5.55111512E-17
           kptopt           0
P           mkmem           2
P          mkqmem           2
P          mk1mem           2
            natom           4
            nband          25
           nbdbuf           4
            ngfft          72      72      72
             nkpt           2
            nstep         100
             nsym          12
           ntypat           3
              occ      2.000000  2.000000  2.000000  2.000000  2.000000  2.000000
                       2.000000  2.000000  2.000000  2.000000  2.000000  2.000000
                       2.000000  2.000000  2.000000  2.000000  0.000000  0.000000
                       0.000000  0.000000  0.000000  0.000000  0.000000  0.000000
                       0.000000
        optdriver           1
            prtwf          -1
            rfdir           1       1       1
           rfelfd           2
            rprim      5.7096126809E+00  0.0000000000E+00  9.1299569240E+00
                       2.6197560007E+00  5.0731208800E+00  9.1299569240E+00
                       0.0000000000E+00  0.0000000000E+00  1.0768277039E+01
          spgroup         166
           symrel      1  0  0   0  1  0   0  0  1      -1  0  0   0 -1  0   0  0 -1
                       0  1  0   1  0  0   0  0  1       0 -1  0  -1  0  0   0  0 -1
                       0  0  1   1  0  0   0  1  0       0  0 -1  -1  0  0   0 -1  0
                       1  0  0   0  0  1   0  1  0      -1  0  0   0  0 -1   0 -1  0
                       0  1  0   0  0  1   1  0  0       0 -1  0   0  0 -1  -1  0  0
                       0  0  1   0  1  0   1  0  0       0  0 -1   0 -1  0  -1  0  0
           tolwfr      1.00000000E-20
            typat      1  2  3  3
           useylm           1
              wtk        0.50000    0.50000
           xangst      2.2038560341E+00  1.3422899731E+00  7.6805285121E+00
                       0.0000000000E+00  0.0000000000E+00  0.0000000000E+00
                       3.2370325583E+00  1.9715608816E+00  1.1281191001E+01
                       1.1706795099E+00  7.1301906453E-01  4.0798660235E+00
            xcart      4.1646843408E+00  2.5365604400E+00  1.4514095444E+01
                       0.0000000000E+00  0.0000000000E+00  0.0000000000E+00
                       6.1171050185E+00  3.7257101205E+00  2.1318361444E+01
                       2.2122636631E+00  1.3474107595E+00  7.7098294433E+00
             xred      5.0000000000E-01  5.0000000000E-01  5.0000000000E-01
                       0.0000000000E+00  0.0000000000E+00  0.0000000000E+00
                       7.3440200000E-01  7.3440200000E-01  7.3440200000E-01
                       2.6559800000E-01  2.6559800000E-01  2.6559800000E-01
            znucl       11.00000   21.00000    8.00000

 chkinp: Checking input parameters for consistency.

== DATASET  1 ==================================================================
-   mpi_nproc: 1, omp_nthreads: -1 (-1 if OMP is not activated)

--- !DatasetInfo
iteration_state: {dtset: 1, }
dimensions: {natom: 4, nkpt: 2, mband: 25, nsppol: 1, nspinor: 1, nspden: 1, mpw: 4348, }
cutoff_energies: {ecut:  44.0, pawecutdg:  -1.0, }
electrons: {nelect:   3.20000000E+01, charge:   0.00000000E+00, occopt:   1.00000000E+00, tsmear:   1.00000000E-02, }
meta: {optdriver: 1, rfelfd: 2, }
...

 Real(R)+Recip(G) space primitive vectors, cartesian coordinates (Bohr,Bohr^-1):
 R(1)=  5.7096127  0.0000000  9.1299569  G(1)=  0.1751432 -0.0904438  0.0000000
 R(2)=  2.6197560  5.0731209  9.1299569  G(2)=  0.0000000  0.1971173  0.0000000
 R(3)=  0.0000000  0.0000000 10.7682770  G(3)= -0.1484964 -0.0904438  0.0928654
 Unit cell volume ucvol=  3.1190912E+02 bohr^3
 Angles (23,13,12)=  3.20206772E+01  3.20206772E+01  3.20206772E+01 degrees

 getcut: wavevector=  0.0000  0.0000  0.0000  ngfft=  72  72  72
         ecut(hartree)=     44.000   => boxcut(ratio)=   2.24017

 getcut : COMMENT -
  Note that boxcut > 2.2 ; recall that boxcut=Gcut(box)/Gcut(sphere) = 2
  is sufficient for exact treatment of convolution.
  Such a large boxcut is a waste : you could raise ecut
  e.g. ecut=   55.201922 Hartrees makes boxcut=2

--- Pseudopotential description ------------------------------------------------
- pspini: atom type   1  psp file is /scratch/users/j/a/jabreu/pseudos/PBEsol/Na.psp8
- pspatm: opening atomic psp file    /scratch/users/j/a/jabreu/pseudos/PBEsol/Na.psp8
- Na    ONCVPSP-3.3.0  r_core=   1.20708   1.55069
- 11.00000   9.00000    180112                znucl, zion, pspdat
    8 -116133    1    4       400   0.00000   pspcod,pspxc,lmax,lloc,mmax,r2well
    3.99000000000000    0.00000000000000    0.00000000000000   rchrg,fchrg,qchrg
     nproj     2     2
     extension_switch     1
  pspatm : epsatm=    9.32878306
         --- l  ekb(1:nproj) -->
             0    2.657905   -0.678300
             1   -6.761319   -2.404728
 pspatm: atomic psp has been read  and splines computed

- pspini: atom type   2  psp file is /scratch/users/j/a/jabreu/pseudos/PBEsol/Sc.psp8
- pspatm: opening atomic psp file    /scratch/users/j/a/jabreu/pseudos/PBEsol/Sc.psp8
- Sc    ONCVPSP-3.3.0  r_core=   1.35663   1.35663   1.66161
- 21.00000  11.00000    180112                znucl, zion, pspdat
    8 -116133    2    4       600   0.00000   pspcod,pspxc,lmax,lloc,mmax,r2well
    5.99000000000000    5.00000000000000    0.00000000000000   rchrg,fchrg,qchrg
     nproj     2     2     2
     extension_switch     1
  pspatm : epsatm=   13.58981094
         --- l  ekb(1:nproj) -->
             0   10.810997    0.948773
             1    2.871172    0.364831
             2   -4.789751   -1.321945
 pspatm: atomic psp has been read  and splines computed

- pspini: atom type   3  psp file is /scratch/users/j/a/jabreu/pseudos/PBEsol/O.psp8
- pspatm: opening atomic psp file    /scratch/users/j/a/jabreu/pseudos/PBEsol/O.psp8
- O     ONCVPSP-3.3.0  r_core=   1.35509   1.45563   1.26150
-  8.00000   6.00000    180112                znucl, zion, pspdat
    8 -116133    2    4       600   0.00000   pspcod,pspxc,lmax,lloc,mmax,r2well
    5.99000000000000    4.00000000000000    0.00000000000000   rchrg,fchrg,qchrg
     nproj     2     2     1
     extension_switch     1
  pspatm : epsatm=    6.22910522
         --- l  ekb(1:nproj) -->
             0    6.050032    0.820363
             1   -4.739617   -1.153841
             2   -1.335834
 pspatm: atomic psp has been read  and splines computed

   1.13205774E+03                                ecore*ucvol(ha*bohr**3)

-inwffil : will read wavefunctions from disk file /scratch/users/j/a/jabreu/flow_simple_4atoms/flow/w207/t1/indata/in_WFK

 ==>  initialize data related to q vector <==

 The list of irreducible perturbations for this q vector is:
    1)    idir= 1    ipert=   5
    2)    idir= 2    ipert=   5
    3)    idir= 3    ipert=   5

 Perturbation wavevector (in red.coord.)   0.000000  0.000000  0.000000
 Perturbation : derivative vs k along direction   1

 dfpt_looppert : COMMENT -
  In a d/dk calculation, iscf is set to -3 automatically.
 The set of symmetries contains only one element for this perturbation.
 symkpt : not enough symmetry to change the number of k points.

[...]

 Initialisation of the first-order wave-functions :
  ireadwf=   0

--- !BeginCycle
iteration_state: {dtset: 1, }
solver: {iscf: 7, nstep: 100, nline: 4, wfoptalg: 0, }
tolerances: {tolwfr: 1.00E-20, }
...

     iter   2DEtotal(Ha)        deltaE(Ha) residm    vres2
-ETOT  1  -54.346665038975     -5.435E+01 5.619E-02 0.000E+00
 ETOT  2  -54.365435017108     -1.877E-02 1.630E-03 0.000E+00
 ETOT  3  -54.365450363904     -1.535E-05 1.087E-05 0.000E+00
 ETOT  4  -54.365450386975     -2.307E-08 2.925E-07 0.000E+00
 ETOT  5  -54.365450387024     -4.902E-11 2.691E-09 0.000E+00
 ETOT  6  -54.365450387025     -2.203E-13 8.852E-11 0.000E+00
 ETOT  7  -54.365450387025      4.974E-14 9.413E-13 0.000E+00
 ETOT  8  -54.365450387025     -5.684E-14 4.707E-14 0.000E+00
 ETOT  9  -54.365450387025      0.000E+00 9.164E-16 0.000E+00
 ETOT 10  -54.365450387025      0.000E+00 3.769E-17 0.000E+00
 ETOT 11  -54.365450387025      7.105E-15 8.204E-19 0.000E+00
 ETOT 12  -54.365450387025     -7.105E-15 3.807E-20 0.000E+00
 ETOT 13  -54.365450387025      7.105E-15 8.623E-21 0.000E+00

 At SCF step   13   max residual=  8.62E-21 < tolwfr=  1.00E-20 =>converged.

 ----iterations are completed or convergence reached----

 dfpt_looppert: DFPT cycle converged with prtwf=-1. Will skip output of the 1st-order WFK file.
 dfpt_looppert : ek2=    9.8172373157E+01
          f-sum rule ratio=    1.0920786009E+00
 prteigrs : about to open file /scratch/users/j/a/jabreu/flow_simple_4atoms/flow/w207/t1/tmpdata/tmp_1WF1_EIG
 Expectation of eigenvalue derivatives (hartree) for nkpt=   2  k points:
  (in case of degenerate eigenvalues, averaged derivative)
 kpt#   1, nband= 25, wtk=  0.50000, kpt=  0.0000  0.0000  0.0000 (reduced coord)
  -0.00000    0.00000    0.00000    0.00000    0.00000    0.00000    0.00000    0.00000
   0.00000   -0.00000    0.00000   -0.00000   -0.00000    0.00000    0.00000    0.00000
   0.00000   -0.00000   -0.00000    0.00000    0.00000    0.00000   -0.00000   -0.00000
   0.00000
 prteigrs : prtvol=0 or 1, do not print more k-points.

 Eight components of 2nd-order total energy (hartree) are
 1,2,3: 0th-order hamiltonian combined with 1st-order wavefunctions
     kin0=   5.45479748E+01 eigvalue=   2.29773833E+00  local=  -1.93015378E+01
 4,5,6: 1st-order hamiltonian combined with 1st and 0th-order wfs
     kin1=  -1.07211948E+02  Hartree=   0.00000000E+00     xc=   0.00000000E+00
 7,8,9: eventually, occupation + non-local contributions
    edocc=   1.97477966E+01     enl0=  -2.92652161E+00   enl1=  -1.51895285E+00
 1-9 gives the relaxation energy (to be shifted if some occ is /=2.0)
   erelax=  -5.43654504E+01
  No Ewald or frozen-wf contrib.: the relaxation energy is the total one
 2DEtotal=   -0.5436545039E+02 Ha. Also 2DEtotal=   -0.147935913920E+04 eV
    (  non-var. 2DEtotal :   -5.4365450387E+01 Ha)

 Perturbation wavevector (in red.coord.)   0.000000  0.000000  0.000000
 Perturbation : derivative vs k along direction   2
 The set of symmetries contains only one element for this perturbation.
 symkpt : not enough symmetry to change the number of k points.

[...]

 Perturbation wavevector (in red.coord.)   0.000000  0.000000  0.000000
 Perturbation : derivative vs k along direction   3
 The set of symmetries contains only one element for this perturbation.
 symkpt : not enough symmetry to change the number of k points.

-inwffil : will read wavefunctions from disk file /scratch/users/j/a/jabreu/flow_simple_4atoms/flow/w207/t1/indata/in_WFK

 Initialisation of the first-order wave-functions :
  ireadwf=   0

--- !BeginCycle
iteration_state: {dtset: 1, }
solver: {iscf: 7, nstep: 100, nline: 4, wfoptalg: 0, }
tolerances: {tolwfr: 1.00E-20, }
...

     iter   2DEtotal(Ha)        deltaE(Ha) residm    vres2
-ETOT  1  -52.346274921735     -5.235E+01 7.761E-02 0.000E+00
 ETOT  2  -52.358068619622     -1.179E-02 1.274E-03 0.000E+00
 ETOT  3  -52.358077711637     -9.092E-06 6.750E-06 0.000E+00
 ETOT  4  -52.358077727493     -1.586E-08 1.319E-07 0.000E+00
 ETOT  5  -52.358077727530     -3.671E-11 1.008E-09 0.000E+00
 ETOT  6  -52.358077727530     -1.634E-13 2.292E-11 0.000E+00
 ETOT  7  -52.358077727530      2.132E-14 2.743E-13 0.000E+00
 ETOT  8  -52.358077727530      4.974E-14 8.149E-15 0.000E+00
 ETOT  9  -52.358077727530      1.421E-14 1.295E-16 0.000E+00
 ETOT 10  -52.358077727530      0.000E+00 6.076E-18 0.000E+00
 ETOT 11  -52.358077727530     -7.105E-15 1.109E-19 0.000E+00
 ETOT 12  -52.358077727530      7.105E-15 9.807E-21 0.000E+00

 At SCF step   12   max residual=  9.81E-21 < tolwfr=  1.00E-20 =>converged.

 ----iterations are completed or convergence reached----

 dfpt_looppert: DFPT cycle converged with prtwf=-1. Will skip output of the 1st-order WFK file.
 dfpt_looppert : ek2=    9.8172373158E+01
          f-sum rule ratio=    1.0510302250E+00
 prteigrs : about to open file /scratch/users/j/a/jabreu/flow_simple_4atoms/flow/w207/t1/tmpdata/tmp_1WF1_EIG
 Expectation of eigenvalue derivatives (hartree) for nkpt=   2  k points:
  (in case of degenerate eigenvalues, averaged derivative)
 kpt#   1, nband= 25, wtk=  0.50000, kpt=  0.0000  0.0000  0.0000 (reduced coord)
   0.00000    0.00000   -0.00000   -0.00000   -0.00000   -0.00000    0.00000    0.00000
  -0.00000    0.00000   -0.00000    0.00000    0.00000   -0.00000    0.00000    0.00000
  -0.00000   -0.00000   -0.00000   -0.00000    0.00000    0.00000   -0.00000   -0.00000
   0.00000
 prteigrs : prtvol=0 or 1, do not print more k-points.

 Eight components of 2nd-order total energy (hartree) are
 1,2,3: 0th-order hamiltonian combined with 1st-order wavefunctions
     kin0=   5.45346262E+01 eigvalue=   2.40447198E+00  local=  -1.95961747E+01
 4,5,6: 1st-order hamiltonian combined with 1st and 0th-order wfs
     kin1=  -1.03182131E+02  Hartree=   0.00000000E+00     xc=   0.00000000E+00
 7,8,9: eventually, occupation + non-local contributions
    edocc=   1.76858022E+01     enl0=  -2.67064799E+00   enl1=  -1.53402400E+00
 1-9 gives the relaxation energy (to be shifted if some occ is /=2.0)
   erelax=  -5.23580777E+01
  No Ewald or frozen-wf contrib.: the relaxation energy is the total one
 2DEtotal=   -0.5235807773E+02 Ha. Also 2DEtotal=   -0.142473575122E+04 eV
    (  non-var. 2DEtotal :   -5.2358077727E+01 Ha)

 CALCULATION OF EFFECTIVE MASSES
 NOTE : Additional infos (eff. mass eigenvalues, eigenvectors and, if degenerate, average mass) are available in stdout.

 COMMENTS:
 - At k-point ( 0.000, 0.000, 0.000), bands    15 through    16
   are DEGENERATE (effective mass tensor is therefore not defined).
   See Section IIIB Eqs. (67)-(70) and Appendix E of PRB 93 205147 (2016).
 - Angular average effective mass for Frohlich model is to be averaged over degenerate bands. See later.
 - Associated theta integrals calculated with ntheta=   1000 points.

 K-point ( 0.000, 0.000, 0.000) | band =    15
 Transport equivalent effective mass tensor:
             -0.9766663868             -0.3350542619             -1.9171679498
             -0.3350542619             -0.6306225830             -1.1676781375
             -1.9171679498             -1.1676781375             -7.1079636112
 Transport equivalent effective mass tensor eigenvalues:
             -7.8621464509             -0.4265530682             -0.4265530619
 Angular average effective mass 1/(<1/m>)=  -0.6227777078
 Angular average effective mass for Frohlich model (<m**0.5>)**2=  -0.8044778903
 Effective masses along directions: (cart. coord. / red. coord. -> eff. mass)
    1:   1.000000  0.000000  0.000000 /   0.908893  0.417030  0.000000 ->  -0.4584557381
    2:   0.000000  1.000000  0.000000 /   0.000000  1.000000  0.000000 ->  -0.4375063204
    3:   0.000000  0.000000  1.000000 /   0.543038  0.543038  0.640483 ->  -2.8159417108
    4:   0.577350  0.577350  0.577350 /   0.596368  0.676070  0.432752 ->  -1.0833123950
    5:   0.000000  0.707107  0.707107 /   0.455906  0.709233  0.537716 ->  -1.0281921649
    6:   0.707107  0.000000  0.707107 /   0.681443  0.539555  0.494486 ->  -1.4326719859
    7:   0.707107  0.707107  0.000000 /   0.595981  0.802998  0.000000 ->  -0.4693882332

 K-point ( 0.000, 0.000, 0.000) | band =    16
 Transport equivalent effective mass tensor:
             -2.1039716257             -0.2808068781             -1.6067645982
             -0.2808068781             -1.8139549433             -0.9786232795
             -1.6067645982             -0.9786232795             -7.2425640437
 Transport equivalent effective mass tensor eigenvalues:
             -7.8746398244             -1.6429254369             -1.6429253514
 Angular average effective mass 1/(<1/m>)=  -2.2293828081
 Angular average effective mass for Frohlich model (<m**0.5>)**2=  -2.4932819813
 Effective masses along directions: (cart. coord. / red. coord. -> eff. mass)
    1:   1.000000  0.000000  0.000000 /   0.908893  0.417030  0.000000 ->  -1.7445695357
    2:   0.000000  1.000000  0.000000 /   0.000000  1.000000  0.000000 ->  -1.6823548665
    3:   0.000000  0.000000  1.000000 /   0.543038  0.543038  0.640483 ->  -5.7756094305
    4:   0.577350  0.577350  0.577350 /   0.596368  0.676070  0.432752 ->  -3.2964144212
    5:   0.000000  0.707107  0.707107 /   0.455906  0.709233  0.537716 ->  -3.2506858137
    6:   0.707107  0.000000  0.707107 /   0.681443  0.539555  0.494486 ->  -4.0442942686
    7:   0.707107  0.707107  0.000000 /   0.595981  0.802998  0.000000 ->  -1.7693516404

 Angular average effective mass for Frohlich model, averaged over degenerate bands.
 Value of     (<<m**0.5>>)**2 =     1.532570E+00
 Absolute Value of <<m**0.5>> =     1.237970E+00

 K-point ( 0.500, 0.500, 0.000) | band =    17
 Effective mass tensor:
              1.2502788393              0.3253213070             -0.4678423112
              0.3253213070              0.9142874579             -0.2849460371
             -0.4678423112             -0.2849460371              2.0748799961
 Effective mass tensor eigenvalues:
              0.7161458727              1.1306323257              2.3926680951
 Angular average effective mass 1/(<1/m>)=   1.1116183992
 Angular average effective mass for Frohlich model (<m**0.5>)**2=   1.1874213066
 Effective masses along directions: (cart. coord. / red. coord. -> eff. mass)
    1:   1.000000  0.000000  0.000000 /   0.908893  0.417030  0.000000 ->   1.0669084880
    2:   0.000000  1.000000  0.000000 /   0.000000  1.000000  0.000000 ->   0.8156174196
    3:   0.000000  0.000000  1.000000 /   0.543038  0.543038  0.640483 ->   1.8677090207
    4:   0.577350  0.577350  0.577350 /   0.596368  0.676070  0.432752 ->   1.1127193617
    5:   0.000000  0.707107  0.707107 /   0.455906  0.709233  0.537716 ->   1.0141249436
    6:   0.707107  0.000000  0.707107 /   0.681443  0.539555  0.494486 ->   1.0997573597
    7:   0.707107  0.707107  0.000000 /   0.595981  0.802998  0.000000 ->   1.2467748242

 END OF EFFECTIVE MASSES SECTION

 ---- first-order wavefunction calculations are completed ----

 Total localisation tensor (bohr^2) in cartesian coordinates
  WARNING : still subject to testing - especially symmetries.
      direction              matrix element
   alpha     beta       real part   imaginary part
     1        1       1.1221897004    0.0000000000
     1        2       0.3779326853    0.0000000000
     1        3       2.1625154198    0.0000000000
     2        1       0.3779326853    0.0000000000
     2        2       0.7318613628    0.0000000000
     2        3       1.3171108820    0.0000000000
     3        1       2.1625154198    0.0000000000
     3        2       1.3171108820    0.0000000000
     3        3       7.6840949485    0.0000000000

 respfn : d/dk was computed, but no 2DTE, so no DDB output.

== END DATASET(S) ==============================================================

 -outvars: echo values of variables after computation  --------
            acell      1.0000000000E+00  1.0000000000E+00  1.0000000000E+00 Bohr
              amu      2.29897680E+01  4.49559100E+01  1.59994000E+01
             ecut      4.40000000E+01 Hartree
           etotal     -5.2358077728E+01
            fcart      0.0000000000E+00  0.0000000000E+00  0.0000000000E+00
                       0.0000000000E+00  0.0000000000E+00  0.0000000000E+00
                       0.0000000000E+00  0.0000000000E+00  0.0000000000E+00
                       0.0000000000E+00  0.0000000000E+00  0.0000000000E+00
-          fftalg         512
           irdden           1
           irdwfk           1
           istwfk        1    1
              ixc     -116133
              kpt      0.00000000E+00  0.00000000E+00  0.00000000E+00
                       5.00000000E-01  5.00000000E-01  5.55111512E-17
           kptopt           0
P           mkmem           2
P          mkqmem           2
P          mk1mem           2
            natom           4
            nband          25
           nbdbuf           4
            ngfft          72      72      72
             nkpt           2
            nstep         100
             nsym          12
           ntypat           3
              occ      2.000000  2.000000  2.000000  2.000000  2.000000  2.000000
                       2.000000  2.000000  2.000000  2.000000  2.000000  2.000000
                       2.000000  2.000000  2.000000  2.000000  0.000000  0.000000
                       0.000000  0.000000  0.000000  0.000000  0.000000  0.000000
                       0.000000
        optdriver           1
            prtwf          -1
            rfdir           1       1       1
           rfelfd           2
            rprim      5.7096126809E+00  0.0000000000E+00  9.1299569240E+00
                       2.6197560007E+00  5.0731208800E+00  9.1299569240E+00
                       0.0000000000E+00  0.0000000000E+00  1.0768277039E+01
          spgroup         166
           strten      0.0000000000E+00  0.0000000000E+00  0.0000000000E+00
                       0.0000000000E+00  0.0000000000E+00  0.0000000000E+00
           symrel      1  0  0   0  1  0   0  0  1      -1  0  0   0 -1  0   0  0 -1
                       0  1  0   1  0  0   0  0  1       0 -1  0  -1  0  0   0  0 -1
                       0  0  1   1  0  0   0  1  0       0  0 -1  -1  0  0   0 -1  0
                       1  0  0   0  0  1   0  1  0      -1  0  0   0  0 -1   0 -1  0
                       0  1  0   0  0  1   1  0  0       0 -1  0   0  0 -1  -1  0  0
                       0  0  1   0  1  0   1  0  0       0  0 -1   0 -1  0  -1  0  0
           tolwfr      1.00000000E-20
            typat      1  2  3  3
           useylm           1
              wtk        0.50000    0.50000
           xangst      2.2038560341E+00  1.3422899731E+00  7.6805285121E+00
                       0.0000000000E+00  0.0000000000E+00  0.0000000000E+00
                       3.2370325583E+00  1.9715608816E+00  1.1281191001E+01
                       1.1706795099E+00  7.1301906453E-01  4.0798660235E+00
            xcart      4.1646843408E+00  2.5365604400E+00  1.4514095444E+01
                       0.0000000000E+00  0.0000000000E+00  0.0000000000E+00
                       6.1171050185E+00  3.7257101205E+00  2.1318361444E+01
                       2.2122636631E+00  1.3474107595E+00  7.7098294433E+00
             xred      5.0000000000E-01  5.0000000000E-01  5.0000000000E-01
                       0.0000000000E+00  0.0000000000E+00  0.0000000000E+00
                       7.3440200000E-01  7.3440200000E-01  7.3440200000E-01
                       2.6559800000E-01  2.6559800000E-01  2.6559800000E-01
            znucl       11.00000   21.00000    8.00000

- Timing analysis has been suppressed with timopt=0

 Suggested references for the acknowledgment of ABINIT usage.

 Calculation completed.
.Delivered  14 WARNINGs and  15 COMMENTs to log file.