.Version 9.7.2 of ABINIT

 ABINIT is a project of the Universite Catholique de Louvain,
 Corning Inc. and other collaborators, see ~abinit/doc/developers/contributors.txt .
 acknowledgments of the ABINIT effort.

.Starting date : Wed  1 Dec 2021.
- ( at 21h13 )

- input  file    -> /scratch/users/j/a/jabreu/flow_simple_remain_atoms/flow/w155/t1/run.abi
- output file    -> /scratch/users/j/a/jabreu/flow_simple_remain_atoms/flow/w155/t1/run.abo
- root for input  files -> /scratch/users/j/a/jabreu/flow_simple_remain_atoms/flow/w155/t1/indata/in
- root for output files -> /scratch/users/j/a/jabreu/flow_simple_remain_atoms/flow/w155/t1/outdata/out

 Symmetries : space group I4/m m m (#139); Bravais tI (body-center tetrag.)
     intxc =       0      iscf =       7    lmnmax =      18     lnmax =       6
     mgfft =      80  mpssoang =       3    mqgrid =    3001     natom =       5
  nloc_mem =       1    nspden =       1   nspinor =       1    nsppol =       1
      nsym =      16    n1xccc =    2501    ntypat =       3    occopt =       1
   xclevel =       2
-    mband =          34        mffmem =           1         mkmem =           2
-   mkqmem =           2        mk1mem =           2           mpw =        8743
      nfft =      512000          nkpt =           2
  Rough estimation (10% accuracy) of disk space for files :

------------- Echo of variables that govern the present computation ------------
-
- outvars: echo of selected default values
-   iomode0 =  0 , fftalg0 =512 , wfoptalg0 =  0
-
- outvars: echo of global parameters not present in the input file
-  max_nthreads =    0
-
 -outvars: echo values of preprocessed input variables --------
            acell      1.0000000000E+00  1.0000000000E+00  1.0000000000E+00 Bohr
              amu      8.89058500E+01  1.27600000E+02  1.59994000E+01
             ecut      4.40000000E+01 Hartree
-          fftalg         512
           irdden           1
           irdwfk           1
           istwfk        0    1
              ixc     -116133
              kpt     -2.03672897E-01  2.03672897E-01  2.03672897E-01
                       0.00000000E+00  0.00000000E+00  5.00000000E-01
           kptopt           0
P           mkmem           2
P          mkqmem           2
P          mk1mem           2
            natom           5
            nband          34
           nbdbuf           4
            ngfft          80      80      80
             nkpt           2
            nstep        2000
             nsym          16
           ntypat           3
              occ      2.000000  2.000000  2.000000  2.000000  2.000000  2.000000
                       2.000000  2.000000  2.000000  2.000000  2.000000  2.000000
                       2.000000  2.000000  2.000000  2.000000  2.000000  2.000000
                       2.000000  2.000000  2.000000  2.000000  2.000000  2.000000
                       2.000000  0.000000  0.000000  0.000000  0.000000  0.000000
                       0.000000  0.000000  0.000000  0.000000
        optdriver           1
            prtwf          -1
            rfdir           1       1       1
           rfelfd           2
            rprim      7.0345481919E+00  0.0000000000E+00 -1.0614615208E+01
                      -6.3853708430E-01  7.0055077373E+00 -1.0614615208E+01
                       0.0000000000E+00  0.0000000000E+00  1.2734006607E+01
          spgroup         139
           symrel      1  0  0   0  1  0   0  0  1      -1  0  0   0 -1  0   0  0 -1
                       0  0  1  -1 -1 -1   1  0  0       0  0 -1   1  1  1  -1  0  0
                       0  1  0   1  0  0  -1 -1 -1       0 -1  0  -1  0  0   1  1  1
                      -1 -1 -1   0  0  1   0  1  0       1  1  1   0  0 -1   0 -1  0
                       0  1  0   1  0  0   0  0  1       0 -1  0  -1  0  0   0  0 -1
                       0  0  1  -1 -1 -1   0  1  0       0  0 -1   1  1  1   0 -1  0
                       1  0  0   0  1  0  -1 -1 -1      -1  0  0   0 -1  0   1  1  1
                      -1 -1 -1   0  0  1   1  0  0       1  1  1   0  0 -1  -1  0  0
           tolwfr      1.00000000E-20
            typat      1  1  2  3  3
           useylm           1
              wtk        0.50000    0.50000
           xangst      1.1424457500E+00  1.2513131085E+00 -3.7919327620E+00
                       2.2421775540E+00  2.4558419206E+00 -7.4420921298E+00
                       0.0000000000E+00  0.0000000000E+00  0.0000000000E+00
                       6.7720619008E-01  2.7803662719E+00 -2.2477394106E+00
                       2.7074171139E+00  9.2678875730E-01 -2.2477394106E+00
            xcart      2.1589095893E+00  2.3646390816E+00 -7.1657144344E+00
                       4.2371015183E+00  4.6408686557E+00 -1.4063515981E+01
                       0.0000000000E+00  0.0000000000E+00  0.0000000000E+00
                       1.2797342347E+00  5.2541308030E+00 -4.2476119041E+00
                       5.1162768729E+00  1.7513769343E+00 -4.2476119041E+00
             xred      3.3754000000E-01  3.3754000000E-01 -5.5511151231E-17
                       6.6246000000E-01  6.6246000000E-01 -1.1102230246E-16
                       0.0000000000E+00  0.0000000000E+00  0.0000000000E+00
                       2.5000000000E-01  7.5000000000E-01  5.0000000000E-01
                       7.5000000000E-01  2.5000000000E-01  5.0000000000E-01
            znucl       39.00000   52.00000    8.00000

 chkinp: Checking input parameters for consistency.

== DATASET  1 ==================================================================
-   mpi_nproc: 1, omp_nthreads: -1 (-1 if OMP is not activated)

--- !DatasetInfo
iteration_state: {dtset: 1, }
dimensions: {natom: 5, nkpt: 2, mband: 34, nsppol: 1, nspinor: 1, nspden: 1, mpw: 8743, }
cutoff_energies: {ecut:  44.0, pawecutdg:  -1.0, }
electrons: {nelect:   5.00000000E+01, charge:   0.00000000E+00, occopt:   1.00000000E+00, tsmear:   1.00000000E-02, }
meta: {optdriver: 1, rfelfd: 2, }
...

 Real(R)+Recip(G) space primitive vectors, cartesian coordinates (Bohr,Bohr^-1):
 R(1)=  7.0345482  0.0000000-10.6146152  G(1)=  0.1421555  0.0129572  0.0000000
 R(2)= -0.6385371  7.0055077-10.6146152  G(2)=  0.0000000  0.1427448  0.0000000
 R(3)=  0.0000000  0.0000000 12.7340066  G(3)=  0.1184958  0.1297877  0.0785299
 Unit cell volume ucvol=  6.2753925E+02 bohr^3
 Angles (23,13,12)=  1.46466653E+02  1.46466653E+02  4.81541433E+01 degrees

 getcut: wavevector=  0.0000  0.0000  0.0000  ngfft=  80  80  80
         ecut(hartree)=     44.000   => boxcut(ratio)=   2.10450

--- Pseudopotential description ------------------------------------------------
- pspini: atom type   1  psp file is /scratch/users/j/a/jabreu/pseudos/PBEsol/Y.psp8
- pspatm: opening atomic psp file    /scratch/users/j/a/jabreu/pseudos/PBEsol/Y.psp8
- Y     ONCVPSP-3.3.0  r_core=   1.60520   1.51226   1.56736
- 39.00000  11.00000    180112                znucl, zion, pspdat
    8 -116133    2    4       600   0.00000   pspcod,pspxc,lmax,lloc,mmax,r2well
    5.99000000000000    4.00000000000000    0.00000000000000   rchrg,fchrg,qchrg
     nproj     2     2     2
     extension_switch     1
  pspatm : epsatm=   18.54790046
         --- l  ekb(1:nproj) -->
             0   10.130768    0.866504
             1    5.598307    0.427135
             2    1.217602    0.315447
 pspatm: atomic psp has been read  and splines computed

- pspini: atom type   2  psp file is /scratch/users/j/a/jabreu/pseudos/PBEsol/Te.psp8
- pspatm: opening atomic psp file    /scratch/users/j/a/jabreu/pseudos/PBEsol/Te.psp8
- Te    ONCVPSP-3.3.0  r_core=   2.26547   1.91704   1.80604
- 52.00000  16.00000    180112                znucl, zion, pspdat
    8 -116133    2    4       600   0.00000   pspcod,pspxc,lmax,lloc,mmax,r2well
    5.99000000000000    5.00000000000000    0.00000000000000   rchrg,fchrg,qchrg
     nproj     2     2     2
     extension_switch     1
  pspatm : epsatm=   36.82679836
         --- l  ekb(1:nproj) -->
             0    6.345999    0.785432
             1    5.709019    1.070069
             2   -6.035173   -1.870937
 pspatm: atomic psp has been read  and splines computed

- pspini: atom type   3  psp file is /scratch/users/j/a/jabreu/pseudos/PBEsol/O.psp8
- pspatm: opening atomic psp file    /scratch/users/j/a/jabreu/pseudos/PBEsol/O.psp8
- O     ONCVPSP-3.3.0  r_core=   1.35509   1.45563   1.26150
-  8.00000   6.00000    180112                znucl, zion, pspdat
    8 -116133    2    4       600   0.00000   pspcod,pspxc,lmax,lloc,mmax,r2well
    5.99000000000000    4.00000000000000    0.00000000000000   rchrg,fchrg,qchrg
     nproj     2     2     1
     extension_switch     1
  pspatm : epsatm=    6.22910522
         --- l  ekb(1:nproj) -->
             0    6.050032    0.820363
             1   -4.739617   -1.153841
             2   -1.335834
 pspatm: atomic psp has been read  and splines computed

   4.31904049E+03                                ecore*ucvol(ha*bohr**3)

 ==>  initialize data related to q vector <==

 The list of irreducible perturbations for this q vector is:
    1)    idir= 1    ipert=   6
    2)    idir= 2    ipert=   6
    3)    idir= 3    ipert=   6

 Perturbation wavevector (in red.coord.)   0.000000  0.000000  0.000000
 Perturbation : derivative vs k along direction   1

 dfpt_looppert : COMMENT -
  In a d/dk calculation, iscf is set to -3 automatically.
 The set of symmetries contains only one element for this perturbation.
 symkpt : not enough symmetry to change the number of k points.

 Initialisation of the first-order wave-functions :
  ireadwf=   0

--- !BeginCycle
iteration_state: {dtset: 1, }
solver: {iscf: 7, nstep: 2000, nline: 4, wfoptalg: 0, }
tolerances: {tolwfr: 1.00E-20, }
...

     iter   2DEtotal(Ha)        deltaE(Ha) residm    vres2
-ETOT  1  -61.264056888390     -6.126E+01 1.216E-01 0.000E+00
 ETOT  2  -61.327217804323     -6.316E-02 1.764E-02 0.000E+00
 ETOT  3  -61.327739064808     -5.213E-04 3.306E-03 0.000E+00
 ETOT  4  -61.327748787478     -9.723E-06 5.739E-04 0.000E+00
 ETOT  5  -61.327749032107     -2.446E-07 1.313E-04 0.000E+00
 ETOT  6  -61.327749039692     -7.585E-09 2.656E-05 0.000E+00
 ETOT  7  -61.327749039964     -2.723E-10 6.233E-06 0.000E+00
 ETOT  8  -61.327749039975     -1.072E-11 1.289E-06 0.000E+00
 ETOT  9  -61.327749039976     -4.263E-13 2.989E-07 0.000E+00
 ETOT 10  -61.327749039976     -2.842E-14 7.116E-08 0.000E+00
 ETOT 11  -61.327749039976      7.105E-15 1.441E-08 0.000E+00
 ETOT 12  -61.327749039976      3.553E-14 4.952E-09 0.000E+00
 ETOT 13  -61.327749039976     -1.421E-14 9.518E-10 0.000E+00
 ETOT 14  -61.327749039976     -2.132E-14 3.486E-10 0.000E+00
 ETOT 15  -61.327749039976     -2.132E-14 6.734E-11 0.000E+00
 ETOT 16  -61.327749039976      1.421E-14 2.474E-11 0.000E+00
 ETOT 17  -61.327749039976     -7.105E-15 4.797E-12 0.000E+00
 ETOT 18  -61.327749039976      7.105E-15 1.766E-12 0.000E+00
 ETOT 19  -61.327749039976      0.000E+00 3.434E-13 0.000E+00
 ETOT 20  -61.327749039976      0.000E+00 1.266E-13 0.000E+00
 ETOT 21  -61.327749039976      0.000E+00 2.467E-14 0.000E+00
 ETOT 22  -61.327749039976     -1.421E-14 9.102E-15 0.000E+00
 ETOT 23  -61.327749039976      0.000E+00 1.777E-15 0.000E+00
 ETOT 24  -61.327749039976      7.105E-15 6.560E-16 0.000E+00
 ETOT 25  -61.327749039976     -7.105E-15 1.283E-16 0.000E+00
 ETOT 26  -61.327749039976      1.421E-14 4.736E-17 0.000E+00
 ETOT 27  -61.327749039976      0.000E+00 9.274E-18 0.000E+00
 ETOT 28  -61.327749039976     -7.105E-15 3.424E-18 0.000E+00
 ETOT 29  -61.327749039976      7.105E-15 6.711E-19 0.000E+00
 ETOT 30  -61.327749039976     -1.421E-14 2.479E-19 0.000E+00
 ETOT 31  -61.327749039976     -7.105E-15 4.861E-20 0.000E+00
 ETOT 32  -61.327749039976     -1.421E-14 1.796E-20 0.000E+00
 ETOT 33  -61.327749039976      0.000E+00 9.684E-21 0.000E+00

 At SCF step   33   max residual=  9.68E-21 < tolwfr=  1.00E-20 =>converged.

 ----iterations are completed or convergence reached----

 dfpt_looppert: DFPT cycle converged with prtwf=-1. Will skip output of the 1st-order WFK file.
 dfpt_looppert : ek2=    8.0441563395E+01
          f-sum rule ratio=    1.0832209546E+00
 prteigrs : about to open file /scratch/users/j/a/jabreu/flow_simple_remain_atoms/flow/w155/t1/tmpdata/tmp_1WF1_EIG
 Expectation of eigenvalue derivatives (hartree) for nkpt=   2  k points:
  (in case of degenerate eigenvalues, averaged derivative)
 kpt#   1, nband= 34, wtk=  0.50000, kpt= -0.2037  0.2037  0.2037 (reduced coord)
  -0.00000    0.00000   -0.00000    0.00000   -0.00000    0.00000    0.00000    0.00000
  -0.00000   -0.00000    0.00000   -0.00000    0.00000   -0.00000    0.00000   -0.00000
  -0.00000    0.00000   -0.00000    0.00000   -0.00000    0.00000    0.00000    0.00000
  -0.00000    0.00000    0.00000    0.00000   -0.00000   -0.00000    0.00000   -0.00000
  -0.00000   -0.00000
 prteigrs : prtvol=0 or 1, do not print more k-points.

 Eight components of 2nd-order total energy (hartree) are
 1,2,3: 0th-order hamiltonian combined with 1st-order wavefunctions
     kin0=   6.72267708E+01 eigvalue=   4.74322062E+00  local=  -3.47559306E+01
 4,5,6: 1st-order hamiltonian combined with 1st and 0th-order wfs
     kin1=  -8.71359871E+01  Hartree=   0.00000000E+00     xc=   0.00000000E+00
 7,8,9: eventually, occupation + non-local contributions
    edocc=   1.81912498E+01     enl0=   5.92243846E+00   enl1=  -3.55195110E+01
 1-9 gives the relaxation energy (to be shifted if some occ is /=2.0)
   erelax=  -6.13277490E+01
  No Ewald or frozen-wf contrib.: the relaxation energy is the total one
 2DEtotal=   -0.6132774904E+02 Ha. Also 2DEtotal=   -0.166881292040E+04 eV
    (  non-var. 2DEtotal :   -6.1327749040E+01 Ha)

 Perturbation wavevector (in red.coord.)   0.000000  0.000000  0.000000
 Perturbation : derivative vs k along direction   2
 The set of symmetries contains only one element for this perturbation.
 symkpt : not enough symmetry to change the number of k points.

[...]

 Perturbation wavevector (in red.coord.)   0.000000  0.000000  0.000000
 Perturbation : derivative vs k along direction   3
 The set of symmetries contains only one element for this perturbation.
 symkpt : not enough symmetry to change the number of k points.

 Initialisation of the first-order wave-functions :
  ireadwf=   0

--- !BeginCycle
iteration_state: {dtset: 1, }
solver: {iscf: 7, nstep: 2000, nline: 4, wfoptalg: 0, }
tolerances: {tolwfr: 1.00E-20, }
...

     iter   2DEtotal(Ha)        deltaE(Ha) residm    vres2
-ETOT  1  -110.26987099320     -1.103E+02 1.593E-01 0.000E+00
 ETOT  2  -110.34038833430     -7.052E-02 1.896E-02 0.000E+00
 ETOT  3  -110.34063163522     -2.433E-04 1.735E-03 0.000E+00
 ETOT  4  -110.34063440225     -2.767E-06 2.849E-04 0.000E+00
 ETOT  5  -110.34063444683     -4.458E-08 6.909E-05 0.000E+00
 ETOT  6  -110.34063444775     -9.160E-10 7.187E-06 0.000E+00
 ETOT  7  -110.34063444777     -2.311E-11 2.359E-06 0.000E+00
 ETOT  8  -110.34063444777     -5.969E-13 2.079E-07 0.000E+00
 ETOT  9  -110.34063444777      0.000E+00 8.403E-08 0.000E+00
 ETOT 10  -110.34063444777      0.000E+00 7.795E-09 0.000E+00
 ETOT 11  -110.34063444777     -5.684E-14 3.088E-09 0.000E+00
 ETOT 12  -110.34063444777     -5.684E-14 3.008E-10 0.000E+00
 ETOT 13  -110.34063444777      5.684E-14 1.163E-10 0.000E+00
 ETOT 14  -110.34063444777     -2.842E-14 1.239E-11 0.000E+00
 ETOT 15  -110.34063444777      1.421E-14 4.468E-12 0.000E+00
 ETOT 16  -110.34063444777     -1.421E-14 5.468E-13 0.000E+00
 ETOT 17  -110.34063444777     -1.421E-14 1.744E-13 0.000E+00
 ETOT 18  -110.34063444777      2.842E-14 2.416E-14 0.000E+00
 ETOT 19  -110.34063444777     -1.421E-14 6.901E-15 0.000E+00
 ETOT 20  -110.34063444777      0.000E+00 1.069E-15 0.000E+00
 ETOT 21  -110.34063444777      2.842E-14 2.759E-16 0.000E+00
 ETOT 22  -110.34063444777      2.842E-14 4.730E-17 0.000E+00
 ETOT 23  -110.34063444777     -4.263E-14 1.111E-17 0.000E+00
 ETOT 24  -110.34063444777      0.000E+00 2.094E-18 0.000E+00
 ETOT 25  -110.34063444777      1.421E-14 4.504E-19 0.000E+00
 ETOT 26  -110.34063444777     -2.842E-14 9.279E-20 0.000E+00
 ETOT 27  -110.34063444777      0.000E+00 1.833E-20 0.000E+00
 ETOT 28  -110.34063444777      2.842E-14 9.922E-21 0.000E+00

 At SCF step   28   max residual=  9.92E-21 < tolwfr=  1.00E-20 =>converged.

 ----iterations are completed or convergence reached----

 dfpt_looppert: DFPT cycle converged with prtwf=-1. Will skip output of the 1st-order WFK file.
 dfpt_looppert : ek2=    1.4627951041E+02
          f-sum rule ratio=    1.0702554100E+00
 prteigrs : about to open file /scratch/users/j/a/jabreu/flow_simple_remain_atoms/flow/w155/t1/tmpdata/tmp_1WF1_EIG
 Expectation of eigenvalue derivatives (hartree) for nkpt=   2  k points:
  (in case of degenerate eigenvalues, averaged derivative)
 kpt#   1, nband= 34, wtk=  0.50000, kpt= -0.2037  0.2037  0.2037 (reduced coord)
   0.00583   -0.00414   -0.00010    0.00021   -0.00008    0.00001    0.00019    0.00524
  -0.04981    0.01587    0.00001   -0.01367   -0.00515    0.04373    0.01331    0.04650
   0.06691   -0.01624    0.08016    0.20467   -0.11716   -0.19594   -0.05745   -0.09977
   0.00344    0.03296   -0.06810    0.07334   -0.04843    0.10020   -0.10707    0.01011
  -0.04998   -0.15178
 prteigrs : prtvol=0 or 1, do not print more k-points.

 Eight components of 2nd-order total energy (hartree) are
 1,2,3: 0th-order hamiltonian combined with 1st-order wavefunctions
     kin0=   1.23025904E+02 eigvalue=   9.24461081E+00  local=  -6.36320319E+01
 4,5,6: 1st-order hamiltonian combined with 1st and 0th-order wfs
     kin1=  -1.56556437E+02  Hartree=   0.00000000E+00     xc=   0.00000000E+00
 7,8,9: eventually, occupation + non-local contributions
    edocc=   3.09148353E+01     enl0=   1.07873165E+01   enl1=  -6.41248315E+01
 1-9 gives the relaxation energy (to be shifted if some occ is /=2.0)
   erelax=  -1.10340634E+02
  No Ewald or frozen-wf contrib.: the relaxation energy is the total one
 2DEtotal=   -0.1103406344E+03 Ha. Also 2DEtotal=   -0.300252135931E+04 eV
    (  non-var. 2DEtotal :   -1.1034063445E+02 Ha)

 CALCULATION OF EFFECTIVE MASSES
 NOTE : Additional infos (eff. mass eigenvalues, eigenvectors and, if degenerate, average mass) are available in stdout.

 K-point (-0.204, 0.204, 0.204) | band =    25
 Effective mass tensor:
             -0.3536389567             -0.0775807579              0.6649692778
             -0.0775807579             -1.7945859748              0.2575011481
              0.6649692778              0.2575011481             -2.3604182816
 Effective mass tensor eigenvalues:
             -2.6457363336             -1.7096120163             -0.1532948632
 Angular average effective mass 1/(<1/m>)=  -0.4007335859
 Angular average effective mass for Frohlich model (<m**0.5>)**2=  -0.6507208699
 Effective masses along directions: (cart. coord. / red. coord. -> eff. mass)
    1:   1.000000  0.000000  0.000000 /   0.995906 -0.090400  0.000000 ->  -0.1662916276
    2:   0.000000  1.000000  0.000000 /   0.000000  1.000000  0.000000 ->  -1.7663421924
    3:   0.000000  0.000000  1.000000 /  -0.539226 -0.539226  0.646892 ->  -1.1030260897
    4:   0.577350  0.577350  0.577350 /  -0.257689 -0.305741  0.916580 ->  -0.2739648961
    5:   0.000000  0.707107  0.707107 /  -0.625634 -0.212724  0.750553 ->  -1.2605595372
    6:   0.707107  0.000000  0.707107 /  -0.206144 -0.647970  0.733239 ->  -0.1940878632
    7:   0.707107  0.707107  0.000000 /   0.741411  0.671051  0.000000 ->  -0.3055594983

 K-point ( 0.000, 0.000, 0.500) | band =    26
 Effective mass tensor:
              4.0457661337              2.6853933930             -8.8464883388
              2.6853933930              4.5353722362             -9.6896131291
             -8.8464883388             -9.6896131291             30.4870748568
 Effective mass tensor eigenvalues:
              1.1242730689              1.5940406372             36.3498995206
 Angular average effective mass 1/(<1/m>)=   1.9426143977
 Angular average effective mass for Frohlich model (<m**0.5>)**2=   2.6272704191
 Effective masses along directions: (cart. coord. / red. coord. -> eff. mass)
    1:   1.000000  0.000000  0.000000 /   0.995906 -0.090400  0.000000 ->   1.4678144536
    2:   0.000000  1.000000  0.000000 /   0.000000  1.000000  0.000000 ->   1.4449722042
    3:   0.000000  0.000000  1.000000 /  -0.539226 -0.539226  0.646892 ->   5.8489539797
    4:   0.577350  0.577350  0.577350 /  -0.257689 -0.305741  0.916580 ->   1.1674852201
    5:   0.000000  0.707107  0.707107 /  -0.625634 -0.212724  0.750553 ->   1.4956351636
    6:   0.707107  0.000000  0.707107 /  -0.206144 -0.647970  0.733239 ->   1.5561841548
    7:   0.707107  0.707107  0.000000 /   0.741411  0.671051  0.000000 ->   1.3409168215

 END OF EFFECTIVE MASSES SECTION

 ---- first-order wavefunction calculations are completed ----

 Total localisation tensor (bohr^2) in cartesian coordinates
  WARNING : still subject to testing - especially symmetries.
      direction              matrix element
   alpha     beta       real part   imaginary part
     1        1       1.3321598568    0.0000000000
     1        2      -0.0850549046    0.0000000000
     1        3      -1.8695594520    0.0000000000
     2        1      -0.0850549046    0.0000000000
     2        2       0.9331529942    0.0000000000
     2        3      -1.4138960850    0.0000000000
     3        1      -1.8695594520    0.0000000000
     3        2      -1.4138960850    0.0000000000
     3        3      12.3807116856    0.0000000000

 respfn : d/dk was computed, but no 2DTE, so no DDB output.

== END DATASET(S) ==============================================================

 -outvars: echo values of variables after computation  --------
            acell      1.0000000000E+00  1.0000000000E+00  1.0000000000E+00 Bohr
              amu      8.89058500E+01  1.27600000E+02  1.59994000E+01
             ecut      4.40000000E+01 Hartree
           etotal     -1.1034063445E+02
            fcart      0.0000000000E+00  0.0000000000E+00  0.0000000000E+00
                       0.0000000000E+00  0.0000000000E+00  0.0000000000E+00
                       0.0000000000E+00  0.0000000000E+00  0.0000000000E+00
                       0.0000000000E+00  0.0000000000E+00  0.0000000000E+00
                       0.0000000000E+00  0.0000000000E+00  0.0000000000E+00
-          fftalg         512
           irdden           1
           irdwfk           1
           istwfk        0    1
              ixc     -116133
              kpt     -2.03672897E-01  2.03672897E-01  2.03672897E-01
                       0.00000000E+00  0.00000000E+00  5.00000000E-01
           kptopt           0
P           mkmem           2
P          mkqmem           2
P          mk1mem           2
            natom           5
            nband          34
           nbdbuf           4
            ngfft          80      80      80
             nkpt           2
            nstep        2000
             nsym          16
           ntypat           3
              occ      2.000000  2.000000  2.000000  2.000000  2.000000  2.000000
                       2.000000  2.000000  2.000000  2.000000  2.000000  2.000000
                       2.000000  2.000000  2.000000  2.000000  2.000000  2.000000
                       2.000000  2.000000  2.000000  2.000000  2.000000  2.000000
                       2.000000  0.000000  0.000000  0.000000  0.000000  0.000000
                       0.000000  0.000000  0.000000  0.000000
        optdriver           1
            prtwf          -1
            rfdir           1       1       1
           rfelfd           2
            rprim      7.0345481919E+00  0.0000000000E+00 -1.0614615208E+01
                      -6.3853708430E-01  7.0055077373E+00 -1.0614615208E+01
                       0.0000000000E+00  0.0000000000E+00  1.2734006607E+01
          spgroup         139
           strten      0.0000000000E+00  0.0000000000E+00  0.0000000000E+00
                       0.0000000000E+00  0.0000000000E+00  0.0000000000E+00
           symrel      1  0  0   0  1  0   0  0  1      -1  0  0   0 -1  0   0  0 -1
                       0  0  1  -1 -1 -1   1  0  0       0  0 -1   1  1  1  -1  0  0
                       0  1  0   1  0  0  -1 -1 -1       0 -1  0  -1  0  0   1  1  1
                      -1 -1 -1   0  0  1   0  1  0       1  1  1   0  0 -1   0 -1  0
                       0  1  0   1  0  0   0  0  1       0 -1  0  -1  0  0   0  0 -1
                       0  0  1  -1 -1 -1   0  1  0       0  0 -1   1  1  1   0 -1  0
                       1  0  0   0  1  0  -1 -1 -1      -1  0  0   0 -1  0   1  1  1
                      -1 -1 -1   0  0  1   1  0  0       1  1  1   0  0 -1  -1  0  0
           tolwfr      1.00000000E-20
            typat      1  1  2  3  3
           useylm           1
              wtk        0.50000    0.50000
           xangst      1.1424457500E+00  1.2513131085E+00 -3.7919327620E+00
                       2.2421775540E+00  2.4558419206E+00 -7.4420921298E+00
                       0.0000000000E+00  0.0000000000E+00  0.0000000000E+00
                       6.7720619008E-01  2.7803662719E+00 -2.2477394106E+00
                       2.7074171139E+00  9.2678875730E-01 -2.2477394106E+00
            xcart      2.1589095893E+00  2.3646390816E+00 -7.1657144344E+00
                       4.2371015183E+00  4.6408686557E+00 -1.4063515981E+01
                       0.0000000000E+00  0.0000000000E+00  0.0000000000E+00
                       1.2797342347E+00  5.2541308030E+00 -4.2476119041E+00
                       5.1162768729E+00  1.7513769343E+00 -4.2476119041E+00
             xred      3.3754000000E-01  3.3754000000E-01 -5.5511151231E-17
                       6.6246000000E-01  6.6246000000E-01 -1.1102230246E-16
                       0.0000000000E+00  0.0000000000E+00  0.0000000000E+00
                       2.5000000000E-01  7.5000000000E-01  5.0000000000E-01
                       7.5000000000E-01  2.5000000000E-01  5.0000000000E-01
            znucl       39.00000   52.00000    8.00000

- Timing analysis has been suppressed with timopt=0

 Suggested references for the acknowledgment of ABINIT usage.

 Calculation completed.
.Delivered   2 WARNINGs and   5 COMMENTs to log file.