.Version 9.5.2 of ABINIT

 ABINIT is a project of the Universite Catholique de Louvain,
 Corning Inc. and other collaborators, see ~abinit/doc/developers/contributors.txt .
 acknowledgments of the ABINIT effort.

.Starting date : Mon 31 May 2021.
- ( at 23h06 )

- input  file    -> /scratch/users/j/a/jabreu/flow_simple_11atoms/flow/w396/t1/run.abi
- output file    -> /scratch/users/j/a/jabreu/flow_simple_11atoms/flow/w396/t1/run.abo
- root for input  files -> /scratch/users/j/a/jabreu/flow_simple_11atoms/flow/w396/t1/indata/in
- root for output files -> /scratch/users/j/a/jabreu/flow_simple_11atoms/flow/w396/t1/outdata/out

 Symmetries : space group Cm c 2_1 (# 36); Bravais oC (1-face-center ortho.)
     intxc =       0      iscf =       7    lmnmax =      18     lnmax =       6
     mgfft =      96  mpssoang =       3    mqgrid =    3105     natom =      16
  nloc_mem =       1    nspden =       1   nspinor =       1    nsppol =       1
      nsym =       4    n1xccc =    2501    ntypat =       3    occopt =       1
   xclevel =       2
-    mband =          81        mffmem =           1         mkmem =           1
-   mkqmem =           1        mk1mem =           1           mpw =       22697
      nfft =      589824          nkpt =           1
  Rough estimation (10% accuracy) of disk space for files :

------------- Echo of variables that govern the present computation ------------
-
- outvars: echo of selected default values
-   iomode0 =  0 , fftalg0 =512 , wfoptalg0 =  0
-
- outvars: echo of global parameters not present in the input file
-  max_nthreads =    0
-
 -outvars: echo values of preprocessed input variables --------
            acell      1.0000000000E+00  1.0000000000E+00  1.0000000000E+00 Bohr
              amu      4.78800000E+01  2.08980370E+02  1.59994000E+01
             ecut      4.40000000E+01 Hartree
-          fftalg         512
           irdden           1
           irdwfk           1
           istwfk        1
              ixc     -116133
           kptopt           0
P           mkmem           1
P          mkqmem           1
P          mk1mem           1
            natom          16
            nband          81
           nbdbuf           4
            ngfft          96      96      64
             nkpt           1
            nstep        2000
             nsym           4
           ntypat           3
              occ      2.000000  2.000000  2.000000  2.000000  2.000000  2.000000
                       2.000000  2.000000  2.000000  2.000000  2.000000  2.000000
                       2.000000  2.000000  2.000000  2.000000  2.000000  2.000000
                       2.000000  2.000000  2.000000  2.000000  2.000000  2.000000
                       2.000000  2.000000  2.000000  2.000000  2.000000  2.000000
                       2.000000  2.000000  2.000000  2.000000  2.000000  2.000000
                       2.000000  2.000000  2.000000  2.000000  2.000000  2.000000
                       2.000000  2.000000  2.000000  2.000000  2.000000  2.000000
                       2.000000  2.000000  2.000000  2.000000  2.000000  2.000000
                       2.000000  2.000000  2.000000  2.000000  2.000000  2.000000
                       2.000000  2.000000  2.000000  2.000000  2.000000  2.000000
                       2.000000  2.000000  2.000000  2.000000  2.000000  2.000000
                       0.000000  0.000000  0.000000  0.000000  0.000000  0.000000
                       0.000000  0.000000  0.000000
        optdriver           1
            prtwf          -1
            rfdir           1       1       1
           rfelfd           2
            rprim      1.5760756582E+01  0.0000000000E+00  0.0000000000E+00
                      -1.2231748207E+01  9.9391037755E+00  0.0000000000E+00
                       0.0000000000E+00  0.0000000000E+00  1.0396160920E+01
          spgroup          36
           symrel      1  0  0   0  1  0   0  0  1       0 -1  0  -1  0  0   0  0  1
                      -1  0  0   0 -1  0   0  0  1       0  1  0   1  0  0   0  0  1
            tnons      0.0000000  0.0000000  0.0000000    -0.0000000 -0.0000000  0.5000000
                      -0.0000000 -0.0000000  0.5000000     0.0000000 -0.0000000  0.0000000
           tolwfr      1.00000000E-20
            typat      1  1  2  2  2  2  3  3  3  3  3  3  3  3  3  3
           useylm           1
           xangst      3.5210414972E-01  9.9166658483E-01  1.4745818117E+00
                       1.5153666517E+00  4.2678806070E+00  4.2252875197E+00
                       3.8432357579E+00  2.8573910197E+00  1.3000330303E+00
                       3.0482254257E+00  6.1832288696E-01  4.0507387383E+00
                      -1.1807546243E+00  4.6412243048E+00  1.3000330303E+00
                      -1.9757649565E+00  2.4021561721E+00  4.0507387383E+00
                       2.0559323898E+00  1.3239069214E+00  1.8804099290E+00
                       2.6281702626E+00  2.9355584101E+00  4.6311156370E+00
                       4.6863209681E+00  1.3811623521E+00  2.8073977526E+00
                       4.6334790143E+00  1.2323382048E+00  5.6692044641E-02
                      -2.8188501667E+00  3.8783848397E+00  5.6692044641E-02
                      -2.7660082129E+00  4.0272089870E+00  2.8073977526E+00
                      -7.6069946124E-01  2.3239887817E+00  1.8804099290E+00
                      -1.8846158839E-01  3.9356402704E+00  4.6311156370E+00
                       1.6982574046E+00  4.7829743612E+00  2.4556980222E+00
                       1.6921339679E-01  4.7657283060E-01  5.2064037302E+00
            xcart      6.6538041322E-01  1.8739782605E+00  2.7865557846E+00
                       2.8636279626E+00  8.0651255150E+00  7.9846362449E+00
                       7.2626630466E+00  5.3996864818E+00  2.4567063910E+00
                       5.7603112459E+00  1.1684609181E+00  7.6547868512E+00
                      -2.2313028701E+00  8.7706428574E+00  2.4567063910E+00
                      -3.7336546708E+00  4.5394172937E+00  7.6547868512E+00
                       3.8851491644E+00  2.5018215068E+00  3.5534597834E+00
                       4.9665220270E+00  5.5474014422E+00  8.7515402437E+00
                       8.8558632006E+00  2.6100185906E+00  5.3052128985E+00
                       8.7560063796E+00  2.3287817101E+00  1.0713243829E-01
                      -5.3268548248E+00  7.3290851849E+00  1.0713243829E-01
                      -5.2269980038E+00  7.6103220654E+00  5.3052128985E+00
                      -1.4375136512E+00  4.3917023333E+00  3.5534597834E+00
                      -3.5614078863E-01  7.4372822687E+00  8.7515402437E+00
                       3.2092413979E+00  9.0385116433E+00  4.6405967270E+00
                       3.1976697794E-01  9.0059213220E-01  9.8386771873E+00
             xred      1.8854600000E-01  1.8854600000E-01  2.6803700000E-01
                       8.1145400000E-01  8.1145400000E-01  7.6803700000E-01
                       8.8243800000E-01  5.4327700000E-01  2.3630900000E-01
                       4.5672300000E-01  1.1756200000E-01  7.3630900000E-01
                       5.4327700000E-01  8.8243800000E-01  2.3630900000E-01
                       1.1756200000E-01  4.5672300000E-01  7.3630900000E-01
                       4.4186100000E-01  2.5171500000E-01  3.4180500000E-01
                       7.4828500000E-01  5.5813900000E-01  8.4180500000E-01
                       7.6569500000E-01  2.6260100000E-01  5.1030500000E-01
                       7.3739900000E-01  2.3430500000E-01  1.0305000000E-02
                       2.3430500000E-01  7.3739900000E-01  1.0305000000E-02
                       2.6260100000E-01  7.6569500000E-01  5.1030500000E-01
                       2.5171500000E-01  4.4186100000E-01  3.4180500000E-01
                       5.5813900000E-01  7.4828500000E-01  8.4180500000E-01
                       9.0938900000E-01  9.0938900000E-01  4.4637600000E-01
                       9.0611000000E-02  9.0611000000E-02  9.4637600000E-01
            znucl       22.00000   83.00000    8.00000

 chkinp: Checking input parameters for consistency.

== DATASET  1 ==================================================================
-   mpi_nproc: 1, omp_nthreads: -1 (-1 if OMP is not activated)

--- !DatasetInfo
iteration_state: {dtset: 1, }
dimensions: {natom: 16, nkpt: 1, mband: 81, nsppol: 1, nspinor: 1, nspden: 1, mpw: 22697, }
cutoff_energies: {ecut:  44.0, pawecutdg:  -1.0, }
electrons: {nelect:   1.44000000E+02, charge:   0.00000000E+00, occopt:   1.00000000E+00, tsmear:   1.00000000E-02, }
meta: {optdriver: 1, rfelfd: 2, }
...

 Real(R)+Recip(G) space primitive vectors, cartesian coordinates (Bohr,Bohr^-1):
 R(1)= 15.7607566  0.0000000  0.0000000  G(1)=  0.0634487  0.0780844  0.0000000
 R(2)=-12.2317482  9.9391038  0.0000000  G(2)=  0.0000000  0.1006127  0.0000000
 R(3)=  0.0000000  0.0000000 10.3961609  G(3)=  0.0000000  0.0000000  0.0961894
 Unit cell volume ucvol=  1.6285357E+03 bohr^3
 Angles (23,13,12)=  9.00000000E+01  9.00000000E+01  1.40903860E+02 degrees

 getcut: wavevector=  0.0000  0.0000  0.0000  ngfft=  96  96  64
         ecut(hartree)=     44.000   => boxcut(ratio)=   2.03994

--- Pseudopotential description ------------------------------------------------
- pspini: atom type   1  psp file is /scratch/users/j/a/jabreu/pseudos/PBEsol/Ti.psp8
- pspatm: opening atomic psp file    /scratch/users/j/a/jabreu/pseudos/PBEsol/Ti.psp8
- Ti    ONCVPSP-3.3.0  r_core=   1.35825   1.31050   1.66360
- 22.00000  12.00000    180112                znucl, zion, pspdat
    8 -116133    2    4       600   0.00000   pspcod,pspxc,lmax,lloc,mmax,r2well
    5.99000000000000    2.50000000000000    0.00000000000000   rchrg,fchrg,qchrg
     nproj     2     2     2
     extension_switch     1
  pspatm : epsatm=   14.76919902
         --- l  ekb(1:nproj) -->
             0   11.321950    1.254474
             1    1.946894   -0.084268
             2   -5.237105   -1.488377
 pspatm: atomic psp has been read  and splines computed

- pspini: atom type   2  psp file is /scratch/users/j/a/jabreu/pseudos/PBEsol/Bi.psp8
- pspatm: opening atomic psp file    /scratch/users/j/a/jabreu/pseudos/PBEsol/Bi.psp8
- Bi    ONCVPSP-3.3.0  r_core=   2.42776   2.51622   2.10397
- 83.00000  15.00000    180112                znucl, zion, pspdat
    8 -116133    2    4       600   0.00000   pspcod,pspxc,lmax,lloc,mmax,r2well
    5.99000000000000    6.00000000000000    0.00000000000000   rchrg,fchrg,qchrg
     nproj     2     2     2
     extension_switch     1
  pspatm : epsatm=   42.90078186
         --- l  ekb(1:nproj) -->
             0    6.017688    0.961606
             1    4.379371    0.528498
             2   -3.458170   -0.753782
 pspatm: atomic psp has been read  and splines computed

- pspini: atom type   3  psp file is /scratch/users/j/a/jabreu/pseudos/PBEsol/O.psp8
- pspatm: opening atomic psp file    /scratch/users/j/a/jabreu/pseudos/PBEsol/O.psp8
- O     ONCVPSP-3.3.0  r_core=   1.35509   1.45563   1.26150
-  8.00000   6.00000    180112                znucl, zion, pspdat
    8 -116133    2    4       600   0.00000   pspcod,pspxc,lmax,lloc,mmax,r2well
[...]
 ETOT 23  -81.844814216884      1.421E-14 3.125E-09 0.000E+00
 ETOT 24  -81.844814216884     -2.842E-14 5.599E-10 0.000E+00
 ETOT 25  -81.844814216884      2.842E-14 9.493E-10 0.000E+00
 ETOT 26  -81.844814216884      0.000E+00 1.697E-10 0.000E+00
 ETOT 27  -81.844814216884      0.000E+00 2.884E-10 0.000E+00
 ETOT 28  -81.844814216884      0.000E+00 5.147E-11 0.000E+00
 ETOT 29  -81.844814216884     -1.421E-14 8.760E-11 0.000E+00
 ETOT 30  -81.844814216884      2.842E-14 1.561E-11 0.000E+00
 ETOT 31  -81.844814216884     -1.421E-14 2.661E-11 0.000E+00
 ETOT 32  -81.844814216884      0.000E+00 4.737E-12 0.000E+00
 ETOT 33  -81.844814216883      2.842E-14 8.082E-12 0.000E+00
 ETOT 34  -81.844814216884     -2.842E-14 1.438E-12 0.000E+00
 ETOT 35  -81.844814216884      0.000E+00 2.455E-12 0.000E+00
 ETOT 36  -81.844814216883      2.842E-14 4.364E-13 0.000E+00
 ETOT 37  -81.844814216884     -2.842E-14 7.454E-13 0.000E+00
 ETOT 38  -81.844814216884      0.000E+00 1.325E-13 0.000E+00
 ETOT 39  -81.844814216884      0.000E+00 2.264E-13 0.000E+00
 ETOT 40  -81.844814216884      0.000E+00 4.021E-14 0.000E+00
 ETOT 41  -81.844814216884      0.000E+00 6.874E-14 0.000E+00
 ETOT 42  -81.844814216883      2.842E-14 1.221E-14 0.000E+00
 ETOT 43  -81.844814216883      1.421E-14 2.087E-14 0.000E+00
 ETOT 44  -81.844814216884     -2.842E-14 3.707E-15 0.000E+00
 ETOT 45  -81.844814216884     -1.421E-14 6.338E-15 0.000E+00
 ETOT 46  -81.844814216883      2.842E-14 1.125E-15 0.000E+00
 ETOT 47  -81.844814216884     -1.421E-14 1.925E-15 0.000E+00
 ETOT 48  -81.844814216883      1.421E-14 3.417E-16 0.000E+00
 ETOT 49  -81.844814216883      1.421E-14 5.844E-16 0.000E+00
 ETOT 50  -81.844814216883      0.000E+00 1.038E-16 0.000E+00
 ETOT 51  -81.844814216883     -1.421E-14 1.774E-16 0.000E+00
 ETOT 52  -81.844814216883      1.421E-14 3.151E-17 0.000E+00
 ETOT 53  -81.844814216883     -1.421E-14 5.388E-17 0.000E+00
 ETOT 54  -81.844814216883      0.000E+00 9.569E-18 0.000E+00
 ETOT 55  -81.844814216883      0.000E+00 1.636E-17 0.000E+00
 ETOT 56  -81.844814216883      0.000E+00 2.906E-18 0.000E+00
 ETOT 57  -81.844814216883      0.000E+00 4.969E-18 0.000E+00
 ETOT 58  -81.844814216883      0.000E+00 8.826E-19 0.000E+00
 ETOT 59  -81.844814216883      2.842E-14 1.509E-18 0.000E+00
 ETOT 60  -81.844814216883      0.000E+00 2.680E-19 0.000E+00
 ETOT 61  -81.844814216883      0.000E+00 4.582E-19 0.000E+00
 ETOT 62  -81.844814216883     -2.842E-14 8.141E-20 0.000E+00
 ETOT 63  -81.844814216884     -1.421E-14 1.392E-19 0.000E+00
 ETOT 64  -81.844814216884      0.000E+00 2.473E-20 0.000E+00
 ETOT 65  -81.844814216883      1.421E-14 4.226E-20 0.000E+00
 ETOT 66  -81.844814216883      0.000E+00 9.834E-21 0.000E+00

 At SCF step   66   max residual=  9.83E-21 < tolwfr=  1.00E-20 =>converged.

 ----iterations are completed or convergence reached----

 dfpt_looppert: DFPT cycle converged with prtwf=-1. Will skip output of the 1st-order WFK file.
 dfpt_looppert : ek2=    1.0519769837E+02
          f-sum rule ratio=    1.0371575454E+00
 prteigrs : about to open file /scratch/users/j/a/jabreu/flow_simple_11atoms/flow/w396/t1/tmpdata/tmp_1WF1_EIG
 Expectation of eigenvalue derivatives (hartree) for nkpt=   1  k points:
  (in case of degenerate eigenvalues, averaged derivative)
 kpt#   1, nband= 81, wtk=  1.00000, kpt=  0.0000  0.0000  0.0000 (reduced coord)
  -0.00000   -0.00000   -0.00000   -0.00000   -0.00000    0.00000    0.00000    0.00000
   0.00000   -0.00000   -0.00000   -0.00000   -0.00000    0.00000    0.00000    0.00000
  -0.00000    0.00000    0.00000   -0.00000   -0.00000    0.00000    0.00000   -0.00000
   0.00000   -0.00000    0.00000    0.00000    0.00000   -0.00000    0.00000   -0.00000
  -0.00000    0.00000    0.00000   -0.00000    0.00000    0.00000   -0.00000    0.00000
   0.00000   -0.00000   -0.00000   -0.00000   -0.00000   -0.00000   -0.00000    0.00000
   0.00000   -0.00000    0.00000   -0.00000   -0.00000    0.00000    0.00000   -0.00000
  -0.00000   -0.00000    0.00000   -0.00000    0.00000    0.00000   -0.00000    0.00000
   0.00000   -0.00000    0.00000    0.00000    0.00000   -0.00000    0.00000   -0.00000
  -0.00000    0.00000   -0.00000   -0.00000   -0.00000    0.00000    0.00000    0.00000
  -0.00001

 Eight components of 2nd-order total energy (hartree) are
 1,2,3: 0th-order hamiltonian combined with 1st-order wavefunctions
     kin0=   1.27852790E+02 eigvalue=   8.40865577E+00  local=  -6.93351218E+01
 4,5,6: 1st-order hamiltonian combined with 1st and 0th-order wfs
     kin1=  -1.09106587E+02  Hartree=   0.00000000E+00     xc=   0.00000000E+00
 7,8,9: eventually, occupation + non-local contributions
    edocc=   9.47147712E+00     enl0=   5.44701300E+00   enl1=  -5.45830418E+01
 1-9 gives the relaxation energy (to be shifted if some occ is /=2.0)
   erelax=  -8.18448142E+01
  No Ewald or frozen-wf contrib.: the relaxation energy is the total one
 2DEtotal=   -0.8184481422E+02 Ha. Also 2DEtotal=   -0.222711065661E+04 eV
    (  non-var. 2DEtotal :   -8.1844814217E+01 Ha)

 CALCULATION OF EFFECTIVE MASSES
 NOTE : Additional infos (eff. mass eigenvalues, eigenvectors and, if degenerate, average mass) are available in stdout.

 K-point ( 0.000, 0.000, 0.000) | band =    72
 Effective mass tensor:
             -1.0684274190             -1.1332972052             -0.0000261399
             -1.1332972052             -3.8576724795             -0.0000833527
             -0.0000261399             -0.0000833527             -2.3319517058
 Effective mass tensor eigenvalues:
             -4.2600848881             -2.3319517019             -0.6660150144
 Angular average effective mass 1/(<1/m>)=  -1.3856620242
 Angular average effective mass for Frohlich model (<m**0.5>)**2=  -1.6675068599
 Effective masses along directions: (cart. coord. / red. coord. -> eff. mass)
    1:   1.000000  0.000000  0.000000 /   0.789998 -0.613109  0.000000 ->  -0.7354902498
    2:   0.000000  1.000000  0.000000 /   0.000000  1.000000  0.000000 ->  -2.6555669047
    3:   0.000000  0.000000  1.000000 /   0.000000  0.000000  1.000000 ->  -2.3319517040
    4:   0.577350  0.577350  0.577350 /   0.828667 -0.120542  0.546608 ->  -2.1959543408
    5:   0.000000  0.707107  0.707107 /   0.000000  0.691039  0.722817 ->  -2.4833158092
    6:   0.707107  0.000000  0.707107 /   0.700584 -0.543715  0.462121 ->  -1.1182800622
    7:   0.707107  0.707107  0.000000 /   0.989585 -0.143950  0.000000 ->  -2.1336902724

 K-point ( 0.000, 0.000, 0.000) | band =    73
 Effective mass tensor:
              1.2397736034             -0.3119196544              0.0000000172
             -0.3119196544              0.4720338312             -0.0000000023
              0.0000000172             -0.0000000023              0.4727803337
 Effective mass tensor eigenvalues:
              0.3612826904              0.4727803337              1.3505247442
 Angular average effective mass 1/(<1/m>)=   0.5334741000
 Angular average effective mass for Frohlich model (<m**0.5>)**2=   0.5759050458
 Effective masses along directions: (cart. coord. / red. coord. -> eff. mass)
    1:   1.000000  0.000000  0.000000 /   0.789998 -0.613109  0.000000 ->   1.0336572948
    2:   0.000000  1.000000  0.000000 /   0.000000  1.000000  0.000000 ->   0.3935567040
    3:   0.000000  0.000000  1.000000 /   0.000000  0.000000  1.000000 ->   0.4727803337
    4:   0.577350  0.577350  0.577350 /   0.828667 -0.120542  0.546608 ->   0.4346515001
    5:   0.000000  0.707107  0.707107 /   0.000000  0.691039  0.722817 ->   0.4295461526
    6:   0.707107  0.000000  0.707107 /   0.700584 -0.543715  0.462121 ->   0.6488059535
    7:   0.707107  0.707107  0.000000 /   0.989585 -0.143950  0.000000 ->   0.4178039461

 END OF EFFECTIVE MASSES SECTION

 ---- first-order wavefunction calculations are completed ----

 Total localisation tensor (bohr^2) in cartesian coordinates
  WARNING : still subject to testing - especially symmetries.
      direction              matrix element
   alpha     beta       real part   imaginary part
     1        1       3.6615492422    0.0000000000
     1        2      -1.1184111094    0.0000000000
     1        3       0.0000000000    0.0000000000
     2        1      -1.1184111094    0.0000000000
     2        2       0.9087829386    0.0000000000
     2        3       0.0000000000    0.0000000000
     3        1       0.0000000000    0.0000000000
     3        2       0.0000000000    0.0000000000
     3        3       0.9197140245    0.0000000000

 respfn : d/dk was computed, but no 2DTE, so no DDB output.

== END DATASET(S) ==============================================================

 -outvars: echo values of variables after computation  --------
            acell      1.0000000000E+00  1.0000000000E+00  1.0000000000E+00 Bohr
              amu      4.78800000E+01  2.08980370E+02  1.59994000E+01
             ecut      4.40000000E+01 Hartree
           etotal     -8.1844814217E+01
            fcart      0.0000000000E+00  0.0000000000E+00  0.0000000000E+00
                       0.0000000000E+00  0.0000000000E+00  0.0000000000E+00
                       0.0000000000E+00  0.0000000000E+00  0.0000000000E+00
                       0.0000000000E+00  0.0000000000E+00  0.0000000000E+00
                       0.0000000000E+00  0.0000000000E+00  0.0000000000E+00
                       0.0000000000E+00  0.0000000000E+00  0.0000000000E+00
                       0.0000000000E+00  0.0000000000E+00  0.0000000000E+00
                       0.0000000000E+00  0.0000000000E+00  0.0000000000E+00
                       0.0000000000E+00  0.0000000000E+00  0.0000000000E+00
                       0.0000000000E+00  0.0000000000E+00  0.0000000000E+00
                       0.0000000000E+00  0.0000000000E+00  0.0000000000E+00
                       0.0000000000E+00  0.0000000000E+00  0.0000000000E+00
                       0.0000000000E+00  0.0000000000E+00  0.0000000000E+00
                       0.0000000000E+00  0.0000000000E+00  0.0000000000E+00
                       0.0000000000E+00  0.0000000000E+00  0.0000000000E+00
                       0.0000000000E+00  0.0000000000E+00  0.0000000000E+00
-          fftalg         512
           irdden           1
           irdwfk           1
           istwfk        1
              ixc     -116133
           kptopt           0
P           mkmem           1
P          mkqmem           1
P          mk1mem           1
            natom          16
            nband          81
           nbdbuf           4
            ngfft          96      96      64
             nkpt           1
            nstep        2000
             nsym           4
           ntypat           3
              occ      2.000000  2.000000  2.000000  2.000000  2.000000  2.000000
                       2.000000  2.000000  2.000000  2.000000  2.000000  2.000000
                       2.000000  2.000000  2.000000  2.000000  2.000000  2.000000
                       2.000000  2.000000  2.000000  2.000000  2.000000  2.000000
                       2.000000  2.000000  2.000000  2.000000  2.000000  2.000000
                       2.000000  2.000000  2.000000  2.000000  2.000000  2.000000
                       2.000000  2.000000  2.000000  2.000000  2.000000  2.000000
                       2.000000  2.000000  2.000000  2.000000  2.000000  2.000000
                       2.000000  2.000000  2.000000  2.000000  2.000000  2.000000
                       2.000000  2.000000  2.000000  2.000000  2.000000  2.000000
                       2.000000  2.000000  2.000000  2.000000  2.000000  2.000000
                       2.000000  2.000000  2.000000  2.000000  2.000000  2.000000
                       0.000000  0.000000  0.000000  0.000000  0.000000  0.000000
                       0.000000  0.000000  0.000000
        optdriver           1
            prtwf          -1
            rfdir           1       1       1
           rfelfd           2
            rprim      1.5760756582E+01  0.0000000000E+00  0.0000000000E+00
                      -1.2231748207E+01  9.9391037755E+00  0.0000000000E+00
                       0.0000000000E+00  0.0000000000E+00  1.0396160920E+01
          spgroup          36
           strten      0.0000000000E+00  0.0000000000E+00  0.0000000000E+00
                       0.0000000000E+00  0.0000000000E+00  0.0000000000E+00
           symrel      1  0  0   0  1  0   0  0  1       0 -1  0  -1  0  0   0  0  1
                      -1  0  0   0 -1  0   0  0  1       0  1  0   1  0  0   0  0  1
            tnons      0.0000000  0.0000000  0.0000000    -0.0000000 -0.0000000  0.5000000
                      -0.0000000 -0.0000000  0.5000000     0.0000000 -0.0000000  0.0000000
           tolwfr      1.00000000E-20
            typat      1  1  2  2  2  2  3  3  3  3  3  3  3  3  3  3
           useylm           1
           xangst      3.5210414972E-01  9.9166658483E-01  1.4745818117E+00
                       1.5153666517E+00  4.2678806070E+00  4.2252875197E+00
                       3.8432357579E+00  2.8573910197E+00  1.3000330303E+00
                       3.0482254257E+00  6.1832288696E-01  4.0507387383E+00
                      -1.1807546243E+00  4.6412243048E+00  1.3000330303E+00
                      -1.9757649565E+00  2.4021561721E+00  4.0507387383E+00
                       2.0559323898E+00  1.3239069214E+00  1.8804099290E+00
                       2.6281702626E+00  2.9355584101E+00  4.6311156370E+00
                       4.6863209681E+00  1.3811623521E+00  2.8073977526E+00
                       4.6334790143E+00  1.2323382048E+00  5.6692044641E-02
                      -2.8188501667E+00  3.8783848397E+00  5.6692044641E-02
                      -2.7660082129E+00  4.0272089870E+00  2.8073977526E+00
                      -7.6069946124E-01  2.3239887817E+00  1.8804099290E+00
                      -1.8846158839E-01  3.9356402704E+00  4.6311156370E+00
                       1.6982574046E+00  4.7829743612E+00  2.4556980222E+00
                       1.6921339679E-01  4.7657283060E-01  5.2064037302E+00
            xcart      6.6538041322E-01  1.8739782605E+00  2.7865557846E+00
                       2.8636279626E+00  8.0651255150E+00  7.9846362449E+00
                       7.2626630466E+00  5.3996864818E+00  2.4567063910E+00
                       5.7603112459E+00  1.1684609181E+00  7.6547868512E+00
                      -2.2313028701E+00  8.7706428574E+00  2.4567063910E+00
                      -3.7336546708E+00  4.5394172937E+00  7.6547868512E+00
                       3.8851491644E+00  2.5018215068E+00  3.5534597834E+00
                       4.9665220270E+00  5.5474014422E+00  8.7515402437E+00
                       8.8558632006E+00  2.6100185906E+00  5.3052128985E+00
                       8.7560063796E+00  2.3287817101E+00  1.0713243829E-01
                      -5.3268548248E+00  7.3290851849E+00  1.0713243829E-01
                      -5.2269980038E+00  7.6103220654E+00  5.3052128985E+00
                      -1.4375136512E+00  4.3917023333E+00  3.5534597834E+00
                      -3.5614078863E-01  7.4372822687E+00  8.7515402437E+00
                       3.2092413979E+00  9.0385116433E+00  4.6405967270E+00
                       3.1976697794E-01  9.0059213220E-01  9.8386771873E+00
             xred      1.8854600000E-01  1.8854600000E-01  2.6803700000E-01
                       8.1145400000E-01  8.1145400000E-01  7.6803700000E-01
                       8.8243800000E-01  5.4327700000E-01  2.3630900000E-01
                       4.5672300000E-01  1.1756200000E-01  7.3630900000E-01
                       5.4327700000E-01  8.8243800000E-01  2.3630900000E-01
                       1.1756200000E-01  4.5672300000E-01  7.3630900000E-01
                       4.4186100000E-01  2.5171500000E-01  3.4180500000E-01
                       7.4828500000E-01  5.5813900000E-01  8.4180500000E-01
                       7.6569500000E-01  2.6260100000E-01  5.1030500000E-01
                       7.3739900000E-01  2.3430500000E-01  1.0305000000E-02
                       2.3430500000E-01  7.3739900000E-01  1.0305000000E-02
                       2.6260100000E-01  7.6569500000E-01  5.1030500000E-01
                       2.5171500000E-01  4.4186100000E-01  3.4180500000E-01
                       5.5813900000E-01  7.4828500000E-01  8.4180500000E-01
                       9.0938900000E-01  9.0938900000E-01  4.4637600000E-01
                       9.0611000000E-02  9.0611000000E-02  9.4637600000E-01
            znucl       22.00000   83.00000    8.00000

- Timing analysis has been suppressed with timopt=0

 Suggested references for the acknowledgment of ABINIT usage.

 Calculation completed.
.Delivered   2 WARNINGs and   5 COMMENTs to log file.