.Version 9.5.2 of ABINIT

 ABINIT is a project of the Universite Catholique de Louvain,
 Corning Inc. and other collaborators, see ~abinit/doc/developers/contributors.txt .
 acknowledgments of the ABINIT effort.

.Starting date : Mon 24 May 2021.
- ( at 11h15 )

- input  file    -> /scratch/users/j/a/jabreu/flow_simple_10atoms/flow/w306/t1/run.abi
- output file    -> /scratch/users/j/a/jabreu/flow_simple_10atoms/flow/w306/t1/run.abo
- root for input  files -> /scratch/users/j/a/jabreu/flow_simple_10atoms/flow/w306/t1/indata/in
- root for output files -> /scratch/users/j/a/jabreu/flow_simple_10atoms/flow/w306/t1/outdata/out

 Symmetries : space group C2/m (# 12); Bravais mC (1-face-center monocl.)
     intxc =       0      iscf =       7    lmnmax =      18     lnmax =       6
     mgfft =      64  mpssoang =       3    mqgrid =    3001     natom =      10
  nloc_mem =       1    nspden =       1   nspinor =       1    nsppol =       1
      nsym =       4    n1xccc =    2501    ntypat =       3    occopt =       1
   xclevel =       2
-    mband =          45        mffmem =           1         mkmem =           2
-   mkqmem =           2        mk1mem =           2           mpw =       11094
      nfft =      230400          nkpt =           2
  Rough estimation (10% accuracy) of disk space for files :

------------- Echo of variables that govern the present computation ------------
-
- outvars: echo of selected default values
-   iomode0 =  0 , fftalg0 =512 , wfoptalg0 =  0
-
- outvars: echo of global parameters not present in the input file
-  max_nthreads =    0
-
 -outvars: echo values of preprocessed input variables --------
            acell      1.0000000000E+00  1.0000000000E+00  1.0000000000E+00 Bohr
              amu      6.94100000E+00  1.21753000E+02  1.59994000E+01
             ecut      4.40000000E+01 Hartree
-          fftalg         512
           irdden           1
           irdwfk           1
           istwfk        0    1
              ixc     -116133
              kpt      5.00000000E-01 -5.00000000E-01  0.00000000E+00
                       0.00000000E+00  0.00000000E+00  0.00000000E+00
           kptopt           0
P           mkmem           2
P          mkqmem           2
P          mk1mem           2
            natom          10
            nband          45
           nbdbuf           4
            ngfft          60      60      64
             nkpt           2
            nstep        2000
             nsym           4
           ntypat           3
              occ      2.000000  2.000000  2.000000  2.000000  2.000000  2.000000
                       2.000000  2.000000  2.000000  2.000000  2.000000  2.000000
                       2.000000  2.000000  2.000000  2.000000  2.000000  2.000000
                       2.000000  2.000000  2.000000  2.000000  2.000000  2.000000
                       2.000000  2.000000  2.000000  2.000000  2.000000  2.000000
                       2.000000  2.000000  2.000000  2.000000  2.000000  2.000000
                       0.000000  0.000000  0.000000  0.000000  0.000000  0.000000
                       0.000000  0.000000  0.000000
        optdriver           1
            prtwf          -1
            rfdir           1       1       1
           rfelfd           2
            rprim      9.7253250061E+00  0.0000000000E+00  2.0473209906E+00
                      -5.3740948973E+00  8.1056184532E+00  2.0473209906E+00
                       0.0000000000E+00  0.0000000000E+00  1.0061085871E+01
          spgroup          12
           symrel      1  0  0   0  1  0   0  0  1      -1  0  0   0 -1  0   0  0 -1
                       0 -1  0  -1  0  0   0  0 -1       0  1  0   1  0  0   0  0  1
           tolwfr      1.00000000E-20
            typat      1  1  2  2  3  3  3  3  3  3
           useylm           1
              wtk        0.50000    0.50000
           xangst      3.6275867469E-01  6.7575911503E-01  1.1180517654E+00
                       1.9398131282E+00  3.6135494319E+00  6.3728367851E+00
                      -2.0063563126E-01  2.8703881224E+00  3.7454442752E+00
                       2.5032074342E+00  1.4189204246E+00  3.7454442752E+00
                       6.3881170557E-01  1.1900000274E+00  4.5180267232E+00
                       1.6637600973E+00  3.0993085195E+00  2.9728618272E+00
                       2.5604847772E-01  3.8910333804E+00  5.4091566210E+00
                      -7.9893926579E-01  1.9257665690E+00  2.0817319295E+00
                       2.0465233252E+00  3.9827516651E-01  2.0817319295E+00
                       3.1015110687E+00  2.3635419779E+00  5.4091566210E+00
            xcart      6.8551454749E-01  1.2769996592E+00  2.1128116389E+00
                       3.6657155613E+00  6.8286187940E+00  1.2042916213E+01
                      -3.7914639558E-01  5.4242474464E+00  7.0778639262E+00
                       4.7303765044E+00  2.6813710068E+00  7.0778639262E+00
                       1.2071791740E+00  2.2487741499E+00  8.5378331680E+00
                       3.1440509348E+00  5.8568443033E+00  5.6178946844E+00
                       4.8386149964E-01  7.3529874630E+00  1.0221824624E+01
                      -1.5097764092E+00  3.6391714113E+00  3.9339032289E+00
                       3.8673686092E+00  7.5263099023E-01  3.9339032289E+00
                       5.8610065180E+00  4.4664470419E+00  1.0221824624E+01
             xred      1.5754500000E-01  1.5754500000E-01  1.4588100000E-01
                       8.4245500000E-01  8.4245500000E-01  8.5411900000E-01
                       3.3080400000E-01  6.6919600000E-01  5.0000000000E-01
                       6.6919600000E-01  3.3080400000E-01  5.0000000000E-01
                       2.7743400000E-01  2.7743400000E-01  7.3569000000E-01
                       7.2256600000E-01  7.2256600000E-01  2.6431000000E-01
                       5.5103100000E-01  9.0714700000E-01  7.1925300000E-01
                       9.2853000000E-02  4.4896900000E-01  2.8074700000E-01
                       4.4896900000E-01  9.2853000000E-02  2.8074700000E-01
                       9.0714700000E-01  5.5103100000E-01  7.1925300000E-01
            znucl        3.00000   51.00000    8.00000

 chkinp: Checking input parameters for consistency.

== DATASET  1 ==================================================================
-   mpi_nproc: 1, omp_nthreads: -1 (-1 if OMP is not activated)

--- !DatasetInfo
iteration_state: {dtset: 1, }
dimensions: {natom: 10, nkpt: 2, mband: 45, nsppol: 1, nspinor: 1, nspden: 1, mpw: 11094, }
cutoff_energies: {ecut:  44.0, pawecutdg:  -1.0, }
electrons: {nelect:   7.20000000E+01, charge:   0.00000000E+00, occopt:   1.00000000E+00, tsmear:   1.00000000E-02, }
meta: {optdriver: 1, rfelfd: 2, }
...

 Real(R)+Recip(G) space primitive vectors, cartesian coordinates (Bohr,Bohr^-1):
 R(1)=  9.7253250  0.0000000  2.0473210  G(1)=  0.1028243  0.0681734  0.0000000
 R(2)= -5.3740949  8.1056185  2.0473210  G(2)=  0.0000000  0.1233712  0.0000000
 R(3)=  0.0000000  0.0000000 10.0610859  G(3)= -0.0209236 -0.0389772  0.0993929
 Unit cell volume ucvol=  7.9311312E+02 bohr^3
 Angles (23,13,12)=  7.81119955E+01  7.81119955E+01  1.19124077E+02 degrees

 getcut: wavevector=  0.0000  0.0000  0.0000  ngfft=  60  60  64
         ecut(hartree)=     44.000   => boxcut(ratio)=   2.02205

--- Pseudopotential description ------------------------------------------------
- pspini: atom type   1  psp file is /scratch/users/j/a/jabreu/pseudos/PBEsol/Li.psp8
- pspatm: opening atomic psp file    /scratch/users/j/a/jabreu/pseudos/PBEsol/Li.psp8
- Li    ONCVPSP-3.3.0  r_core=   1.40824   1.10935
-  3.00000   3.00000    180112                znucl, zion, pspdat
    8 -116133    1    4       400   0.00000   pspcod,pspxc,lmax,lloc,mmax,r2well
    3.99000000000000    0.00000000000000    0.00000000000000   rchrg,fchrg,qchrg
     nproj     2     2
     extension_switch     1
  pspatm : epsatm=    2.60859637
         --- l  ekb(1:nproj) -->
             0   -4.855856   -1.482423
             1   -2.171544   -0.427615
 pspatm: atomic psp has been read  and splines computed

- pspini: atom type   2  psp file is /scratch/users/j/a/jabreu/pseudos/PBEsol/Sb.psp8
- pspatm: opening atomic psp file    /scratch/users/j/a/jabreu/pseudos/PBEsol/Sb.psp8
- Sb    ONCVPSP-3.3.0  r_core=   1.81962   2.12485   1.81962
- 51.00000  15.00000    180112                znucl, zion, pspdat
    8 -116133    2    4       600   0.00000   pspcod,pspxc,lmax,lloc,mmax,r2well
    5.99000000000000    5.00000000000000    0.00000000000000   rchrg,fchrg,qchrg
     nproj     2     2     2
     extension_switch     1
  pspatm : epsatm=   26.35641246
         --- l  ekb(1:nproj) -->
             0    9.727814    1.485032
             1    5.505335    0.704623
             2   -4.710637   -1.436443
 pspatm: atomic psp has been read  and splines computed

- pspini: atom type   3  psp file is /scratch/users/j/a/jabreu/pseudos/PBEsol/O.psp8
- pspatm: opening atomic psp file    /scratch/users/j/a/jabreu/pseudos/PBEsol/O.psp8
- O     ONCVPSP-3.3.0  r_core=   1.35509   1.45563   1.26150
-  8.00000   6.00000    180112                znucl, zion, pspdat
    8 -116133    2    4       600   0.00000   pspcod,pspxc,lmax,lloc,mmax,r2well
    5.99000000000000    4.00000000000000    0.00000000000000   rchrg,fchrg,qchrg
     nproj     2     2     1
     extension_switch     1
  pspatm : epsatm=    6.22910522
         --- l  ekb(1:nproj) -->
             0    6.050032    0.820363
             1   -4.739617   -1.153841
             2   -1.335834
 pspatm: atomic psp has been read  and splines computed

   6.86193473E+03                                ecore*ucvol(ha*bohr**3)

 ==>  initialize data related to q vector <==

 The list of irreducible perturbations for this q vector is:
    1)    idir= 1    ipert=  11
    2)    idir= 2    ipert=  11
    3)    idir= 3    ipert=  11

 Perturbation wavevector (in red.coord.)   0.000000  0.000000  0.000000
 Perturbation : derivative vs k along direction   1

 dfpt_looppert : COMMENT -
  In a d/dk calculation, iscf is set to -3 automatically.
 The set of symmetries contains only one element for this perturbation.
 symkpt : not enough symmetry to change the number of k points.

 Initialisation of the first-order wave-functions :
  ireadwf=   0

--- !BeginCycle
iteration_state: {dtset: 1, }
solver: {iscf: 7, nstep: 2000, nline: 4, wfoptalg: 0, }
tolerances: {tolwfr: 1.00E-20, }
...

     iter   2DEtotal(Ha)        deltaE(Ha) residm    vres2
-ETOT  1  -66.925305795191     -6.693E+01 1.279E-01 0.000E+00
 ETOT  2  -66.996357028521     -7.105E-02 1.398E-02 0.000E+00
 ETOT  3  -66.996718102827     -3.611E-04 1.053E-03 0.000E+00
 ETOT  4  -66.996722697463     -4.595E-06 3.241E-04 0.000E+00
 ETOT  5  -66.996722773544     -7.608E-08 2.687E-05 0.000E+00
 ETOT  6  -66.996722774965     -1.422E-09 7.620E-06 0.000E+00
 ETOT  7  -66.996722774994     -2.851E-11 7.857E-07 0.000E+00
 ETOT  8  -66.996722774994     -5.826E-13 2.265E-07 0.000E+00
 ETOT  9  -66.996722774994      1.421E-14 2.326E-08 0.000E+00
 ETOT 10  -66.996722774994     -4.263E-14 6.843E-09 0.000E+00
 ETOT 11  -66.996722774995     -1.421E-14 8.858E-10 0.000E+00
 ETOT 12  -66.996722774995      0.000E+00 3.595E-10 0.000E+00
 ETOT 13  -66.996722774995     -2.842E-14 4.853E-11 0.000E+00
 ETOT 14  -66.996722774995      0.000E+00 2.012E-11 0.000E+00
 ETOT 15  -66.996722774995      0.000E+00 2.677E-12 0.000E+00
 ETOT 16  -66.996722774995      0.000E+00 1.127E-12 0.000E+00
 ETOT 17  -66.996722774995      2.842E-14 1.482E-13 0.000E+00
 ETOT 18  -66.996722774995      0.000E+00 6.324E-14 0.000E+00
 ETOT 19  -66.996722774995      0.000E+00 8.231E-15 0.000E+00
 ETOT 20  -66.996722774995     -2.842E-14 3.549E-15 0.000E+00
 ETOT 21  -66.996722774995      2.842E-14 4.580E-16 0.000E+00
 ETOT 22  -66.996722774995     -2.842E-14 1.993E-16 0.000E+00
 ETOT 23  -66.996722774995      0.000E+00 2.552E-17 0.000E+00
 ETOT 24  -66.996722774995      2.842E-14 1.120E-17 0.000E+00
 ETOT 25  -66.996722774995      0.000E+00 1.425E-18 0.000E+00
 ETOT 26  -66.996722774995     -2.842E-14 6.296E-19 0.000E+00
 ETOT 27  -66.996722774995      0.000E+00 7.965E-20 0.000E+00
 ETOT 28  -66.996722774995      0.000E+00 3.543E-20 0.000E+00
 ETOT 29  -66.996722774995      0.000E+00 9.997E-21 0.000E+00

 At SCF step   29   max residual=  1.00E-20 < tolwfr=  1.00E-20 =>converged.

 ----iterations are completed or convergence reached----

 dfpt_looppert: DFPT cycle converged with prtwf=-1. Will skip output of the 1st-order WFK file.
 dfpt_looppert : ek2=    8.6526655068E+01
          f-sum rule ratio=    1.0444358972E+00
 prteigrs : about to open file /scratch/users/j/a/jabreu/flow_simple_10atoms/flow/w306/t1/tmpdata/tmp_1WF1_EIG
 Expectation of eigenvalue derivatives (hartree) for nkpt=   2  k points:
  (in case of degenerate eigenvalues, averaged derivative)
 kpt#   1, nband= 45, wtk=  0.50000, kpt=  0.5000 -0.5000  0.0000 (reduced coord)
  -0.00000    0.00000    0.00000   -0.00000   -0.00000   -0.00000   -0.00000   -0.00000
   0.00000    0.00000   -0.00000   -0.00000    0.00000   -0.00000   -0.00000   -0.00000
  -0.00000   -0.00000   -0.00000    0.00000   -0.00000   -0.00000   -0.00000   -0.00000
   0.00000    0.00000    0.00000    0.00000    0.00000   -0.00000    0.00000    0.00000
  -0.00000    0.00000    0.00000   -0.00000    0.00000    0.00000   -0.00000    0.00000
   0.00000   -0.00000    0.00000    0.00109   -0.00086
 prteigrs : prtvol=0 or 1, do not print more k-points.

 Eight components of 2nd-order total energy (hartree) are
 1,2,3: 0th-order hamiltonian combined with 1st-order wavefunctions
     kin0=   8.30738482E+01 eigvalue=   8.31357054E+00  local=  -4.02356914E+01
 4,5,6: 1st-order hamiltonian combined with 1st and 0th-order wfs
     kin1=  -9.03715446E+01  Hartree=   0.00000000E+00     xc=   0.00000000E+00
 7,8,9: eventually, occupation + non-local contributions
    edocc=   1.10861965E+01     enl0=   4.75879886E+00   enl1=  -4.36219009E+01
 1-9 gives the relaxation energy (to be shifted if some occ is /=2.0)
   erelax=  -6.69967228E+01
  No Ewald or frozen-wf contrib.: the relaxation energy is the total one
 2DEtotal=   -0.6699672277E+02 Ha. Also 2DEtotal=   -0.182307354079E+04 eV
    (  non-var. 2DEtotal :   -6.6996722775E+01 Ha)

 Perturbation wavevector (in red.coord.)   0.000000  0.000000  0.000000
 Perturbation : derivative vs k along direction   2
 The set of symmetries contains only one element for this perturbation.
 symkpt : not enough symmetry to change the number of k points.

[...]

 Perturbation wavevector (in red.coord.)   0.000000  0.000000  0.000000
 Perturbation : derivative vs k along direction   3
 The set of symmetries contains only one element for this perturbation.
 symkpt : not enough symmetry to change the number of k points.

 Initialisation of the first-order wave-functions :
  ireadwf=   0

--- !BeginCycle
iteration_state: {dtset: 1, }
solver: {iscf: 7, nstep: 2000, nline: 4, wfoptalg: 0, }
tolerances: {tolwfr: 1.00E-20, }
...

     iter   2DEtotal(Ha)        deltaE(Ha) residm    vres2
-ETOT  1  -52.119938543731     -5.212E+01 1.054E-01 0.000E+00
 ETOT  2  -52.165831487629     -4.589E-02 3.979E-03 0.000E+00
 ETOT  3  -52.166057604630     -2.261E-04 2.531E-04 0.000E+00
 ETOT  4  -52.166060648076     -3.043E-06 2.036E-05 0.000E+00
 ETOT  5  -52.166060697985     -4.991E-08 1.670E-06 0.000E+00
 ETOT  6  -52.166060698883     -8.988E-10 1.985E-07 0.000E+00
 ETOT  7  -52.166060698901     -1.717E-11 1.445E-08 0.000E+00
 ETOT  8  -52.166060698901     -3.482E-13 1.869E-09 0.000E+00
 ETOT  9  -52.166060698901     -4.974E-14 1.315E-10 0.000E+00
 ETOT 10  -52.166060698901      4.263E-14 1.921E-11 0.000E+00
 ETOT 11  -52.166060698901     -3.553E-14 1.347E-12 0.000E+00
 ETOT 12  -52.166060698901      4.974E-14 1.998E-13 0.000E+00
 ETOT 13  -52.166060698901     -2.842E-14 1.397E-14 0.000E+00
 ETOT 14  -52.166060698901      0.000E+00 2.092E-15 0.000E+00
 ETOT 15  -52.166060698901     -7.105E-15 1.460E-16 0.000E+00
 ETOT 16  -52.166060698901      7.105E-15 2.201E-17 0.000E+00
 ETOT 17  -52.166060698901     -1.421E-14 1.535E-18 0.000E+00
 ETOT 18  -52.166060698901      2.842E-14 2.326E-19 0.000E+00
 ETOT 19  -52.166060698901     -4.263E-14 1.621E-20 0.000E+00
 ETOT 20  -52.166060698901      0.000E+00 9.961E-21 0.000E+00

 At SCF step   20   max residual=  9.96E-21 < tolwfr=  1.00E-20 =>converged.

 ----iterations are completed or convergence reached----

 dfpt_looppert: DFPT cycle converged with prtwf=-1. Will skip output of the 1st-order WFK file.
 dfpt_looppert : ek2=    6.7286166807E+01
          f-sum rule ratio=    1.0463982246E+00
 prteigrs : about to open file /scratch/users/j/a/jabreu/flow_simple_10atoms/flow/w306/t1/tmpdata/tmp_1WF1_EIG
 Expectation of eigenvalue derivatives (hartree) for nkpt=   2  k points:
  (in case of degenerate eigenvalues, averaged derivative)
 kpt#   1, nband= 45, wtk=  0.50000, kpt=  0.5000 -0.5000  0.0000 (reduced coord)
   0.00000    0.00000    0.00000    0.00000    0.00000    0.00000   -0.00000   -0.00000
  -0.00000   -0.00000   -0.00000    0.00000   -0.00000    0.00000    0.00000    0.00000
   0.00000    0.00000    0.00000   -0.00000    0.00000   -0.00000    0.00000    0.00000
  -0.00000   -0.00000   -0.00000    0.00000   -0.00000   -0.00000    0.00000    0.00000
   0.00000   -0.00000   -0.00000    0.00000   -0.00000    0.00000    0.00000    0.00000
  -0.00000   -0.00000   -0.00000    0.00026    0.00007
 prteigrs : prtvol=0 or 1, do not print more k-points.

 Eight components of 2nd-order total energy (hartree) are
 1,2,3: 0th-order hamiltonian combined with 1st-order wavefunctions
     kin0=   6.51907759E+01 eigvalue=   6.57431959E+00  local=  -3.13998669E+01
 4,5,6: 1st-order hamiltonian combined with 1st and 0th-order wfs
     kin1=  -7.04081255E+01  Hartree=   0.00000000E+00     xc=   0.00000000E+00
 7,8,9: eventually, occupation + non-local contributions
    edocc=   8.01236354E+00     enl0=   3.78846854E+00   enl1=  -3.39239959E+01
 1-9 gives the relaxation energy (to be shifted if some occ is /=2.0)
   erelax=  -5.21660607E+01
  No Ewald or frozen-wf contrib.: the relaxation energy is the total one
 2DEtotal=   -0.5216606070E+02 Ha. Also 2DEtotal=   -0.141951070214E+04 eV
    (  non-var. 2DEtotal :   -5.2166060699E+01 Ha)

 CALCULATION OF EFFECTIVE MASSES
 NOTE : Additional infos (eff. mass eigenvalues, eigenvectors and, if degenerate, average mass) are available in stdout.

 K-point ( 0.500,-0.500, 0.000) | band =    36
 Effective mass tensor:
             -8.4257470954             -2.6666761686            -10.1035455791
             -2.6666761686            -11.9531918612            -18.8074787252
            -10.1035455791            -18.8074787252            -37.7843850160
 Effective mass tensor eigenvalues:
            -50.1744395843             -6.9923029695             -0.9965814188
 Angular average effective mass 1/(<1/m>)=  -2.5720712084
 Angular average effective mass for Frohlich model (<m**0.5>)**2=  -4.4077240456
 Effective masses along directions: (cart. coord. / red. coord. -> eff. mass)
    1:   1.000000  0.000000  0.000000 /   0.875258 -0.483657  0.000000 ->  -3.5705240555
    2:   0.000000  1.000000  0.000000 /   0.000000  1.000000  0.000000 ->  -1.6165871198
    3:   0.000000  0.000000  1.000000 /   0.195553  0.195553  0.960999 ->  -3.7352862044
    4:   0.577350  0.577350  0.577350 /   0.726405  0.294868  0.620797 ->  -5.7615603805
    5:   0.000000  0.707107  0.707107 /   0.141786  0.703137  0.696775 -> -14.9304916339
    6:   0.707107  0.000000  0.707107 /   0.743249 -0.210031  0.635192 -> -13.9037143585
    7:   0.707107  0.707107  0.000000 /   0.962747  0.270404  0.000000 ->  -1.4191775522

 K-point ( 0.000, 0.000, 0.000) | band =    37
 Effective mass tensor:
              0.4046485160             -0.0080997068             -0.0208315963
             -0.0080997068              0.3939081369             -0.0388058064
             -0.0208315963             -0.0388058064              0.5313180763
 Effective mass tensor eigenvalues:
              0.3769904270              0.4089965663              0.5438877359
 Angular average effective mass 1/(<1/m>)=   0.4325128392
 Angular average effective mass for Frohlich model (<m**0.5>)**2=   0.4355649203
 Effective masses along directions: (cart. coord. / red. coord. -> eff. mass)
    1:   1.000000  0.000000  0.000000 /   0.875258 -0.483657  0.000000 ->   0.4035950636
    2:   0.000000  1.000000  0.000000 /   0.000000  1.000000  0.000000 ->   0.3908446604
    3:   0.000000  0.000000  1.000000 /   0.195553  0.195553  0.960999 ->   0.5263384952
    4:   0.577350  0.577350  0.577350 /   0.726405  0.294868  0.620797 ->   0.3926784939
    5:   0.000000  0.707107  0.707107 /   0.141786  0.703137  0.696775 ->   0.4134796181
    6:   0.707107  0.000000  0.707107 /   0.743249 -0.210031  0.635192 ->   0.4366007664
    7:   0.707107  0.707107  0.000000 /   0.962747  0.270404  0.000000 ->   0.3877316822

 END OF EFFECTIVE MASSES SECTION

 ---- first-order wavefunction calculations are completed ----

 Total localisation tensor (bohr^2) in cartesian coordinates
  WARNING : still subject to testing - especially symmetries.
      direction              matrix element
   alpha     beta       real part   imaginary part
     1        1       1.4103037497    0.0000000000
     1        2      -0.4975896780    0.0000000000
     1        3       0.1017577968    0.0000000000
     2        1      -0.4975896780    0.0000000000
     2        2       0.7505025783    0.0000000000
     2        3       0.1895623006    0.0000000000
     3        1       0.1017577968    0.0000000000
     3        2       0.1895623006    0.0000000000
     3        3       0.9552307468    0.0000000000

 respfn : d/dk was computed, but no 2DTE, so no DDB output.

== END DATASET(S) ==============================================================

 -outvars: echo values of variables after computation  --------
            acell      1.0000000000E+00  1.0000000000E+00  1.0000000000E+00 Bohr
              amu      6.94100000E+00  1.21753000E+02  1.59994000E+01
             ecut      4.40000000E+01 Hartree
           etotal     -5.2166060699E+01
            fcart      0.0000000000E+00  0.0000000000E+00  0.0000000000E+00
                       0.0000000000E+00  0.0000000000E+00  0.0000000000E+00
                       0.0000000000E+00  0.0000000000E+00  0.0000000000E+00
                       0.0000000000E+00  0.0000000000E+00  0.0000000000E+00
                       0.0000000000E+00  0.0000000000E+00  0.0000000000E+00
                       0.0000000000E+00  0.0000000000E+00  0.0000000000E+00
                       0.0000000000E+00  0.0000000000E+00  0.0000000000E+00
                       0.0000000000E+00  0.0000000000E+00  0.0000000000E+00
                       0.0000000000E+00  0.0000000000E+00  0.0000000000E+00
                       0.0000000000E+00  0.0000000000E+00  0.0000000000E+00
-          fftalg         512
           irdden           1
           irdwfk           1
           istwfk        0    1
              ixc     -116133
              kpt      5.00000000E-01 -5.00000000E-01  0.00000000E+00
                       0.00000000E+00  0.00000000E+00  0.00000000E+00
           kptopt           0
P           mkmem           2
P          mkqmem           2
P          mk1mem           2
            natom          10
            nband          45
           nbdbuf           4
            ngfft          60      60      64
             nkpt           2
            nstep        2000
             nsym           4
           ntypat           3
              occ      2.000000  2.000000  2.000000  2.000000  2.000000  2.000000
                       2.000000  2.000000  2.000000  2.000000  2.000000  2.000000
                       2.000000  2.000000  2.000000  2.000000  2.000000  2.000000
                       2.000000  2.000000  2.000000  2.000000  2.000000  2.000000
                       2.000000  2.000000  2.000000  2.000000  2.000000  2.000000
                       2.000000  2.000000  2.000000  2.000000  2.000000  2.000000
                       0.000000  0.000000  0.000000  0.000000  0.000000  0.000000
                       0.000000  0.000000  0.000000
        optdriver           1
            prtwf          -1
            rfdir           1       1       1
           rfelfd           2
            rprim      9.7253250061E+00  0.0000000000E+00  2.0473209906E+00
                      -5.3740948973E+00  8.1056184532E+00  2.0473209906E+00
                       0.0000000000E+00  0.0000000000E+00  1.0061085871E+01
          spgroup          12
           strten      0.0000000000E+00  0.0000000000E+00  0.0000000000E+00
                       0.0000000000E+00  0.0000000000E+00  0.0000000000E+00
           symrel      1  0  0   0  1  0   0  0  1      -1  0  0   0 -1  0   0  0 -1
                       0 -1  0  -1  0  0   0  0 -1       0  1  0   1  0  0   0  0  1
           tolwfr      1.00000000E-20
            typat      1  1  2  2  3  3  3  3  3  3
           useylm           1
              wtk        0.50000    0.50000
           xangst      3.6275867469E-01  6.7575911503E-01  1.1180517654E+00
                       1.9398131282E+00  3.6135494319E+00  6.3728367851E+00
                      -2.0063563126E-01  2.8703881224E+00  3.7454442752E+00
                       2.5032074342E+00  1.4189204246E+00  3.7454442752E+00
                       6.3881170557E-01  1.1900000274E+00  4.5180267232E+00
                       1.6637600973E+00  3.0993085195E+00  2.9728618272E+00
                       2.5604847772E-01  3.8910333804E+00  5.4091566210E+00
                      -7.9893926579E-01  1.9257665690E+00  2.0817319295E+00
                       2.0465233252E+00  3.9827516651E-01  2.0817319295E+00
                       3.1015110687E+00  2.3635419779E+00  5.4091566210E+00
            xcart      6.8551454749E-01  1.2769996592E+00  2.1128116389E+00
                       3.6657155613E+00  6.8286187940E+00  1.2042916213E+01
                      -3.7914639558E-01  5.4242474464E+00  7.0778639262E+00
                       4.7303765044E+00  2.6813710068E+00  7.0778639262E+00
                       1.2071791740E+00  2.2487741499E+00  8.5378331680E+00
                       3.1440509348E+00  5.8568443033E+00  5.6178946844E+00
                       4.8386149964E-01  7.3529874630E+00  1.0221824624E+01
                      -1.5097764092E+00  3.6391714113E+00  3.9339032289E+00
                       3.8673686092E+00  7.5263099023E-01  3.9339032289E+00
                       5.8610065180E+00  4.4664470419E+00  1.0221824624E+01
             xred      1.5754500000E-01  1.5754500000E-01  1.4588100000E-01
                       8.4245500000E-01  8.4245500000E-01  8.5411900000E-01
                       3.3080400000E-01  6.6919600000E-01  5.0000000000E-01
                       6.6919600000E-01  3.3080400000E-01  5.0000000000E-01
                       2.7743400000E-01  2.7743400000E-01  7.3569000000E-01
                       7.2256600000E-01  7.2256600000E-01  2.6431000000E-01
                       5.5103100000E-01  9.0714700000E-01  7.1925300000E-01
                       9.2853000000E-02  4.4896900000E-01  2.8074700000E-01
                       4.4896900000E-01  9.2853000000E-02  2.8074700000E-01
                       9.0714700000E-01  5.5103100000E-01  7.1925300000E-01
            znucl        3.00000   51.00000    8.00000

- Timing analysis has been suppressed with timopt=0

 Suggested references for the acknowledgment of ABINIT usage.

 Calculation completed.
.Delivered   2 WARNINGs and   5 COMMENTs to log file.