.Version 9.5.1 of ABINIT

 ABINIT is a project of the Universite Catholique de Louvain,
 Corning Inc. and other collaborators, see ~abinit/doc/developers/contributors.txt .
 acknowledgments of the ABINIT effort.

.Starting date : Tue 11 May 2021.
- ( at 21h06 )

- input  file    -> /scratch/users/j/a/jabreu/flow_simple_8atoms/flow/w257/t1/run.abi
- output file    -> /scratch/users/j/a/jabreu/flow_simple_8atoms/flow/w257/t1/run.abo
- root for input  files -> /scratch/users/j/a/jabreu/flow_simple_8atoms/flow/w257/t1/indata/in
- root for output files -> /scratch/users/j/a/jabreu/flow_simple_8atoms/flow/w257/t1/outdata/out

 Symmetries : space group Pm n 2_1 (# 31); Bravais oP (primitive ortho.)
     intxc =       0      iscf =       7    lmnmax =      18     lnmax =       6
     mgfft =      64  mpssoang =       3    mqgrid =    3055     natom =       8
  nloc_mem =       1    nspden =       1   nspinor =       1    nsppol =       1
      nsym =       4    n1xccc =    2501    ntypat =       3    occopt =       1
   xclevel =       2
-    mband =          33        mffmem =           1         mkmem =           2
-   mkqmem =           2        mk1mem =           2           mpw =        8483
      nfft =      153600          nkpt =           2
  Rough estimation (10% accuracy) of disk space for files :

------------- Echo of variables that govern the present computation ------------
-
- outvars: echo of selected default values
-   iomode0 =  0 , fftalg0 =512 , wfoptalg0 =  0
-
- outvars: echo of global parameters not present in the input file
-  max_nthreads =    0
-
 -outvars: echo values of preprocessed input variables --------
            acell      1.0000000000E+00  1.0000000000E+00  1.0000000000E+00 Bohr
              amu      8.89058500E+01  1.00794000E+00  1.59994000E+01
             ecut      4.40000000E+01 Hartree
-          fftalg         512
           irdden           1
           irdwfk           1
           istwfk        0    1
              ixc     -116133
              kpt      1.07142857E-01  5.00000000E-01  0.00000000E+00
                       0.00000000E+00  0.00000000E+00  0.00000000E+00
           kptopt           0
P           mkmem           2
P          mkqmem           2
P          mk1mem           2
            natom           8
            nband          33
           nbdbuf           4
            ngfft          40      60      64
             nkpt           2
            nstep        2000
             nsym           4
           ntypat           3
              occ      2.000000  2.000000  2.000000  2.000000  2.000000  2.000000
                       2.000000  2.000000  2.000000  2.000000  2.000000  2.000000
                       2.000000  2.000000  2.000000  2.000000  2.000000  2.000000
                       2.000000  2.000000  2.000000  2.000000  2.000000  2.000000
                       0.000000  0.000000  0.000000  0.000000  0.000000  0.000000
                       0.000000  0.000000  0.000000
        optdriver           1
            prtwf          -1
            rfdir           1       1       1
           rfelfd           2
            rprim      6.5633758001E+00  0.0000000000E+00  0.0000000000E+00
                       0.0000000000E+00  9.0425922005E+00  0.0000000000E+00
                       0.0000000000E+00  0.0000000000E+00  1.0228880285E+01
          spgroup          31
           symrel      1  0  0   0  1  0   0  0  1       1  0  0   0 -1  0   0  0  1
                      -1  0  0   0 -1  0   0  0  1      -1  0  0   0  1  0   0  0  1
            tnons      0.0000000  0.0000000  0.0000000     0.5000000  0.0000000  0.5000000
                       0.5000000  0.0000000  0.5000000     0.0000000  0.0000000  0.0000000
           tolwfr      1.00000000E-20
            typat      1  1  2  2  3  3  3  3
           useylm           1
              wtk        0.50000    0.50000
           xangst      0.0000000000E+00  1.0683337348E+00  5.3277239001E+00
                       1.7365944424E+00  3.7167999643E+00  2.6212787419E+00
                       1.7365944424E+00  3.3199066199E+00  5.2214363858E+00
                       0.0000000000E+00  1.4652270792E+00  2.5149912277E+00
                       1.7365944424E+00  2.4821780483E+00  4.6307276656E+00
                       0.0000000000E+00  1.0730662320E-01  3.3472285267E+00
                       0.0000000000E+00  2.3029556508E+00  1.9242825075E+00
                       1.7365944424E+00  4.6778270759E+00  6.4078336854E-01
            xcart      0.0000000000E+00  2.0188581773E+00  1.0067939083E+01
                       3.2816879001E+00  7.0237340232E+00  4.9534989402E+00
                       3.2816879001E+00  6.2737142983E+00  9.8670847895E+00
                       0.0000000000E+00  2.7688779022E+00  4.7526446469E+00
                       3.2816879001E+00  4.6906367244E+00  8.7508070840E+00
                       0.0000000000E+00  2.0278013010E-01  6.3253452196E+00
                       0.0000000000E+00  4.3519554761E+00  3.6363669414E+00
                       3.2816879001E+00  8.8398120704E+00  1.2109050770E+00
             xred      0.0000000000E+00  2.2326100000E-01  9.8426600000E-01
                       5.0000000000E-01  7.7673900000E-01  4.8426600000E-01
                       5.0000000000E-01  6.9379600000E-01  9.6463000000E-01
                       0.0000000000E+00  3.0620400000E-01  4.6463000000E-01
                       5.0000000000E-01  5.1872700000E-01  8.5550000000E-01
                       0.0000000000E+00  2.2425000000E-02  6.1838100000E-01
                       0.0000000000E+00  4.8127300000E-01  3.5550000000E-01
                       5.0000000000E-01  9.7757500000E-01  1.1838100000E-01
            znucl       39.00000    1.00000    8.00000

 chkinp: Checking input parameters for consistency.

== DATASET  1 ==================================================================
-   mpi_nproc: 1, omp_nthreads: -1 (-1 if OMP is not activated)

--- !DatasetInfo
iteration_state: {dtset: 1, }
dimensions: {natom: 8, nkpt: 2, mband: 33, nsppol: 1, nspinor: 1, nspden: 1, mpw: 8483, }
cutoff_energies: {ecut:  44.0, pawecutdg:  -1.0, }
electrons: {nelect:   4.80000000E+01, charge:   0.00000000E+00, occopt:   1.00000000E+00, tsmear:   1.00000000E-02, }
meta: {optdriver: 1, rfelfd: 2, }
...

 Real(R)+Recip(G) space primitive vectors, cartesian coordinates (Bohr,Bohr^-1):
 R(1)=  6.5633758  0.0000000  0.0000000  G(1)=  0.1523606  0.0000000  0.0000000
 R(2)=  0.0000000  9.0425922  0.0000000  G(2)=  0.0000000  0.1105878  0.0000000
 R(3)=  0.0000000  0.0000000 10.2288803  G(3)=  0.0000000  0.0000000  0.0977624
 Unit cell volume ucvol=  6.0708334E+02 bohr^3
 Angles (23,13,12)=  9.00000000E+01  9.00000000E+01  9.00000000E+01 degrees

 getcut: wavevector=  0.0000  0.0000  0.0000  ngfft=  40  60  64
         ecut(hartree)=     44.000   => boxcut(ratio)=   2.04099

--- Pseudopotential description ------------------------------------------------
- pspini: atom type   1  psp file is /scratch/users/j/a/jabreu/pseudos/PBEsol/Y.psp8
- pspatm: opening atomic psp file    /scratch/users/j/a/jabreu/pseudos/PBEsol/Y.psp8
- Y     ONCVPSP-3.3.0  r_core=   1.60520   1.51226   1.56736
- 39.00000  11.00000    180112                znucl, zion, pspdat
    8 -116133    2    4       600   0.00000   pspcod,pspxc,lmax,lloc,mmax,r2well
    5.99000000000000    4.00000000000000    0.00000000000000   rchrg,fchrg,qchrg
     nproj     2     2     2
     extension_switch     1
  pspatm : epsatm=   18.54790046
         --- l  ekb(1:nproj) -->
             0   10.130768    0.866504
             1    5.598307    0.427135
             2    1.217602    0.315447
 pspatm: atomic psp has been read  and splines computed

- pspini: atom type   2  psp file is /scratch/users/j/a/jabreu/pseudos/PBEsol/H.psp8
- pspatm: opening atomic psp file    /scratch/users/j/a/jabreu/pseudos/PBEsol/H.psp8
- H     ONCVPSP-3.3.0  r_core=   1.00957   0.70586
-  1.00000   1.00000    180112                znucl, zion, pspdat
    8 -116133    1    4       300   0.00000   pspcod,pspxc,lmax,lloc,mmax,r2well
    2.99000000000000    0.00000000000000    0.00000000000000   rchrg,fchrg,qchrg
     nproj     2     1
     extension_switch     1
  pspatm : epsatm=    0.35627032
         --- l  ekb(1:nproj) -->
             0   -1.674911   -0.523609
             1   -0.494138
 pspatm: atomic psp has been read  and splines computed

- pspini: atom type   3  psp file is /scratch/users/j/a/jabreu/pseudos/PBEsol/O.psp8
- pspatm: opening atomic psp file    /scratch/users/j/a/jabreu/pseudos/PBEsol/O.psp8
- O     ONCVPSP-3.3.0  r_core=   1.35509   1.45563   1.26150
-  8.00000   6.00000    180112                znucl, zion, pspdat
    8 -116133    2    4       600   0.00000   pspcod,pspxc,lmax,lloc,mmax,r2well
    5.99000000000000    4.00000000000000    0.00000000000000   rchrg,fchrg,qchrg
     nproj     2     2     1
     extension_switch     1
  pspatm : epsatm=    6.22910522
         --- l  ekb(1:nproj) -->
             0    6.050032    0.820363
             1   -4.739617   -1.153841
             2   -1.335834
 pspatm: atomic psp has been read  and splines computed

   3.01078860E+03                                ecore*ucvol(ha*bohr**3)

-inwffil : will read wavefunctions from disk file /scratch/users/j/a/jabreu/flow_simple_8atoms/flow/w257/t1/indata/in_WFK

 ==>  initialize data related to q vector <==

 The list of irreducible perturbations for this q vector is:
    1)    idir= 1    ipert=   9
    2)    idir= 2    ipert=   9
    3)    idir= 3    ipert=   9

 Perturbation wavevector (in red.coord.)   0.000000  0.000000  0.000000
 Perturbation : derivative vs k along direction   1

 dfpt_looppert : COMMENT -
  In a d/dk calculation, iscf is set to -3 automatically.
 The set of symmetries contains only one element for this perturbation.
 symkpt : not enough symmetry to change the number of k points.

[...]

 Initialisation of the first-order wave-functions :
  ireadwf=   0

--- !BeginCycle
iteration_state: {dtset: 1, }
solver: {iscf: 7, nstep: 2000, nline: 4, wfoptalg: 0, }
tolerances: {tolwfr: 1.00E-20, }
...

     iter   2DEtotal(Ha)        deltaE(Ha) residm    vres2
-ETOT  1  -46.126028728675     -4.613E+01 1.243E-01 0.000E+00
 ETOT  2  -46.186431591985     -6.040E-02 6.889E-03 0.000E+00
 ETOT  3  -46.186786750872     -3.552E-04 4.843E-04 0.000E+00
 ETOT  4  -46.186790318493     -3.568E-06 4.608E-05 0.000E+00
 ETOT  5  -46.186790361436     -4.294E-08 6.586E-06 0.000E+00
 ETOT  6  -46.186790361992     -5.553E-10 8.004E-07 0.000E+00
 ETOT  7  -46.186790361999     -7.532E-12 1.197E-07 0.000E+00
 ETOT  8  -46.186790361999     -9.948E-14 1.544E-08 0.000E+00
 ETOT  9  -46.186790361999      7.105E-15 2.313E-09 0.000E+00
 ETOT 10  -46.186790361999      1.421E-14 3.100E-10 0.000E+00
 ETOT 11  -46.186790361999     -4.263E-14 4.623E-11 0.000E+00
 ETOT 12  -46.186790361999      1.421E-14 6.418E-12 0.000E+00
 ETOT 13  -46.186790361999     -2.132E-14 9.453E-13 0.000E+00
 ETOT 14  -46.186790361999      1.421E-14 1.360E-13 0.000E+00
 ETOT 15  -46.186790361999     -2.132E-14 1.966E-14 0.000E+00
 ETOT 16  -46.186790361999      7.105E-15 2.928E-15 0.000E+00
 ETOT 17  -46.186790361999      7.105E-15 4.139E-16 0.000E+00
 ETOT 18  -46.186790361999      7.105E-15 6.370E-17 0.000E+00
 ETOT 19  -46.186790361999      0.000E+00 8.797E-18 0.000E+00
 ETOT 20  -46.186790361999     -1.421E-14 1.394E-18 0.000E+00
 ETOT 21  -46.186790361999      7.105E-15 1.882E-19 0.000E+00
 ETOT 22  -46.186790361999     -2.132E-14 3.060E-20 0.000E+00
 ETOT 23  -46.186790361999      1.421E-14 9.647E-21 0.000E+00

 At SCF step   23   max residual=  9.65E-21 < tolwfr=  1.00E-20 =>converged.

 ----iterations are completed or convergence reached----

 dfpt_looppert: DFPT cycle converged with prtwf=-1. Will skip output of the 1st-order WFK file.
 dfpt_looppert : ek2=    8.7978474425E+01
          f-sum rule ratio=    1.0458181997E+00
 prteigrs : about to open file /scratch/users/j/a/jabreu/flow_simple_8atoms/flow/w257/t1/tmpdata/tmp_1WF1_EIG
 Expectation of eigenvalue derivatives (hartree) for nkpt=   2  k points:
  (in case of degenerate eigenvalues, averaged derivative)
 kpt#   1, nband= 33, wtk=  0.50000, kpt=  0.1071  0.5000  0.0000 (reduced coord)
   0.00354    0.00286    0.03315    0.02424   -0.02022   -0.02109   -0.04921   -0.05175
  -0.01360   -0.01513    0.04718    0.03702   -0.00815   -0.01332    0.00597    0.00632
   0.05443    0.00991    0.05073    0.00831    0.05451   -0.09374   -0.06602    0.00064
   0.08754    0.09917   -0.14480   -0.12223   -0.01606    0.00463   -0.00126   -0.08028
   0.09634
 prteigrs : prtvol=0 or 1, do not print more k-points.

 Eight components of 2nd-order total energy (hartree) are
 1,2,3: 0th-order hamiltonian combined with 1st-order wavefunctions
     kin0=   6.22053101E+01 eigvalue=   2.75900379E-01  local=  -2.98263501E+01
 4,5,6: 1st-order hamiltonian combined with 1st and 0th-order wfs
     kin1=  -9.20094897E+01  Hartree=   0.00000000E+00     xc=   0.00000000E+00
 7,8,9: eventually, occupation + non-local contributions
    edocc=   1.45612982E+01     enl0=  -1.02936830E+00   enl1=  -3.64090990E-01
 1-9 gives the relaxation energy (to be shifted if some occ is /=2.0)
   erelax=  -4.61867904E+01
  No Ewald or frozen-wf contrib.: the relaxation energy is the total one
 2DEtotal=   -0.4618679036E+02 Ha. Also 2DEtotal=   -0.125680648180E+04 eV
    (  non-var. 2DEtotal :   -4.6186790362E+01 Ha)

 Perturbation wavevector (in red.coord.)   0.000000  0.000000  0.000000
 Perturbation : derivative vs k along direction   2
 The set of symmetries contains only one element for this perturbation.
 symkpt : not enough symmetry to change the number of k points.

[...]

 Perturbation wavevector (in red.coord.)   0.000000  0.000000  0.000000
 Perturbation : derivative vs k along direction   3
 The set of symmetries contains only one element for this perturbation.
 symkpt : not enough symmetry to change the number of k points.

-inwffil : will read wavefunctions from disk file /scratch/users/j/a/jabreu/flow_simple_8atoms/flow/w257/t1/indata/in_WFK

 Initialisation of the first-order wave-functions :
  ireadwf=   0

--- !BeginCycle
iteration_state: {dtset: 1, }
solver: {iscf: 7, nstep: 2000, nline: 4, wfoptalg: 0, }
tolerances: {tolwfr: 1.00E-20, }
...

     iter   2DEtotal(Ha)        deltaE(Ha) residm    vres2
-ETOT  1  -18.948508130592     -1.895E+01 7.937E-02 0.000E+00
 ETOT  2  -18.970645182995     -2.214E-02 4.886E-03 0.000E+00
 ETOT  3  -18.970775859701     -1.307E-04 3.615E-04 0.000E+00
 ETOT  4  -18.970777063280     -1.204E-06 4.254E-05 0.000E+00
 ETOT  5  -18.970777076679     -1.340E-08 5.886E-06 0.000E+00
 ETOT  6  -18.970777076841     -1.617E-10 7.368E-07 0.000E+00
 ETOT  7  -18.970777076843     -2.085E-12 1.162E-07 0.000E+00
 ETOT  8  -18.970777076843      3.553E-15 1.542E-08 0.000E+00
 ETOT  9  -18.970777076843     -7.105E-15 2.396E-09 0.000E+00
 ETOT 10  -18.970777076843     -2.132E-14 3.282E-10 0.000E+00
 ETOT 11  -18.970777076843      7.105E-15 5.028E-11 0.000E+00
 ETOT 12  -18.970777076843      7.105E-15 6.994E-12 0.000E+00
 ETOT 13  -18.970777076843      0.000E+00 1.065E-12 0.000E+00
 ETOT 14  -18.970777076843      0.000E+00 1.494E-13 0.000E+00
 ETOT 15  -18.970777076843      0.000E+00 2.268E-14 0.000E+00
 ETOT 16  -18.970777076843     -7.105E-15 3.206E-15 0.000E+00
 ETOT 17  -18.970777076843      7.105E-15 4.849E-16 0.000E+00
 ETOT 18  -18.970777076843     -1.421E-14 6.912E-17 0.000E+00
 ETOT 19  -18.970777076843      1.421E-14 1.040E-17 0.000E+00
 ETOT 20  -18.970777076843      0.000E+00 1.497E-18 0.000E+00
 ETOT 21  -18.970777076843      7.105E-15 2.235E-19 0.000E+00
 ETOT 22  -18.970777076843     -7.105E-15 3.255E-20 0.000E+00
 ETOT 23  -18.970777076843      0.000E+00 9.162E-21 0.000E+00

 At SCF step   23   max residual=  9.16E-21 < tolwfr=  1.00E-20 =>converged.

 ----iterations are completed or convergence reached----

 dfpt_looppert: DFPT cycle converged with prtwf=-1. Will skip output of the 1st-order WFK file.
 dfpt_looppert : ek2=    3.6222196156E+01
          f-sum rule ratio=    1.0419430632E+00
 prteigrs : about to open file /scratch/users/j/a/jabreu/flow_simple_8atoms/flow/w257/t1/tmpdata/tmp_1WF1_EIG
 Expectation of eigenvalue derivatives (hartree) for nkpt=   2  k points:
  (in case of degenerate eigenvalues, averaged derivative)
 kpt#   1, nband= 33, wtk=  0.50000, kpt=  0.1071  0.5000  0.0000 (reduced coord)
  -0.00000   -0.00000    0.00000    0.00000   -0.00000   -0.00000    0.00000    0.00000
   0.00000   -0.00000   -0.00000   -0.00000   -0.00000   -0.00000    0.00000   -0.00000
  -0.00000   -0.00000    0.00000    0.00000    0.00000    0.00000   -0.00000   -0.00000
  -0.00000   -0.00000   -0.00000   -0.00000   -0.00000    0.00000    0.00000    0.00000
  -0.00000
 prteigrs : prtvol=0 or 1, do not print more k-points.

 Eight components of 2nd-order total energy (hartree) are
 1,2,3: 0th-order hamiltonian combined with 1st-order wavefunctions
     kin0=   2.37473152E+01 eigvalue=   8.03001609E-02  local=  -1.07314628E+01
 4,5,6: 1st-order hamiltonian combined with 1st and 0th-order wfs
     kin1=  -3.77414660E+01  Hartree=   0.00000000E+00     xc=   0.00000000E+00
 7,8,9: eventually, occupation + non-local contributions
    edocc=   6.51005898E+00     enl0=  -6.35434431E-01   enl1=  -2.00088134E-01
 1-9 gives the relaxation energy (to be shifted if some occ is /=2.0)
   erelax=  -1.89707771E+01
  No Ewald or frozen-wf contrib.: the relaxation energy is the total one
 2DEtotal=   -0.1897077708E+02 Ha. Also 2DEtotal=   -0.516221097160E+03 eV
    (  non-var. 2DEtotal :   -1.8970777077E+01 Ha)

 CALCULATION OF EFFECTIVE MASSES
 NOTE : Additional infos (eff. mass eigenvalues, eigenvectors and, if degenerate, average mass) are available in stdout.

 K-point ( 0.107, 0.500, 0.000) | band =    24
 Effective mass tensor:
             -4.7037361920             -0.0001946259             -0.0001047884
             -0.0001946259             -6.2126845013              0.0000474927
             -0.0001047884              0.0000474927             -1.5408182998
 Effective mass tensor eigenvalues:
             -6.2126845269             -4.7037361704             -1.5408182959
 Angular average effective mass 1/(<1/m>)=  -2.9338023738
 Angular average effective mass for Frohlich model (<m**0.5>)**2=  -3.3077777988
 Effective masses along directions: (cart. coord. / red. coord. -> eff. mass)
    1:   1.000000  0.000000  0.000000 /   1.000000  0.000000  0.000000 ->  -4.7037361788
    2:   0.000000  1.000000  0.000000 /   0.000000  1.000000  0.000000 ->  -6.2126844918
    3:   0.000000  0.000000  1.000000 /   0.000000  0.000000  1.000000 ->  -1.5408182971
    4:   0.577350  0.577350  0.577350 /   0.433270  0.596931  0.675241 ->  -2.9338950875
    5:   0.000000  0.707107  0.707107 /   0.000000  0.662326  0.749216 ->  -2.4692067365
    6:   0.707107  0.000000  0.707107 /   0.540039  0.000000  0.841640 ->  -2.3213332670
    7:   0.707107  0.707107  0.000000 /   0.587407  0.809291  0.000000 ->  -5.3541122607

 K-point ( 0.000, 0.000, 0.000) | band =    25
 Effective mass tensor:
              0.4110364805              0.0000000008              0.0000004070
              0.0000000008              0.6038584665              0.0000000790
              0.0000004070              0.0000000790              0.5522849558
 Effective mass tensor eigenvalues:
              0.4110364805              0.5522849558              0.6038584665
 Angular average effective mass 1/(<1/m>)=   0.5085132951
 Angular average effective mass for Frohlich model (<m**0.5>)**2=   0.5128278703
 Effective masses along directions: (cart. coord. / red. coord. -> eff. mass)
    1:   1.000000  0.000000  0.000000 /   1.000000  0.000000  0.000000 ->   0.4110364805
    2:   0.000000  1.000000  0.000000 /   0.000000  1.000000  0.000000 ->   0.6038584665
    3:   0.000000  0.000000  1.000000 /   0.000000  0.000000  1.000000 ->   0.5522849558
    4:   0.577350  0.577350  0.577350 /   0.433270  0.596931  0.675241 ->   0.5085136456
    5:   0.000000  0.707107  0.707107 /   0.000000  0.662326  0.749216 ->   0.5769214886
    6:   0.707107  0.000000  0.707107 /   0.540039  0.000000  0.841640 ->   0.4713057299
    7:   0.707107  0.707107  0.000000 /   0.587407  0.809291  0.000000 ->   0.4891301507

 END OF EFFECTIVE MASSES SECTION

 ---- first-order wavefunction calculations are completed ----

 Total localisation tensor (bohr^2) in cartesian coordinates
  WARNING : still subject to testing - especially symmetries.
      direction              matrix element
   alpha     beta       real part   imaginary part
     1        1       0.7807142172    0.0000000000
     1        2       0.0000000000    0.0000000000
     1        3       0.0000000000    0.0000000000
     2        1       0.0000000000    0.0000000000
     2        2       0.7112136129    0.0000000000
     2        3       0.0000000000    0.0000000000
     3        1       0.0000000000    0.0000000000
     3        2       0.0000000000    0.0000000000
     3        3       0.7487256530    0.0000000000

 respfn : d/dk was computed, but no 2DTE, so no DDB output.

== END DATASET(S) ==============================================================

 -outvars: echo values of variables after computation  --------
            acell      1.0000000000E+00  1.0000000000E+00  1.0000000000E+00 Bohr
              amu      8.89058500E+01  1.00794000E+00  1.59994000E+01
             ecut      4.40000000E+01 Hartree
           etotal     -1.8970777077E+01
            fcart      0.0000000000E+00  0.0000000000E+00  0.0000000000E+00
                       0.0000000000E+00  0.0000000000E+00  0.0000000000E+00
                       0.0000000000E+00  0.0000000000E+00  0.0000000000E+00
                       0.0000000000E+00  0.0000000000E+00  0.0000000000E+00
                       0.0000000000E+00  0.0000000000E+00  0.0000000000E+00
                       0.0000000000E+00  0.0000000000E+00  0.0000000000E+00
                       0.0000000000E+00  0.0000000000E+00  0.0000000000E+00
                       0.0000000000E+00  0.0000000000E+00  0.0000000000E+00
-          fftalg         512
           irdden           1
           irdwfk           1
           istwfk        0    1
              ixc     -116133
              kpt      1.07142857E-01  5.00000000E-01  0.00000000E+00
                       0.00000000E+00  0.00000000E+00  0.00000000E+00
           kptopt           0
P           mkmem           2
P          mkqmem           2
P          mk1mem           2
            natom           8
            nband          33
           nbdbuf           4
            ngfft          40      60      64
             nkpt           2
            nstep        2000
             nsym           4
           ntypat           3
              occ      2.000000  2.000000  2.000000  2.000000  2.000000  2.000000
                       2.000000  2.000000  2.000000  2.000000  2.000000  2.000000
                       2.000000  2.000000  2.000000  2.000000  2.000000  2.000000
                       2.000000  2.000000  2.000000  2.000000  2.000000  2.000000
                       0.000000  0.000000  0.000000  0.000000  0.000000  0.000000
                       0.000000  0.000000  0.000000
        optdriver           1
            prtwf          -1
            rfdir           1       1       1
           rfelfd           2
            rprim      6.5633758001E+00  0.0000000000E+00  0.0000000000E+00
                       0.0000000000E+00  9.0425922005E+00  0.0000000000E+00
                       0.0000000000E+00  0.0000000000E+00  1.0228880285E+01
          spgroup          31
           strten      0.0000000000E+00  0.0000000000E+00  0.0000000000E+00
                       0.0000000000E+00  0.0000000000E+00  0.0000000000E+00
           symrel      1  0  0   0  1  0   0  0  1       1  0  0   0 -1  0   0  0  1
                      -1  0  0   0 -1  0   0  0  1      -1  0  0   0  1  0   0  0  1
            tnons      0.0000000  0.0000000  0.0000000     0.5000000  0.0000000  0.5000000
                       0.5000000  0.0000000  0.5000000     0.0000000  0.0000000  0.0000000
           tolwfr      1.00000000E-20
            typat      1  1  2  2  3  3  3  3
           useylm           1
              wtk        0.50000    0.50000
           xangst      0.0000000000E+00  1.0683337348E+00  5.3277239001E+00
                       1.7365944424E+00  3.7167999643E+00  2.6212787419E+00
                       1.7365944424E+00  3.3199066199E+00  5.2214363858E+00
                       0.0000000000E+00  1.4652270792E+00  2.5149912277E+00
                       1.7365944424E+00  2.4821780483E+00  4.6307276656E+00
                       0.0000000000E+00  1.0730662320E-01  3.3472285267E+00
                       0.0000000000E+00  2.3029556508E+00  1.9242825075E+00
                       1.7365944424E+00  4.6778270759E+00  6.4078336854E-01
            xcart      0.0000000000E+00  2.0188581773E+00  1.0067939083E+01
                       3.2816879001E+00  7.0237340232E+00  4.9534989402E+00
                       3.2816879001E+00  6.2737142983E+00  9.8670847895E+00
                       0.0000000000E+00  2.7688779022E+00  4.7526446469E+00
                       3.2816879001E+00  4.6906367244E+00  8.7508070840E+00
                       0.0000000000E+00  2.0278013010E-01  6.3253452196E+00
                       0.0000000000E+00  4.3519554761E+00  3.6363669414E+00
                       3.2816879001E+00  8.8398120704E+00  1.2109050770E+00
             xred      0.0000000000E+00  2.2326100000E-01  9.8426600000E-01
                       5.0000000000E-01  7.7673900000E-01  4.8426600000E-01
                       5.0000000000E-01  6.9379600000E-01  9.6463000000E-01
                       0.0000000000E+00  3.0620400000E-01  4.6463000000E-01
                       5.0000000000E-01  5.1872700000E-01  8.5550000000E-01
                       0.0000000000E+00  2.2425000000E-02  6.1838100000E-01
                       0.0000000000E+00  4.8127300000E-01  3.5550000000E-01
                       5.0000000000E-01  9.7757500000E-01  1.1838100000E-01
            znucl       39.00000    1.00000    8.00000

- Timing analysis has been suppressed with timopt=0

 Suggested references for the acknowledgment of ABINIT usage.

 Calculation completed.
.Delivered  14 WARNINGs and   9 COMMENTs to log file.