.Version 9.5.1 of ABINIT

 ABINIT is a project of the Universite Catholique de Louvain,
 Corning Inc. and other collaborators, see ~abinit/doc/developers/contributors.txt .
 acknowledgments of the ABINIT effort.

.Starting date : Tue 27 Apr 2021.
- ( at 18h43 )

- input  file    -> /scratch/users/j/a/jabreu/flow_simple_4atoms/flow/w227/t1/run.abi
- output file    -> /scratch/users/j/a/jabreu/flow_simple_4atoms/flow/w227/t1/run.abo
- root for input  files -> /scratch/users/j/a/jabreu/flow_simple_4atoms/flow/w227/t1/indata/in
- root for output files -> /scratch/users/j/a/jabreu/flow_simple_4atoms/flow/w227/t1/outdata/out

 Symmetries : space group R-3 m (#166); Bravais hR (rhombohedral)
     intxc =       0      iscf =       7    lmnmax =      32     lnmax =       8
     mgfft =      80  mpssoang =       4    mqgrid =    3001     natom =       4
  nloc_mem =       1    nspden =       1   nspinor =       1    nsppol =       1
      nsym =      12    n1xccc =    2501    ntypat =       3    occopt =       1
   xclevel =       2
-    mband =          30        mffmem =           1         mkmem =           1
-   mkqmem =           1        mk1mem =           1           mpw =        9174
      nfft =      512000          nkpt =           1
  Rough estimation (10% accuracy) of disk space for files :

------------- Echo of variables that govern the present computation ------------
-
- outvars: echo of selected default values
-   iomode0 =  0 , fftalg0 =512 , wfoptalg0 =  0
-
- outvars: echo of global parameters not present in the input file
-  max_nthreads =    0
-
 -outvars: echo values of preprocessed input variables --------
            acell      1.0000000000E+00  1.0000000000E+00  1.0000000000E+00 Bohr
              amu      1.38905500E+02  1.07868200E+02  1.59994000E+01
             ecut      5.20000000E+01 Hartree
-          fftalg         512
           irdden           1
           irdwfk           1
           istwfk        1
              ixc     -116133
              kpt      5.00000000E-01  0.00000000E+00 -2.77555756E-17
           kptopt           0
P           mkmem           1
P          mkqmem           1
P          mk1mem           1
            natom           4
            nband          30
           nbdbuf           4
            ngfft          80      80      80
             nkpt           1
            nstep         100
             nsym          12
           ntypat           3
              occ      2.000000  2.000000  2.000000  2.000000  2.000000  2.000000
                       2.000000  2.000000  2.000000  2.000000  2.000000  2.000000
                       2.000000  2.000000  2.000000  2.000000  2.000000  2.000000
                       2.000000  2.000000  2.000000  0.000000  0.000000  0.000000
                       0.000000  0.000000  0.000000  0.000000  0.000000  0.000000
        optdriver           1
            prtwf          -1
            rfdir           1       1       1
           rfelfd           2
            rprim      6.8534281757E+00  0.0000000000E+00  1.0069188400E+01
                       3.1015846992E+00  6.1114360108E+00  1.0069188400E+01
                       0.0000000000E+00  0.0000000000E+00  1.2180231229E+01
          spgroup         166
           symrel      1  0  0   0  1  0   0  0  1      -1  0  0   0 -1  0   0  0 -1
                       0  1  0   1  0  0   0  0  1       0 -1  0  -1  0  0   0  0 -1
                       0  0  1   1  0  0   0  1  0       0  0 -1  -1  0  0   0 -1  0
                       1  0  0   0  0  1   0  1  0      -1  0  0   0  0 -1   0 -1  0
                       0  1  0   0  0  1   1  0  0       0 -1  0   0  0 -1  -1  0  0
                       0  0  1   0  1  0   1  0  0       0  0 -1   0 -1  0  -1  0  0
           tolwfr      1.00000000E-20
            typat      1  2  3  3
           useylm           1
           xangst      2.6339829623E+00  1.6170163243E+00  8.5511353913E+00
                       0.0000000000E+00  0.0000000000E+00  0.0000000000E+00
                       4.6838433270E+00  2.8754366405E+00  1.5205936794E+01
                       5.8412259765E-01  3.5859600815E-01  1.8963339889E+00
            xcart      4.9775064375E+00  3.0557180054E+00  1.6159304015E+01
                       0.0000000000E+00  0.0000000000E+00  0.0000000000E+00
                       8.8511811373E+00  5.4337877631E+00  2.8735056134E+01
                       1.1038317376E+00  6.7764824775E-01  3.5835518955E+00
             xred      5.0000000000E-01  5.0000000000E-01  5.0000000000E-01
                       0.0000000000E+00  0.0000000000E+00  0.0000000000E+00
                       8.8911800000E-01  8.8911800000E-01  8.8911800000E-01
                       1.1088200000E-01  1.1088200000E-01  1.1088200000E-01
            znucl       57.00000   47.00000    8.00000

 chkinp: Checking input parameters for consistency.

== DATASET  1 ==================================================================
-   mpi_nproc: 1, omp_nthreads: -1 (-1 if OMP is not activated)

--- !DatasetInfo
iteration_state: {dtset: 1, }
dimensions: {natom: 4, nkpt: 1, mband: 30, nsppol: 1, nspinor: 1, nspden: 1, mpw: 9174, }
cutoff_energies: {ecut:  52.0, pawecutdg:  -1.0, }
electrons: {nelect:   4.20000000E+01, charge:   0.00000000E+00, occopt:   1.00000000E+00, tsmear:   1.00000000E-02, }
meta: {optdriver: 1, rfelfd: 2, }
...

 Real(R)+Recip(G) space primitive vectors, cartesian coordinates (Bohr,Bohr^-1):
 R(1)=  6.8534282  0.0000000 10.0691884  G(1)=  0.1459124 -0.0740513  0.0000000
 R(2)=  3.1015847  6.1114360 10.0691884  G(2)=  0.0000000  0.1636277  0.0000000
 R(3)=  0.0000000  0.0000000 12.1802312  G(3)= -0.1206233 -0.0740513  0.0821002
 Unit cell volume ucvol=  5.1016031E+02 bohr^3
 Angles (23,13,12)=  3.42405197E+01  3.42405197E+01  3.42405197E+01 degrees

 getcut: wavevector=  0.0000  0.0000  0.0000  ngfft=  80  80  80
         ecut(hartree)=     52.000   => boxcut(ratio)=   2.02335

--- Pseudopotential description ------------------------------------------------
- pspini: atom type   1  psp file is /scratch/users/j/a/jabreu/pseudos/PBEsol/La.psp8
- pspatm: opening atomic psp file    /scratch/users/j/a/jabreu/pseudos/PBEsol/La.psp8
- La    ONCVPSP-3.3.0  r_core=   2.11664   1.60878   1.85636   1.66739
- 57.00000  11.00000    180112                znucl, zion, pspdat
    8 -116133    3    4       600   0.00000   pspcod,pspxc,lmax,lloc,mmax,r2well
    5.99000000000000    5.00000000000000    0.00000000000000   rchrg,fchrg,qchrg
     nproj     2     2     2     2
     extension_switch     1
  pspatm : epsatm=   29.08531775
         --- l  ekb(1:nproj) -->
             0    6.695600    0.639047
             1    6.383649    1.151322
             2    3.612966    0.847811
             3  -13.718437   -4.858923
 pspatm: atomic psp has been read  and splines computed

- pspini: atom type   2  psp file is /scratch/users/j/a/jabreu/pseudos/PBEsol/Ag.psp8
- pspatm: opening atomic psp file    /scratch/users/j/a/jabreu/pseudos/PBEsol/Ag.psp8
- Ag    ONCVPSP-3.3.0  r_core=   1.41384   1.46535   1.61207
- 47.00000  19.00000    180112                znucl, zion, pspdat
    8 -116133    2    4       600   0.00000   pspcod,pspxc,lmax,lloc,mmax,r2well
    5.99000000000000    7.00000000000000    0.00000000000000   rchrg,fchrg,qchrg
     nproj     2     2     2
     extension_switch     1
  pspatm : epsatm=   27.64581383
         --- l  ekb(1:nproj) -->
             0    9.559407   -0.398585
             1    3.418858   -0.136622
             2   -1.644397   -0.401551
 pspatm: atomic psp has been read  and splines computed

- pspini: atom type   3  psp file is /scratch/users/j/a/jabreu/pseudos/PBEsol/O.psp8
- pspatm: opening atomic psp file    /scratch/users/j/a/jabreu/pseudos/PBEsol/O.psp8
- O     ONCVPSP-3.3.0  r_core=   1.35509   1.45563   1.26150
-  8.00000   6.00000    180112                znucl, zion, pspdat
    8 -116133    2    4       600   0.00000   pspcod,pspxc,lmax,lloc,mmax,r2well
    5.99000000000000    4.00000000000000    0.00000000000000   rchrg,fchrg,qchrg
     nproj     2     2     1
     extension_switch     1
  pspatm : epsatm=    6.22910522
         --- l  ekb(1:nproj) -->
             0    6.050032    0.820363
             1   -4.739617   -1.153841
             2   -1.335834
 pspatm: atomic psp has been read  and splines computed

   2.90595236E+03                                ecore*ucvol(ha*bohr**3)

-inwffil : will read wavefunctions from disk file /scratch/users/j/a/jabreu/flow_simple_4atoms/flow/w227/t1/indata/in_WFK

 ==>  initialize data related to q vector <==

 The list of irreducible perturbations for this q vector is:
    1)    idir= 1    ipert=   5
    2)    idir= 2    ipert=   5
    3)    idir= 3    ipert=   5

 Perturbation wavevector (in red.coord.)   0.000000  0.000000  0.000000
 Perturbation : derivative vs k along direction   1

 dfpt_looppert : COMMENT -
  In a d/dk calculation, iscf is set to -3 automatically.
 The set of symmetries contains only one element for this perturbation.
 symkpt : not enough symmetry to change the number of k points.

[...]

 Initialisation of the first-order wave-functions :
  ireadwf=   0

--- !BeginCycle
iteration_state: {dtset: 1, }
solver: {iscf: 7, nstep: 100, nline: 4, wfoptalg: 0, }
tolerances: {tolwfr: 1.00E-20, }
...

     iter   2DEtotal(Ha)        deltaE(Ha) residm    vres2
-ETOT  1  -55.096060645841     -5.510E+01 1.406E-01 0.000E+00
 ETOT  2  -55.215136759385     -1.191E-01 4.152E-02 0.000E+00
 ETOT  3  -55.216000973625     -8.642E-04 6.328E-03 0.000E+00
 ETOT  4  -55.216009971669     -8.998E-06 2.226E-03 0.000E+00
 ETOT  5  -55.216010085589     -1.139E-07 3.547E-04 0.000E+00
 ETOT  6  -55.216010087146     -1.556E-09 1.397E-04 0.000E+00
 ETOT  7  -55.216010087172     -2.639E-11 3.017E-05 0.000E+00
 ETOT  8  -55.216010087173     -6.821E-13 2.060E-05 0.000E+00
 ETOT  9  -55.216010087173      1.634E-13 4.444E-06 0.000E+00
 ETOT 10  -55.216010087173     -1.137E-13 3.092E-06 0.000E+00
 ETOT 11  -55.216010087173      1.137E-13 7.421E-07 0.000E+00
 ETOT 12  -55.216010087173     -2.132E-14 5.515E-07 0.000E+00
 ETOT 13  -55.216010087173     -2.842E-14 1.219E-07 0.000E+00
 ETOT 14  -55.216010087173     -7.105E-15 9.356E-08 0.000E+00
 ETOT 15  -55.216010087173      2.842E-14 2.082E-08 0.000E+00
 ETOT 16  -55.216010087173      1.421E-14 1.641E-08 0.000E+00
 ETOT 17  -55.216010087173     -3.553E-14 3.677E-09 0.000E+00
 ETOT 18  -55.216010087173      1.421E-14 2.939E-09 0.000E+00
 ETOT 19  -55.216010087173      2.132E-14 6.608E-10 0.000E+00
 ETOT 20  -55.216010087173     -1.421E-14 5.336E-10 0.000E+00
 ETOT 21  -55.216010087173      0.000E+00 1.201E-10 0.000E+00
 ETOT 22  -55.216010087173     -7.105E-15 9.781E-11 0.000E+00
 ETOT 23  -55.216010087173      7.105E-15 2.198E-11 0.000E+00
 ETOT 24  -55.216010087173      7.105E-15 1.804E-11 0.000E+00
 ETOT 25  -55.216010087173      2.132E-14 4.045E-12 0.000E+00
 ETOT 26  -55.216010087173     -7.105E-15 3.340E-12 0.000E+00
 ETOT 27  -55.216010087173     -7.105E-15 7.473E-13 0.000E+00
 ETOT 28  -55.216010087173      1.421E-14 6.193E-13 0.000E+00
 ETOT 29  -55.216010087173     -7.105E-15 1.384E-13 0.000E+00
 ETOT 30  -55.216010087173      0.000E+00 1.149E-13 0.000E+00
 ETOT 31  -55.216010087173     -7.105E-15 2.567E-14 0.000E+00
 ETOT 32  -55.216010087173      0.000E+00 2.133E-14 0.000E+00
 ETOT 33  -55.216010087173      0.000E+00 4.770E-15 0.000E+00
 ETOT 34  -55.216010087173      7.105E-15 3.962E-15 0.000E+00
 ETOT 35  -55.216010087173     -7.105E-15 8.877E-16 0.000E+00
 ETOT 36  -55.216010087173      7.105E-15 7.367E-16 0.000E+00
 ETOT 37  -55.216010087173     -1.421E-14 1.655E-16 0.000E+00
 ETOT 38  -55.216010087173     -7.105E-15 1.372E-16 0.000E+00
 ETOT 39  -55.216010087173      0.000E+00 3.091E-17 0.000E+00
 ETOT 40  -55.216010087173      0.000E+00 2.558E-17 0.000E+00
 ETOT 41  -55.216010087173     -7.105E-15 5.783E-18 0.000E+00
 ETOT 42  -55.216010087173      2.132E-14 4.779E-18 0.000E+00
 ETOT 43  -55.216010087173      0.000E+00 1.084E-18 0.000E+00
 ETOT 44  -55.216010087173      0.000E+00 8.945E-19 0.000E+00
 ETOT 45  -55.216010087173     -1.421E-14 2.035E-19 0.000E+00
 ETOT 46  -55.216010087173      2.132E-14 1.677E-19 0.000E+00
 ETOT 47  -55.216010087173      0.000E+00 3.825E-20 0.000E+00
 ETOT 48  -55.216010087173     -7.105E-15 3.149E-20 0.000E+00
 ETOT 49  -55.216010087173      0.000E+00 9.180E-21 0.000E+00

 At SCF step   49   max residual=  9.18E-21 < tolwfr=  1.00E-20 =>converged.

 ----iterations are completed or convergence reached----

 dfpt_looppert: DFPT cycle converged with prtwf=-1. Will skip output of the 1st-order WFK file.
 dfpt_looppert : ek2=    8.8787634388E+01
          f-sum rule ratio=    1.1940967005E+00
 prteigrs : about to open file /scratch/users/j/a/jabreu/flow_simple_4atoms/flow/w227/t1/tmpdata/tmp_1WF1_EIG
 Expectation of eigenvalue derivatives (hartree) for nkpt=   1  k points:
  (in case of degenerate eigenvalues, averaged derivative)
 kpt#   1, nband= 30, wtk=  1.00000, kpt=  0.5000  0.0000  0.0000 (reduced coord)
   0.00000   -0.00000    0.00000    0.00000    0.00000    0.00000   -0.00000   -0.00000
   0.00000   -0.00000   -0.00000    0.00000   -0.00000    0.00000   -0.00000    0.00000
   0.00000   -0.00000    0.00000   -0.00000   -0.00000    0.00000    0.00000   -0.00000
  -0.00000   -0.00000   -0.00000   -0.00000   -0.00000   -0.00000

 Eight components of 2nd-order total energy (hartree) are
 1,2,3: 0th-order hamiltonian combined with 1st-order wavefunctions
     kin0=   9.35191509E+01 eigvalue=  -2.17698142E+00  local=  -5.04757714E+01
 4,5,6: 1st-order hamiltonian combined with 1st and 0th-order wfs
     kin1=  -1.06021021E+02  Hartree=   0.00000000E+00     xc=   0.00000000E+00
 7,8,9: eventually, occupation + non-local contributions
    edocc=   1.12881858E+01     enl0=   3.06142619E+00   enl1=  -4.41099891E+00
 1-9 gives the relaxation energy (to be shifted if some occ is /=2.0)
   erelax=  -5.52160101E+01
  No Ewald or frozen-wf contrib.: the relaxation energy is the total one
 2DEtotal=   -0.5521601009E+02 Ha. Also 2DEtotal=   -0.150250404570E+04 eV
    (  non-var. 2DEtotal :   -5.5216010087E+01 Ha)

 Perturbation wavevector (in red.coord.)   0.000000  0.000000  0.000000
 Perturbation : derivative vs k along direction   2
 The set of symmetries contains only one element for this perturbation.
 symkpt : not enough symmetry to change the number of k points.

[...]

 Perturbation wavevector (in red.coord.)   0.000000  0.000000  0.000000
 Perturbation : derivative vs k along direction   3
 The set of symmetries contains only one element for this perturbation.
 symkpt : not enough symmetry to change the number of k points.

-inwffil : will read wavefunctions from disk file /scratch/users/j/a/jabreu/flow_simple_4atoms/flow/w227/t1/indata/in_WFK

 Initialisation of the first-order wave-functions :
  ireadwf=   0

--- !BeginCycle
iteration_state: {dtset: 1, }
solver: {iscf: 7, nstep: 100, nline: 4, wfoptalg: 0, }
tolerances: {tolwfr: 1.00E-20, }
...

     iter   2DEtotal(Ha)        deltaE(Ha) residm    vres2
-ETOT  1  -48.046577711158     -4.805E+01 9.951E-02 0.000E+00
 ETOT  2  -48.180948401925     -1.344E-01 5.009E-02 0.000E+00
 ETOT  3  -48.182478098303     -1.530E-03 7.994E-03 0.000E+00
 ETOT  4  -48.182502932955     -2.483E-05 4.009E-03 0.000E+00
 ETOT  5  -48.182503404455     -4.715E-07 7.328E-04 0.000E+00
 ETOT  6  -48.182503414145     -9.690E-09 3.891E-04 0.000E+00
 ETOT  7  -48.182503414356     -2.112E-10 7.487E-05 0.000E+00
 ETOT  8  -48.182503414361     -4.754E-12 4.128E-05 0.000E+00
 ETOT  9  -48.182503414361     -2.132E-13 1.448E-05 0.000E+00
 ETOT 10  -48.182503414361      1.279E-13 8.258E-06 0.000E+00
 ETOT 11  -48.182503414361      9.948E-14 2.950E-06 0.000E+00
 ETOT 12  -48.182503414361     -1.563E-13 1.703E-06 0.000E+00
 ETOT 13  -48.182503414361      6.395E-14 6.148E-07 0.000E+00
 ETOT 14  -48.182503414361      2.132E-14 3.571E-07 0.000E+00
 ETOT 15  -48.182503414361     -1.421E-14 1.298E-07 0.000E+00
 ETOT 16  -48.182503414361      1.421E-14 7.570E-08 0.000E+00
 ETOT 17  -48.182503414361      7.105E-15 2.762E-08 0.000E+00
 ETOT 18  -48.182503414361     -1.421E-14 1.617E-08 0.000E+00
 ETOT 19  -48.182503414361      1.421E-14 5.915E-09 0.000E+00
 ETOT 20  -48.182503414361     -2.132E-14 3.470E-09 0.000E+00
 ETOT 21  -48.182503414361      0.000E+00 1.272E-09 0.000E+00
 ETOT 22  -48.182503414361      0.000E+00 7.477E-10 0.000E+00
 ETOT 23  -48.182503414361      0.000E+00 2.744E-10 0.000E+00
 ETOT 24  -48.182503414361      7.105E-15 1.615E-10 0.000E+00
 ETOT 25  -48.182503414361      0.000E+00 5.931E-11 0.000E+00
 ETOT 26  -48.182503414361     -2.132E-14 3.496E-11 0.000E+00
 ETOT 27  -48.182503414361      1.421E-14 1.284E-11 0.000E+00
 ETOT 28  -48.182503414361     -1.421E-14 7.578E-12 0.000E+00
 ETOT 29  -48.182503414361      0.000E+00 2.906E-12 0.000E+00
 ETOT 30  -48.182503414361      1.421E-14 1.727E-12 0.000E+00
 ETOT 31  -48.182503414361     -1.421E-14 6.848E-13 0.000E+00
 ETOT 32  -48.182503414361      1.421E-14 4.066E-13 0.000E+00
 ETOT 33  -48.182503414361      1.421E-14 1.616E-13 0.000E+00
 ETOT 34  -48.182503414361      1.421E-14 9.586E-14 0.000E+00
 ETOT 35  -48.182503414361     -1.421E-14 3.817E-14 0.000E+00
 ETOT 36  -48.182503414361      2.842E-14 2.263E-14 0.000E+00
 ETOT 37  -48.182503414361     -4.263E-14 9.024E-15 0.000E+00
 ETOT 38  -48.182503414361      1.421E-14 5.344E-15 0.000E+00
 ETOT 39  -48.182503414361      1.421E-14 2.134E-15 0.000E+00
 ETOT 40  -48.182503414361     -7.105E-15 1.263E-15 0.000E+00
 ETOT 41  -48.182503414361     -7.105E-15 5.049E-16 0.000E+00
 ETOT 42  -48.182503414361     -2.132E-14 2.985E-16 0.000E+00
 ETOT 43  -48.182503414361      1.421E-14 1.195E-16 0.000E+00
 ETOT 44  -48.182503414361      0.000E+00 7.059E-17 0.000E+00
 ETOT 45  -48.182503414361      7.105E-15 2.828E-17 0.000E+00
 ETOT 46  -48.182503414361     -1.421E-14 1.670E-17 0.000E+00
 ETOT 47  -48.182503414361      0.000E+00 6.696E-18 0.000E+00
 ETOT 48  -48.182503414361      0.000E+00 3.950E-18 0.000E+00
 ETOT 49  -48.182503414361      1.421E-14 1.585E-18 0.000E+00
 ETOT 50  -48.182503414361     -2.132E-14 9.346E-19 0.000E+00
 ETOT 51  -48.182503414361      0.000E+00 3.754E-19 0.000E+00
 ETOT 52  -48.182503414361     -7.105E-15 2.212E-19 0.000E+00
 ETOT 53  -48.182503414361      2.132E-14 8.889E-20 0.000E+00
 ETOT 54  -48.182503414361     -2.132E-14 5.235E-20 0.000E+00
 ETOT 55  -48.182503414361      7.105E-15 2.105E-20 0.000E+00
 ETOT 56  -48.182503414361      7.105E-15 1.239E-20 0.000E+00
 ETOT 57  -48.182503414361     -2.132E-14 8.965E-21 0.000E+00

 At SCF step   57   max residual=  8.96E-21 < tolwfr=  1.00E-20 =>converged.

 ----iterations are completed or convergence reached----

 dfpt_looppert: DFPT cycle converged with prtwf=-1. Will skip output of the 1st-order WFK file.
 dfpt_looppert : ek2=    8.8787634387E+01
          f-sum rule ratio=    1.0280840506E+00
 prteigrs : about to open file /scratch/users/j/a/jabreu/flow_simple_4atoms/flow/w227/t1/tmpdata/tmp_1WF1_EIG
 Expectation of eigenvalue derivatives (hartree) for nkpt=   1  k points:
  (in case of degenerate eigenvalues, averaged derivative)
 kpt#   1, nband= 30, wtk=  1.00000, kpt=  0.5000  0.0000  0.0000 (reduced coord)
  -0.00000   -0.00000   -0.00000    0.00000    0.00000   -0.00000    0.00000   -0.00000
  -0.00000   -0.00000   -0.00000    0.00000    0.00000   -0.00000    0.00000   -0.00000
  -0.00000   -0.00000   -0.00000    0.00000    0.00000   -0.00000   -0.00000   -0.00000
   0.00000    0.00000    0.00000   -0.00000    0.00000    0.00000

 Eight components of 2nd-order total energy (hartree) are
 1,2,3: 0th-order hamiltonian combined with 1st-order wavefunctions
     kin0=   9.04677672E+01 eigvalue=  -8.59542040E-01  local=  -4.82565864E+01
 4,5,6: 1st-order hamiltonian combined with 1st and 0th-order wfs
     kin1=  -9.12811508E+01  Hartree=   0.00000000E+00     xc=   0.00000000E+00
 7,8,9: eventually, occupation + non-local contributions
    edocc=   5.09113102E+00     enl0=   1.73973356E+00   enl1=  -5.08385603E+00
 1-9 gives the relaxation energy (to be shifted if some occ is /=2.0)
   erelax=  -4.81825034E+01
  No Ewald or frozen-wf contrib.: the relaxation energy is the total one
 2DEtotal=   -0.4818250341E+02 Ha. Also 2DEtotal=   -0.131111259574E+04 eV
    (  non-var. 2DEtotal :   -4.8182503414E+01 Ha)

 CALCULATION OF EFFECTIVE MASSES
 NOTE : Additional infos (eff. mass eigenvalues, eigenvectors and, if degenerate, average mass) are available in stdout.

 K-point ( 0.500, 0.000,-0.000) | band =    21
 Effective mass tensor:
             -2.0209989654              0.9667345323              1.5390012179
              0.9667345323             -2.1034557365             -1.3004697148
              1.5390012179             -1.3004697148             -2.6673276314
 Effective mass tensor eigenvalues:
             -4.8659251598             -1.1636183061             -0.7622388674
 Angular average effective mass 1/(<1/m>)=  -1.2621886380
 Angular average effective mass for Frohlich model (<m**0.5>)**2=  -1.4436195141
 Effective masses along directions: (cart. coord. / red. coord. -> eff. mass)
    1:   1.000000  0.000000  0.000000 /   0.911047  0.412303  0.000000 ->  -1.1011569660
    2:   0.000000  1.000000  0.000000 /   0.000000  1.000000  0.000000 ->  -1.4280790436
    3:   0.000000  0.000000  1.000000 /   0.537350  0.537350  0.650008 ->  -1.3013264141
    4:   0.577350  0.577350  0.577350 /   0.595875  0.678961  0.428888 ->  -0.9890046099
    5:   0.000000  0.707107  0.707107 /   0.445191  0.715397  0.538527 ->  -2.1272099568
    6:   0.707107  0.000000  0.707107 /   0.686189  0.534057  0.493891 ->  -0.7709700229
    7:   0.707107  0.707107  0.000000 /   0.596855  0.802349  0.000000 ->  -1.0661870616

 K-point ( 0.500, 0.000,-0.000) | band =    22
 Effective mass tensor:
              0.5030019864              0.2960907334             -0.0103559479
              0.2960907334              0.9754395300              0.0933152551
             -0.0103559479              0.0933152551              1.3484065765
 Effective mass tensor eigenvalues:
              0.3579215136              1.0934740285              1.3754525508
 Angular average effective mass 1/(<1/m>)=   0.6763675027
 Angular average effective mass for Frohlich model (<m**0.5>)**2=   0.7589101375
 Effective masses along directions: (cart. coord. / red. coord. -> eff. mass)
    1:   1.000000  0.000000  0.000000 /   0.911047  0.412303  0.000000 ->   0.4120077992
    2:   0.000000  1.000000  0.000000 /   0.000000  1.000000  0.000000 ->   0.7938162831
    3:   0.000000  0.000000  1.000000 /   0.537350  0.537350  0.650008 ->   1.3358577971
    4:   0.577350  0.577350  0.577350 /   0.595875  0.678961  0.428888 ->   1.0334294446
    5:   0.000000  0.707107  0.707107 /   0.445191  0.715397  0.538527 ->   1.0973681666
    6:   0.707107  0.000000  0.707107 /   0.686189  0.534057  0.493891 ->   0.6031540005
    7:   0.707107  0.707107  0.000000 /   0.596855  0.802349  0.000000 ->   0.9091036398

 END OF EFFECTIVE MASSES SECTION

 ---- first-order wavefunction calculations are completed ----

 Total localisation tensor (bohr^2) in cartesian coordinates
  WARNING : still subject to testing - especially symmetries.
      direction              matrix element
   alpha     beta       real part   imaginary part
     1        1       1.9493512502    0.0000000000
     1        2       0.4085575442    0.0000000000
     1        3       3.2325275363    0.0000000000
     2        1       0.4085575442    0.0000000000
     2        2       0.8050314696    0.0000000000
     2        3       1.3263680616    0.0000000000
     3        1       3.2325275363    0.0000000000
     3        2       1.3263680616    0.0000000000
     3        3       9.1433221343    0.0000000000

 respfn : d/dk was computed, but no 2DTE, so no DDB output.

== END DATASET(S) ==============================================================

 -outvars: echo values of variables after computation  --------
            acell      1.0000000000E+00  1.0000000000E+00  1.0000000000E+00 Bohr
              amu      1.38905500E+02  1.07868200E+02  1.59994000E+01
             ecut      5.20000000E+01 Hartree
           etotal     -4.8182503414E+01
            fcart      0.0000000000E+00  0.0000000000E+00  0.0000000000E+00
                       0.0000000000E+00  0.0000000000E+00  0.0000000000E+00
                       0.0000000000E+00  0.0000000000E+00  0.0000000000E+00
                       0.0000000000E+00  0.0000000000E+00  0.0000000000E+00
-          fftalg         512
           irdden           1
           irdwfk           1
           istwfk        1
              ixc     -116133
              kpt      5.00000000E-01  0.00000000E+00 -2.77555756E-17
           kptopt           0
P           mkmem           1
P          mkqmem           1
P          mk1mem           1
            natom           4
            nband          30
           nbdbuf           4
            ngfft          80      80      80
             nkpt           1
            nstep         100
             nsym          12
           ntypat           3
              occ      2.000000  2.000000  2.000000  2.000000  2.000000  2.000000
                       2.000000  2.000000  2.000000  2.000000  2.000000  2.000000
                       2.000000  2.000000  2.000000  2.000000  2.000000  2.000000
                       2.000000  2.000000  2.000000  0.000000  0.000000  0.000000
                       0.000000  0.000000  0.000000  0.000000  0.000000  0.000000
        optdriver           1
            prtwf          -1
            rfdir           1       1       1
           rfelfd           2
            rprim      6.8534281757E+00  0.0000000000E+00  1.0069188400E+01
                       3.1015846992E+00  6.1114360108E+00  1.0069188400E+01
                       0.0000000000E+00  0.0000000000E+00  1.2180231229E+01
          spgroup         166
           strten      0.0000000000E+00  0.0000000000E+00  0.0000000000E+00
                       0.0000000000E+00  0.0000000000E+00  0.0000000000E+00
           symrel      1  0  0   0  1  0   0  0  1      -1  0  0   0 -1  0   0  0 -1
                       0  1  0   1  0  0   0  0  1       0 -1  0  -1  0  0   0  0 -1
                       0  0  1   1  0  0   0  1  0       0  0 -1  -1  0  0   0 -1  0
                       1  0  0   0  0  1   0  1  0      -1  0  0   0  0 -1   0 -1  0
                       0  1  0   0  0  1   1  0  0       0 -1  0   0  0 -1  -1  0  0
                       0  0  1   0  1  0   1  0  0       0  0 -1   0 -1  0  -1  0  0
           tolwfr      1.00000000E-20
            typat      1  2  3  3
           useylm           1
           xangst      2.6339829623E+00  1.6170163243E+00  8.5511353913E+00
                       0.0000000000E+00  0.0000000000E+00  0.0000000000E+00
                       4.6838433270E+00  2.8754366405E+00  1.5205936794E+01
                       5.8412259765E-01  3.5859600815E-01  1.8963339889E+00
            xcart      4.9775064375E+00  3.0557180054E+00  1.6159304015E+01
                       0.0000000000E+00  0.0000000000E+00  0.0000000000E+00
                       8.8511811373E+00  5.4337877631E+00  2.8735056134E+01
                       1.1038317376E+00  6.7764824775E-01  3.5835518955E+00
             xred      5.0000000000E-01  5.0000000000E-01  5.0000000000E-01
                       0.0000000000E+00  0.0000000000E+00  0.0000000000E+00
                       8.8911800000E-01  8.8911800000E-01  8.8911800000E-01
                       1.1088200000E-01  1.1088200000E-01  1.1088200000E-01
            znucl       57.00000   47.00000    8.00000

- Timing analysis has been suppressed with timopt=0

 Suggested references for the acknowledgment of ABINIT usage.

 Calculation completed.
.Delivered   6 WARNINGs and   5 COMMENTs to log file.