.Version 9.7.2 of ABINIT

 ABINIT is a project of the Universite Catholique de Louvain,
 Corning Inc. and other collaborators, see ~abinit/doc/developers/contributors.txt .
 acknowledgments of the ABINIT effort.

.Starting date : Wed  1 Dec 2021.
- ( at 21h37 )

- input  file    -> /scratch/users/j/a/jabreu/flow_simple_remain_atoms/flow/w198/t1/run.abi
- output file    -> /scratch/users/j/a/jabreu/flow_simple_remain_atoms/flow/w198/t1/run.abo
- root for input  files -> /scratch/users/j/a/jabreu/flow_simple_remain_atoms/flow/w198/t1/indata/in
- root for output files -> /scratch/users/j/a/jabreu/flow_simple_remain_atoms/flow/w198/t1/outdata/out

 Symmetries : space group P6_3/m m c (#194); Bravais hP (primitive hexag.)
     intxc =       0      iscf =       7    lmnmax =      32     lnmax =       8
     mgfft =     100  mpssoang =       4    mqgrid =    4984     natom =       6
  nloc_mem =       1    nspden =       1   nspinor =       1    nsppol =       1
      nsym =      24    n1xccc =    2501    ntypat =       3    occopt =       1
   xclevel =       2
-    mband =          43        mffmem =           1         mkmem =           1
-   mkqmem =           1        mk1mem =           1           mpw =       14767
      nfft =      291600          nkpt =           1
  Rough estimation (10% accuracy) of disk space for files :

------------- Echo of variables that govern the present computation ------------
-
- outvars: echo of selected default values
-   iomode0 =  0 , fftalg0 =512 , wfoptalg0 =  0
-
- outvars: echo of global parameters not present in the input file
-  max_nthreads =    0
-
 -outvars: echo values of preprocessed input variables --------
            acell      1.0000000000E+00  1.0000000000E+00  1.0000000000E+00 Bohr
              amu      1.38905500E+02  7.89600000E+01  1.89984032E+01
             ecut      5.20000000E+01 Hartree
-          fftalg         512
           irdden           1
           irdwfk           1
           istwfk        1
              ixc     -116133
           kptopt           0
P           mkmem           1
P          mkqmem           1
P          mk1mem           1
            natom           6
            nband          43
           nbdbuf           4
            ngfft          54      54     100
             nkpt           1
            nstep        2000
             nsym          24
           ntypat           3
              occ      2.000000  2.000000  2.000000  2.000000  2.000000  2.000000
                       2.000000  2.000000  2.000000  2.000000  2.000000  2.000000
                       2.000000  2.000000  2.000000  2.000000  2.000000  2.000000
                       2.000000  2.000000  2.000000  2.000000  2.000000  2.000000
                       2.000000  2.000000  2.000000  2.000000  2.000000  2.000000
                       2.000000  2.000000  2.000000  2.000000  0.000000  0.000000
                       0.000000  0.000000  0.000000  0.000000  0.000000  0.000000
                       0.000000
        optdriver           1
            prtwf          -1
            rfdir           1       1       1
           rfelfd           2
            rprim      7.8879780610E+00  0.0000000000E+00  0.0000000000E+00
                      -3.9439890305E+00  6.8311893853E+00  0.0000000000E+00
                       0.0000000000E+00  0.0000000000E+00  1.5351199641E+01
          spgroup         194
           symrel      1  0  0   0  1  0   0  0  1      -1  0  0   0 -1  0   0  0 -1
                       0  1  0   1  0  0   0  0  1       0 -1  0  -1  0  0   0  0 -1
                       1  1  0  -1  0  0   0  0  1      -1 -1  0   1  0  0   0  0 -1
                      -1  0  0   1  1  0   0  0  1       1  0  0  -1 -1  0   0  0 -1
                       0  1  0  -1 -1  0   0  0  1       0 -1  0   1  1  0   0  0 -1
                      -1 -1  0   0  1  0   0  0  1       1  1  0   0 -1  0   0  0 -1
                      -1  0  0   0 -1  0   0  0  1       1  0  0   0  1  0   0  0 -1
                       0 -1  0  -1  0  0   0  0  1       0  1  0   1  0  0   0  0 -1
                      -1 -1  0   1  0  0   0  0  1       1  1  0  -1  0  0   0  0 -1
                       1  0  0  -1 -1  0   0  0  1      -1  0  0   1  1  0   0  0 -1
                       0 -1  0   1  1  0   0  0  1       0  1  0  -1 -1  0   0  0 -1
                       1  1  0   0 -1  0   0  0  1      -1 -1  0   0  1  0   0  0 -1
            tnons      0.0000000  0.0000000  0.0000000    -0.0000000 -0.0000000  0.0000000
                      -0.0000000  0.0000000  0.5000000    -0.0000000 -0.0000000  0.5000000
                      -0.0000000  0.0000000  0.5000000     0.0000000 -0.0000000  0.5000000
                       0.0000000  0.0000000  0.0000000    -0.0000000 -0.0000000  0.0000000
                      -0.0000000 -0.0000000  0.0000000    -0.0000000  0.0000000  0.0000000
                      -0.0000000  0.0000000  0.5000000     0.0000000 -0.0000000  0.5000000
                      -0.0000000 -0.0000000  0.5000000     0.0000000  0.0000000  0.5000000
                      -0.0000000 -0.0000000  0.0000000    -0.0000000  0.0000000  0.0000000
                       0.0000000 -0.0000000  0.0000000    -0.0000000  0.0000000  0.0000000
                      -0.0000000 -0.0000000  0.5000000     0.0000000  0.0000000  0.5000000
                      -0.0000000  0.0000000  0.5000000    -0.0000000 -0.0000000  0.5000000
                       0.0000000 -0.0000000  0.0000000    -0.0000000  0.0000000  0.0000000
           tolwfr      1.00000000E-20
            typat      1  1  2  2  3  3
           useylm           1
           xangst      0.0000000000E+00  2.4099398202E+00  2.0308762436E+00
                       2.0870691059E+00  1.2049699101E+00  6.0926287309E+00
                      -3.8618536255E-16  0.0000000000E+00  4.0617524872E+00
                      -3.8618536255E-16  0.0000000000E+00  0.0000000000E+00
                       2.0870691059E+00  1.2049699101E+00  2.0308762436E+00
                       0.0000000000E+00  2.4099398202E+00  6.0926287309E+00
            xcart      0.0000000000E+00  4.5541262569E+00  3.8377999102E+00
                       3.9439890305E+00  2.2770631284E+00  1.1513399731E+01
                      -7.2978457176E-16  0.0000000000E+00  7.6755998205E+00
                      -7.2978457176E-16  0.0000000000E+00  0.0000000000E+00
                       3.9439890305E+00  2.2770631284E+00  3.8377999102E+00
                       0.0000000000E+00  4.5541262569E+00  1.1513399731E+01
             xred      3.3333333333E-01  6.6666666667E-01  2.5000000000E-01
                       6.6666666667E-01  3.3333333333E-01  7.5000000000E-01
                      -9.2518585385E-17  0.0000000000E+00  5.0000000000E-01
                      -9.2518585385E-17  0.0000000000E+00  0.0000000000E+00
                       6.6666666667E-01  3.3333333333E-01  2.5000000000E-01
                       3.3333333333E-01  6.6666666667E-01  7.5000000000E-01
            znucl       57.00000   34.00000    9.00000

 chkinp: Checking input parameters for consistency.

== DATASET  1 ==================================================================
-   mpi_nproc: 1, omp_nthreads: -1 (-1 if OMP is not activated)

--- !DatasetInfo
iteration_state: {dtset: 1, }
dimensions: {natom: 6, nkpt: 1, mband: 43, nsppol: 1, nspinor: 1, nspden: 1, mpw: 14767, }
cutoff_energies: {ecut:  52.0, pawecutdg:  -1.0, }
electrons: {nelect:   6.80000000E+01, charge:   0.00000000E+00, occopt:   1.00000000E+00, tsmear:   1.00000000E-02, }
meta: {optdriver: 1, rfelfd: 2, }
...

 Real(R)+Recip(G) space primitive vectors, cartesian coordinates (Bohr,Bohr^-1):
 R(1)=  7.8879781  0.0000000  0.0000000  G(1)=  0.1267752  0.0731937  0.0000000
 R(2)= -3.9439890  6.8311894  0.0000000  G(2)=  0.0000000  0.1463874  0.0000000
 R(3)=  0.0000000  0.0000000 15.3511996  G(3)=  0.0000000  0.0000000  0.0651415
 Unit cell volume ucvol=  8.2718822E+02 bohr^3
 Angles (23,13,12)=  9.00000000E+01  9.00000000E+01  1.20000000E+02 degrees

 getcut: wavevector=  0.0000  0.0000  0.0000  ngfft=  54  54 100
         ecut(hartree)=     52.000   => boxcut(ratio)=   2.00674

--- Pseudopotential description ------------------------------------------------
- pspini: atom type   1  psp file is /scratch/users/j/a/jabreu/pseudos/PBEsol/La.psp8
- pspatm: opening atomic psp file    /scratch/users/j/a/jabreu/pseudos/PBEsol/La.psp8
- La    ONCVPSP-3.3.0  r_core=   2.11664   1.60878   1.85636   1.66739
- 57.00000  11.00000    180112                znucl, zion, pspdat
    8 -116133    3    4       600   0.00000   pspcod,pspxc,lmax,lloc,mmax,r2well
    5.99000000000000    5.00000000000000    0.00000000000000   rchrg,fchrg,qchrg
     nproj     2     2     2     2
     extension_switch     1
  pspatm : epsatm=   29.08531775
         --- l  ekb(1:nproj) -->
             0    6.695600    0.639047
             1    6.383649    1.151322
             2    3.612966    0.847811
             3  -13.718437   -4.858923
 pspatm: atomic psp has been read  and splines computed

- pspini: atom type   2  psp file is /scratch/users/j/a/jabreu/pseudos/PBEsol/Se.psp8
- pspatm: opening atomic psp file    /scratch/users/j/a/jabreu/pseudos/PBEsol/Se.psp8
- Se    ONCVPSP-3.3.0  r_core=   1.81943   1.50330   1.90835
- 34.00000  16.00000    180112                znucl, zion, pspdat
    8 -116133    2    4       600   0.00000   pspcod,pspxc,lmax,lloc,mmax,r2well
    5.99000000000000    5.00000000000000    0.00000000000000   rchrg,fchrg,qchrg
     nproj     2     2     2
     extension_switch     1
  pspatm : epsatm=   29.17862020
         --- l  ekb(1:nproj) -->
             0    8.973804    1.019550
             1    6.849857    1.297308
             2   -9.203962   -3.731027
 pspatm: atomic psp has been read  and splines computed

- pspini: atom type   3  psp file is /scratch/users/j/a/jabreu/pseudos/PBEsol/F.psp8
- pspatm: opening atomic psp file    /scratch/users/j/a/jabreu/pseudos/PBEsol/F.psp8
- F     ONCVPSP-3.3.0  r_core=   1.30942   1.45782   1.60379
-  9.00000   7.00000    180112                znucl, zion, pspdat
    8 -116133    2    4       600   0.00000   pspcod,pspxc,lmax,lloc,mmax,r2well
    5.99000000000000    2.50000000000000    0.00000000000000   rchrg,fchrg,qchrg
     nproj     2     2     1
     extension_switch     1
  pspatm : epsatm=    4.89824824
         --- l  ekb(1:nproj) -->
             0    6.506434    1.065875
             1   -3.978753   -1.295852
             2   -2.394754
 pspatm: atomic psp has been read  and splines computed

   8.59005732E+03                                ecore*ucvol(ha*bohr**3)

 ==>  initialize data related to q vector <==

 The list of irreducible perturbations for this q vector is:
    1)    idir= 1    ipert=   7
    2)    idir= 2    ipert=   7
    3)    idir= 3    ipert=   7

 Perturbation wavevector (in red.coord.)   0.000000  0.000000  0.000000
 Perturbation : derivative vs k along direction   1

 dfpt_looppert : COMMENT -
  In a d/dk calculation, iscf is set to -3 automatically.
 The set of symmetries contains only one element for this perturbation.
 symkpt : not enough symmetry to change the number of k points.

[...]
  ireadwf=   0

--- !BeginCycle
iteration_state: {dtset: 1, }
solver: {iscf: 7, nstep: 2000, nline: 4, wfoptalg: 0, }
tolerances: {tolwfr: 1.00E-20, }
...

     iter   2DEtotal(Ha)        deltaE(Ha) residm    vres2
-ETOT  1  -21.540891300305     -2.154E+01 5.010E-02 0.000E+00
 ETOT  2  -21.596333429051     -5.544E-02 1.103E-02 0.000E+00
 ETOT  3  -21.600329771972     -3.996E-03 7.461E-04 0.000E+00
 ETOT  4  -21.601083302059     -7.535E-04 1.637E-03 0.000E+00
 ETOT  5  -21.601278040719     -1.947E-04 4.936E-04 0.000E+00
 ETOT  6  -21.601333973925     -5.593E-05 7.527E-04 0.000E+00
 ETOT  7  -21.601350473276     -1.650E-05 3.265E-04 0.000E+00
 ETOT  8  -21.601355509117     -5.036E-06 2.725E-04 0.000E+00
 ETOT  9  -21.601357060901     -1.552E-06 2.612E-04 0.000E+00
 ETOT 10  -21.601357545548     -4.846E-07 1.986E-04 0.000E+00
 ETOT 11  -21.601357697827     -1.523E-07 2.161E-04 0.000E+00
 ETOT 12  -21.601357745943     -4.812E-08 1.599E-04 0.000E+00
 ETOT 13  -21.601357761209     -1.527E-08 1.813E-04 0.000E+00
 ETOT 14  -21.601357766070     -4.861E-09 1.365E-04 0.000E+00
 ETOT 15  -21.601357767622     -1.552E-09 1.534E-04 0.000E+00
 ETOT 16  -21.601357768119     -4.970E-10 1.176E-04 0.000E+00
 ETOT 17  -21.601357768279     -1.597E-10 1.303E-04 0.000E+00
 ETOT 18  -21.601357768330     -5.133E-11 1.017E-04 0.000E+00
 ETOT 19  -21.601357768347     -1.658E-11 1.111E-04 0.000E+00
 ETOT 20  -21.601357768352     -5.361E-12 8.811E-05 0.000E+00
 ETOT 21  -21.601357768354     -1.769E-12 9.477E-05 0.000E+00
 ETOT 22  -21.601357768355     -5.258E-13 7.651E-05 0.000E+00
 ETOT 23  -21.601357768355     -2.665E-13 8.097E-05 0.000E+00
 ETOT 24  -21.601357768355     -4.619E-14 6.654E-05 0.000E+00
 ETOT 25  -21.601357768355      6.750E-14 6.927E-05 0.000E+00
 ETOT 26  -21.601357768355     -8.171E-14 5.795E-05 0.000E+00
 ETOT 27  -21.601357768355      7.461E-14 5.932E-05 0.000E+00
 ETOT 28  -21.601357768355     -6.395E-14 5.055E-05 0.000E+00
 ETOT 29  -21.601357768355     -7.105E-15 5.082E-05 0.000E+00
 ETOT 30  -21.601357768355      5.684E-14 4.416E-05 0.000E+00
 ETOT 31  -21.601357768355     -5.329E-14 4.353E-05 0.000E+00
 ETOT 32  -21.601357768355     -7.105E-15 3.863E-05 0.000E+00
 ETOT 33  -21.601357768355      7.105E-15 3.725E-05 0.000E+00
 ETOT 34  -21.601357768355      1.776E-14 3.385E-05 0.000E+00
 ETOT 35  -21.601357768355      1.066E-14 3.185E-05 0.000E+00
 ETOT 36  -21.601357768355     -1.776E-14 2.972E-05 0.000E+00
 ETOT 37  -21.601357768355      1.776E-14 2.720E-05 0.000E+00
 ETOT 38  -21.601357768355      0.000E+00 2.613E-05 0.000E+00
 ETOT 39  -21.601357768355     -1.066E-14 2.320E-05 0.000E+00
 ETOT 40  -21.601357768355      7.105E-15 2.300E-05 0.000E+00
 ETOT 41  -21.601357768355     -3.553E-15 1.978E-05 0.000E+00
 ETOT 42  -21.601357768355     -7.105E-15 2.028E-05 0.000E+00
 ETOT 43  -21.601357768355      7.105E-15 1.684E-05 0.000E+00
 ETOT 44  -21.601357768355     -7.105E-15 1.790E-05 0.000E+00
 ETOT 45  -21.601357768355      1.066E-14 1.434E-05 0.000E+00
 ETOT 46  -21.601357768355     -1.066E-14 1.580E-05 0.000E+00
 ETOT 47  -21.601357768355      1.421E-14 1.220E-05 0.000E+00
 ETOT 48  -21.601357768355     -1.066E-14 1.395E-05 0.000E+00
 ETOT 49  -21.601357768355      3.553E-15 1.037E-05 0.000E+00
 ETOT 50  -21.601357768355      7.105E-15 1.231E-05 0.000E+00
 ETOT 51  -21.601357768355     -1.421E-14 8.818E-06 0.000E+00
 ETOT 52  -21.601357768355      7.105E-15 1.085E-05 0.000E+00
 ETOT 53  -21.601357768355     -3.553E-15 7.496E-06 0.000E+00
 ETOT 54  -21.601357768355      7.105E-15 9.561E-06 0.000E+00
 ETOT 55  -21.601357768355     -1.066E-14 6.373E-06 0.000E+00
 ETOT 56  -21.601357768355      0.000E+00 8.410E-06 0.000E+00
 ETOT 57  -21.601357768355      7.105E-15 5.419E-06 0.000E+00
 ETOT 58  -21.601357768355     -3.553E-15 7.387E-06 0.000E+00
 ETOT 59  -21.601357768355      3.553E-15 4.609E-06 0.000E+00
 ETOT 60  -21.601357768355     -7.105E-15 6.480E-06 0.000E+00
 ETOT 61  -21.601357768355      7.105E-15 3.921E-06 0.000E+00
[...]
 ETOT  525  -21.601357768355      0.000E+00 2.525E-20 0.000E+00
 ETOT  526  -21.601357768355      0.000E+00 5.546E-20 0.000E+00
 ETOT  527  -21.601357768355     -7.105E-15 2.198E-20 0.000E+00
 ETOT  528  -21.601357768355     -7.105E-15 4.827E-20 0.000E+00
 ETOT  529  -21.601357768355      1.066E-14 1.913E-20 0.000E+00
 ETOT  530  -21.601357768355     -1.066E-14 4.201E-20 0.000E+00
 ETOT  531  -21.601357768355      7.105E-15 1.665E-20 0.000E+00
 ETOT  532  -21.601357768355     -3.553E-15 3.656E-20 0.000E+00
 ETOT  533  -21.601357768355      3.553E-15 1.449E-20 0.000E+00
 ETOT  534  -21.601357768355      7.105E-15 3.182E-20 0.000E+00
 ETOT  535  -21.601357768355     -3.553E-15 1.261E-20 0.000E+00
 ETOT  536  -21.601357768355      0.000E+00 2.770E-20 0.000E+00
 ETOT  537  -21.601357768355      3.553E-15 1.098E-20 0.000E+00
 ETOT  538  -21.601357768355     -7.105E-15 2.410E-20 0.000E+00
 ETOT  539  -21.601357768355     -7.105E-15 9.815E-21 0.000E+00

 At SCF step  539   max residual=  9.81E-21 < tolwfr=  1.00E-20 =>converged.

 ----iterations are completed or convergence reached----

 dfpt_looppert: DFPT cycle converged with prtwf=-1. Will skip output of the 1st-order WFK file.
 dfpt_looppert : ek2=    2.2783162393E+01
          f-sum rule ratio=    1.1130307117E+00
 prteigrs : about to open file /scratch/users/j/a/jabreu/flow_simple_remain_atoms/flow/w198/t1/tmpdata/tmp_1WF1_EIG
 Expectation of eigenvalue derivatives (hartree) for nkpt=   1  k points:
  (in case of degenerate eigenvalues, averaged derivative)
 kpt#   1, nband= 43, wtk=  1.00000, kpt=  0.0000  0.0000  0.0000 (reduced coord)
   0.00000   -0.00000   -0.00000   -0.00000   -0.00000   -0.00000   -0.00000   -0.00000
   0.00000    0.00000    0.00000   -0.00000    0.00000   -0.00000    0.00000    0.00000
   0.00000    0.00000    0.00000    0.00000    0.00000    0.00000    0.00000    0.00000
   0.00000    0.00000    0.00000   -0.00000    0.00000   -0.00000   -0.00000    0.00000
   0.00000    0.00000    0.00000    0.00000    0.00000    0.00000    0.00000   -0.00000
  -0.00000   -0.00061   -0.00000

 Eight components of 2nd-order total energy (hartree) are
 1,2,3: 0th-order hamiltonian combined with 1st-order wavefunctions
     kin0=   3.26511248E+01 eigvalue=   9.01223611E-01  local=  -1.66505404E+01
 4,5,6: 1st-order hamiltonian combined with 1st and 0th-order wfs
     kin1=  -2.53583595E+01  Hartree=   0.00000000E+00     xc=   0.00000000E+00
 7,8,9: eventually, occupation + non-local contributions
    edocc=   2.34154852E+00     enl0=   2.35800124E+00   enl1=  -1.78443561E+01
 1-9 gives the relaxation energy (to be shifted if some occ is /=2.0)
   erelax=  -2.16013578E+01
  No Ewald or frozen-wf contrib.: the relaxation energy is the total one
 2DEtotal=   -0.2160135777E+02 Ha. Also 2DEtotal=   -0.587802838132E+03 eV
    (  non-var. 2DEtotal :   -2.1601357768E+01 Ha)

 CALCULATION OF EFFECTIVE MASSES
 NOTE : Additional infos (eff. mass eigenvalues, eigenvectors and, if degenerate, average mass) are available in stdout.

 K-point ( 0.000, 0.000, 0.000) | band =    34
 Effective mass tensor:
             -0.7794720369              0.0000156771              0.0000000254
              0.0000156771             -0.7794188180             -0.0000000365
              0.0000000254             -0.0000000365             -0.2007839424
 Effective mass tensor eigenvalues:
             -0.7794763117             -0.7794145433             -0.2007839424
 Angular average effective mass 1/(<1/m>)=  -0.3975402922
 Angular average effective mass for Frohlich model (<m**0.5>)**2=  -0.4568019720
 Effective masses along directions: (cart. coord. / red. coord. -> eff. mass)
    1:   1.000000  0.000000  0.000000 /   0.894427 -0.447214  0.000000 ->  -0.7794720366
    2:   0.000000  1.000000  0.000000 /   0.000000  1.000000  0.000000 ->  -0.7794188177
    3:   0.000000  0.000000  1.000000 /   0.000000  0.000000  1.000000 ->  -0.2007839424
    4:   0.577350  0.577350  0.577350 /   0.450767  0.164992  0.877261 ->  -0.3975375809
    5:   0.000000  0.707107  0.707107 /   0.000000  0.406558  0.913625 ->  -0.3193110671
    6:   0.707107  0.000000  0.707107 /   0.445546 -0.222773  0.867099 ->  -0.3193154926
    7:   0.707107  0.707107  0.000000 /   0.939071  0.343724  0.000000 ->  -0.7794297495

 K-point ( 0.000, 0.000, 0.000) | band =    35
 Effective mass tensor:
              0.4076382922              0.0000023814              0.0000000012
              0.0000023814              0.4076378313              0.0000000236
              0.0000000012              0.0000000236              0.3247728217
 Effective mass tensor eigenvalues:
              0.3247728217              0.4076356692              0.4076404543
 Angular average effective mass 1/(<1/m>)=   0.3756861638
 Angular average effective mass for Frohlich model (<m**0.5>)**2=   0.3770304244
 Effective masses along directions: (cart. coord. / red. coord. -> eff. mass)
    1:   1.000000  0.000000  0.000000 /   0.894427 -0.447214  0.000000 ->   0.4076382922
    2:   0.000000  1.000000  0.000000 /   0.000000  1.000000  0.000000 ->   0.4076378313
    3:   0.000000  0.000000  1.000000 /   0.000000  0.000000  1.000000 ->   0.3247728217
    4:   0.577350  0.577350  0.577350 /   0.450767  0.164992  0.877261 ->   0.3756875299
    5:   0.000000  0.707107  0.707107 /   0.000000  0.406558  0.913625 ->   0.3615176724
    6:   0.707107  0.000000  0.707107 /   0.445546 -0.222773  0.867099 ->   0.3615178314
    7:   0.707107  0.707107  0.000000 /   0.939071  0.343724  0.000000 ->   0.4076404432

 END OF EFFECTIVE MASSES SECTION

 ---- first-order wavefunction calculations are completed ----

 Total localisation tensor (bohr^2) in cartesian coordinates
  WARNING : still subject to testing - especially symmetries.
      direction              matrix element
   alpha     beta       real part   imaginary part
     1        1       2.7225199772    0.0000000000
     1        2      -0.9431136920    0.0000000000
     1        3       0.0000000000    0.0000000000
     2        1      -0.9431136920    0.0000000000
     2        2       1.6335208319    0.0000000000
     2        3       0.0000000000    0.0000000000
     3        1       0.0000000000    0.0000000000
     3        2       0.0000000000    0.0000000000
     3        3       1.5171975606    0.0000000000

 respfn : d/dk was computed, but no 2DTE, so no DDB output.

== END DATASET(S) ==============================================================

 -outvars: echo values of variables after computation  --------
            acell      1.0000000000E+00  1.0000000000E+00  1.0000000000E+00 Bohr
              amu      1.38905500E+02  7.89600000E+01  1.89984032E+01
             ecut      5.20000000E+01 Hartree
           etotal     -2.1601357768E+01
            fcart      0.0000000000E+00  0.0000000000E+00  0.0000000000E+00
                       0.0000000000E+00  0.0000000000E+00  0.0000000000E+00
                       0.0000000000E+00  0.0000000000E+00  0.0000000000E+00
                       0.0000000000E+00  0.0000000000E+00  0.0000000000E+00
                       0.0000000000E+00  0.0000000000E+00  0.0000000000E+00
                       0.0000000000E+00  0.0000000000E+00  0.0000000000E+00
-          fftalg         512
           irdden           1
           irdwfk           1
           istwfk        1
              ixc     -116133
           kptopt           0
P           mkmem           1
P          mkqmem           1
P          mk1mem           1
            natom           6
            nband          43
           nbdbuf           4
            ngfft          54      54     100
             nkpt           1
            nstep        2000
             nsym          24
           ntypat           3
              occ      2.000000  2.000000  2.000000  2.000000  2.000000  2.000000
                       2.000000  2.000000  2.000000  2.000000  2.000000  2.000000
                       2.000000  2.000000  2.000000  2.000000  2.000000  2.000000
                       2.000000  2.000000  2.000000  2.000000  2.000000  2.000000
                       2.000000  2.000000  2.000000  2.000000  2.000000  2.000000
                       2.000000  2.000000  2.000000  2.000000  0.000000  0.000000
                       0.000000  0.000000  0.000000  0.000000  0.000000  0.000000
                       0.000000
        optdriver           1
            prtwf          -1
            rfdir           1       1       1
           rfelfd           2
            rprim      7.8879780610E+00  0.0000000000E+00  0.0000000000E+00
                      -3.9439890305E+00  6.8311893853E+00  0.0000000000E+00
                       0.0000000000E+00  0.0000000000E+00  1.5351199641E+01
          spgroup         194
           strten      0.0000000000E+00  0.0000000000E+00  0.0000000000E+00
                       0.0000000000E+00  0.0000000000E+00  0.0000000000E+00
           symrel      1  0  0   0  1  0   0  0  1      -1  0  0   0 -1  0   0  0 -1
                       0  1  0   1  0  0   0  0  1       0 -1  0  -1  0  0   0  0 -1
                       1  1  0  -1  0  0   0  0  1      -1 -1  0   1  0  0   0  0 -1
                      -1  0  0   1  1  0   0  0  1       1  0  0  -1 -1  0   0  0 -1
                       0  1  0  -1 -1  0   0  0  1       0 -1  0   1  1  0   0  0 -1
                      -1 -1  0   0  1  0   0  0  1       1  1  0   0 -1  0   0  0 -1
                      -1  0  0   0 -1  0   0  0  1       1  0  0   0  1  0   0  0 -1
                       0 -1  0  -1  0  0   0  0  1       0  1  0   1  0  0   0  0 -1
                      -1 -1  0   1  0  0   0  0  1       1  1  0  -1  0  0   0  0 -1
                       1  0  0  -1 -1  0   0  0  1      -1  0  0   1  1  0   0  0 -1
                       0 -1  0   1  1  0   0  0  1       0  1  0  -1 -1  0   0  0 -1
                       1  1  0   0 -1  0   0  0  1      -1 -1  0   0  1  0   0  0 -1
            tnons      0.0000000  0.0000000  0.0000000    -0.0000000 -0.0000000  0.0000000
                      -0.0000000  0.0000000  0.5000000    -0.0000000 -0.0000000  0.5000000
                      -0.0000000  0.0000000  0.5000000     0.0000000 -0.0000000  0.5000000
                       0.0000000  0.0000000  0.0000000    -0.0000000 -0.0000000  0.0000000
                      -0.0000000 -0.0000000  0.0000000    -0.0000000  0.0000000  0.0000000
                      -0.0000000  0.0000000  0.5000000     0.0000000 -0.0000000  0.5000000
                      -0.0000000 -0.0000000  0.5000000     0.0000000  0.0000000  0.5000000
                      -0.0000000 -0.0000000  0.0000000    -0.0000000  0.0000000  0.0000000
                       0.0000000 -0.0000000  0.0000000    -0.0000000  0.0000000  0.0000000
                      -0.0000000 -0.0000000  0.5000000     0.0000000  0.0000000  0.5000000
                      -0.0000000  0.0000000  0.5000000    -0.0000000 -0.0000000  0.5000000
                       0.0000000 -0.0000000  0.0000000    -0.0000000  0.0000000  0.0000000
           tolwfr      1.00000000E-20
            typat      1  1  2  2  3  3
           useylm           1
           xangst      0.0000000000E+00  2.4099398202E+00  2.0308762436E+00
                       2.0870691059E+00  1.2049699101E+00  6.0926287309E+00
                      -3.8618536255E-16  0.0000000000E+00  4.0617524872E+00
                      -3.8618536255E-16  0.0000000000E+00  0.0000000000E+00
                       2.0870691059E+00  1.2049699101E+00  2.0308762436E+00
                       0.0000000000E+00  2.4099398202E+00  6.0926287309E+00
            xcart      0.0000000000E+00  4.5541262569E+00  3.8377999102E+00
                       3.9439890305E+00  2.2770631284E+00  1.1513399731E+01
                      -7.2978457176E-16  0.0000000000E+00  7.6755998205E+00
                      -7.2978457176E-16  0.0000000000E+00  0.0000000000E+00
                       3.9439890305E+00  2.2770631284E+00  3.8377999102E+00
                       0.0000000000E+00  4.5541262569E+00  1.1513399731E+01
             xred      3.3333333333E-01  6.6666666667E-01  2.5000000000E-01
                       6.6666666667E-01  3.3333333333E-01  7.5000000000E-01
                      -9.2518585385E-17  0.0000000000E+00  5.0000000000E-01
                      -9.2518585385E-17  0.0000000000E+00  0.0000000000E+00
                       6.6666666667E-01  3.3333333333E-01  2.5000000000E-01
                       3.3333333333E-01  6.6666666667E-01  7.5000000000E-01
            znucl       57.00000   34.00000    9.00000

- Timing analysis has been suppressed with timopt=0

 Suggested references for the acknowledgment of ABINIT usage.

 Calculation completed.
.Delivered   2 WARNINGs and   5 COMMENTs to log file.