.Version 9.5.2 of ABINIT

 ABINIT is a project of the Universite Catholique de Louvain,
 Corning Inc. and other collaborators, see ~abinit/doc/developers/contributors.txt .
 acknowledgments of the ABINIT effort.

.Starting date : Wed 26 May 2021.
- ( at 02h19 )

- input  file    -> /scratch/users/j/a/jabreu/flow_simple_11atoms/flow/w226/t1/run.abi
- output file    -> /scratch/users/j/a/jabreu/flow_simple_11atoms/flow/w226/t1/run.abo
- root for input  files -> /scratch/users/j/a/jabreu/flow_simple_11atoms/flow/w226/t1/indata/in
- root for output files -> /scratch/users/j/a/jabreu/flow_simple_11atoms/flow/w226/t1/outdata/out

 Symmetries : space group Cm c m (# 63); Bravais oC (1-face-center ortho.)
     intxc =       0      iscf =       7    lmnmax =      18     lnmax =       6
     mgfft =      80  mpssoang =       3    mqgrid =    3852     natom =      12
  nloc_mem =       1    nspden =       1   nspinor =       1    nsppol =       1
      nsym =       8    n1xccc =    2501    ntypat =       3    occopt =       1
   xclevel =       2
-    mband =          51        mffmem =           1         mkmem =           2
-   mkqmem =           2        mk1mem =           2           mpw =       13775
      nfft =      288000          nkpt =           2
  Rough estimation (10% accuracy) of disk space for files :

------------- Echo of variables that govern the present computation ------------
-
- outvars: echo of selected default values
-   iomode0 =  0 , fftalg0 =512 , wfoptalg0 =  0
-
- outvars: echo of global parameters not present in the input file
-  max_nthreads =    0
-
 -outvars: echo values of preprocessed input variables --------
            acell      1.0000000000E+00  1.0000000000E+00  1.0000000000E+00 Bohr
              amu      1.14820000E+02  3.09737620E+01  1.59994000E+01
             ecut      4.40000000E+01 Hartree
-          fftalg         512
           irdden           1
           irdwfk           1
           istwfk        0    1
              ixc     -116133
              kpt     -5.00000000E-01  5.00000000E-01  0.00000000E+00
                       0.00000000E+00  0.00000000E+00  0.00000000E+00
           kptopt           0
P           mkmem           2
P          mkqmem           2
P          mk1mem           2
            natom          12
            nband          51
           nbdbuf           4
            ngfft          60      60      80
             nkpt           2
            nstep        2000
             nsym           8
           ntypat           3
              occ      2.000000  2.000000  2.000000  2.000000  2.000000  2.000000
                       2.000000  2.000000  2.000000  2.000000  2.000000  2.000000
                       2.000000  2.000000  2.000000  2.000000  2.000000  2.000000
                       2.000000  2.000000  2.000000  2.000000  2.000000  2.000000
                       2.000000  2.000000  2.000000  2.000000  2.000000  2.000000
                       2.000000  2.000000  2.000000  2.000000  2.000000  2.000000
                       2.000000  2.000000  2.000000  2.000000  2.000000  2.000000
                       0.000000  0.000000  0.000000  0.000000  0.000000  0.000000
                       0.000000  0.000000  0.000000
        optdriver           1
            prtwf          -1
            rfdir           1       1       1
           rfelfd           2
            rprim      9.1174307786E+00  0.0000000000E+00  0.0000000000E+00
                      -3.5556877990E+00  8.3955123892E+00  0.0000000000E+00
                       0.0000000000E+00  0.0000000000E+00  1.2899635565E+01
          spgroup          63
           symrel      1  0  0   0  1  0   0  0  1      -1  0  0   0 -1  0   0  0 -1
                       0 -1  0  -1  0  0   0  0 -1       0  1  0   1  0  0   0  0  1
                      -1  0  0   0 -1  0   0  0  1       1  0  0   0  1  0   0  0 -1
                       0  1  0   1  0  0   0  0 -1       0 -1  0  -1  0  0   0  0  1
            tnons      0.0000000  0.0000000  0.0000000     0.0000000  0.0000000  0.0000000
                       0.0000000  0.0000000  0.5000000     0.0000000  0.0000000  0.5000000
                       0.0000000  0.0000000  0.5000000     0.0000000  0.0000000  0.5000000
                       0.0000000  0.0000000  0.0000000     0.0000000  0.0000000  0.0000000
           tolwfr      1.00000000E-20
            typat      1  1  2  2  3  3  3  3  3  3  3  3
           useylm           1
              wtk        0.50000    0.50000
           xangst      0.0000000000E+00  0.0000000000E+00  3.4130965701E+00
                       0.0000000000E+00  0.0000000000E+00  0.0000000000E+00
                       2.4650153423E+00  1.5632354950E+00  5.1196448551E+00
                       4.7813228255E-01  2.8794783158E+00  1.7065482850E+00
                      -1.8052277139E-01  3.3158150100E+00  3.0031563672E+00
                       3.1236703962E+00  1.1268988008E+00  6.4162529373E+00
                       3.1236703962E+00  1.1268988008E+00  3.8230367729E+00
                      -1.8052277139E-01  3.3158150100E+00  4.0994020284E-01
                       5.4145212762E-01  1.3065266056E+00  1.7065482850E+00
                       2.4016954972E+00  3.1361872052E+00  5.1196448551E+00
                       9.9191601233E-01  1.0081095189E+00  5.1196448551E+00
                       1.9512316125E+00  3.4346042918E+00  1.7065482850E+00
            xcart      0.0000000000E+00  0.0000000000E+00  6.4498177826E+00
                       0.0000000000E+00  0.0000000000E+00  0.0000000000E+00
                       4.6582039103E+00  2.9540869668E+00  9.6747266738E+00
                       9.0353906931E-01  5.4414254224E+00  3.2249088913E+00
                      -3.4113859867E-01  6.2659822762E+00  5.6751430683E+00
                       5.9028815783E+00  2.1295301130E+00  1.2124960851E+01
                       5.9028815783E+00  2.1295301130E+00  7.2244924968E+00
                      -3.4113859867E-01  6.2659822762E+00  7.7467471423E-01
                       1.0231962353E+00  2.4689774700E+00  3.2249088913E+00
                       4.5385467443E+00  5.9265349192E+00  9.6747266738E+00
                       1.8744496101E+00  1.9050509028E+00  9.6747266738E+00
                       3.6872933695E+00  6.4904614864E+00  3.2249088913E+00
             xred      0.0000000000E+00  0.0000000000E+00  5.0000000000E-01
                       0.0000000000E+00  0.0000000000E+00  0.0000000000E+00
                       6.4813500000E-01  3.5186500000E-01  7.5000000000E-01
                       3.5186500000E-01  6.4813500000E-01  2.5000000000E-01
                       2.5365100000E-01  7.4634900000E-01  4.3994600000E-01
                       7.4634900000E-01  2.5365100000E-01  9.3994600000E-01
                       7.4634900000E-01  2.5365100000E-01  5.6005400000E-01
                       2.5365100000E-01  7.4634900000E-01  6.0054000000E-02
                       2.2691300000E-01  2.9408300000E-01  2.5000000000E-01
                       7.7308700000E-01  7.0591700000E-01  7.5000000000E-01
                       2.9408300000E-01  2.2691300000E-01  7.5000000000E-01
                       7.0591700000E-01  7.7308700000E-01  2.5000000000E-01
            znucl       49.00000   15.00000    8.00000

 chkinp: Checking input parameters for consistency.

== DATASET  1 ==================================================================
-   mpi_nproc: 1, omp_nthreads: -1 (-1 if OMP is not activated)

--- !DatasetInfo
iteration_state: {dtset: 1, }
dimensions: {natom: 12, nkpt: 2, mband: 51, nsppol: 1, nspinor: 1, nspden: 1, mpw: 13775, }
cutoff_energies: {ecut:  44.0, pawecutdg:  -1.0, }
electrons: {nelect:   8.40000000E+01, charge:   0.00000000E+00, occopt:   1.00000000E+00, tsmear:   1.00000000E-02, }
meta: {optdriver: 1, rfelfd: 2, }
...

 Real(R)+Recip(G) space primitive vectors, cartesian coordinates (Bohr,Bohr^-1):
 R(1)=  9.1174308  0.0000000  0.0000000  G(1)=  0.1096800  0.0464519  0.0000000
 R(2)= -3.5556878  8.3955124  0.0000000  G(2)=  0.0000000  0.1191113  0.0000000
 R(3)=  0.0000000  0.0000000 12.8996356  G(3)=  0.0000000  0.0000000  0.0775216
 Unit cell volume ucvol=  9.8740909E+02 bohr^3
 Angles (23,13,12)=  9.00000000E+01  9.00000000E+01  1.12953747E+02 degrees

 getcut: wavevector=  0.0000  0.0000  0.0000  ngfft=  60  60  80
         ecut(hartree)=     44.000   => boxcut(ratio)=   2.07693

--- Pseudopotential description ------------------------------------------------
- pspini: atom type   1  psp file is /scratch/users/j/a/jabreu/pseudos/PBEsol/In.psp8
- pspatm: opening atomic psp file    /scratch/users/j/a/jabreu/pseudos/PBEsol/In.psp8
- In    ONCVPSP-3.3.0  r_core=   2.10853   2.37566   1.87143
- 49.00000  13.00000    180112                znucl, zion, pspdat
    8 -116133    2    4       600   0.00000   pspcod,pspxc,lmax,lloc,mmax,r2well
    5.99000000000000    5.00000000000000    0.00000000000000   rchrg,fchrg,qchrg
     nproj     2     2     2
     extension_switch     1
  pspatm : epsatm=   25.17984752
         --- l  ekb(1:nproj) -->
             0   12.999887    1.931740
             1    5.981707    1.012544
             2   -4.048011   -1.239028
 pspatm: atomic psp has been read  and splines computed

- pspini: atom type   2  psp file is /scratch/users/j/a/jabreu/pseudos/PBEsol/P.psp8
- pspatm: opening atomic psp file    /scratch/users/j/a/jabreu/pseudos/PBEsol/P.psp8
- P     ONCVPSP-3.3.0  r_core=   1.46089   1.55067   1.70594
- 15.00000   5.00000    180112                znucl, zion, pspdat
    8 -116133    2    4       600   0.00000   pspcod,pspxc,lmax,lloc,mmax,r2well
    5.99000000000000    5.00000000000000    0.00000000000000   rchrg,fchrg,qchrg
     nproj     2     2     2
     extension_switch     1
  pspatm : epsatm=    7.31221086
         --- l  ekb(1:nproj) -->
             0    6.742364    1.063650
             1    3.449117    0.910422
             2   -3.077645   -0.799176
 pspatm: atomic psp has been read  and splines computed

- pspini: atom type   3  psp file is /scratch/users/j/a/jabreu/pseudos/PBEsol/O.psp8
- pspatm: opening atomic psp file    /scratch/users/j/a/jabreu/pseudos/PBEsol/O.psp8
- O     ONCVPSP-3.3.0  r_core=   1.35509   1.45563   1.26150
-  8.00000   6.00000    180112                znucl, zion, pspdat
    8 -116133    2    4       600   0.00000   pspcod,pspxc,lmax,lloc,mmax,r2well
    5.99000000000000    4.00000000000000    0.00000000000000   rchrg,fchrg,qchrg
     nproj     2     2     1
     extension_switch     1
  pspatm : epsatm=    6.22910522
         --- l  ekb(1:nproj) -->
             0    6.050032    0.820363
             1   -4.739617   -1.153841
             2   -1.335834
 pspatm: atomic psp has been read  and splines computed

   9.64462451E+03                                ecore*ucvol(ha*bohr**3)

 ==>  initialize data related to q vector <==

 The list of irreducible perturbations for this q vector is:
    1)    idir= 1    ipert=  13
    2)    idir= 2    ipert=  13
    3)    idir= 3    ipert=  13

 Perturbation wavevector (in red.coord.)   0.000000  0.000000  0.000000
 Perturbation : derivative vs k along direction   1

 dfpt_looppert : COMMENT -
[...]
 7,8,9: eventually, occupation + non-local contributions
    edocc=   1.01663797E+01     enl0=   5.32700736E+00   enl1=  -3.63611075E+01
 1-9 gives the relaxation energy (to be shifted if some occ is /=2.0)
   erelax=  -6.85100334E+01
  No Ewald or frozen-wf contrib.: the relaxation energy is the total one
 2DEtotal=   -0.6851003336E+02 Ha. Also 2DEtotal=   -0.186425281598E+04 eV
    (  non-var. 2DEtotal :   -6.8510033358E+01 Ha)

 Perturbation wavevector (in red.coord.)   0.000000  0.000000  0.000000
 Perturbation : derivative vs k along direction   2
 The set of symmetries contains only one element for this perturbation.
 symkpt : not enough symmetry to change the number of k points.

[...]

 Perturbation wavevector (in red.coord.)   0.000000  0.000000  0.000000
 Perturbation : derivative vs k along direction   3
 The set of symmetries contains only one element for this perturbation.
 symkpt : not enough symmetry to change the number of k points.

 Initialisation of the first-order wave-functions :
  ireadwf=   0

--- !BeginCycle
iteration_state: {dtset: 1, }
solver: {iscf: 7, nstep: 2000, nline: 4, wfoptalg: 0, }
tolerances: {tolwfr: 1.00E-20, }
...

     iter   2DEtotal(Ha)        deltaE(Ha) residm    vres2
-ETOT  1  -28.268030610911     -2.827E+01 6.112E-02 0.000E+00
 ETOT  2  -28.295034137772     -2.700E-02 2.834E-03 0.000E+00
 ETOT  3  -28.295349452065     -3.153E-04 5.768E-04 0.000E+00
 ETOT  4  -28.295360059056     -1.061E-05 1.487E-04 0.000E+00
 ETOT  5  -28.295360541727     -4.827E-07 2.012E-05 0.000E+00
 ETOT  6  -28.295360565710     -2.398E-08 1.925E-05 0.000E+00
 ETOT  7  -28.295360566950     -1.240E-09 2.940E-06 0.000E+00
 ETOT  8  -28.295360567015     -6.527E-11 3.043E-06 0.000E+00
 ETOT  9  -28.295360567018     -3.521E-12 4.794E-07 0.000E+00
 ETOT 10  -28.295360567019     -1.670E-13 4.999E-07 0.000E+00
 ETOT 11  -28.295360567019     -3.197E-14 8.081E-08 0.000E+00
 ETOT 12  -28.295360567019     -7.105E-15 8.710E-08 0.000E+00
 ETOT 13  -28.295360567019     -7.105E-15 1.410E-08 0.000E+00
 ETOT 14  -28.295360567019      1.066E-14 1.558E-08 0.000E+00
 ETOT 15  -28.295360567019      3.553E-15 2.524E-09 0.000E+00
 ETOT 16  -28.295360567019     -7.105E-15 2.811E-09 0.000E+00
 ETOT 17  -28.295360567019      3.553E-15 4.557E-10 0.000E+00
 ETOT 18  -28.295360567019      0.000E+00 5.091E-10 0.000E+00
 ETOT 19  -28.295360567019     -3.553E-15 8.262E-11 0.000E+00
 ETOT 20  -28.295360567019      0.000E+00 9.246E-11 0.000E+00
 ETOT 21  -28.295360567019      0.000E+00 1.503E-11 0.000E+00
 ETOT 22  -28.295360567019      0.000E+00 1.682E-11 0.000E+00
 ETOT 23  -28.295360567019      7.105E-15 2.739E-12 0.000E+00
 ETOT 24  -28.295360567019     -7.105E-15 3.065E-12 0.000E+00
 ETOT 25  -28.295360567019      7.105E-15 5.003E-13 0.000E+00
 ETOT 26  -28.295360567019     -7.105E-15 5.592E-13 0.000E+00
 ETOT 27  -28.295360567019      0.000E+00 9.155E-14 0.000E+00
 ETOT 28  -28.295360567019      7.105E-15 1.021E-13 0.000E+00
 ETOT 29  -28.295360567019     -7.105E-15 1.678E-14 0.000E+00
 ETOT 30  -28.295360567019      7.105E-15 1.866E-14 0.000E+00
 ETOT 31  -28.295360567019     -7.105E-15 3.079E-15 0.000E+00
 ETOT 32  -28.295360567019      3.553E-15 3.412E-15 0.000E+00
 ETOT 33  -28.295360567019     -3.553E-15 5.659E-16 0.000E+00
 ETOT 34  -28.295360567019      0.000E+00 6.244E-16 0.000E+00
 ETOT 35  -28.295360567019      0.000E+00 1.042E-16 0.000E+00
 ETOT 36  -28.295360567019      3.553E-15 1.143E-16 0.000E+00
 ETOT 37  -28.295360567019     -3.553E-15 1.919E-17 0.000E+00
 ETOT 38  -28.295360567019      0.000E+00 2.096E-17 0.000E+00
 ETOT 39  -28.295360567019      0.000E+00 3.541E-18 0.000E+00
 ETOT 40  -28.295360567019      3.553E-15 3.845E-18 0.000E+00
 ETOT 41  -28.295360567019      0.000E+00 6.539E-19 0.000E+00
 ETOT 42  -28.295360567019     -3.553E-15 7.062E-19 0.000E+00
 ETOT 43  -28.295360567019      0.000E+00 1.209E-19 0.000E+00
 ETOT 44  -28.295360567019      1.066E-14 1.299E-19 0.000E+00
 ETOT 45  -28.295360567019     -7.105E-15 2.236E-20 0.000E+00
 ETOT 46  -28.295360567019     -3.553E-15 2.390E-20 0.000E+00
 ETOT 47  -28.295360567019      7.105E-15 9.955E-21 0.000E+00

 At SCF step   47   max residual=  9.96E-21 < tolwfr=  1.00E-20 =>converged.

 ----iterations are completed or convergence reached----

 dfpt_looppert: DFPT cycle converged with prtwf=-1. Will skip output of the 1st-order WFK file.
 dfpt_looppert : ek2=    3.9857874603E+01
          f-sum rule ratio=    1.0260039146E+00
 prteigrs : about to open file /scratch/users/j/a/jabreu/flow_simple_11atoms/flow/w226/t1/tmpdata/tmp_1WF1_EIG
 Expectation of eigenvalue derivatives (hartree) for nkpt=   2  k points:
  (in case of degenerate eigenvalues, averaged derivative)
 kpt#   1, nband= 51, wtk=  0.50000, kpt= -0.5000  0.5000  0.0000 (reduced coord)
   0.00000   -0.00000   -0.00000   -0.00000   -0.00000   -0.00000    0.00000   -0.00000
   0.00000   -0.00000    0.00000    0.00000    0.00000   -0.00000    0.00000   -0.00000
   0.00000   -0.00000   -0.00000   -0.00000   -0.00000    0.00000    0.00000   -0.00000
  -0.00000   -0.00000    0.00000    0.00000   -0.00000    0.00000   -0.00000    0.00000
   0.00000    0.00000   -0.00000   -0.00000    0.00000   -0.00000    0.00000    0.00000
   0.00000    0.00000    0.00000    0.00000   -0.00000   -0.00000    0.00000    0.00000
   0.00000    0.00001   -0.00001
 prteigrs : prtvol=0 or 1, do not print more k-points.

 Eight components of 2nd-order total energy (hartree) are
 1,2,3: 0th-order hamiltonian combined with 1st-order wavefunctions
     kin0=   3.90297313E+01 eigvalue=   1.66521452E+00  local=  -1.87159188E+01
 4,5,6: 1st-order hamiltonian combined with 1st and 0th-order wfs
     kin1=  -4.08943354E+01  Hartree=   0.00000000E+00     xc=   0.00000000E+00
 7,8,9: eventually, occupation + non-local contributions
    edocc=   4.11003102E+00     enl0=   2.20630254E+00   enl1=  -1.56963858E+01
 1-9 gives the relaxation energy (to be shifted if some occ is /=2.0)
   erelax=  -2.82953606E+01
  No Ewald or frozen-wf contrib.: the relaxation energy is the total one
 2DEtotal=   -0.2829536057E+02 Ha. Also 2DEtotal=   -0.769955917846E+03 eV
    (  non-var. 2DEtotal :   -2.8295360567E+01 Ha)

 CALCULATION OF EFFECTIVE MASSES
 NOTE : Additional infos (eff. mass eigenvalues, eigenvectors and, if degenerate, average mass) are available in stdout.

 K-point (-0.500, 0.500, 0.000) | band =    42
 Effective mass tensor:
             -1.8101163458              0.5674952773              0.0000070507
              0.5674952773             -1.3294223941              0.0000612983
              0.0000070507              0.0000612983             -1.8853659865
 Effective mass tensor eigenvalues:
             -2.1860627755             -1.8853659871             -0.9534759637
 Angular average effective mass 1/(<1/m>)=  -1.4730154333
 Angular average effective mass for Frohlich model (<m**0.5>)**2=  -1.5371584243
 Effective masses along directions: (cart. coord. / red. coord. -> eff. mass)
    1:   1.000000  0.000000  0.000000 /   0.931658 -0.363336  0.000000 ->  -1.5678676129
    2:   0.000000  1.000000  0.000000 /   0.000000  1.000000  0.000000 ->  -1.1515051600
    3:   0.000000  0.000000  1.000000 /   0.000000  0.000000  1.000000 ->  -1.8853659830
    4:   0.577350  0.577350  0.577350 /   0.551860  0.292945  0.780790 ->  -1.1622289158
    5:   0.000000  0.707107  0.707107 /   0.000000  0.545479  0.838124 ->  -1.4297069297
    6:   0.707107  0.000000  0.707107 /   0.563093 -0.219599  0.796682 ->  -1.7119880908
    7:   0.707107  0.707107  0.000000 /   0.883269  0.468867  0.000000 ->  -0.9752457731

 K-point ( 0.000, 0.000, 0.000) | band =    43
 Effective mass tensor:
              0.3696224188              0.0013601888              0.0000016569
              0.0013601888              0.3707799497             -0.0000011169
              0.0000016569             -0.0000011169              0.3670229355
 Effective mass tensor eigenvalues:
              0.3670229331              0.3687229840              0.3716793869
 Angular average effective mass 1/(<1/m>)=   0.3691317572
 Angular average effective mass for Frohlich model (<m**0.5>)**2=   0.3691347579
 Effective masses along directions: (cart. coord. / red. coord. -> eff. mass)
    1:   1.000000  0.000000  0.000000 /   0.931658 -0.363336  0.000000 ->   0.3696174290
    2:   0.000000  1.000000  0.000000 /   0.000000  1.000000  0.000000 ->   0.3707749443
    3:   0.000000  0.000000  1.000000 /   0.000000  0.000000  1.000000 ->   0.3670229355
    4:   0.577350  0.577350  0.577350 /   0.551860  0.292945  0.780790 ->   0.3700359044
    5:   0.000000  0.707107  0.707107 /   0.000000  0.545479  0.838124 ->   0.3688882767
    6:   0.707107  0.000000  0.707107 /   0.563093 -0.219599  0.796682 ->   0.3683172742
    7:   0.707107  0.707107  0.000000 /   0.883269  0.468867  0.000000 ->   0.3715604649

 END OF EFFECTIVE MASSES SECTION

 ---- first-order wavefunction calculations are completed ----

 Total localisation tensor (bohr^2) in cartesian coordinates
  WARNING : still subject to testing - especially symmetries.
      direction              matrix element
   alpha     beta       real part   imaginary part
     1        1       1.0192877429    0.0000000000
     1        2      -0.3177124920    0.0000000000
     1        3       0.0000000000    0.0000000000
     2        1      -0.3177124920    0.0000000000
     2        2       0.7501668632    0.0000000000
     2        3       0.0000000000    0.0000000000
     3        1       0.0000000000    0.0000000000
     3        2       0.0000000000    0.0000000000
     3        3       0.7022411276    0.0000000000

 respfn : d/dk was computed, but no 2DTE, so no DDB output.

== END DATASET(S) ==============================================================

 -outvars: echo values of variables after computation  --------
            acell      1.0000000000E+00  1.0000000000E+00  1.0000000000E+00 Bohr
              amu      1.14820000E+02  3.09737620E+01  1.59994000E+01
             ecut      4.40000000E+01 Hartree
           etotal     -2.8295360567E+01
            fcart      0.0000000000E+00  0.0000000000E+00  0.0000000000E+00
                       0.0000000000E+00  0.0000000000E+00  0.0000000000E+00
                       0.0000000000E+00  0.0000000000E+00  0.0000000000E+00
                       0.0000000000E+00  0.0000000000E+00  0.0000000000E+00
                       0.0000000000E+00  0.0000000000E+00  0.0000000000E+00
                       0.0000000000E+00  0.0000000000E+00  0.0000000000E+00
                       0.0000000000E+00  0.0000000000E+00  0.0000000000E+00
                       0.0000000000E+00  0.0000000000E+00  0.0000000000E+00
                       0.0000000000E+00  0.0000000000E+00  0.0000000000E+00
                       0.0000000000E+00  0.0000000000E+00  0.0000000000E+00
                       0.0000000000E+00  0.0000000000E+00  0.0000000000E+00
                       0.0000000000E+00  0.0000000000E+00  0.0000000000E+00
-          fftalg         512
           irdden           1
           irdwfk           1
           istwfk        0    1
              ixc     -116133
              kpt     -5.00000000E-01  5.00000000E-01  0.00000000E+00
                       0.00000000E+00  0.00000000E+00  0.00000000E+00
           kptopt           0
P           mkmem           2
P          mkqmem           2
P          mk1mem           2
            natom          12
            nband          51
           nbdbuf           4
            ngfft          60      60      80
             nkpt           2
            nstep        2000
             nsym           8
           ntypat           3
              occ      2.000000  2.000000  2.000000  2.000000  2.000000  2.000000
                       2.000000  2.000000  2.000000  2.000000  2.000000  2.000000
                       2.000000  2.000000  2.000000  2.000000  2.000000  2.000000
                       2.000000  2.000000  2.000000  2.000000  2.000000  2.000000
                       2.000000  2.000000  2.000000  2.000000  2.000000  2.000000
                       2.000000  2.000000  2.000000  2.000000  2.000000  2.000000
                       2.000000  2.000000  2.000000  2.000000  2.000000  2.000000
                       0.000000  0.000000  0.000000  0.000000  0.000000  0.000000
                       0.000000  0.000000  0.000000
        optdriver           1
            prtwf          -1
            rfdir           1       1       1
           rfelfd           2
            rprim      9.1174307786E+00  0.0000000000E+00  0.0000000000E+00
                      -3.5556877990E+00  8.3955123892E+00  0.0000000000E+00
                       0.0000000000E+00  0.0000000000E+00  1.2899635565E+01
          spgroup          63
           strten      0.0000000000E+00  0.0000000000E+00  0.0000000000E+00
                       0.0000000000E+00  0.0000000000E+00  0.0000000000E+00
           symrel      1  0  0   0  1  0   0  0  1      -1  0  0   0 -1  0   0  0 -1
                       0 -1  0  -1  0  0   0  0 -1       0  1  0   1  0  0   0  0  1
                      -1  0  0   0 -1  0   0  0  1       1  0  0   0  1  0   0  0 -1
                       0  1  0   1  0  0   0  0 -1       0 -1  0  -1  0  0   0  0  1
            tnons      0.0000000  0.0000000  0.0000000     0.0000000  0.0000000  0.0000000
                       0.0000000  0.0000000  0.5000000     0.0000000  0.0000000  0.5000000
                       0.0000000  0.0000000  0.5000000     0.0000000  0.0000000  0.5000000
                       0.0000000  0.0000000  0.0000000     0.0000000  0.0000000  0.0000000
           tolwfr      1.00000000E-20
            typat      1  1  2  2  3  3  3  3  3  3  3  3
           useylm           1
              wtk        0.50000    0.50000
           xangst      0.0000000000E+00  0.0000000000E+00  3.4130965701E+00
                       0.0000000000E+00  0.0000000000E+00  0.0000000000E+00
                       2.4650153423E+00  1.5632354950E+00  5.1196448551E+00
                       4.7813228255E-01  2.8794783158E+00  1.7065482850E+00
                      -1.8052277139E-01  3.3158150100E+00  3.0031563672E+00
                       3.1236703962E+00  1.1268988008E+00  6.4162529373E+00
                       3.1236703962E+00  1.1268988008E+00  3.8230367729E+00
                      -1.8052277139E-01  3.3158150100E+00  4.0994020284E-01
                       5.4145212762E-01  1.3065266056E+00  1.7065482850E+00
                       2.4016954972E+00  3.1361872052E+00  5.1196448551E+00
                       9.9191601233E-01  1.0081095189E+00  5.1196448551E+00
                       1.9512316125E+00  3.4346042918E+00  1.7065482850E+00
            xcart      0.0000000000E+00  0.0000000000E+00  6.4498177826E+00
                       0.0000000000E+00  0.0000000000E+00  0.0000000000E+00
                       4.6582039103E+00  2.9540869668E+00  9.6747266738E+00
                       9.0353906931E-01  5.4414254224E+00  3.2249088913E+00
                      -3.4113859867E-01  6.2659822762E+00  5.6751430683E+00
                       5.9028815783E+00  2.1295301130E+00  1.2124960851E+01
                       5.9028815783E+00  2.1295301130E+00  7.2244924968E+00
                      -3.4113859867E-01  6.2659822762E+00  7.7467471423E-01
                       1.0231962353E+00  2.4689774700E+00  3.2249088913E+00
                       4.5385467443E+00  5.9265349192E+00  9.6747266738E+00
                       1.8744496101E+00  1.9050509028E+00  9.6747266738E+00
                       3.6872933695E+00  6.4904614864E+00  3.2249088913E+00
             xred      0.0000000000E+00  0.0000000000E+00  5.0000000000E-01
                       0.0000000000E+00  0.0000000000E+00  0.0000000000E+00
                       6.4813500000E-01  3.5186500000E-01  7.5000000000E-01
                       3.5186500000E-01  6.4813500000E-01  2.5000000000E-01
                       2.5365100000E-01  7.4634900000E-01  4.3994600000E-01
                       7.4634900000E-01  2.5365100000E-01  9.3994600000E-01
                       7.4634900000E-01  2.5365100000E-01  5.6005400000E-01
                       2.5365100000E-01  7.4634900000E-01  6.0054000000E-02
                       2.2691300000E-01  2.9408300000E-01  2.5000000000E-01
                       7.7308700000E-01  7.0591700000E-01  7.5000000000E-01
                       2.9408300000E-01  2.2691300000E-01  7.5000000000E-01
                       7.0591700000E-01  7.7308700000E-01  2.5000000000E-01
            znucl       49.00000   15.00000    8.00000

- Timing analysis has been suppressed with timopt=0

 Suggested references for the acknowledgment of ABINIT usage.

 Calculation completed.
.Delivered   2 WARNINGs and   5 COMMENTs to log file.