.Version 9.5.2 of ABINIT

 ABINIT is a project of the Universite Catholique de Louvain,
 Corning Inc. and other collaborators, see ~abinit/doc/developers/contributors.txt .
 acknowledgments of the ABINIT effort.

.Starting date : Wed 26 May 2021.
- ( at 02h47 )

- input  file    -> /scratch/users/j/a/jabreu/flow_simple_11atoms/flow/w261/t1/run.abi
- output file    -> /scratch/users/j/a/jabreu/flow_simple_11atoms/flow/w261/t1/run.abo
- root for input  files -> /scratch/users/j/a/jabreu/flow_simple_11atoms/flow/w261/t1/indata/in
- root for output files -> /scratch/users/j/a/jabreu/flow_simple_11atoms/flow/w261/t1/outdata/out

 Symmetries : space group P3_1 2 1 (#152); Bravais hP (primitive hexag.)
     intxc =       0      iscf =       7    lmnmax =      18     lnmax =       6
     mgfft =      90  mpssoang =       3    mqgrid =    4248     natom =      12
  nloc_mem =       1    nspden =       1   nspinor =       1    nsppol =       1
      nsym =       6    n1xccc =    2501    ntypat =       3    occopt =       1
   xclevel =       2
-    mband =          48        mffmem =           1         mkmem =           2
-   mkqmem =           2        mk1mem =           2           mpw =       19464
      nfft =      368640          nkpt =           2
  Rough estimation (10% accuracy) of disk space for files :

------------- Echo of variables that govern the present computation ------------
-
- outvars: echo of selected default values
-   iomode0 =  0 , fftalg0 =512 , wfoptalg0 =  0
-
- outvars: echo of global parameters not present in the input file
-  max_nthreads =    0
-
 -outvars: echo values of preprocessed input variables --------
            acell      1.0000000000E+00  1.0000000000E+00  1.0000000000E+00 Bohr
              amu      8.54678000E+01  1.40067400E+01  1.59994000E+01
             ecut      4.40000000E+01 Hartree
-          fftalg         512
           irdden           1
           irdwfk           1
           istwfk        1    1
              ixc     -116133
              kpt      0.00000000E+00  0.00000000E+00  5.00000000E-01
                       5.00000000E-01  0.00000000E+00  5.00000000E-01
           kptopt           0
P           mkmem           2
P          mkqmem           2
P          mk1mem           2
            natom          12
            nband          48
           nbdbuf           4
            ngfft          64      64      90
             nkpt           2
            nstep        2000
             nsym           6
           ntypat           3
              occ      2.000000  2.000000  2.000000  2.000000  2.000000  2.000000
                       2.000000  2.000000  2.000000  2.000000  2.000000  2.000000
                       2.000000  2.000000  2.000000  2.000000  2.000000  2.000000
                       2.000000  2.000000  2.000000  2.000000  2.000000  2.000000
                       2.000000  2.000000  2.000000  2.000000  2.000000  2.000000
                       2.000000  2.000000  2.000000  2.000000  2.000000  2.000000
                       2.000000  2.000000  2.000000  0.000000  0.000000  0.000000
                       0.000000  0.000000  0.000000  0.000000  0.000000  0.000000
        optdriver           1
            prtwf          -1
            rfdir           1       1       1
           rfelfd           2
            rprim      1.0643086161E+01  0.0000000000E+00  0.0000000000E+00
                      -5.3215430804E+00  9.2171829900E+00  0.0000000000E+00
                       0.0000000000E+00  0.0000000000E+00  1.4223091953E+01
          spgroup         152
           symrel      1  0  0   0  1  0   0  0  1       1  0  0  -1 -1  0   0  0 -1
                       0  1  0  -1 -1  0   0  0  1       0  1  0   1  0  0   0  0 -1
                      -1 -1  0   1  0  0   0  0  1      -1 -1  0   0  1  0   0  0 -1
            tnons      0.0000000  0.0000000  0.0000000    -0.0000000 -0.0000000 -0.3333333
                      -0.0000000 -0.0000000  0.3333333     0.0000000  0.0000000  0.0000000
                       0.0000000  0.0000000 -0.3333333     0.0000000  0.0000000  0.3333333
           tolwfr      1.00000000E-20
            typat      1  1  1  2  2  2  3  3  3  3  3  3
           useylm           1
              wtk        0.50000    0.50000
           xangst      1.7193834911E+00 -1.8050461739E-16  2.5088453657E+00
                      -8.5969174553E-01  1.4890297821E+00  5.0176907314E+00
                       1.9563475672E+00  3.3884933836E+00 -6.9634447256E-17
                       1.6997331688E+00 -1.8050461739E-16  6.2721134143E+00
                      -8.4986658437E-01  1.4720121038E+00  1.2544226829E+00
                       1.9661727283E+00  3.4055110619E+00  3.7632680486E+00
                       2.3779283646E+00  5.2959658781E-01  7.1929650350E+00
                       2.0857192292E+00  2.5533784997E+00  4.6841196693E+00
                       3.9844703443E+00  1.7945480782E+00  2.1752743036E+00
                      -7.3032008346E-01  2.3241446660E+00  3.3357106213E-01
                       1.1684310316E+00  3.0829750875E+00  2.8424164278E+00
                      -4.3811094813E-01  4.3479265779E+00  5.3512617935E+00
            xcart      3.2491639155E+00 -3.4110429259E-16  4.7410306509E+00
                      -1.6245819578E+00  2.8138584919E+00  9.4820613019E+00
                       3.6969611227E+00  6.4033244981E+00 -1.3159003473E-16
                       3.2120301879E+00 -3.4110429259E-16  1.1852576627E+01
                      -1.6060150939E+00  2.7816997405E+00  2.3705153255E+00
                       3.7155279865E+00  6.4354832495E+00  7.1115459764E+00
                       4.4936333726E+00  1.0007925119E+00  1.3592734000E+01
                       3.9414381334E+00  4.8251860781E+00  8.8517033486E+00
                       7.5295577354E+00  3.3912044000E+00  4.1106726976E+00
                      -1.3801049471E+00  4.3919969119E+00  6.3035795329E-01
                       2.2080146550E+00  5.8259785900E+00  5.3713886042E+00
                      -8.2790970778E-01  8.2163904781E+00  1.0112419255E+01
             xred      3.0528400000E-01 -3.7007434154E-17  3.3333333333E-01
                       0.0000000000E+00  3.0528400000E-01  6.6666666667E-01
                       6.9471600000E-01  6.9471600000E-01 -9.2518585385E-18
                       3.0179500000E-01 -3.7007434154E-17  8.3333333333E-01
                       0.0000000000E+00  3.0179500000E-01  1.6666666667E-01
                       6.9820500000E-01  6.9820500000E-01  5.0000000000E-01
                       4.7650100000E-01  1.0857900000E-01  9.5568066667E-01
                       6.3207800000E-01  5.2349900000E-01  6.2234733333E-01
                       8.9142100000E-01  3.6792200000E-01  2.8901400000E-01
                       1.0857900000E-01  4.7650100000E-01  4.4319333333E-02
                       5.2349900000E-01  6.3207800000E-01  3.7765266667E-01
                       3.6792200000E-01  8.9142100000E-01  7.1098600000E-01
            znucl       37.00000    7.00000    8.00000

 chkinp: Checking input parameters for consistency.

== DATASET  1 ==================================================================
-   mpi_nproc: 1, omp_nthreads: -1 (-1 if OMP is not activated)

--- !DatasetInfo
iteration_state: {dtset: 1, }
dimensions: {natom: 12, nkpt: 2, mband: 48, nsppol: 1, nspinor: 1, nspden: 1, mpw: 19464, }
cutoff_energies: {ecut:  44.0, pawecutdg:  -1.0, }
electrons: {nelect:   7.80000000E+01, charge:   0.00000000E+00, occopt:   1.00000000E+00, tsmear:   1.00000000E-02, }
meta: {optdriver: 1, rfelfd: 2, }
...

 Real(R)+Recip(G) space primitive vectors, cartesian coordinates (Bohr,Bohr^-1):
 R(1)= 10.6430862  0.0000000  0.0000000  G(1)=  0.0939577  0.0542465  0.0000000
 R(2)= -5.3215431  9.2171830  0.0000000  G(2)=  0.0000000  0.1084930  0.0000000
 R(3)=  0.0000000  0.0000000 14.2230920  G(3)=  0.0000000  0.0000000  0.0703082
 Unit cell volume ucvol=  1.3952750E+03 bohr^3
 Angles (23,13,12)=  9.00000000E+01  9.00000000E+01  1.20000000E+02 degrees

 getcut: wavevector=  0.0000  0.0000  0.0000  ngfft=  64  64  90
         ecut(hartree)=     44.000   => boxcut(ratio)=   2.01382

--- Pseudopotential description ------------------------------------------------
- pspini: atom type   1  psp file is /scratch/users/j/a/jabreu/pseudos/PBEsol/Rb.psp8
- pspatm: opening atomic psp file    /scratch/users/j/a/jabreu/pseudos/PBEsol/Rb.psp8
- Rb    ONCVPSP-3.3.0  r_core=   1.71227   1.75361   1.90633
- 37.00000   9.00000    180112                znucl, zion, pspdat
    8 -116133    2    4       600   0.00000   pspcod,pspxc,lmax,lloc,mmax,r2well
    5.99000000000000    7.00000000000000    0.00000000000000   rchrg,fchrg,qchrg
     nproj     2     2     2
     extension_switch     1
  pspatm : epsatm=   34.48400912
         --- l  ekb(1:nproj) -->
             0    8.196957   -0.477221
             1    3.231347   -0.378736
             2   -1.047201    0.996637
 pspatm: atomic psp has been read  and splines computed

- pspini: atom type   2  psp file is /scratch/users/j/a/jabreu/pseudos/PBEsol/N.psp8
- pspatm: opening atomic psp file    /scratch/users/j/a/jabreu/pseudos/PBEsol/N.psp8
- N     ONCVPSP-3.3.0  r_core=   1.20551   1.35824
-  7.00000   5.00000    180112                znucl, zion, pspdat
    8 -116133    1    4       600   0.00000   pspcod,pspxc,lmax,lloc,mmax,r2well
    5.99000000000000    4.00000000000000    0.00000000000000   rchrg,fchrg,qchrg
     nproj     2     2
     extension_switch     1
  pspatm : epsatm=    5.26508895
         --- l  ekb(1:nproj) -->
             0    7.464189    0.625868
             1   -4.309714   -1.012941
 pspatm: atomic psp has been read  and splines computed

- pspini: atom type   3  psp file is /scratch/users/j/a/jabreu/pseudos/PBEsol/O.psp8
- pspatm: opening atomic psp file    /scratch/users/j/a/jabreu/pseudos/PBEsol/O.psp8
- O     ONCVPSP-3.3.0  r_core=   1.35509   1.45563   1.26150
-  8.00000   6.00000    180112                znucl, zion, pspdat
    8 -116133    2    4       600   0.00000   pspcod,pspxc,lmax,lloc,mmax,r2well
    5.99000000000000    4.00000000000000    0.00000000000000   rchrg,fchrg,qchrg
     nproj     2     2     1
     extension_switch     1
  pspatm : epsatm=    6.22910522
         --- l  ekb(1:nproj) -->
             0    6.050032    0.820363
             1   -4.739617   -1.153841
             2   -1.335834
 pspatm: atomic psp has been read  and splines computed

   1.22165102E+04                                ecore*ucvol(ha*bohr**3)

 ==>  initialize data related to q vector <==

 The list of irreducible perturbations for this q vector is:
    1)    idir= 1    ipert=  13
    2)    idir= 2    ipert=  13
    3)    idir= 3    ipert=  13

 Perturbation wavevector (in red.coord.)   0.000000  0.000000  0.000000
 Perturbation : derivative vs k along direction   1

 dfpt_looppert : COMMENT -
  In a d/dk calculation, iscf is set to -3 automatically.
 The set of symmetries contains only one element for this perturbation.
 symkpt : not enough symmetry to change the number of k points.

 Initialisation of the first-order wave-functions :
  ireadwf=   0

--- !BeginCycle
[...]
 ETOT 26  -36.948873974503      0.000E+00 9.975E-21 0.000E+00

 At SCF step   26   max residual=  9.98E-21 < tolwfr=  1.00E-20 =>converged.

 ----iterations are completed or convergence reached----

 dfpt_looppert: DFPT cycle converged with prtwf=-1. Will skip output of the 1st-order WFK file.
 dfpt_looppert : ek2=    7.2491638442E+01
          f-sum rule ratio=    9.9900107275E-01
 prteigrs : about to open file /scratch/users/j/a/jabreu/flow_simple_11atoms/flow/w261/t1/tmpdata/tmp_1WF1_EIG
 Expectation of eigenvalue derivatives (hartree) for nkpt=   2  k points:
  (in case of degenerate eigenvalues, averaged derivative)
 kpt#   1, nband= 48, wtk=  0.50000, kpt=  0.0000  0.0000  0.5000 (reduced coord)
  -0.00000   -0.00000    0.00000    0.00000    0.00000    0.00000   -0.00000   -0.00000
  -0.00000    0.00000   -0.00000   -0.00000    0.00000   -0.00000   -0.00000   -0.00000
  -0.00000    0.00000    0.00000    0.00000    0.00000    0.00000   -0.00000   -0.00000
   0.00000    0.00000   -0.00000   -0.00000   -0.00000    0.00000    0.00000    0.00000
   0.00000   -0.00000   -0.00000   -0.00000   -0.00000   -0.00000    0.00000    0.00000
   0.00000    0.00000   -0.00000   -0.00000    0.00000    0.00002    0.00002    0.00000
 prteigrs : prtvol=0 or 1, do not print more k-points.

 Eight components of 2nd-order total energy (hartree) are
 1,2,3: 0th-order hamiltonian combined with 1st-order wavefunctions
     kin0=   5.60187459E+01 eigvalue=   6.26194542E+00  local=  -2.66806846E+01
 4,5,6: 1st-order hamiltonian combined with 1st and 0th-order wfs
     kin1=  -7.24192246E+01  Hartree=   0.00000000E+00     xc=   0.00000000E+00
 7,8,9: eventually, occupation + non-local contributions
    edocc=   4.90922662E+00     enl0=  -3.56035936E+00   enl1=  -1.47852338E+00
 1-9 gives the relaxation energy (to be shifted if some occ is /=2.0)
   erelax=  -3.69488740E+01
  No Ewald or frozen-wf contrib.: the relaxation energy is the total one
 2DEtotal=   -0.3694887397E+02 Ha. Also 2DEtotal=   -0.100542999291E+04 eV
    (  non-var. 2DEtotal :   -3.6948873974E+01 Ha)

 Perturbation wavevector (in red.coord.)   0.000000  0.000000  0.000000
 Perturbation : derivative vs k along direction   2
 The set of symmetries contains only one element for this perturbation.
 symkpt : not enough symmetry to change the number of k points.

[...]

 Perturbation wavevector (in red.coord.)   0.000000  0.000000  0.000000
 Perturbation : derivative vs k along direction   3
 The set of symmetries contains only one element for this perturbation.
 symkpt : not enough symmetry to change the number of k points.

 Initialisation of the first-order wave-functions :
  ireadwf=   0

--- !BeginCycle
iteration_state: {dtset: 1, }
solver: {iscf: 7, nstep: 2000, nline: 4, wfoptalg: 0, }
tolerances: {tolwfr: 1.00E-20, }
...

     iter   2DEtotal(Ha)        deltaE(Ha) residm    vres2
-ETOT  1  -15.334782279948     -1.533E+01 2.495E-02 0.000E+00
 ETOT  2  -15.405048281480     -7.027E-02 2.698E-03 0.000E+00
 ETOT  3  -15.406285798009     -1.238E-03 1.606E-04 0.000E+00
 ETOT  4  -15.406317174505     -3.138E-05 3.185E-05 0.000E+00
 ETOT  5  -15.406318144093     -9.696E-07 2.567E-06 0.000E+00
 ETOT  6  -15.406318176722     -3.263E-08 5.680E-07 0.000E+00
 ETOT  7  -15.406318177882     -1.160E-09 4.889E-08 0.000E+00
 ETOT  8  -15.406318177925     -4.253E-11 1.116E-08 0.000E+00
 ETOT  9  -15.406318177926     -1.606E-12 1.016E-09 0.000E+00
 ETOT 10  -15.406318177926     -5.507E-14 2.283E-10 0.000E+00
 ETOT 11  -15.406318177926     -1.066E-14 2.694E-11 0.000E+00
 ETOT 12  -15.406318177926     -2.132E-14 4.762E-12 0.000E+00
 ETOT 13  -15.406318177926      2.132E-14 7.246E-13 0.000E+00
 ETOT 14  -15.406318177926     -1.776E-15 1.005E-13 0.000E+00
 ETOT 15  -15.406318177926      0.000E+00 1.966E-14 0.000E+00
 ETOT 16  -15.406318177926      0.000E+00 2.247E-15 0.000E+00
 ETOT 17  -15.406318177926      0.000E+00 5.371E-16 0.000E+00
 ETOT 18  -15.406318177926      0.000E+00 6.177E-17 0.000E+00
 ETOT 19  -15.406318177926     -7.105E-15 1.474E-17 0.000E+00
 ETOT 20  -15.406318177926      7.105E-15 1.705E-18 0.000E+00
 ETOT 21  -15.406318177926      0.000E+00 4.062E-19 0.000E+00
 ETOT 22  -15.406318177926     -7.105E-15 4.718E-20 0.000E+00
 ETOT 23  -15.406318177926      7.105E-15 1.122E-20 0.000E+00
 ETOT 24  -15.406318177926     -5.329E-15 9.381E-21 0.000E+00

 At SCF step   24   max residual=  9.38E-21 < tolwfr=  1.00E-20 =>converged.

 ----iterations are completed or convergence reached----

 dfpt_looppert: DFPT cycle converged with prtwf=-1. Will skip output of the 1st-order WFK file.
 dfpt_looppert : ek2=    3.0443620499E+01
          f-sum rule ratio=    9.9380980768E-01
 prteigrs : about to open file /scratch/users/j/a/jabreu/flow_simple_11atoms/flow/w261/t1/tmpdata/tmp_1WF1_EIG
 Expectation of eigenvalue derivatives (hartree) for nkpt=   2  k points:
  (in case of degenerate eigenvalues, averaged derivative)
 kpt#   1, nband= 48, wtk=  0.50000, kpt=  0.0000  0.0000  0.5000 (reduced coord)
   0.00000    0.00000    0.00000    0.00000    0.00000    0.00000    0.00000    0.00000
   0.00000    0.00000   -0.00000   -0.00000    0.00000    0.00000    0.00000   -0.00000
  -0.00000   -0.00000   -0.00000    0.00000    0.00000   -0.00000    0.00000    0.00000
  -0.00000   -0.00000   -0.00000   -0.00000   -0.00000   -0.00000    0.00000   -0.00000
  -0.00000   -0.00000   -0.00000   -0.00000   -0.00000   -0.00000   -0.00000   -0.00000
  -0.00000   -0.00000   -0.00000   -0.00000    0.00001    0.00000    0.00000   -0.00000
 prteigrs : prtvol=0 or 1, do not print more k-points.

 Eight components of 2nd-order total energy (hartree) are
 1,2,3: 0th-order hamiltonian combined with 1st-order wavefunctions
     kin0=   2.58426966E+01 eigvalue=   2.55365286E+00  local=  -1.33077999E+01
 4,5,6: 1st-order hamiltonian combined with 1st and 0th-order wfs
     kin1=  -3.02551686E+01  Hartree=   0.00000000E+00     xc=   0.00000000E+00
 7,8,9: eventually, occupation + non-local contributions
    edocc=   2.43491765E+00     enl0=  -2.11714905E+00   enl1=  -5.57467722E-01
 1-9 gives the relaxation energy (to be shifted if some occ is /=2.0)
   erelax=  -1.54063182E+01
  No Ewald or frozen-wf contrib.: the relaxation energy is the total one
 2DEtotal=   -0.1540631818E+02 Ha. Also 2DEtotal=   -0.419227237809E+03 eV
    (  non-var. 2DEtotal :   -1.5406318178E+01 Ha)

 CALCULATION OF EFFECTIVE MASSES
 NOTE : Additional infos (eff. mass eigenvalues, eigenvectors and, if degenerate, average mass) are available in stdout.

 K-point ( 0.000, 0.000, 0.500) | band =    39
 Effective mass tensor:
            -11.0367570192              0.0000418059             -0.0000066127
              0.0000418059            -11.0367816839             -0.0000010532
             -0.0000066127             -0.0000010532             -3.2967237793
 Effective mass tensor eigenvalues:
            -11.0368129385            -11.0367257646             -3.2967237793
 Angular average effective mass 1/(<1/m>)=  -6.1913895024
 Angular average effective mass for Frohlich model (<m**0.5>)**2=  -6.9113062237
 Effective masses along directions: (cart. coord. / red. coord. -> eff. mass)
    1:   1.000000  0.000000  0.000000 /   0.894427 -0.447214  0.000000 -> -11.0367570190
    2:   0.000000  1.000000  0.000000 /   0.000000  1.000000  0.000000 -> -11.0367816837
    3:   0.000000  0.000000  1.000000 /   0.000000  0.000000  1.000000 ->  -3.2967237793
    4:   0.577350  0.577350  0.577350 /   0.585220  0.214205  0.782070 ->  -6.1913861158
    5:   0.000000  0.707107  0.707107 /   0.000000  0.543834  0.839193 ->  -5.0769473057
    6:   0.707107  0.000000  0.707107 /   0.573928 -0.286964  0.766980 ->  -5.0769486345
    7:   0.707107  0.707107  0.000000 /   0.939071  0.343724  0.000000 -> -11.0367275456

 K-point ( 0.500, 0.000, 0.500) | band =    40
 Effective mass tensor:
              5.6076484656              0.3578239027              5.2695511021
              0.3578239027              5.1944640611              3.0423759100
              5.2695511021              3.0423759100             12.6179177004
 Effective mass tensor eigenvalues:
              2.2449412709              4.9878755724             16.1872133838
 Angular average effective mass 1/(<1/m>)=   4.2390288744
 Angular average effective mass for Frohlich model (<m**0.5>)**2=   4.9827581003
 Effective masses along directions: (cart. coord. / red. coord. -> eff. mass)
    1:   1.000000  0.000000  0.000000 /   0.894427 -0.447214  0.000000 ->   3.2201975139
    2:   0.000000  1.000000  0.000000 /   0.000000  1.000000  0.000000 ->   4.2163688571
    3:   0.000000  0.000000  1.000000 /   0.000000  0.000000  1.000000 ->   6.2500623334
    4:   0.577350  0.577350  0.577350 /   0.585220  0.214205  0.782070 ->   7.9506624169
    5:   0.000000  0.707107  0.707107 /   0.000000  0.543834  0.839193 ->   8.7059990658
    6:   0.707107  0.000000  0.707107 /   0.573928 -0.286964  0.766980 ->  11.0791434193
    7:   0.707107  0.707107  0.000000 /   0.939071  0.343724  0.000000 ->   2.9638837753

 END OF EFFECTIVE MASSES SECTION

 ---- first-order wavefunction calculations are completed ----

 Total localisation tensor (bohr^2) in cartesian coordinates
  WARNING : still subject to testing - especially symmetries.
      direction              matrix element
   alpha     beta       real part   imaginary part
     1        1       1.0261909117    0.0000000000
     1        2      -0.3537703405    0.0000000000
     1        3       0.0000000000    0.0000000000
     2        1      -0.3537703405    0.0000000000
     2        2       0.6127482040    0.0000000000
     2        3       0.0000000000    0.0000000000
     3        1       0.0000000000    0.0000000000
     3        2       0.0000000000    0.0000000000
     3        3       0.7084232366    0.0000000000

 respfn : d/dk was computed, but no 2DTE, so no DDB output.

== END DATASET(S) ==============================================================

 -outvars: echo values of variables after computation  --------
            acell      1.0000000000E+00  1.0000000000E+00  1.0000000000E+00 Bohr
              amu      8.54678000E+01  1.40067400E+01  1.59994000E+01
             ecut      4.40000000E+01 Hartree
           etotal     -1.5406318178E+01
            fcart      0.0000000000E+00  0.0000000000E+00  0.0000000000E+00
                       0.0000000000E+00  0.0000000000E+00  0.0000000000E+00
                       0.0000000000E+00  0.0000000000E+00  0.0000000000E+00
                       0.0000000000E+00  0.0000000000E+00  0.0000000000E+00
                       0.0000000000E+00  0.0000000000E+00  0.0000000000E+00
                       0.0000000000E+00  0.0000000000E+00  0.0000000000E+00
                       0.0000000000E+00  0.0000000000E+00  0.0000000000E+00
                       0.0000000000E+00  0.0000000000E+00  0.0000000000E+00
                       0.0000000000E+00  0.0000000000E+00  0.0000000000E+00
                       0.0000000000E+00  0.0000000000E+00  0.0000000000E+00
                       0.0000000000E+00  0.0000000000E+00  0.0000000000E+00
                       0.0000000000E+00  0.0000000000E+00  0.0000000000E+00
-          fftalg         512
           irdden           1
           irdwfk           1
           istwfk        1    1
              ixc     -116133
              kpt      0.00000000E+00  0.00000000E+00  5.00000000E-01
                       5.00000000E-01  0.00000000E+00  5.00000000E-01
           kptopt           0
P           mkmem           2
P          mkqmem           2
P          mk1mem           2
            natom          12
            nband          48
           nbdbuf           4
            ngfft          64      64      90
             nkpt           2
            nstep        2000
             nsym           6
           ntypat           3
              occ      2.000000  2.000000  2.000000  2.000000  2.000000  2.000000
                       2.000000  2.000000  2.000000  2.000000  2.000000  2.000000
                       2.000000  2.000000  2.000000  2.000000  2.000000  2.000000
                       2.000000  2.000000  2.000000  2.000000  2.000000  2.000000
                       2.000000  2.000000  2.000000  2.000000  2.000000  2.000000
                       2.000000  2.000000  2.000000  2.000000  2.000000  2.000000
                       2.000000  2.000000  2.000000  0.000000  0.000000  0.000000
                       0.000000  0.000000  0.000000  0.000000  0.000000  0.000000
        optdriver           1
            prtwf          -1
            rfdir           1       1       1
           rfelfd           2
            rprim      1.0643086161E+01  0.0000000000E+00  0.0000000000E+00
                      -5.3215430804E+00  9.2171829900E+00  0.0000000000E+00
                       0.0000000000E+00  0.0000000000E+00  1.4223091953E+01
          spgroup         152
           strten      0.0000000000E+00  0.0000000000E+00  0.0000000000E+00
                       0.0000000000E+00  0.0000000000E+00  0.0000000000E+00
           symrel      1  0  0   0  1  0   0  0  1       1  0  0  -1 -1  0   0  0 -1
                       0  1  0  -1 -1  0   0  0  1       0  1  0   1  0  0   0  0 -1
                      -1 -1  0   1  0  0   0  0  1      -1 -1  0   0  1  0   0  0 -1
            tnons      0.0000000  0.0000000  0.0000000    -0.0000000 -0.0000000 -0.3333333
                      -0.0000000 -0.0000000  0.3333333     0.0000000  0.0000000  0.0000000
                       0.0000000  0.0000000 -0.3333333     0.0000000  0.0000000  0.3333333
           tolwfr      1.00000000E-20
            typat      1  1  1  2  2  2  3  3  3  3  3  3
           useylm           1
              wtk        0.50000    0.50000
           xangst      1.7193834911E+00 -1.8050461739E-16  2.5088453657E+00
                      -8.5969174553E-01  1.4890297821E+00  5.0176907314E+00
                       1.9563475672E+00  3.3884933836E+00 -6.9634447256E-17
                       1.6997331688E+00 -1.8050461739E-16  6.2721134143E+00
                      -8.4986658437E-01  1.4720121038E+00  1.2544226829E+00
                       1.9661727283E+00  3.4055110619E+00  3.7632680486E+00
                       2.3779283646E+00  5.2959658781E-01  7.1929650350E+00
                       2.0857192292E+00  2.5533784997E+00  4.6841196693E+00
                       3.9844703443E+00  1.7945480782E+00  2.1752743036E+00
                      -7.3032008346E-01  2.3241446660E+00  3.3357106213E-01
                       1.1684310316E+00  3.0829750875E+00  2.8424164278E+00
                      -4.3811094813E-01  4.3479265779E+00  5.3512617935E+00
            xcart      3.2491639155E+00 -3.4110429259E-16  4.7410306509E+00
                      -1.6245819578E+00  2.8138584919E+00  9.4820613019E+00
                       3.6969611227E+00  6.4033244981E+00 -1.3159003473E-16
                       3.2120301879E+00 -3.4110429259E-16  1.1852576627E+01
                      -1.6060150939E+00  2.7816997405E+00  2.3705153255E+00
                       3.7155279865E+00  6.4354832495E+00  7.1115459764E+00
                       4.4936333726E+00  1.0007925119E+00  1.3592734000E+01
                       3.9414381334E+00  4.8251860781E+00  8.8517033486E+00
                       7.5295577354E+00  3.3912044000E+00  4.1106726976E+00
                      -1.3801049471E+00  4.3919969119E+00  6.3035795329E-01
                       2.2080146550E+00  5.8259785900E+00  5.3713886042E+00
                      -8.2790970778E-01  8.2163904781E+00  1.0112419255E+01
             xred      3.0528400000E-01 -3.7007434154E-17  3.3333333333E-01
                       0.0000000000E+00  3.0528400000E-01  6.6666666667E-01
                       6.9471600000E-01  6.9471600000E-01 -9.2518585385E-18
                       3.0179500000E-01 -3.7007434154E-17  8.3333333333E-01
                       0.0000000000E+00  3.0179500000E-01  1.6666666667E-01
                       6.9820500000E-01  6.9820500000E-01  5.0000000000E-01
                       4.7650100000E-01  1.0857900000E-01  9.5568066667E-01
                       6.3207800000E-01  5.2349900000E-01  6.2234733333E-01
                       8.9142100000E-01  3.6792200000E-01  2.8901400000E-01
                       1.0857900000E-01  4.7650100000E-01  4.4319333333E-02
                       5.2349900000E-01  6.3207800000E-01  3.7765266667E-01
                       3.6792200000E-01  8.9142100000E-01  7.1098600000E-01
            znucl       37.00000    7.00000    8.00000

- Timing analysis has been suppressed with timopt=0

 Suggested references for the acknowledgment of ABINIT usage.

 Calculation completed.
.Delivered   2 WARNINGs and   5 COMMENTs to log file.