.Version 9.7.2 of ABINIT

 ABINIT is a project of the Universite Catholique de Louvain,
 Corning Inc. and other collaborators, see ~abinit/doc/developers/contributors.txt .
 acknowledgments of the ABINIT effort.

.Starting date : Wed  1 Dec 2021.
- ( at 21h30 )

- input  file    -> /scratch/users/j/a/jabreu/flow_simple_remain_atoms/flow/w211/t1/run.abi
- output file    -> /scratch/users/j/a/jabreu/flow_simple_remain_atoms/flow/w211/t1/run.abo
- root for input  files -> /scratch/users/j/a/jabreu/flow_simple_remain_atoms/flow/w211/t1/indata/in
- root for output files -> /scratch/users/j/a/jabreu/flow_simple_remain_atoms/flow/w211/t1/outdata/out

 Symmetries : space group Pn n m (# 58); Bravais oP (primitive ortho.)
     intxc =       0      iscf =       7    lmnmax =      18     lnmax =       6
     mgfft =      72  mpssoang =       3    mqgrid =    3480     natom =       6
  nloc_mem =       1    nspden =       1   nspinor =       1    nsppol =       1
      nsym =       8    n1xccc =    2501    ntypat =       2    occopt =       1
   xclevel =       2
-    mband =          55        mffmem =           1         mkmem =           2
-   mkqmem =           2        mk1mem =           2           mpw =        9352
      nfft =      165888          nkpt =           2
  Rough estimation (10% accuracy) of disk space for files :

------------- Echo of variables that govern the present computation ------------
-
- outvars: echo of selected default values
-   iomode0 =  0 , fftalg0 =512 , wfoptalg0 =  0
-
- outvars: echo of global parameters not present in the input file
-  max_nthreads =    0
-
 -outvars: echo values of preprocessed input variables --------
            acell      1.0000000000E+00  1.0000000000E+00  1.0000000000E+00 Bohr
              amu      7.49215900E+01  1.01070000E+02
             ecut      4.40000000E+01 Hartree
-          fftalg         512
           irdden           1
           irdwfk           1
              ixc     -116133
              kpt      1.56250000E-01  5.00000000E-01  5.00000000E-01
                       2.50000000E-01  0.00000000E+00  0.00000000E+00
           kptopt           0
P           mkmem           2
P          mkqmem           2
P          mk1mem           2
            natom           6
            nband          55
           nbdbuf           4
            ngfft          36      64      72
             nkpt           2
            nstep        2000
             nsym           8
           ntypat           2
              occ      2.000000  2.000000  2.000000  2.000000  2.000000  2.000000
                       2.000000  2.000000  2.000000  2.000000  2.000000  2.000000
                       2.000000  2.000000  2.000000  2.000000  2.000000  2.000000
                       2.000000  2.000000  2.000000  2.000000  2.000000  2.000000
                       2.000000  2.000000  2.000000  2.000000  2.000000  2.000000
                       2.000000  2.000000  2.000000  2.000000  2.000000  2.000000
                       2.000000  2.000000  2.000000  2.000000  2.000000  2.000000
                       2.000000  2.000000  2.000000  2.000000  0.000000  0.000000
                       0.000000  0.000000  0.000000  0.000000  0.000000  0.000000
                       0.000000
        optdriver           1
            prtwf          -1
            rfdir           1       1       1
           rfelfd           2
            rprim      5.6054734008E+00  0.0000000000E+00  0.0000000000E+00
                       0.0000000000E+00  1.0259109214E+01  0.0000000000E+00
                       0.0000000000E+00  0.0000000000E+00  1.1653552596E+01
          spgroup          58
           symrel      1  0  0   0  1  0   0  0  1      -1  0  0   0 -1  0   0  0 -1
                      -1  0  0   0  1  0   0  0 -1       1  0  0   0 -1  0   0  0  1
                      -1  0  0   0 -1  0   0  0  1       1  0  0   0  1  0   0  0 -1
                       1  0  0   0 -1  0   0  0 -1      -1  0  0   0  1  0   0  0  1
            tnons      0.0000000  0.0000000  0.0000000     0.0000000  0.0000000  0.0000000
                       0.5000000  0.5000000  0.5000000     0.5000000  0.5000000  0.5000000
                       0.5000000  0.5000000  0.5000000     0.5000000  0.5000000  0.5000000
                       0.0000000  0.0000000  0.0000000     0.0000000  0.0000000  0.0000000
           tolwfr      1.00000000E-20
            typat      1  1  1  1  2  2
           useylm           1
              wtk        0.50000    0.50000
           xangst      1.4831443835E+00  1.7881395819E+00  5.3342710178E+00
                       1.4831443835E+00  3.6407471943E+00  8.3252341526E-01
                       0.0000000000E+00  9.2630380620E-01  2.2508738013E+00
                       0.0000000000E+00  4.5025829701E+00  3.9159206318E+00
                       1.4831443835E+00  2.7144433881E+00  3.0833972165E+00
                       0.0000000000E+00  0.0000000000E+00  0.0000000000E+00
            xcart      2.8027367004E+00  3.3790940972E+00  1.0080311342E+01
                       2.8027367004E+00  6.8800151164E+00  1.5732412541E+00
                       0.0000000000E+00  1.7504605096E+00  4.2535350441E+00
                       0.0000000000E+00  8.5086487040E+00  7.4000175522E+00
                       2.8027367004E+00  5.1295546068E+00  5.8267762982E+00
                       0.0000000000E+00  0.0000000000E+00  0.0000000000E+00
             xred      5.0000000000E-01  3.2937500000E-01  8.6499900000E-01
                       5.0000000000E-01  6.7062500000E-01  1.3500100000E-01
                       0.0000000000E+00  1.7062500000E-01  3.6499900000E-01
                       0.0000000000E+00  8.2937500000E-01  6.3500100000E-01
                       5.0000000000E-01  5.0000000000E-01  5.0000000000E-01
                       0.0000000000E+00  0.0000000000E+00  0.0000000000E+00
            znucl       33.00000   44.00000

 chkinp: Checking input parameters for consistency.

== DATASET  1 ==================================================================
-   mpi_nproc: 1, omp_nthreads: -1 (-1 if OMP is not activated)

--- !DatasetInfo
iteration_state: {dtset: 1, }
dimensions: {natom: 6, nkpt: 2, mband: 55, nsppol: 1, nspinor: 1, nspden: 1, mpw: 9352, }
cutoff_energies: {ecut:  44.0, pawecutdg:  -1.0, }
electrons: {nelect:   9.20000000E+01, charge:   0.00000000E+00, occopt:   1.00000000E+00, tsmear:   1.00000000E-02, }
meta: {optdriver: 1, rfelfd: 2, }
...

 Real(R)+Recip(G) space primitive vectors, cartesian coordinates (Bohr,Bohr^-1):
 R(1)=  5.6054734  0.0000000  0.0000000  G(1)=  0.1783971  0.0000000  0.0000000
 R(2)=  0.0000000 10.2591092  0.0000000  G(2)=  0.0000000  0.0974743  0.0000000
 R(3)=  0.0000000  0.0000000 11.6535526  G(3)=  0.0000000  0.0000000  0.0858107
 Unit cell volume ucvol=  6.7016276E+02 bohr^3
 Angles (23,13,12)=  9.00000000E+01  9.00000000E+01  9.00000000E+01 degrees

 getcut: wavevector=  0.0000  0.0000  0.0000  ngfft=  36  64  72
         ecut(hartree)=     44.000   => boxcut(ratio)=   2.06911

--- Pseudopotential description ------------------------------------------------
- pspini: atom type   1  psp file is /scratch/users/j/a/jabreu/pseudos/PBEsol/As.psp8
- pspatm: opening atomic psp file    /scratch/users/j/a/jabreu/pseudos/PBEsol/As.psp8
- As    ONCVPSP-3.3.0  r_core=   1.76603   1.70395   1.80867
- 33.00000  15.00000    180112                znucl, zion, pspdat
    8 -116133    2    4       600   0.00000   pspcod,pspxc,lmax,lloc,mmax,r2well
    5.99000000000000    5.00000000000000    0.00000000000000   rchrg,fchrg,qchrg
     nproj     2     2     2
     extension_switch     1
  pspatm : epsatm=   28.79155382
         --- l  ekb(1:nproj) -->
             0    8.270760    0.868950
             1    4.919053    0.756587
             2  -10.048665   -4.076802
 pspatm: atomic psp has been read  and splines computed

- pspini: atom type   2  psp file is /scratch/users/j/a/jabreu/pseudos/PBEsol/Ru.psp8
- pspatm: opening atomic psp file    /scratch/users/j/a/jabreu/pseudos/PBEsol/Ru.psp8
- Ru    ONCVPSP-3.3.0  r_core=   1.35650   1.40592   1.30881
- 44.00000  16.00000    180112                znucl, zion, pspdat
    8 -116133    2    4       600   0.00000   pspcod,pspxc,lmax,lloc,mmax,r2well
    5.99000000000000    7.00000000000000    0.00000000000000   rchrg,fchrg,qchrg
     nproj     2     2     2
     extension_switch     1
  pspatm : epsatm=   20.24388641
         --- l  ekb(1:nproj) -->
             0   14.596908    1.144598
             1    7.305594    1.039251
             2    1.509539    0.405296
 pspatm: atomic psp has been read  and splines computed

   1.43201669E+04                                ecore*ucvol(ha*bohr**3)

 ==>  initialize data related to q vector <==

 The list of irreducible perturbations for this q vector is:
    1)    idir= 1    ipert=   7
    2)    idir= 2    ipert=   7
    3)    idir= 3    ipert=   7

 Perturbation wavevector (in red.coord.)   0.000000  0.000000  0.000000
 Perturbation : derivative vs k along direction   1

 dfpt_looppert : COMMENT -
  In a d/dk calculation, iscf is set to -3 automatically.
 The set of symmetries contains only one element for this perturbation.
 symkpt : not enough symmetry to change the number of k points.

 Initialisation of the first-order wave-functions :
  ireadwf=   0

--- !BeginCycle
iteration_state: {dtset: 1, }
solver: {iscf: 7, nstep: 2000, nline: 4, wfoptalg: 0, }
tolerances: {tolwfr: 1.00E-20, }
...

     iter   2DEtotal(Ha)        deltaE(Ha) residm    vres2
-ETOT  1  -240.68189342731     -2.407E+02 1.214E-01 0.000E+00
 ETOT  2  -240.86702403709     -1.851E-01 6.029E-03 0.000E+00
 ETOT  3  -240.86739792849     -3.739E-04 1.528E-04 0.000E+00
 ETOT  4  -240.86740105424     -3.126E-06 1.289E-05 0.000E+00
 ETOT  5  -240.86740109697     -4.273E-08 3.956E-07 0.000E+00
 ETOT  6  -240.86740109770     -7.267E-10 3.606E-08 0.000E+00
 ETOT  7  -240.86740109772     -1.373E-11 1.146E-09 0.000E+00
 ETOT  8  -240.86740109772     -8.527E-14 1.069E-10 0.000E+00
 ETOT  9  -240.86740109772     -2.842E-14 3.412E-12 0.000E+00
 ETOT 10  -240.86740109772     -2.842E-14 3.241E-13 0.000E+00
 ETOT 11  -240.86740109772     -5.684E-14 1.035E-14 0.000E+00
 ETOT 12  -240.86740109772      2.842E-14 9.996E-16 0.000E+00
 ETOT 13  -240.86740109772      2.842E-14 3.193E-17 0.000E+00
 ETOT 14  -240.86740109772     -5.684E-14 3.128E-18 0.000E+00
 ETOT 15  -240.86740109772      8.527E-14 9.997E-20 0.000E+00
 ETOT 16  -240.86740109772     -2.842E-14 9.913E-21 0.000E+00

 At SCF step   16   max residual=  9.91E-21 < tolwfr=  1.00E-20 =>converged.

 ----iterations are completed or convergence reached----

 dfpt_looppert: DFPT cycle converged with prtwf=-1. Will skip output of the 1st-order WFK file.
 dfpt_looppert : ek2=    2.3118144159E+02
          f-sum rule ratio=    1.0611603246E+00
 prteigrs : about to open file /scratch/users/j/a/jabreu/flow_simple_remain_atoms/flow/w211/t1/tmpdata/tmp_1WF1_EIG
 Expectation of eigenvalue derivatives (hartree) for nkpt=   2  k points:
  (in case of degenerate eigenvalues, averaged derivative)
 kpt#   1, nband= 55, wtk=  0.50000, kpt=  0.1563  0.5000  0.5000 (reduced coord)
   0.00166    0.00166    0.00235    0.00235   -0.02126   -0.02126    0.00204    0.00204
   0.00270    0.00270   -0.00080   -0.00080    0.00376    0.00376   -0.00120   -0.00120
  -0.00030   -0.00030   -0.00145   -0.00145    0.00041    0.00041    0.00083    0.00083
  -0.00008   -0.00008    0.00031    0.00031    0.12407    0.12407    0.17729    0.17729
   0.15149    0.15149   -0.23416   -0.23416    0.09988    0.09988   -0.08297   -0.08297
   0.01095    0.01095   -0.09287   -0.09287    0.00916    0.00916   -0.27381   -0.27381
  -0.28402   -0.28402   -0.28030   -0.28030   -0.04058   -0.04058   -0.09767
 prteigrs : prtvol=0 or 1, do not print more k-points.

 Eight components of 2nd-order total energy (hartree) are
 1,2,3: 0th-order hamiltonian combined with 1st-order wavefunctions
     kin0=   2.57131541E+02 eigvalue=   1.61016052E+01  local=  -9.52929441E+01
 4,5,6: 1st-order hamiltonian combined with 1st and 0th-order wfs
     kin1=  -2.45320574E+02  Hartree=   0.00000000E+00     xc=   0.00000000E+00
 7,8,9: eventually, occupation + non-local contributions
    edocc=   4.05482108E+01     enl0=   2.23789886E+01   enl1=  -2.36414229E+02
 1-9 gives the relaxation energy (to be shifted if some occ is /=2.0)
   erelax=  -2.40867401E+02
  No Ewald or frozen-wf contrib.: the relaxation energy is the total one
 2DEtotal=   -0.2408674011E+03 Ha. Also 2DEtotal=   -0.655433531063E+04 eV
    (  non-var. 2DEtotal :   -2.4086740110E+02 Ha)

 Perturbation wavevector (in red.coord.)   0.000000  0.000000  0.000000
 Perturbation : derivative vs k along direction   2
 The set of symmetries contains only one element for this perturbation.
 symkpt : not enough symmetry to change the number of k points.

[...]

 Perturbation wavevector (in red.coord.)   0.000000  0.000000  0.000000
 Perturbation : derivative vs k along direction   3
 The set of symmetries contains only one element for this perturbation.
 symkpt : not enough symmetry to change the number of k points.

 Initialisation of the first-order wave-functions :
  ireadwf=   0

--- !BeginCycle
iteration_state: {dtset: 1, }
solver: {iscf: 7, nstep: 2000, nline: 4, wfoptalg: 0, }
tolerances: {tolwfr: 1.00E-20, }
...

     iter   2DEtotal(Ha)        deltaE(Ha) residm    vres2
-ETOT  1  -55.087555644495     -5.509E+01 9.423E-02 0.000E+00
 ETOT  2  -55.146792092252     -5.924E-02 2.013E-03 0.000E+00
 ETOT  3  -55.147023764156     -2.317E-04 8.198E-05 0.000E+00
 ETOT  4  -55.147027137087     -3.373E-06 9.654E-06 0.000E+00
 ETOT  5  -55.147027204925     -6.784E-08 4.523E-07 0.000E+00
 ETOT  6  -55.147027206411     -1.486E-09 5.624E-08 0.000E+00
 ETOT  7  -55.147027206445     -3.373E-11 2.726E-09 0.000E+00
 ETOT  8  -55.147027206446     -8.029E-13 3.410E-10 0.000E+00
 ETOT  9  -55.147027206446      3.553E-14 1.691E-11 0.000E+00
 ETOT 10  -55.147027206446     -2.132E-14 2.110E-12 0.000E+00
 ETOT 11  -55.147027206446      3.553E-14 1.069E-13 0.000E+00
 ETOT 12  -55.147027206446     -3.553E-14 1.325E-14 0.000E+00
 ETOT 13  -55.147027206446      2.842E-14 6.850E-16 0.000E+00
 ETOT 14  -55.147027206446     -2.132E-14 8.407E-17 0.000E+00
 ETOT 15  -55.147027206446      2.132E-14 4.412E-18 0.000E+00
 ETOT 16  -55.147027206446     -2.842E-14 5.370E-19 0.000E+00
 ETOT 17  -55.147027206446      0.000E+00 2.846E-20 0.000E+00
 ETOT 18  -55.147027206446      2.132E-14 9.861E-21 0.000E+00

 At SCF step   18   max residual=  9.86E-21 < tolwfr=  1.00E-20 =>converged.

 ----iterations are completed or convergence reached----

 dfpt_looppert: DFPT cycle converged with prtwf=-1. Will skip output of the 1st-order WFK file.
 dfpt_looppert : ek2=    5.3488556595E+01
          f-sum rule ratio=    1.0457589446E+00
 prteigrs : about to open file /scratch/users/j/a/jabreu/flow_simple_remain_atoms/flow/w211/t1/tmpdata/tmp_1WF1_EIG
 Expectation of eigenvalue derivatives (hartree) for nkpt=   2  k points:
  (in case of degenerate eigenvalues, averaged derivative)
 kpt#   1, nband= 55, wtk=  0.50000, kpt=  0.1563  0.5000  0.5000 (reduced coord)
   0.00000    0.00000   -0.00000   -0.00000   -0.00000   -0.00000    0.00000    0.00000
   0.00000    0.00000    0.00000    0.00000   -0.00000   -0.00000   -0.00000   -0.00000
  -0.00000   -0.00000   -0.00000   -0.00000    0.00000    0.00000   -0.00000   -0.00000
  -0.00000   -0.00000   -0.00000   -0.00000   -0.00000   -0.00000    0.00000    0.00000
   0.00000    0.00000    0.00000    0.00000    0.00000    0.00000   -0.00000   -0.00000
  -0.00000   -0.00000   -0.00000   -0.00000    0.00000    0.00000    0.00000    0.00000
   0.00000    0.00000   -0.00000   -0.00000    0.00000    0.00000   -0.00000
 prteigrs : prtvol=0 or 1, do not print more k-points.

 Eight components of 2nd-order total energy (hartree) are
 1,2,3: 0th-order hamiltonian combined with 1st-order wavefunctions
     kin0=   5.91688848E+01 eigvalue=   3.82077642E+00  local=  -2.22808303E+01
 4,5,6: 1st-order hamiltonian combined with 1st and 0th-order wfs
     kin1=  -5.59361365E+01  Hartree=   0.00000000E+00     xc=   0.00000000E+00
 7,8,9: eventually, occupation + non-local contributions
    edocc=   9.08628640E+00     enl0=   5.35190982E+00   enl1=  -5.43579179E+01
 1-9 gives the relaxation energy (to be shifted if some occ is /=2.0)
   erelax=  -5.51470272E+01
  No Ewald or frozen-wf contrib.: the relaxation energy is the total one
 2DEtotal=   -0.5514702721E+02 Ha. Also 2DEtotal=   -0.150062692605E+04 eV
    (  non-var. 2DEtotal :   -5.5147027206E+01 Ha)

 CALCULATION OF EFFECTIVE MASSES
 NOTE : Additional infos (eff. mass eigenvalues, eigenvectors and, if degenerate, average mass) are available in stdout.

--- !WARNING
src_file: m_efmas.F90
src_line: 0
message: |
    Effective masses calculations require given k-point(s) to be band extrema for given bands, but max abs gradient of band(s) was found to be greater than 1e-5. Abinit will continue anyway.
...

 COMMENTS:
 - At k-point ( 0.156, 0.500, 0.500), bands    45 through    46
   are DEGENERATE (effective mass tensor is therefore not defined).
   See Section IIIB Eqs. (67)-(70) and Appendix E of PRB 93 205147 (2016).
 - Angular average effective mass for Frohlich model is to be averaged over degenerate bands. See later.
 - Associated theta integrals calculated with ntheta=   1000 points.

 K-point ( 0.156, 0.500, 0.500) | band =    45
 Transport equivalent effective mass tensor:
             -0.4008743039             -0.0000000028              0.0000000012
             -0.0000000028             -0.2072685064              0.0000000028
              0.0000000012              0.0000000028             -0.2318087122
 Transport equivalent effective mass tensor eigenvalues:
             -0.4008743039             -0.2318087122             -0.2072685064
 Angular average effective mass 1/(<1/m>)=  -0.2172105782
 Angular average effective mass for Frohlich model (<m**0.5>)**2=  -0.2226699685
 Effective masses along directions: (cart. coord. / red. coord. -> eff. mass)
    1:   1.000000  0.000000  0.000000 /   1.000000  0.000000  0.000000 ->  -0.3111342280
    2:   0.000000  1.000000  0.000000 /   0.000000  1.000000  0.000000 ->  -0.2519755018
    3:   0.000000  0.000000  1.000000 /   0.000000  0.000000  1.000000 ->  -0.2818094361
    4:   0.577350  0.577350  0.577350 /   0.339585  0.621506  0.705983 ->  -0.1926820887
    5:   0.000000  0.707107  0.707107 /   0.000000  0.660772  0.750586 ->  -0.1618693820
    6:   0.707107  0.000000  0.707107 /   0.433471  0.000000  0.901168 ->  -0.2957466830
    7:   0.707107  0.707107  0.000000 /   0.479485  0.877550  0.000000 ->  -0.2784473376

 K-point ( 0.156, 0.500, 0.500) | band =    46
 Transport equivalent effective mass tensor:
             -0.6825544016             -0.0000000096              0.0000000042
             -0.0000000096             -0.7059439545              0.0000000532
              0.0000000042              0.0000000532             -0.7895288333
 Transport equivalent effective mass tensor eigenvalues:
             -0.7895288333             -0.7059439545             -0.6825544016
 Angular average effective mass 1/(<1/m>)=  -0.3921114912
 Angular average effective mass for Frohlich model (<m**0.5>)**2=  -0.4129601480
 Effective masses along directions: (cart. coord. / red. coord. -> eff. mass)
    1:   1.000000  0.000000  0.000000 /   1.000000  0.000000  0.000000 ->  -0.3111342280
    2:   0.000000  1.000000  0.000000 /   0.000000  1.000000  0.000000 ->  -0.2519755315
    3:   0.000000  0.000000  1.000000 /   0.000000  0.000000  1.000000 ->  -0.2818094434
    4:   0.577350  0.577350  0.577350 /   0.339585  0.621506  0.705983 ->  -0.5091062550
    5:   0.000000  0.707107  0.707107 /   0.000000  0.660772  0.750586 ->  -0.7466496028
    6:   0.707107  0.000000  0.707107 /   0.433471  0.000000  0.901168 ->  -0.2957466868
    7:   0.707107  0.707107  0.000000 /   0.479485  0.877550  0.000000 ->  -0.2784473676

 Angular average effective mass for Frohlich model, averaged over degenerate bands.
 Value of     (<<m**0.5>>)**2 =     3.105270E-01
 Absolute Value of <<m**0.5>> =     5.572495E-01

 K-point ( 0.250, 0.000, 0.000) | band =    47
 Effective mass tensor:
              0.7239295374              0.0000000000             -0.0000000007
              0.0000000000              0.4071418892             -0.0000000001
             -0.0000000007             -0.0000000001              2.8100955538
 Effective mass tensor eigenvalues:
              0.4071418892              0.7239295374              2.8100955538
 Angular average effective mass 1/(<1/m>)=   0.7154174564
 Angular average effective mass for Frohlich model (<m**0.5>)**2=   0.8281477502
 Effective masses along directions: (cart. coord. / red. coord. -> eff. mass)
    1:   1.000000  0.000000  0.000000 /   1.000000  0.000000  0.000000 ->   0.7239295374
    2:   0.000000  1.000000  0.000000 /   0.000000  1.000000  0.000000 ->   0.4071418892
    3:   0.000000  0.000000  1.000000 /   0.000000  0.000000  1.000000 ->   2.8100955538
    4:   0.577350  0.577350  0.577350 /   0.339585  0.621506  0.705983 ->   0.7154174563
    5:   0.000000  0.707107  0.707107 /   0.000000  0.660772  0.750586 ->   0.7112360420
    6:   0.707107  0.000000  0.707107 /   0.433471  0.000000  0.901168 ->   1.1512714941
    7:   0.707107  0.707107  0.000000 /   0.479485  0.877550  0.000000 ->   0.5211731683

 END OF EFFECTIVE MASSES SECTION

 ---- first-order wavefunction calculations are completed ----

 Total localisation tensor (bohr^2) in cartesian coordinates
  WARNING : still subject to testing - especially symmetries.
      direction              matrix element
   alpha     beta       real part   imaginary part
     1        1       1.2668271167    0.0000000000
     1        2       0.0000000000    0.0000000000
     1        3       0.0000000000    0.0000000000
     2        1       0.0000000000    0.0000000000
     2        2       1.9426236668    0.0000000000
     2        3       0.0000000000    0.0000000000
     3        1       0.0000000000    0.0000000000
     3        2       0.0000000000    0.0000000000
     3        3       1.4706391176    0.0000000000

 respfn : d/dk was computed, but no 2DTE, so no DDB output.

== END DATASET(S) ==============================================================

 -outvars: echo values of variables after computation  --------
            acell      1.0000000000E+00  1.0000000000E+00  1.0000000000E+00 Bohr
              amu      7.49215900E+01  1.01070000E+02
             ecut      4.40000000E+01 Hartree
           etotal     -5.5147027206E+01
            fcart      0.0000000000E+00  0.0000000000E+00  0.0000000000E+00
                       0.0000000000E+00  0.0000000000E+00  0.0000000000E+00
                       0.0000000000E+00  0.0000000000E+00  0.0000000000E+00
                       0.0000000000E+00  0.0000000000E+00  0.0000000000E+00
                       0.0000000000E+00  0.0000000000E+00  0.0000000000E+00
                       0.0000000000E+00  0.0000000000E+00  0.0000000000E+00
-          fftalg         512
           irdden           1
           irdwfk           1
              ixc     -116133
              kpt      1.56250000E-01  5.00000000E-01  5.00000000E-01
                       2.50000000E-01  0.00000000E+00  0.00000000E+00
           kptopt           0
P           mkmem           2
P          mkqmem           2
P          mk1mem           2
            natom           6
            nband          55
           nbdbuf           4
            ngfft          36      64      72
             nkpt           2
            nstep        2000
             nsym           8
           ntypat           2
              occ      2.000000  2.000000  2.000000  2.000000  2.000000  2.000000
                       2.000000  2.000000  2.000000  2.000000  2.000000  2.000000
                       2.000000  2.000000  2.000000  2.000000  2.000000  2.000000
                       2.000000  2.000000  2.000000  2.000000  2.000000  2.000000
                       2.000000  2.000000  2.000000  2.000000  2.000000  2.000000
                       2.000000  2.000000  2.000000  2.000000  2.000000  2.000000
                       2.000000  2.000000  2.000000  2.000000  2.000000  2.000000
                       2.000000  2.000000  2.000000  2.000000  0.000000  0.000000
                       0.000000  0.000000  0.000000  0.000000  0.000000  0.000000
                       0.000000
        optdriver           1
            prtwf          -1
            rfdir           1       1       1
           rfelfd           2
            rprim      5.6054734008E+00  0.0000000000E+00  0.0000000000E+00
                       0.0000000000E+00  1.0259109214E+01  0.0000000000E+00
                       0.0000000000E+00  0.0000000000E+00  1.1653552596E+01
          spgroup          58
           strten      0.0000000000E+00  0.0000000000E+00  0.0000000000E+00
                       0.0000000000E+00  0.0000000000E+00  0.0000000000E+00
           symrel      1  0  0   0  1  0   0  0  1      -1  0  0   0 -1  0   0  0 -1
                      -1  0  0   0  1  0   0  0 -1       1  0  0   0 -1  0   0  0  1
                      -1  0  0   0 -1  0   0  0  1       1  0  0   0  1  0   0  0 -1
                       1  0  0   0 -1  0   0  0 -1      -1  0  0   0  1  0   0  0  1
            tnons      0.0000000  0.0000000  0.0000000     0.0000000  0.0000000  0.0000000
                       0.5000000  0.5000000  0.5000000     0.5000000  0.5000000  0.5000000
                       0.5000000  0.5000000  0.5000000     0.5000000  0.5000000  0.5000000
                       0.0000000  0.0000000  0.0000000     0.0000000  0.0000000  0.0000000
           tolwfr      1.00000000E-20
            typat      1  1  1  1  2  2
           useylm           1
              wtk        0.50000    0.50000
           xangst      1.4831443835E+00  1.7881395819E+00  5.3342710178E+00
                       1.4831443835E+00  3.6407471943E+00  8.3252341526E-01
                       0.0000000000E+00  9.2630380620E-01  2.2508738013E+00
                       0.0000000000E+00  4.5025829701E+00  3.9159206318E+00
                       1.4831443835E+00  2.7144433881E+00  3.0833972165E+00
                       0.0000000000E+00  0.0000000000E+00  0.0000000000E+00
            xcart      2.8027367004E+00  3.3790940972E+00  1.0080311342E+01
                       2.8027367004E+00  6.8800151164E+00  1.5732412541E+00
                       0.0000000000E+00  1.7504605096E+00  4.2535350441E+00
                       0.0000000000E+00  8.5086487040E+00  7.4000175522E+00
                       2.8027367004E+00  5.1295546068E+00  5.8267762982E+00
                       0.0000000000E+00  0.0000000000E+00  0.0000000000E+00
             xred      5.0000000000E-01  3.2937500000E-01  8.6499900000E-01
                       5.0000000000E-01  6.7062500000E-01  1.3500100000E-01
                       0.0000000000E+00  1.7062500000E-01  3.6499900000E-01
                       0.0000000000E+00  8.2937500000E-01  6.3500100000E-01
                       5.0000000000E-01  5.0000000000E-01  5.0000000000E-01
                       0.0000000000E+00  0.0000000000E+00  0.0000000000E+00
            znucl       33.00000   44.00000

- Timing analysis has been suppressed with timopt=0

 Suggested references for the acknowledgment of ABINIT usage.

 Calculation completed.
.Delivered   4 WARNINGs and   5 COMMENTs to log file.