.Version 9.5.1 of ABINIT

 ABINIT is a project of the Universite Catholique de Louvain,
 Corning Inc. and other collaborators, see ~abinit/doc/developers/contributors.txt .
 acknowledgments of the ABINIT effort.

.Starting date : Wed 19 May 2021.
- ( at 12h08 )

- input  file    -> /scratch/users/j/a/jabreu/flow_simple_9atoms/flow/w154/t1/run.abi
- output file    -> /scratch/users/j/a/jabreu/flow_simple_9atoms/flow/w154/t1/run.abo
- root for input  files -> /scratch/users/j/a/jabreu/flow_simple_9atoms/flow/w154/t1/indata/in
- root for output files -> /scratch/users/j/a/jabreu/flow_simple_9atoms/flow/w154/t1/outdata/out

 Symmetries : space group P3_1 2 1 (#152); Bravais hP (primitive hexag.)
     intxc =       0      iscf =       7    lmnmax =      18     lnmax =       6
     mgfft =      72  mpssoang =       3    mqgrid =    3210     natom =       9
  nloc_mem =       1    nspden =       1   nspinor =       1    nsppol =       1
      nsym =       6    n1xccc =    2501    ntypat =       2    occopt =       1
   xclevel =       2
-    mband =          48        mffmem =           1         mkmem =           2
-   mkqmem =           2        mk1mem =           2           mpw =       11510
      nfft =      259200          nkpt =           2
  Rough estimation (10% accuracy) of disk space for files :

------------- Echo of variables that govern the present computation ------------
-
- outvars: echo of selected default values
-   iomode0 =  0 , fftalg0 =512 , wfoptalg0 =  0
-
- outvars: echo of global parameters not present in the input file
-  max_nthreads =    0
-
 -outvars: echo values of preprocessed input variables --------
            acell      1.0000000000E+00  1.0000000000E+00  1.0000000000E+00 Bohr
              amu      7.26100000E+01  1.59994000E+01
             ecut      4.40000000E+01 Hartree
-          fftalg         512
           irdden           1
           irdwfk           1
           istwfk        0    1
              ixc     -116133
              kpt      2.82051282E-01  2.82051282E-01  0.00000000E+00
                       0.00000000E+00  0.00000000E+00  0.00000000E+00
           kptopt           0
P           mkmem           2
P          mkqmem           2
P          mk1mem           2
            natom           9
            nband          48
           nbdbuf           4
            ngfft          60      60      72
             nkpt           2
            nstep        2000
             nsym           6
           ntypat           2
              occ      2.000000  2.000000  2.000000  2.000000  2.000000  2.000000
                       2.000000  2.000000  2.000000  2.000000  2.000000  2.000000
                       2.000000  2.000000  2.000000  2.000000  2.000000  2.000000
                       2.000000  2.000000  2.000000  2.000000  2.000000  2.000000
                       2.000000  2.000000  2.000000  2.000000  2.000000  2.000000
                       2.000000  2.000000  2.000000  2.000000  2.000000  2.000000
                       2.000000  2.000000  2.000000  0.000000  0.000000  0.000000
                       0.000000  0.000000  0.000000  0.000000  0.000000  0.000000
        optdriver           1
            prtwf          -1
            rfdir           1       1       1
           rfelfd           2
            rprim      9.4211432527E+00  0.0000000000E+00  0.0000000000E+00
                      -4.7105716264E+00  8.1589493896E+00  0.0000000000E+00
                       0.0000000000E+00  0.0000000000E+00  1.0749812299E+01
          spgroup         152
           symrel      1  0  0   0  1  0   0  0  1       1  0  0  -1 -1  0   0  0 -1
                       0  1  0  -1 -1  0   0  0  1       0  1  0   1  0  0   0  0 -1
                      -1 -1  0   1  0  0   0  0  1      -1 -1  0   0  1  0   0  0 -1
            tnons      0.0000000  0.0000000  0.0000000     0.0000000  0.0000000 -0.3333333
                       0.0000000  0.0000000  0.3333333     0.0000000  0.0000000  0.0000000
                       0.0000000  0.0000000 -0.3333333     0.0000000  0.0000000  0.3333333
           tolwfr      1.00000000E-20
            typat      1  1  1  2  2  2  2  2  2
           useylm           1
              wtk        0.50000    0.50000
           xangst      2.7367252479E+00 -3.1956141903E-17  4.7404630543E+00
                      -1.3683626239E+00  2.3700735879E+00  9.4809261086E-01
                       1.1243645201E+00  1.9474564752E+00  2.8442778326E+00
                      -7.4955308134E-01  3.9304462227E+00  4.4848762483E-01
                       1.2859156736E+00  3.0014389616E+00  4.2408580683E+00
                      -5.3636259233E-01  1.7031749417E+00  2.3446728465E+00
                       1.7431740628E+00  3.8708384027E-01  3.3438828186E+00
                       1.9563645518E+00  2.6143551213E+00  1.4476975969E+00
                       3.7786428177E+00  1.3160911015E+00  5.2400680403E+00
            xcart      5.1716612194E+00 -6.0388356461E-17  8.9581769157E+00
                      -2.5858306097E+00  4.4787899958E+00  1.7916353831E+00
                       2.1247410166E+00  3.6801593938E+00  5.3749061494E+00
                      -1.4164500458E+00  7.4274669410E+00  8.4751878491E-01
                       2.4300284531E+00  5.6718976419E+00  8.0140603174E+00
                      -1.0135784074E+00  3.2185341963E+00  4.4307895512E+00
                       3.2941215806E+00  7.3148244858E-01  6.3190227476E+00
                       3.6969932189E+00  4.9404151933E+00  2.7357519814E+00
                       7.1406000795E+00  2.4870517477E+00  9.9022935139E+00
             xred      5.4894200000E-01 -7.4014868308E-18  8.3333333333E-01
                       9.2518585385E-17  5.4894200000E-01  1.6666666667E-01
                       4.5105800000E-01  4.5105800000E-01  5.0000000000E-01
                       3.0482500000E-01  9.1034600000E-01  7.8840333333E-02
                       6.0552100000E-01  6.9517500000E-01  7.4550700000E-01
                       8.9654000000E-02  3.9447900000E-01  4.1217366667E-01
                       3.9447900000E-01  8.9654000000E-02  5.8782633333E-01
                       6.9517500000E-01  6.0552100000E-01  2.5449300000E-01
                       9.1034600000E-01  3.0482500000E-01  9.2115966667E-01
            znucl       32.00000    8.00000

 chkinp: Checking input parameters for consistency.

== DATASET  1 ==================================================================
-   mpi_nproc: 1, omp_nthreads: -1 (-1 if OMP is not activated)

--- !DatasetInfo
iteration_state: {dtset: 1, }
dimensions: {natom: 9, nkpt: 2, mband: 48, nsppol: 1, nspinor: 1, nspden: 1, mpw: 11510, }
cutoff_energies: {ecut:  44.0, pawecutdg:  -1.0, }
electrons: {nelect:   7.80000000E+01, charge:   0.00000000E+00, occopt:   1.00000000E+00, tsmear:   1.00000000E-02, }
meta: {optdriver: 1, rfelfd: 2, }
...

 Real(R)+Recip(G) space primitive vectors, cartesian coordinates (Bohr,Bohr^-1):
 R(1)=  9.4211433  0.0000000  0.0000000  G(1)=  0.1061442  0.0612824  0.0000000
 R(2)= -4.7105716  8.1589494  0.0000000  G(2)=  0.0000000  0.1225648  0.0000000
 R(3)=  0.0000000  0.0000000 10.7498123  G(3)=  0.0000000  0.0000000  0.0930249
 Unit cell volume ucvol=  8.2630186E+02 bohr^3
 Angles (23,13,12)=  9.00000000E+01  9.00000000E+01  1.20000000E+02 degrees

 getcut: wavevector=  0.0000  0.0000  0.0000  ngfft=  60  60  72
         ecut(hartree)=     44.000   => boxcut(ratio)=   2.13283

--- Pseudopotential description ------------------------------------------------
- pspini: atom type   1  psp file is /scratch/users/j/a/jabreu/pseudos/PBEsol/Ge.psp8
- pspatm: opening atomic psp file    /scratch/users/j/a/jabreu/pseudos/PBEsol/Ge.psp8
- Ge    ONCVPSP-3.3.0  r_core=   1.91022   1.82122   1.91022
- 32.00000  14.00000    180112                znucl, zion, pspdat
    8 -116133    2    4       600   0.00000   pspcod,pspxc,lmax,lloc,mmax,r2well
    5.99000000000000    5.00000000000000    0.00000000000000   rchrg,fchrg,qchrg
     nproj     2     2     2
     extension_switch     1
  pspatm : epsatm=   30.86751540
         --- l  ekb(1:nproj) -->
             0    6.339734    0.583066
             1    3.813259    0.738801
             2   -9.332373   -3.602819
 pspatm: atomic psp has been read  and splines computed

- pspini: atom type   2  psp file is /scratch/users/j/a/jabreu/pseudos/PBEsol/O.psp8
- pspatm: opening atomic psp file    /scratch/users/j/a/jabreu/pseudos/PBEsol/O.psp8
- O     ONCVPSP-3.3.0  r_core=   1.35509   1.45563   1.26150
-  8.00000   6.00000    180112                znucl, zion, pspdat
    8 -116133    2    4       600   0.00000   pspcod,pspxc,lmax,lloc,mmax,r2well
    5.99000000000000    4.00000000000000    0.00000000000000   rchrg,fchrg,qchrg
     nproj     2     2     1
     extension_switch     1
  pspatm : epsatm=    6.22910522
         --- l  ekb(1:nproj) -->
             0    6.050032    0.820363
             1   -4.739617   -1.153841
             2   -1.335834
 pspatm: atomic psp has been read  and splines computed

   1.01382198E+04                                ecore*ucvol(ha*bohr**3)

-inwffil : will read wavefunctions from disk file /scratch/users/j/a/jabreu/flow_simple_9atoms/flow/w154/t1/indata/in_WFK

 ==>  initialize data related to q vector <==

 The list of irreducible perturbations for this q vector is:
    1)    idir= 1    ipert=  10
    2)    idir= 2    ipert=  10
    3)    idir= 3    ipert=  10

 Perturbation wavevector (in red.coord.)   0.000000  0.000000  0.000000
 Perturbation : derivative vs k along direction   1

 dfpt_looppert : COMMENT -
  In a d/dk calculation, iscf is set to -3 automatically.
 The set of symmetries contains only one element for this perturbation.
 symkpt : not enough symmetry to change the number of k points.

[...]

 Initialisation of the first-order wave-functions :
  ireadwf=   0

--- !BeginCycle
iteration_state: {dtset: 1, }
solver: {iscf: 7, nstep: 2000, nline: 4, wfoptalg: 0, }
tolerances: {tolwfr: 1.00E-20, }
...

     iter   2DEtotal(Ha)        deltaE(Ha) residm    vres2
-ETOT  1  -87.606267136767     -8.761E+01 1.017E-01 0.000E+00
 ETOT  2  -87.707837531502     -1.016E-01 1.545E-02 0.000E+00
 ETOT  3  -87.708224214781     -3.867E-04 5.881E-04 0.000E+00
 ETOT  4  -87.708228318260     -4.103E-06 1.961E-04 0.000E+00
 ETOT  5  -87.708228376723     -5.846E-08 9.072E-06 0.000E+00
 ETOT  6  -87.708228377669     -9.461E-10 3.775E-06 0.000E+00
 ETOT  7  -87.708228377686     -1.629E-11 2.212E-07 0.000E+00
 ETOT  8  -87.708228377686     -2.558E-13 1.054E-07 0.000E+00
 ETOT  9  -87.708228377686      4.263E-14 7.412E-09 0.000E+00
 ETOT 10  -87.708228377686     -2.842E-14 3.945E-09 0.000E+00
 ETOT 11  -87.708228377686      2.842E-14 3.094E-10 0.000E+00
 ETOT 12  -87.708228377686     -7.105E-14 1.737E-10 0.000E+00
 ETOT 13  -87.708228377686     -1.421E-14 1.396E-11 0.000E+00
 ETOT 14  -87.708228377686      1.421E-14 8.070E-12 0.000E+00
 ETOT 15  -87.708228377686      0.000E+00 6.429E-13 0.000E+00
 ETOT 16  -87.708228377686      0.000E+00 3.804E-13 0.000E+00
 ETOT 17  -87.708228377686      0.000E+00 2.982E-14 0.000E+00
 ETOT 18  -87.708228377686     -1.421E-14 1.800E-14 0.000E+00
 ETOT 19  -87.708228377686      1.421E-14 1.389E-15 0.000E+00
 ETOT 20  -87.708228377686      0.000E+00 8.532E-16 0.000E+00
 ETOT 21  -87.708228377686     -1.421E-14 6.489E-17 0.000E+00
 ETOT 22  -87.708228377686      1.421E-14 4.046E-17 0.000E+00
 ETOT 23  -87.708228377686      0.000E+00 3.038E-18 0.000E+00
 ETOT 24  -87.708228377686      0.000E+00 1.919E-18 0.000E+00
 ETOT 25  -87.708228377686      0.000E+00 1.425E-19 0.000E+00
 ETOT 26  -87.708228377686      0.000E+00 9.099E-20 0.000E+00
 ETOT 27  -87.708228377686      0.000E+00 9.740E-21 0.000E+00

 At SCF step   27   max residual=  9.74E-21 < tolwfr=  1.00E-20 =>converged.

 ----iterations are completed or convergence reached----

 dfpt_looppert: DFPT cycle converged with prtwf=-1. Will skip output of the 1st-order WFK file.
 dfpt_looppert : ek2=    9.2515788946E+01
          f-sum rule ratio=    1.0119651094E+00
 prteigrs : about to open file /scratch/users/j/a/jabreu/flow_simple_9atoms/flow/w154/t1/tmpdata/tmp_1WF1_EIG
 Expectation of eigenvalue derivatives (hartree) for nkpt=   2  k points:
  (in case of degenerate eigenvalues, averaged derivative)
 kpt#   1, nband= 48, wtk=  0.50000, kpt=  0.2821  0.2821  0.0000 (reduced coord)
   0.00090   -0.00002    0.00058   -0.00120    0.00655   -0.00716    0.00022    0.00055
  -0.00077   -0.00017    0.00092    0.00067    0.00002   -0.00124   -0.00025    0.07096
  -0.06972   -0.00200   -0.00161    0.00604   -0.01182   -0.00705    0.12371   -0.14266
   0.03595   -0.01706    0.04966    0.03518   -0.00878   -0.02689   -0.01730   -0.02268
   0.00121   -0.02391    0.01576   -0.00000    0.01300    0.00255    0.00012    0.13892
  -0.12041    0.00490    0.02476    0.02977   -0.13237    0.03959    0.02104   -0.02718
 prteigrs : prtvol=0 or 1, do not print more k-points.

 Eight components of 2nd-order total energy (hartree) are
 1,2,3: 0th-order hamiltonian combined with 1st-order wavefunctions
     kin0=   1.04396026E+02 eigvalue=   1.03319368E+01  local=  -3.82433488E+01
 4,5,6: 1st-order hamiltonian combined with 1st and 0th-order wfs
     kin1=  -9.36227505E+01  Hartree=   0.00000000E+00     xc=   0.00000000E+00
 7,8,9: eventually, occupation + non-local contributions
    edocc=   8.19205839E+00     enl0=   3.03155569E+00   enl1=  -8.17937063E+01
 1-9 gives the relaxation energy (to be shifted if some occ is /=2.0)
   erelax=  -8.77082284E+01
  No Ewald or frozen-wf contrib.: the relaxation energy is the total one
 2DEtotal=   -0.8770822838E+02 Ha. Also 2DEtotal=   -0.238666227007E+04 eV
    (  non-var. 2DEtotal :   -8.7708228377E+01 Ha)

 Perturbation wavevector (in red.coord.)   0.000000  0.000000  0.000000
 Perturbation : derivative vs k along direction   2
 The set of symmetries contains only one element for this perturbation.
 symkpt : not enough symmetry to change the number of k points.

[...]

 Perturbation wavevector (in red.coord.)   0.000000  0.000000  0.000000
 Perturbation : derivative vs k along direction   3
 The set of symmetries contains only one element for this perturbation.
 symkpt : not enough symmetry to change the number of k points.

-inwffil : will read wavefunctions from disk file /scratch/users/j/a/jabreu/flow_simple_9atoms/flow/w154/t1/indata/in_WFK

 Initialisation of the first-order wave-functions :
  ireadwf=   0

--- !BeginCycle
iteration_state: {dtset: 1, }
solver: {iscf: 7, nstep: 2000, nline: 4, wfoptalg: 0, }
tolerances: {tolwfr: 1.00E-20, }
...

     iter   2DEtotal(Ha)        deltaE(Ha) residm    vres2
-ETOT  1  -50.959858834781     -5.096E+01 6.627E-02 0.000E+00
 ETOT  2  -51.015278924460     -5.542E-02 1.681E-02 0.000E+00
 ETOT  3  -51.015502456960     -2.235E-04 1.257E-03 0.000E+00
 ETOT  4  -51.015505207095     -2.750E-06 4.079E-04 0.000E+00
 ETOT  5  -51.015505251531     -4.444E-08 2.973E-05 0.000E+00
 ETOT  6  -51.015505252310     -7.787E-10 1.384E-05 0.000E+00
 ETOT  7  -51.015505252324     -1.422E-11 9.766E-07 0.000E+00
 ETOT  8  -51.015505252324     -2.203E-13 5.373E-07 0.000E+00
 ETOT  9  -51.015505252324     -3.553E-14 3.710E-08 0.000E+00
 ETOT 10  -51.015505252324      2.132E-14 2.165E-08 0.000E+00
 ETOT 11  -51.015505252324      0.000E+00 1.466E-09 0.000E+00
 ETOT 12  -51.015505252324     -7.105E-15 8.311E-10 0.000E+00
 ETOT 13  -51.015505252324      2.842E-14 6.023E-11 0.000E+00
 ETOT 14  -51.015505252324     -2.842E-14 3.176E-11 0.000E+00
 ETOT 15  -51.015505252324      0.000E+00 2.502E-12 0.000E+00
 ETOT 16  -51.015505252324      0.000E+00 1.353E-12 0.000E+00
 ETOT 17  -51.015505252324      0.000E+00 1.050E-13 0.000E+00
 ETOT 18  -51.015505252324      0.000E+00 5.782E-14 0.000E+00
 ETOT 19  -51.015505252324      0.000E+00 4.426E-15 0.000E+00
 ETOT 20  -51.015505252324      0.000E+00 2.477E-15 0.000E+00
 ETOT 21  -51.015505252324     -7.105E-15 1.874E-16 0.000E+00
 ETOT 22  -51.015505252324      7.105E-15 1.063E-16 0.000E+00
 ETOT 23  -51.015505252324      1.421E-14 7.961E-18 0.000E+00
 ETOT 24  -51.015505252324     -2.132E-14 4.570E-18 0.000E+00
 ETOT 25  -51.015505252324      0.000E+00 3.394E-19 0.000E+00
 ETOT 26  -51.015505252324      7.105E-15 1.968E-19 0.000E+00
 ETOT 27  -51.015505252324      0.000E+00 1.451E-20 0.000E+00
 ETOT 28  -51.015505252324     -7.105E-15 9.969E-21 0.000E+00

 At SCF step   28   max residual=  9.97E-21 < tolwfr=  1.00E-20 =>converged.

 ----iterations are completed or convergence reached----

 dfpt_looppert: DFPT cycle converged with prtwf=-1. Will skip output of the 1st-order WFK file.
 dfpt_looppert : ek2=    5.3294522172E+01
          f-sum rule ratio=    1.0360000752E+00
 prteigrs : about to open file /scratch/users/j/a/jabreu/flow_simple_9atoms/flow/w154/t1/tmpdata/tmp_1WF1_EIG
 Expectation of eigenvalue derivatives (hartree) for nkpt=   2  k points:
  (in case of degenerate eigenvalues, averaged derivative)
 kpt#   1, nband= 48, wtk=  0.50000, kpt=  0.2821  0.2821  0.0000 (reduced coord)
  -0.00000   -0.00000    0.00000    0.00000   -0.00000    0.00000    0.00000   -0.00000
   0.00000    0.00000   -0.00000    0.00000    0.00000   -0.00000   -0.00000   -0.00000
   0.00000    0.00000   -0.00000   -0.00000    0.00000   -0.00000    0.00000   -0.00000
   0.00000    0.00000   -0.00000    0.00000   -0.00000    0.00000   -0.00000    0.00000
   0.00000   -0.00000    0.00000   -0.00000    0.00000   -0.00000    0.00000   -0.00000
  -0.00000    0.00000    0.00000    0.00000   -0.00000    0.00001   -0.00003    0.00001
 prteigrs : prtvol=0 or 1, do not print more k-points.

 Eight components of 2nd-order total energy (hartree) are
 1,2,3: 0th-order hamiltonian combined with 1st-order wavefunctions
     kin0=   5.99066531E+01 eigvalue=   5.85999629E+00  local=  -2.17566546E+01
 4,5,6: 1st-order hamiltonian combined with 1st and 0th-order wfs
     kin1=  -5.52131290E+01  Hartree=   0.00000000E+00     xc=   0.00000000E+00
 7,8,9: eventually, occupation + non-local contributions
    edocc=   5.42248707E+00     enl0=   1.58302337E+00   enl1=  -4.68178815E+01
 1-9 gives the relaxation energy (to be shifted if some occ is /=2.0)
   erelax=  -5.10155053E+01
  No Ewald or frozen-wf contrib.: the relaxation energy is the total one
 2DEtotal=   -0.5101550525E+02 Ha. Also 2DEtotal=   -0.138820249623E+04 eV
    (  non-var. 2DEtotal :   -5.1015505252E+01 Ha)

 CALCULATION OF EFFECTIVE MASSES
 NOTE : Additional infos (eff. mass eigenvalues, eigenvectors and, if degenerate, average mass) are available in stdout.

 K-point ( 0.282, 0.282, 0.000) | band =    39
 Effective mass tensor:
            -38.3446294829              1.2438686552              3.9499524918
              1.2438686552            -36.9086598401             -2.2806417215
              3.9499524918             -2.2806417215             -2.6705070159
 Effective mass tensor eigenvalues:
            -39.6257946504            -36.1904303898             -2.1075712987
 Angular average effective mass 1/(<1/m>)=  -5.6888484677
 Angular average effective mass for Frohlich model (<m**0.5>)**2= -10.0590468478
 Effective masses along directions: (cart. coord. / red. coord. -> eff. mass)
    1:   1.000000  0.000000  0.000000 /   0.894427 -0.447214  0.000000 -> -32.3725451321
    2:   0.000000  1.000000  0.000000 /   0.000000  1.000000  0.000000 -> -34.8214542705
    3:   0.000000  0.000000  1.000000 /   0.000000  0.000000  1.000000 ->  -2.1379435549
    4:   0.577350  0.577350  0.577350 /   0.640720  0.234520  0.731081 ->  -5.3232879103
    5:   0.000000  0.707107  0.707107 /   0.000000  0.604571  0.796551 ->  -4.5265210280
    6:   0.707107  0.000000  0.707107 /   0.625985 -0.312992  0.714268 ->  -3.3714120894
    7:   0.707107  0.707107  0.000000 /   0.939071  0.343724  0.000000 -> -35.8132166532

 K-point ( 0.000, 0.000, 0.000) | band =    40
 Effective mass tensor:
              0.4226838233              0.0000003247             -0.0000001981
              0.0000003247              0.4226839271              0.0000002742
             -0.0000001981              0.0000002742              0.3758082949
 Effective mass tensor eigenvalues:
              0.3758082949              0.4226835464              0.4226842040
 Angular average effective mass 1/(<1/m>)=   0.4058112327
 Angular average effective mass for Frohlich model (<m**0.5>)**2=   0.4061926696
 Effective masses along directions: (cart. coord. / red. coord. -> eff. mass)
    1:   1.000000  0.000000  0.000000 /   0.894427 -0.447214  0.000000 ->   0.4226838233
    2:   0.000000  1.000000  0.000000 /   0.000000  1.000000  0.000000 ->   0.4226839271
    3:   0.000000  0.000000  1.000000 /   0.000000  0.000000  1.000000 ->   0.3758082949
    4:   0.577350  0.577350  0.577350 /   0.640720  0.234520  0.731081 ->   0.4058114848
    5:   0.000000  0.707107  0.707107 /   0.000000  0.604571  0.796551 ->   0.3978704630
    6:   0.707107  0.000000  0.707107 /   0.625985 -0.312992  0.714268 ->   0.3978699463
    7:   0.707107  0.707107  0.000000 /   0.939071  0.343724  0.000000 ->   0.4226841999

 END OF EFFECTIVE MASSES SECTION

 ---- first-order wavefunction calculations are completed ----

 Total localisation tensor (bohr^2) in cartesian coordinates
  WARNING : still subject to testing - especially symmetries.
      direction              matrix element
   alpha     beta       real part   imaginary part
     1        1       0.9990660164    0.0000000000
     1        2      -0.3460868589    0.0000000000
     1        3       0.0000000000    0.0000000000
     2        1      -0.3460868589    0.0000000000
     2        2       0.5994400235    0.0000000000
     2        3       0.0000000000    0.0000000000
     3        1       0.0000000000    0.0000000000
     3        2       0.0000000000    0.0000000000
     3        3       0.6414261804    0.0000000000

 respfn : d/dk was computed, but no 2DTE, so no DDB output.

== END DATASET(S) ==============================================================

 -outvars: echo values of variables after computation  --------
            acell      1.0000000000E+00  1.0000000000E+00  1.0000000000E+00 Bohr
              amu      7.26100000E+01  1.59994000E+01
             ecut      4.40000000E+01 Hartree
           etotal     -5.1015505252E+01
            fcart      0.0000000000E+00  0.0000000000E+00  0.0000000000E+00
                       0.0000000000E+00  0.0000000000E+00  0.0000000000E+00
                       0.0000000000E+00  0.0000000000E+00  0.0000000000E+00
                       0.0000000000E+00  0.0000000000E+00  0.0000000000E+00
                       0.0000000000E+00  0.0000000000E+00  0.0000000000E+00
                       0.0000000000E+00  0.0000000000E+00  0.0000000000E+00
                       0.0000000000E+00  0.0000000000E+00  0.0000000000E+00
                       0.0000000000E+00  0.0000000000E+00  0.0000000000E+00
                       0.0000000000E+00  0.0000000000E+00  0.0000000000E+00
-          fftalg         512
           irdden           1
           irdwfk           1
           istwfk        0    1
              ixc     -116133
              kpt      2.82051282E-01  2.82051282E-01  0.00000000E+00
                       0.00000000E+00  0.00000000E+00  0.00000000E+00
           kptopt           0
P           mkmem           2
P          mkqmem           2
P          mk1mem           2
            natom           9
            nband          48
           nbdbuf           4
            ngfft          60      60      72
             nkpt           2
            nstep        2000
             nsym           6
           ntypat           2
              occ      2.000000  2.000000  2.000000  2.000000  2.000000  2.000000
                       2.000000  2.000000  2.000000  2.000000  2.000000  2.000000
                       2.000000  2.000000  2.000000  2.000000  2.000000  2.000000
                       2.000000  2.000000  2.000000  2.000000  2.000000  2.000000
                       2.000000  2.000000  2.000000  2.000000  2.000000  2.000000
                       2.000000  2.000000  2.000000  2.000000  2.000000  2.000000
                       2.000000  2.000000  2.000000  0.000000  0.000000  0.000000
                       0.000000  0.000000  0.000000  0.000000  0.000000  0.000000
        optdriver           1
            prtwf          -1
            rfdir           1       1       1
           rfelfd           2
            rprim      9.4211432527E+00  0.0000000000E+00  0.0000000000E+00
                      -4.7105716264E+00  8.1589493896E+00  0.0000000000E+00
                       0.0000000000E+00  0.0000000000E+00  1.0749812299E+01
          spgroup         152
           strten      0.0000000000E+00  0.0000000000E+00  0.0000000000E+00
                       0.0000000000E+00  0.0000000000E+00  0.0000000000E+00
           symrel      1  0  0   0  1  0   0  0  1       1  0  0  -1 -1  0   0  0 -1
                       0  1  0  -1 -1  0   0  0  1       0  1  0   1  0  0   0  0 -1
                      -1 -1  0   1  0  0   0  0  1      -1 -1  0   0  1  0   0  0 -1
            tnons      0.0000000  0.0000000  0.0000000     0.0000000  0.0000000 -0.3333333
                       0.0000000  0.0000000  0.3333333     0.0000000  0.0000000  0.0000000
                       0.0000000  0.0000000 -0.3333333     0.0000000  0.0000000  0.3333333
           tolwfr      1.00000000E-20
            typat      1  1  1  2  2  2  2  2  2
           useylm           1
              wtk        0.50000    0.50000
           xangst      2.7367252479E+00 -3.1956141903E-17  4.7404630543E+00
                      -1.3683626239E+00  2.3700735879E+00  9.4809261086E-01
                       1.1243645201E+00  1.9474564752E+00  2.8442778326E+00
                      -7.4955308134E-01  3.9304462227E+00  4.4848762483E-01
                       1.2859156736E+00  3.0014389616E+00  4.2408580683E+00
                      -5.3636259233E-01  1.7031749417E+00  2.3446728465E+00
                       1.7431740628E+00  3.8708384027E-01  3.3438828186E+00
                       1.9563645518E+00  2.6143551213E+00  1.4476975969E+00
                       3.7786428177E+00  1.3160911015E+00  5.2400680403E+00
            xcart      5.1716612194E+00 -6.0388356461E-17  8.9581769157E+00
                      -2.5858306097E+00  4.4787899958E+00  1.7916353831E+00
                       2.1247410166E+00  3.6801593938E+00  5.3749061494E+00
                      -1.4164500458E+00  7.4274669410E+00  8.4751878491E-01
                       2.4300284531E+00  5.6718976419E+00  8.0140603174E+00
                      -1.0135784074E+00  3.2185341963E+00  4.4307895512E+00
                       3.2941215806E+00  7.3148244858E-01  6.3190227476E+00
                       3.6969932189E+00  4.9404151933E+00  2.7357519814E+00
                       7.1406000795E+00  2.4870517477E+00  9.9022935139E+00
             xred      5.4894200000E-01 -7.4014868308E-18  8.3333333333E-01
                       9.2518585385E-17  5.4894200000E-01  1.6666666667E-01
                       4.5105800000E-01  4.5105800000E-01  5.0000000000E-01
                       3.0482500000E-01  9.1034600000E-01  7.8840333333E-02
                       6.0552100000E-01  6.9517500000E-01  7.4550700000E-01
                       8.9654000000E-02  3.9447900000E-01  4.1217366667E-01
                       3.9447900000E-01  8.9654000000E-02  5.8782633333E-01
                       6.9517500000E-01  6.0552100000E-01  2.5449300000E-01
                       9.1034600000E-01  3.0482500000E-01  9.2115966667E-01
            znucl       32.00000    8.00000

- Timing analysis has been suppressed with timopt=0

 Suggested references for the acknowledgment of ABINIT usage.

 Calculation completed.
.Delivered  14 WARNINGs and   9 COMMENTs to log file.