.Version 9.5.1 of ABINIT

 ABINIT is a project of the Universite Catholique de Louvain,
 Corning Inc. and other collaborators, see ~abinit/doc/developers/contributors.txt .
 acknowledgments of the ABINIT effort.

.Starting date : Sat  1 May 2021.
- ( at 05h11 )

- input  file    -> /scratch/users/j/a/jabreu/flow_simple_6atoms/flow/w156/t1/run.abi
- output file    -> /scratch/users/j/a/jabreu/flow_simple_6atoms/flow/w156/t1/run.abo
- root for input  files -> /scratch/users/j/a/jabreu/flow_simple_6atoms/flow/w156/t1/indata/in
- root for output files -> /scratch/users/j/a/jabreu/flow_simple_6atoms/flow/w156/t1/outdata/out

 Symmetries : space group P4/n m m (#129); Bravais tP (primitive tetrag.)
     intxc =       0      iscf =       7    lmnmax =      18     lnmax =       6
     mgfft =      90  mpssoang =       3    mqgrid =    4267     natom =       6
  nloc_mem =       1    nspden =       1   nspinor =       1    nsppol =       1
      nsym =      16    n1xccc =    2501    ntypat =       3    occopt =       1
   xclevel =       2
-    mband =          43        mffmem =           1         mkmem =           2
-   mkqmem =           2        mk1mem =           2           mpw =       16627
      nfft =      324000          nkpt =           2
  Rough estimation (10% accuracy) of disk space for files :

------------- Echo of variables that govern the present computation ------------
-
- outvars: echo of selected default values
-   iomode0 =  0 , fftalg0 =512 , wfoptalg0 =  0
-
- outvars: echo of global parameters not present in the input file
-  max_nthreads =    0
-
 -outvars: echo values of preprocessed input variables --------
            acell      1.0000000000E+00  1.0000000000E+00  1.0000000000E+00 Bohr
              amu      3.90983000E+01  4.00780000E+01  2.08980370E+02
             ecut      3.60000000E+01 Hartree
-          fftalg         512
           irdden           1
           irdwfk           1
           istwfk        0    1
              ixc     -116133
              kpt      2.40000000E-01  2.40000000E-01  5.00000000E-01
                       0.00000000E+00  0.00000000E+00  0.00000000E+00
           kptopt           0
P           mkmem           2
P          mkqmem           2
P          mk1mem           2
            natom           6
            nband          43
           nbdbuf           4
            ngfft          60      60      90
             nkpt           2
            nstep        1000
             nsym          16
           ntypat           3
              occ      2.000000  2.000000  2.000000  2.000000  2.000000  2.000000
                       2.000000  2.000000  2.000000  2.000000  2.000000  2.000000
                       2.000000  2.000000  2.000000  2.000000  2.000000  2.000000
                       2.000000  2.000000  2.000000  2.000000  2.000000  2.000000
                       2.000000  2.000000  2.000000  2.000000  2.000000  2.000000
                       2.000000  2.000000  2.000000  2.000000  0.000000  0.000000
                       0.000000  0.000000  0.000000  0.000000  0.000000  0.000000
                       0.000000
        optdriver           1
            prtwf          -1
            rfdir           1       1       1
           rfelfd           2
            rprim      1.0084277327E+01  0.0000000000E+00  0.0000000000E+00
                       0.0000000000E+00  1.0084277327E+01  0.0000000000E+00
                       0.0000000000E+00  0.0000000000E+00  1.5797805249E+01
          spgroup         129
           symrel      1  0  0   0  1  0   0  0  1      -1  0  0   0 -1  0   0  0 -1
                      -1  0  0   0  1  0   0  0 -1       1  0  0   0 -1  0   0  0  1
                      -1  0  0   0 -1  0   0  0  1       1  0  0   0  1  0   0  0 -1
                       1  0  0   0 -1  0   0  0 -1      -1  0  0   0  1  0   0  0  1
                       0  1  0   1  0  0   0  0  1       0 -1  0  -1  0  0   0  0 -1
                       0 -1  0   1  0  0   0  0 -1       0  1  0  -1  0  0   0  0  1
                       0 -1  0  -1  0  0   0  0  1       0  1  0   1  0  0   0  0 -1
                       0  1  0  -1  0  0   0  0 -1       0 -1  0   1  0  0   0  0  1
            tnons      0.0000000  0.0000000  0.0000000     0.5000000  0.5000000  0.0000000
                       0.5000000  0.5000000  0.0000000     0.0000000  0.0000000  0.0000000
                       0.0000000  0.0000000  0.0000000     0.5000000  0.5000000  0.0000000
                       0.5000000  0.5000000  0.0000000     0.0000000  0.0000000  0.0000000
                       0.5000000  0.5000000  0.0000000     0.0000000  0.0000000  0.0000000
                       0.0000000  0.0000000  0.0000000     0.5000000  0.5000000  0.0000000
                       0.5000000  0.5000000  0.0000000     0.0000000  0.0000000  0.0000000
                       0.0000000  0.0000000  0.0000000     0.5000000  0.5000000  0.0000000
           tolwfr      1.00000000E-20
            typat      1  1  2  2  3  3
           useylm           1
              wtk        0.50000    0.50000
           xangst      2.6681848633E+00  0.0000000000E+00  7.2261691466E+00
                       0.0000000000E+00  2.6681848633E+00  1.1336693369E+00
                       2.6681848633E+00  2.6681848633E+00  4.1799192417E+00
                       0.0000000000E+00  0.0000000000E+00  4.1799192417E+00
                       2.6681848633E+00  0.0000000000E+00  2.4303973234E+00
                       0.0000000000E+00  2.6681848633E+00  5.9294411600E+00
            xcart      5.0421386636E+00  0.0000000000E+00  1.3655480677E+01
                       0.0000000000E+00  5.0421386636E+00  2.1423245720E+00
                       5.0421386636E+00  5.0421386636E+00  7.8989026244E+00
                       0.0000000000E+00  0.0000000000E+00  7.8989026244E+00
                       5.0421386636E+00  0.0000000000E+00  4.5927853354E+00
                       0.0000000000E+00  5.0421386636E+00  1.1205019914E+01
             xred      5.0000000000E-01  0.0000000000E+00  8.6439100000E-01
                       0.0000000000E+00  5.0000000000E-01  1.3560900000E-01
                       5.0000000000E-01  5.0000000000E-01  5.0000000000E-01
                       0.0000000000E+00  0.0000000000E+00  5.0000000000E-01
                       5.0000000000E-01  0.0000000000E+00  2.9072300000E-01
                       0.0000000000E+00  5.0000000000E-01  7.0927700000E-01
            znucl       19.00000   20.00000   83.00000

 chkinp: Checking input parameters for consistency.

== DATASET  1 ==================================================================
-   mpi_nproc: 1, omp_nthreads: -1 (-1 if OMP is not activated)

--- !DatasetInfo
iteration_state: {dtset: 1, }
dimensions: {natom: 6, nkpt: 2, mband: 43, nsppol: 1, nspinor: 1, nspden: 1, mpw: 16627, }
cutoff_energies: {ecut:  36.0, pawecutdg:  -1.0, }
electrons: {nelect:   6.80000000E+01, charge:   0.00000000E+00, occopt:   1.00000000E+00, tsmear:   1.00000000E-02, }
meta: {optdriver: 1, rfelfd: 2, }
...

 Real(R)+Recip(G) space primitive vectors, cartesian coordinates (Bohr,Bohr^-1):
 R(1)= 10.0842773  0.0000000  0.0000000  G(1)=  0.0991643  0.0000000  0.0000000
 R(2)=  0.0000000 10.0842773  0.0000000  G(2)=  0.0000000  0.0991643  0.0000000
 R(3)=  0.0000000  0.0000000 15.7978052  G(3)=  0.0000000  0.0000000  0.0632999
 Unit cell volume ucvol=  1.6065207E+03 bohr^3
 Angles (23,13,12)=  9.00000000E+01  9.00000000E+01  9.00000000E+01 degrees

 getcut: wavevector=  0.0000  0.0000  0.0000  ngfft=  60  60  90
         ecut(hartree)=     36.000   => boxcut(ratio)=   2.10926

--- Pseudopotential description ------------------------------------------------
- pspini: atom type   1  psp file is /scratch/users/j/a/jabreu/pseudos/PBEsol/K.psp8
- pspatm: opening atomic psp file    /scratch/users/j/a/jabreu/pseudos/PBEsol/K.psp8
- K     ONCVPSP-3.3.0  r_core=   1.36296   1.46408   1.61068
- 19.00000   9.00000    180112                znucl, zion, pspdat
    8 -116133    2    4       400   0.00000   pspcod,pspxc,lmax,lloc,mmax,r2well
    3.99000000000000    5.00000000000000    0.00000000000000   rchrg,fchrg,qchrg
     nproj     2     2     2
     extension_switch     1
  pspatm : epsatm=    8.32487830
         --- l  ekb(1:nproj) -->
             0   10.921326    0.816676
             1    4.431000    0.560368
             2   -3.384038   -1.043186
 pspatm: atomic psp has been read  and splines computed

- pspini: atom type   2  psp file is /scratch/users/j/a/jabreu/pseudos/PBEsol/Ca.psp8
- pspatm: opening atomic psp file    /scratch/users/j/a/jabreu/pseudos/PBEsol/Ca.psp8
- Ca    ONCVPSP-3.3.0  r_core=   1.45885   1.45885   1.85192
- 20.00000  10.00000    180112                znucl, zion, pspdat
    8 -116133    2    4       400   0.00000   pspcod,pspxc,lmax,lloc,mmax,r2well
    3.99000000000000    6.00000000000000    0.00000000000000   rchrg,fchrg,qchrg
     nproj     2     2     2
     extension_switch     1
  pspatm : epsatm=   12.46045226
         --- l  ekb(1:nproj) -->
             0   10.054847    0.973777
             1    2.998958    0.458102
             2   -3.447298   -1.091650
 pspatm: atomic psp has been read  and splines computed

- pspini: atom type   3  psp file is /scratch/users/j/a/jabreu/pseudos/PBEsol/Bi.psp8
- pspatm: opening atomic psp file    /scratch/users/j/a/jabreu/pseudos/PBEsol/Bi.psp8
- Bi    ONCVPSP-3.3.0  r_core=   2.42776   2.51622   2.10397
- 83.00000  15.00000    180112                znucl, zion, pspdat
    8 -116133    2    4       600   0.00000   pspcod,pspxc,lmax,lloc,mmax,r2well
    5.99000000000000    6.00000000000000    0.00000000000000   rchrg,fchrg,qchrg
     nproj     2     2     2
     extension_switch     1
  pspatm : epsatm=   42.90078186
         --- l  ekb(1:nproj) -->
             0    6.017688    0.961606
             1    4.379371    0.528498
             2   -3.458170   -0.753782
 pspatm: atomic psp has been read  and splines computed

   8.66131129E+03                                ecore*ucvol(ha*bohr**3)

-inwffil : will read wavefunctions from disk file /scratch/users/j/a/jabreu/flow_simple_6atoms/flow/w156/t1/indata/in_WFK

 ==>  initialize data related to q vector <==

 The list of irreducible perturbations for this q vector is:
    1)    idir= 1    ipert=   7
    2)    idir= 2    ipert=   7
    3)    idir= 3    ipert=   7

 Perturbation wavevector (in red.coord.)   0.000000  0.000000  0.000000
 Perturbation : derivative vs k along direction   1

 dfpt_looppert : COMMENT -
  In a d/dk calculation, iscf is set to -3 automatically.
 The set of symmetries contains only one element for this perturbation.
 symkpt : not enough symmetry to change the number of k points.

[...]

 Initialisation of the first-order wave-functions :
  ireadwf=   0

--- !BeginCycle
iteration_state: {dtset: 1, }
solver: {iscf: 7, nstep: 1000, nline: 4, wfoptalg: 0, }
tolerances: {tolwfr: 1.00E-20, }
...

     iter   2DEtotal(Ha)        deltaE(Ha) residm    vres2
-ETOT  1  -41.350353113711     -4.135E+01 8.971E-02 0.000E+00
 ETOT  2  -41.481656569273     -1.313E-01 9.665E-03 0.000E+00
 ETOT  3  -41.486916300223     -5.260E-03 2.599E-03 0.000E+00
[...]
 1-9 gives the relaxation energy (to be shifted if some occ is /=2.0)
   erelax=  -4.14875049E+01
  No Ewald or frozen-wf contrib.: the relaxation energy is the total one
 2DEtotal=   -0.4148750492E+02 Ha. Also 2DEtotal=   -0.112893242188E+04 eV
    (  non-var. 2DEtotal :   -4.1487504924E+01 Ha)

 Perturbation wavevector (in red.coord.)   0.000000  0.000000  0.000000
 Perturbation : derivative vs k along direction   2
 The set of symmetries contains only one element for this perturbation.
 symkpt : not enough symmetry to change the number of k points.

[...]

 Perturbation wavevector (in red.coord.)   0.000000  0.000000  0.000000
 Perturbation : derivative vs k along direction   3
 The set of symmetries contains only one element for this perturbation.
 symkpt : not enough symmetry to change the number of k points.

-inwffil : will read wavefunctions from disk file /scratch/users/j/a/jabreu/flow_simple_6atoms/flow/w156/t1/indata/in_WFK

 Initialisation of the first-order wave-functions :
  ireadwf=   0

--- !BeginCycle
iteration_state: {dtset: 1, }
solver: {iscf: 7, nstep: 1000, nline: 4, wfoptalg: 0, }
tolerances: {tolwfr: 1.00E-20, }
...

     iter   2DEtotal(Ha)        deltaE(Ha) residm    vres2
-ETOT  1  -16.335576489517     -1.634E+01 4.691E-02 0.000E+00
 ETOT  2  -16.371993454429     -3.642E-02 8.807E-03 0.000E+00
 ETOT  3  -16.372836450636     -8.430E-04 1.158E-03 0.000E+00
 ETOT  4  -16.372891167875     -5.472E-05 4.674E-04 0.000E+00
 ETOT  5  -16.372895916080     -4.748E-06 1.265E-04 0.000E+00
 ETOT  6  -16.372896379675     -4.636E-07 4.142E-05 0.000E+00
 ETOT  7  -16.372896428489     -4.881E-08 1.506E-05 0.000E+00
 ETOT  8  -16.372896433839     -5.350E-09 6.182E-06 0.000E+00
 ETOT  9  -16.372896434442     -6.026E-10 4.570E-06 0.000E+00
 ETOT 10  -16.372896434510     -6.894E-11 1.603E-06 0.000E+00
 ETOT 11  -16.372896434518     -7.979E-12 1.402E-06 0.000E+00
 ETOT 12  -16.372896434519     -9.734E-13 4.362E-07 0.000E+00
 ETOT 13  -16.372896434520     -1.101E-13 4.345E-07 0.000E+00
 ETOT 14  -16.372896434520     -2.132E-14 1.258E-07 0.000E+00
 ETOT 15  -16.372896434520     -7.105E-15 1.365E-07 0.000E+00
 ETOT 16  -16.372896434520      3.553E-15 3.790E-08 0.000E+00
 ETOT 17  -16.372896434520      3.553E-15 4.351E-08 0.000E+00
 ETOT 18  -16.372896434520      7.105E-15 1.175E-08 0.000E+00
 ETOT 19  -16.372896434520      7.105E-15 1.399E-08 0.000E+00
 ETOT 20  -16.372896434520     -1.776E-14 3.711E-09 0.000E+00
 ETOT 21  -16.372896434520      3.553E-15 4.523E-09 0.000E+00
 ETOT 22  -16.372896434520     -3.553E-15 1.184E-09 0.000E+00
 ETOT 23  -16.372896434520      7.105E-15 1.466E-09 0.000E+00
 ETOT 24  -16.372896434520     -7.105E-15 3.801E-10 0.000E+00
 ETOT 25  -16.372896434520      0.000E+00 4.760E-10 0.000E+00
 ETOT 26  -16.372896434520      3.553E-15 1.225E-10 0.000E+00
 ETOT 27  -16.372896434520      0.000E+00 1.546E-10 0.000E+00
 ETOT 28  -16.372896434520      0.000E+00 3.954E-11 0.000E+00
 ETOT 29  -16.372896434520      0.000E+00 5.023E-11 0.000E+00
 ETOT 30  -16.372896434520     -3.553E-15 1.279E-11 0.000E+00
 ETOT 31  -16.372896434520      3.553E-15 1.632E-11 0.000E+00
 ETOT 32  -16.372896434520     -3.553E-15 4.139E-12 0.000E+00
 ETOT 33  -16.372896434520      7.105E-15 5.306E-12 0.000E+00
 ETOT 34  -16.372896434520     -3.553E-15 1.340E-12 0.000E+00
 ETOT 35  -16.372896434520     -3.553E-15 1.724E-12 0.000E+00
 ETOT 36  -16.372896434520      3.553E-15 4.342E-13 0.000E+00
 ETOT 37  -16.372896434520      0.000E+00 5.605E-13 0.000E+00
 ETOT 38  -16.372896434520      3.553E-15 1.407E-13 0.000E+00
 ETOT 39  -16.372896434520     -3.553E-15 1.822E-13 0.000E+00
 ETOT 40  -16.372896434520      3.553E-15 4.560E-14 0.000E+00
 ETOT 41  -16.372896434520     -7.105E-15 5.921E-14 0.000E+00
 ETOT 42  -16.372896434520      0.000E+00 1.478E-14 0.000E+00
 ETOT 43  -16.372896434520      0.000E+00 1.925E-14 0.000E+00
 ETOT 44  -16.372896434520      0.000E+00 4.791E-15 0.000E+00
 ETOT 45  -16.372896434520      3.553E-15 6.255E-15 0.000E+00
 ETOT 46  -16.372896434520      0.000E+00 1.553E-15 0.000E+00
 ETOT 47  -16.372896434520      3.553E-15 2.033E-15 0.000E+00
 ETOT 48  -16.372896434520     -7.105E-15 5.036E-16 0.000E+00
 ETOT 49  -16.372896434520      0.000E+00 6.609E-16 0.000E+00
 ETOT 50  -16.372896434520      0.000E+00 1.633E-16 0.000E+00
 ETOT 51  -16.372896434520     -1.066E-14 2.148E-16 0.000E+00
 ETOT 52  -16.372896434520      1.066E-14 5.295E-17 0.000E+00
 ETOT 53  -16.372896434520      0.000E+00 6.983E-17 0.000E+00
 ETOT 54  -16.372896434520      0.000E+00 1.717E-17 0.000E+00
 ETOT 55  -16.372896434520      0.000E+00 2.270E-17 0.000E+00
 ETOT 56  -16.372896434520     -7.105E-15 5.568E-18 0.000E+00
 ETOT 57  -16.372896434520      0.000E+00 7.379E-18 0.000E+00
 ETOT 58  -16.372896434520      0.000E+00 1.806E-18 0.000E+00
 ETOT 59  -16.372896434520      0.000E+00 2.399E-18 0.000E+00
 ETOT 60  -16.372896434520      7.105E-15 5.856E-19 0.000E+00
 ETOT 61  -16.372896434520     -7.105E-15 7.798E-19 0.000E+00
 ETOT 62  -16.372896434520      0.000E+00 1.899E-19 0.000E+00
 ETOT 63  -16.372896434520      7.105E-15 2.535E-19 0.000E+00
 ETOT 64  -16.372896434520      7.105E-15 6.161E-20 0.000E+00
 ETOT 65  -16.372896434520     -7.105E-15 8.243E-20 0.000E+00
 ETOT 66  -16.372896434520      7.105E-15 1.998E-20 0.000E+00
 ETOT 67  -16.372896434520     -7.105E-15 2.680E-20 0.000E+00
 ETOT 68  -16.372896434520     -7.105E-15 9.896E-21 0.000E+00

 At SCF step   68   max residual=  9.90E-21 < tolwfr=  1.00E-20 =>converged.

 ----iterations are completed or convergence reached----

 dfpt_looppert: DFPT cycle converged with prtwf=-1. Will skip output of the 1st-order WFK file.
 dfpt_looppert : ek2=    2.1513205898E+01
          f-sum rule ratio=    1.0374028631E+00
 prteigrs : about to open file /scratch/users/j/a/jabreu/flow_simple_6atoms/flow/w156/t1/tmpdata/tmp_1WF1_EIG
 Expectation of eigenvalue derivatives (hartree) for nkpt=   2  k points:
  (in case of degenerate eigenvalues, averaged derivative)
 kpt#   1, nband= 43, wtk=  0.50000, kpt=  0.2400  0.2400  0.5000 (reduced coord)
  -0.00000    0.00000    0.00000   -0.00000   -0.00000   -0.00000    0.00000   -0.00000
  -0.00000   -0.00000   -0.00000    0.00000   -0.00000   -0.00000   -0.00000    0.00000
  -0.00000   -0.00000    0.00000   -0.00000    0.00000   -0.00000   -0.00000    0.00000
   0.00000   -0.00000   -0.00000    0.00000    0.00000    0.00000    0.00000    0.00000
   0.00000    0.00000   -0.00000    0.00000    0.00000    0.00000    0.00000    0.00000
  -0.00000    0.00000    0.00014
 prteigrs : prtvol=0 or 1, do not print more k-points.

 Eight components of 2nd-order total energy (hartree) are
 1,2,3: 0th-order hamiltonian combined with 1st-order wavefunctions
     kin0=   2.31193277E+01 eigvalue=   3.16745678E+00  local=  -1.45324853E+01
 4,5,6: 1st-order hamiltonian combined with 1st and 0th-order wfs
     kin1=  -2.23178614E+01  Hartree=   0.00000000E+00     xc=   0.00000000E+00
 7,8,9: eventually, occupation + non-local contributions
    edocc=   2.80178659E+00     enl0=   1.81681061E+00   enl1=  -1.04279315E+01
 1-9 gives the relaxation energy (to be shifted if some occ is /=2.0)
   erelax=  -1.63728964E+01
  No Ewald or frozen-wf contrib.: the relaxation energy is the total one
 2DEtotal=   -0.1637289643E+02 Ha. Also 2DEtotal=   -0.445529169780E+03 eV
    (  non-var. 2DEtotal :   -1.6372896434E+01 Ha)

 CALCULATION OF EFFECTIVE MASSES
 NOTE : Additional infos (eff. mass eigenvalues, eigenvectors and, if degenerate, average mass) are available in stdout.

 K-point ( 0.240, 0.240, 0.500) | band =    34
 Effective mass tensor:
             -1.9375045987              0.6481748200             -0.0001691740
              0.6481748200             -1.9377782376              0.0001692250
             -0.0001691740              0.0001692250             -2.9390740505
 Effective mass tensor eigenvalues:
             -2.9390742125             -2.5858160905             -1.2894665837
 Angular average effective mass 1/(<1/m>)=  -1.9966951040
 Angular average effective mass for Frohlich model (<m**0.5>)**2=  -2.0842873697
 Effective masses along directions: (cart. coord. / red. coord. -> eff. mass)
    1:   1.000000  0.000000  0.000000 /   1.000000  0.000000  0.000000 ->  -1.7206941312
    2:   0.000000  1.000000  0.000000 /   0.000000  1.000000  0.000000 ->  -1.7209371494
    3:   0.000000  0.000000  1.000000 /   0.000000  0.000000  1.000000 ->  -2.9390740283
    4:   0.577350  0.577350  0.577350 /   0.473824  0.473824  0.742282 ->  -1.5862338808
    5:   0.000000  0.707107  0.707107 /   0.000000  0.538057  0.842908 ->  -2.1706888692
    6:   0.707107  0.000000  0.707107 /   0.538057  0.000000  0.842908 ->  -2.1707053284
    7:   0.707107  0.707107  0.000000 /   0.707107  0.707107  0.000000 ->  -1.2894665909

 K-point ( 0.000, 0.000, 0.000) | band =    35
 Effective mass tensor:
              0.1366301277              0.0000000000              0.0000000001
              0.0000000000              0.1366301277             -0.0000000000
              0.0000000001             -0.0000000000              0.2259569835
 Effective mass tensor eigenvalues:
              0.1366301277              0.1366301277              0.2259569835
 Angular average effective mass 1/(<1/m>)=   0.1573672990
 Angular average effective mass for Frohlich model (<m**0.5>)**2=   0.1597856152
 Effective masses along directions: (cart. coord. / red. coord. -> eff. mass)
    1:   1.000000  0.000000  0.000000 /   1.000000  0.000000  0.000000 ->   0.1366301277
    2:   0.000000  1.000000  0.000000 /   0.000000  1.000000  0.000000 ->   0.1366301277
    3:   0.000000  0.000000  1.000000 /   0.000000  0.000000  1.000000 ->   0.2259569835
    4:   0.577350  0.577350  0.577350 /   0.473824  0.473824  0.742282 ->   0.1573672990
    5:   0.000000  0.707107  0.707107 /   0.000000  0.538057  0.842908 ->   0.1702902864
    6:   0.707107  0.000000  0.707107 /   0.538057  0.000000  0.842908 ->   0.1702902865
    7:   0.707107  0.707107  0.000000 /   0.707107  0.707107  0.000000 ->   0.1366301277

 END OF EFFECTIVE MASSES SECTION

 ---- first-order wavefunction calculations are completed ----

 Total localisation tensor (bohr^2) in cartesian coordinates
  WARNING : still subject to testing - especially symmetries.
      direction              matrix element
   alpha     beta       real part   imaginary part
     1        1       2.3344249252    0.0000000000
     1        2       0.0000000000    0.0000000000
     1        3       0.0000000000    0.0000000000
     2        1       0.0000000000    0.0000000000
     2        2       2.3344157630    0.0000000000
     2        3       0.0000000000    0.0000000000
     3        1       0.0000000000    0.0000000000
     3        2       0.0000000000    0.0000000000
     3        3       1.6077489983    0.0000000000

 respfn : d/dk was computed, but no 2DTE, so no DDB output.

== END DATASET(S) ==============================================================

 -outvars: echo values of variables after computation  --------
            acell      1.0000000000E+00  1.0000000000E+00  1.0000000000E+00 Bohr
              amu      3.90983000E+01  4.00780000E+01  2.08980370E+02
             ecut      3.60000000E+01 Hartree
           etotal     -1.6372896435E+01
            fcart      0.0000000000E+00  0.0000000000E+00  0.0000000000E+00
                       0.0000000000E+00  0.0000000000E+00  0.0000000000E+00
                       0.0000000000E+00  0.0000000000E+00  0.0000000000E+00
                       0.0000000000E+00  0.0000000000E+00  0.0000000000E+00
                       0.0000000000E+00  0.0000000000E+00  0.0000000000E+00
                       0.0000000000E+00  0.0000000000E+00  0.0000000000E+00
-          fftalg         512
           irdden           1
           irdwfk           1
           istwfk        0    1
              ixc     -116133
              kpt      2.40000000E-01  2.40000000E-01  5.00000000E-01
                       0.00000000E+00  0.00000000E+00  0.00000000E+00
           kptopt           0
P           mkmem           2
P          mkqmem           2
P          mk1mem           2
            natom           6
            nband          43
           nbdbuf           4
            ngfft          60      60      90
             nkpt           2
            nstep        1000
             nsym          16
           ntypat           3
              occ      2.000000  2.000000  2.000000  2.000000  2.000000  2.000000
                       2.000000  2.000000  2.000000  2.000000  2.000000  2.000000
                       2.000000  2.000000  2.000000  2.000000  2.000000  2.000000
                       2.000000  2.000000  2.000000  2.000000  2.000000  2.000000
                       2.000000  2.000000  2.000000  2.000000  2.000000  2.000000
                       2.000000  2.000000  2.000000  2.000000  0.000000  0.000000
                       0.000000  0.000000  0.000000  0.000000  0.000000  0.000000
                       0.000000
        optdriver           1
            prtwf          -1
            rfdir           1       1       1
           rfelfd           2
            rprim      1.0084277327E+01  0.0000000000E+00  0.0000000000E+00
                       0.0000000000E+00  1.0084277327E+01  0.0000000000E+00
                       0.0000000000E+00  0.0000000000E+00  1.5797805249E+01
          spgroup         129
           strten      0.0000000000E+00  0.0000000000E+00  0.0000000000E+00
                       0.0000000000E+00  0.0000000000E+00  0.0000000000E+00
           symrel      1  0  0   0  1  0   0  0  1      -1  0  0   0 -1  0   0  0 -1
                      -1  0  0   0  1  0   0  0 -1       1  0  0   0 -1  0   0  0  1
                      -1  0  0   0 -1  0   0  0  1       1  0  0   0  1  0   0  0 -1
                       1  0  0   0 -1  0   0  0 -1      -1  0  0   0  1  0   0  0  1
                       0  1  0   1  0  0   0  0  1       0 -1  0  -1  0  0   0  0 -1
                       0 -1  0   1  0  0   0  0 -1       0  1  0  -1  0  0   0  0  1
                       0 -1  0  -1  0  0   0  0  1       0  1  0   1  0  0   0  0 -1
                       0  1  0  -1  0  0   0  0 -1       0 -1  0   1  0  0   0  0  1
            tnons      0.0000000  0.0000000  0.0000000     0.5000000  0.5000000  0.0000000
                       0.5000000  0.5000000  0.0000000     0.0000000  0.0000000  0.0000000
                       0.0000000  0.0000000  0.0000000     0.5000000  0.5000000  0.0000000
                       0.5000000  0.5000000  0.0000000     0.0000000  0.0000000  0.0000000
                       0.5000000  0.5000000  0.0000000     0.0000000  0.0000000  0.0000000
                       0.0000000  0.0000000  0.0000000     0.5000000  0.5000000  0.0000000
                       0.5000000  0.5000000  0.0000000     0.0000000  0.0000000  0.0000000
                       0.0000000  0.0000000  0.0000000     0.5000000  0.5000000  0.0000000
           tolwfr      1.00000000E-20
            typat      1  1  2  2  3  3
           useylm           1
              wtk        0.50000    0.50000
           xangst      2.6681848633E+00  0.0000000000E+00  7.2261691466E+00
                       0.0000000000E+00  2.6681848633E+00  1.1336693369E+00
                       2.6681848633E+00  2.6681848633E+00  4.1799192417E+00
                       0.0000000000E+00  0.0000000000E+00  4.1799192417E+00
                       2.6681848633E+00  0.0000000000E+00  2.4303973234E+00
                       0.0000000000E+00  2.6681848633E+00  5.9294411600E+00
            xcart      5.0421386636E+00  0.0000000000E+00  1.3655480677E+01
                       0.0000000000E+00  5.0421386636E+00  2.1423245720E+00
                       5.0421386636E+00  5.0421386636E+00  7.8989026244E+00
                       0.0000000000E+00  0.0000000000E+00  7.8989026244E+00
                       5.0421386636E+00  0.0000000000E+00  4.5927853354E+00
                       0.0000000000E+00  5.0421386636E+00  1.1205019914E+01
             xred      5.0000000000E-01  0.0000000000E+00  8.6439100000E-01
                       0.0000000000E+00  5.0000000000E-01  1.3560900000E-01
                       5.0000000000E-01  5.0000000000E-01  5.0000000000E-01
                       0.0000000000E+00  0.0000000000E+00  5.0000000000E-01
                       5.0000000000E-01  0.0000000000E+00  2.9072300000E-01
                       0.0000000000E+00  5.0000000000E-01  7.0927700000E-01
            znucl       19.00000   20.00000   83.00000

- Timing analysis has been suppressed with timopt=0

 Suggested references for the acknowledgment of ABINIT usage.

 Calculation completed.
.Delivered  14 WARNINGs and   9 COMMENTs to log file.