.Version 9.5.1 of ABINIT

 ABINIT is a project of the Universite Catholique de Louvain,
 Corning Inc. and other collaborators, see ~abinit/doc/developers/contributors.txt .
 acknowledgments of the ABINIT effort.

.Starting date : Wed 19 May 2021.
- ( at 01h20 )

- input  file    -> /scratch/users/j/a/jabreu/flow_simple_8atoms/flow/w418/t1/run.abi
- output file    -> /scratch/users/j/a/jabreu/flow_simple_8atoms/flow/w418/t1/run.abo
- root for input  files -> /scratch/users/j/a/jabreu/flow_simple_8atoms/flow/w418/t1/indata/in
- root for output files -> /scratch/users/j/a/jabreu/flow_simple_8atoms/flow/w418/t1/outdata/out

 Symmetries : space group P6_3/m m c (#194); Bravais hP (primitive hexag.)
     intxc =       0      iscf =       7    lmnmax =      18     lnmax =       6
     mgfft =      96  mpssoang =       3    mqgrid =    4551     natom =       8
  nloc_mem =       1    nspden =       1   nspinor =       1    nsppol =       1
      nsym =      24    n1xccc =    2501    ntypat =       2    occopt =       1
   xclevel =       2
-    mband =          33        mffmem =           1         mkmem =           2
-   mkqmem =           2        mk1mem =           2           mpw =       13515
      nfft =      279936          nkpt =           2
  Rough estimation (10% accuracy) of disk space for files :

------------- Echo of variables that govern the present computation ------------
-
- outvars: echo of selected default values
-   iomode0 =  0 , fftalg0 =512 , wfoptalg0 =  0
-
- outvars: echo of global parameters not present in the input file
-  max_nthreads =    0
-
 -outvars: echo values of preprocessed input variables --------
            acell      1.0000000000E+00  1.0000000000E+00  1.0000000000E+00 Bohr
              amu      6.94100000E+00  1.21753000E+02
             ecut      4.20000000E+01 Hartree
-          fftalg         512
           irdden           1
           irdwfk           1
           istwfk        1    0
              ixc     -116133
              kpt      0.00000000E+00  0.00000000E+00  0.00000000E+00
                       3.33333333E-01  3.33333333E-01  0.00000000E+00
           kptopt           0
P           mkmem           2
P          mkqmem           2
P          mk1mem           2
            natom           8
            nband          33
           nbdbuf           4
            ngfft          54      54      96
             nkpt           2
            nstep        2000
             nsym          24
           ntypat           2
              occ      2.000000  2.000000  2.000000  2.000000  2.000000  2.000000
                       2.000000  2.000000  2.000000  2.000000  2.000000  2.000000
                       2.000000  2.000000  2.000000  2.000000  2.000000  2.000000
                       2.000000  2.000000  2.000000  2.000000  2.000000  2.000000
                       0.000000  0.000000  0.000000  0.000000  0.000000  0.000000
                       0.000000  0.000000  0.000000
        optdriver           1
            prtwf          -1
            rfdir           1       1       1
           rfelfd           2
            rprim      8.7672931003E+00  0.0000000000E+00  0.0000000000E+00
                      -4.3836465502E+00  7.5926985473E+00  0.0000000000E+00
                       0.0000000000E+00  0.0000000000E+00  1.5598271959E+01
          spgroup         194
           symrel      1  0  0   0  1  0   0  0  1      -1  0  0   0 -1  0   0  0 -1
                       0  1  0   1  0  0   0  0  1       0 -1  0  -1  0  0   0  0 -1
                       1  1  0  -1  0  0   0  0  1      -1 -1  0   1  0  0   0  0 -1
                      -1  0  0   1  1  0   0  0  1       1  0  0  -1 -1  0   0  0 -1
                       0  1  0  -1 -1  0   0  0  1       0 -1  0   1  1  0   0  0 -1
                      -1 -1  0   0  1  0   0  0  1       1  1  0   0 -1  0   0  0 -1
                      -1  0  0   0 -1  0   0  0  1       1  0  0   0  1  0   0  0 -1
                       0 -1  0  -1  0  0   0  0  1       0  1  0   1  0  0   0  0 -1
                      -1 -1  0   1  0  0   0  0  1       1  1  0  -1  0  0   0  0 -1
                       1  0  0  -1 -1  0   0  0  1      -1  0  0   1  1  0   0  0 -1
                       0 -1  0   1  1  0   0  0  1       0  1  0  -1 -1  0   0  0 -1
                       1  1  0   0 -1  0   0  0  1      -1 -1  0   0  1  0   0  0 -1
            tnons      0.0000000  0.0000000  0.0000000    -0.0000000 -0.0000000  0.0000000
                       0.0000000  0.0000000  0.5000000    -0.0000000 -0.0000000  0.5000000
                      -0.0000000  0.0000000  0.5000000    -0.0000000 -0.0000000  0.5000000
                      -0.0000000  0.0000000  0.0000000    -0.0000000 -0.0000000  0.0000000
                      -0.0000000 -0.0000000  0.0000000     0.0000000 -0.0000000  0.0000000
                      -0.0000000 -0.0000000  0.5000000     0.0000000 -0.0000000  0.5000000
                      -0.0000000 -0.0000000  0.5000000     0.0000000  0.0000000  0.5000000
                      -0.0000000 -0.0000000  0.0000000     0.0000000  0.0000000  0.0000000
                      -0.0000000 -0.0000000  0.0000000    -0.0000000  0.0000000  0.0000000
                      -0.0000000 -0.0000000  0.5000000    -0.0000000  0.0000000  0.5000000
                       0.0000000 -0.0000000  0.5000000    -0.0000000 -0.0000000  0.5000000
                       0.0000000 -0.0000000  0.0000000    -0.0000000 -0.0000000  0.0000000
           tolwfr      1.00000000E-20
            typat      1  1  1  1  1  1  2  2
           useylm           1
              wtk        0.50000    0.50000
           xangst     -1.7639711750E-11  2.6785886820E+00  7.2360057322E-01
                       2.3197258448E+00  1.3392943410E+00  4.8507255802E+00
                      -3.4338840583E-16 -4.4607462423E-16  6.1906875104E+00
                      -3.4338840583E-16 -4.4607462423E-16  2.0635625035E+00
                      -1.7639711750E-11  2.6785886820E+00  3.4035244337E+00
                       2.3197258448E+00  1.3392943410E+00  7.5306494407E+00
                       2.3197258448E+00  1.3392943410E+00  2.0635625035E+00
                      -1.7639711750E-11  2.6785886820E+00  6.1906875104E+00
            xcart     -3.3334224270E-11  5.0617990315E+00  1.3674069130E+00
                       4.3836465501E+00  2.5308995158E+00  9.1665428923E+00
                      -6.4891004423E-16 -8.4295887463E-16  1.1698703969E+01
                      -6.4891004423E-16 -8.4295887463E-16  3.8995679897E+00
                      -3.3334224270E-11  5.0617990315E+00  6.4317290664E+00
                       4.3836465501E+00  2.5308995158E+00  1.4230865046E+01
                       4.3836465501E+00  2.5308995158E+00  3.8995679897E+00
                      -3.3334224270E-11  5.0617990315E+00  1.1698703969E+01
             xred      3.3333333333E-01  6.6666666667E-01  8.7664000000E-02
                       6.6666666667E-01  3.3333333333E-01  5.8766400000E-01
                      -1.2952601954E-16 -1.1102230246E-16  7.5000000000E-01
                      -1.2952601954E-16 -1.1102230246E-16  2.5000000000E-01
                       3.3333333333E-01  6.6666666667E-01  4.1233600000E-01
                       6.6666666667E-01  3.3333333333E-01  9.1233600000E-01
                       6.6666666667E-01  3.3333333333E-01  2.5000000000E-01
                       3.3333333333E-01  6.6666666667E-01  7.5000000000E-01
            znucl        3.00000   51.00000

 chkinp: Checking input parameters for consistency.

== DATASET  1 ==================================================================
-   mpi_nproc: 1, omp_nthreads: -1 (-1 if OMP is not activated)

--- !DatasetInfo
iteration_state: {dtset: 1, }
dimensions: {natom: 8, nkpt: 2, mband: 33, nsppol: 1, nspinor: 1, nspden: 1, mpw: 13515, }
cutoff_energies: {ecut:  42.0, pawecutdg:  -1.0, }
electrons: {nelect:   4.80000000E+01, charge:   0.00000000E+00, occopt:   1.00000000E+00, tsmear:   1.00000000E-02, }
meta: {optdriver: 1, rfelfd: 2, }
...

 Real(R)+Recip(G) space primitive vectors, cartesian coordinates (Bohr,Bohr^-1):
 R(1)=  8.7672931  0.0000000  0.0000000  G(1)=  0.1140603  0.0658527  0.0000000
 R(2)= -4.3836466  7.5926985  0.0000000  G(2)=  0.0000000  0.1317055  0.0000000
 R(3)=  0.0000000  0.0000000 15.5982720  G(3)=  0.0000000  0.0000000  0.0641097
 Unit cell volume ucvol=  1.0383366E+03 bohr^3
 Angles (23,13,12)=  9.00000000E+01  9.00000000E+01  1.20000000E+02 degrees

 getcut: wavevector=  0.0000  0.0000  0.0000  ngfft=  54  54  96
         ecut(hartree)=     42.000   => boxcut(ratio)=   2.10962

--- Pseudopotential description ------------------------------------------------
- pspini: atom type   1  psp file is /scratch/users/j/a/jabreu/pseudos/PBEsol/Li.psp8
- pspatm: opening atomic psp file    /scratch/users/j/a/jabreu/pseudos/PBEsol/Li.psp8
- Li    ONCVPSP-3.3.0  r_core=   1.40824   1.10935
-  3.00000   3.00000    180112                znucl, zion, pspdat
    8 -116133    1    4       400   0.00000   pspcod,pspxc,lmax,lloc,mmax,r2well
    3.99000000000000    0.00000000000000    0.00000000000000   rchrg,fchrg,qchrg
     nproj     2     2
     extension_switch     1
  pspatm : epsatm=    2.60859637
         --- l  ekb(1:nproj) -->
             0   -4.855856   -1.482423
             1   -2.171544   -0.427615
 pspatm: atomic psp has been read  and splines computed

- pspini: atom type   2  psp file is /scratch/users/j/a/jabreu/pseudos/PBEsol/Sb.psp8
- pspatm: opening atomic psp file    /scratch/users/j/a/jabreu/pseudos/PBEsol/Sb.psp8
- Sb    ONCVPSP-3.3.0  r_core=   1.81962   2.12485   1.81962
- 51.00000  15.00000    180112                znucl, zion, pspdat
    8 -116133    2    4       600   0.00000   pspcod,pspxc,lmax,lloc,mmax,r2well
    5.99000000000000    5.00000000000000    0.00000000000000   rchrg,fchrg,qchrg
     nproj     2     2     2
     extension_switch     1
  pspatm : epsatm=   26.35641246
         --- l  ekb(1:nproj) -->
             0    9.727814    1.485032
             1    5.505335    0.704623
             2   -4.710637   -1.436443
 pspatm: atomic psp has been read  and splines computed

   3.28149135E+03                                ecore*ucvol(ha*bohr**3)

-inwffil : will read wavefunctions from disk file /scratch/users/j/a/jabreu/flow_simple_8atoms/flow/w418/t1/indata/in_WFK

 ==>  initialize data related to q vector <==

 The list of irreducible perturbations for this q vector is:
    1)    idir= 1    ipert=   9
    2)    idir= 2    ipert=   9
    3)    idir= 3    ipert=   9

 Perturbation wavevector (in red.coord.)   0.000000  0.000000  0.000000
 Perturbation : derivative vs k along direction   1

 dfpt_looppert : COMMENT -
  In a d/dk calculation, iscf is set to -3 automatically.
 The set of symmetries contains only one element for this perturbation.
 symkpt : not enough symmetry to change the number of k points.

[...]

 Initialisation of the first-order wave-functions :
  ireadwf=   0

--- !BeginCycle
iteration_state: {dtset: 1, }
solver: {iscf: 7, nstep: 2000, nline: 4, wfoptalg: 0, }
tolerances: {tolwfr: 1.00E-20, }
...

     iter   2DEtotal(Ha)        deltaE(Ha) residm    vres2
[...]
 1-9 gives the relaxation energy (to be shifted if some occ is /=2.0)
   erelax=  -6.57977240E+01
  No Ewald or frozen-wf contrib.: the relaxation energy is the total one
 2DEtotal=   -0.6579772401E+02 Ha. Also 2DEtotal=   -0.179044712516E+04 eV
    (  non-var. 2DEtotal :   -6.5797724011E+01 Ha)

 Perturbation wavevector (in red.coord.)   0.000000  0.000000  0.000000
 Perturbation : derivative vs k along direction   2
 The set of symmetries contains only one element for this perturbation.
 symkpt : not enough symmetry to change the number of k points.

[...]

 Perturbation wavevector (in red.coord.)   0.000000  0.000000  0.000000
 Perturbation : derivative vs k along direction   3
 The set of symmetries contains only one element for this perturbation.
 symkpt : not enough symmetry to change the number of k points.

-inwffil : will read wavefunctions from disk file /scratch/users/j/a/jabreu/flow_simple_8atoms/flow/w418/t1/indata/in_WFK

 Initialisation of the first-order wave-functions :
  ireadwf=   0

--- !BeginCycle
iteration_state: {dtset: 1, }
solver: {iscf: 7, nstep: 2000, nline: 4, wfoptalg: 0, }
tolerances: {tolwfr: 1.00E-20, }
...

     iter   2DEtotal(Ha)        deltaE(Ha) residm    vres2
-ETOT  1  -14.695983727776     -1.470E+01 6.956E-02 0.000E+00
 ETOT  2  -14.701672558948     -5.689E-03 1.008E-03 0.000E+00
 ETOT  3  -14.701674107982     -1.549E-06 5.616E-04 0.000E+00
 ETOT  4  -14.701674109112     -1.130E-09 7.587E-06 0.000E+00
 ETOT  5  -14.701674109113     -1.670E-12 5.263E-06 0.000E+00
 ETOT  6  -14.701674109113      1.776E-14 6.710E-08 0.000E+00
 ETOT  7  -14.701674109113      3.553E-14 4.924E-08 0.000E+00
 ETOT  8  -14.701674109113     -1.599E-14 6.151E-10 0.000E+00
 ETOT  9  -14.701674109113      1.776E-15 4.607E-10 0.000E+00
 ETOT 10  -14.701674109113      0.000E+00 5.698E-12 0.000E+00
 ETOT 11  -14.701674109113      0.000E+00 4.312E-12 0.000E+00
 ETOT 12  -14.701674109113     -3.553E-15 5.303E-14 0.000E+00
 ETOT 13  -14.701674109113      3.553E-15 4.040E-14 0.000E+00
 ETOT 14  -14.701674109113      0.000E+00 4.951E-16 0.000E+00
 ETOT 15  -14.701674109113      0.000E+00 3.789E-16 0.000E+00
 ETOT 16  -14.701674109113      0.000E+00 4.633E-18 0.000E+00
 ETOT 17  -14.701674109113      0.000E+00 3.558E-18 0.000E+00
 ETOT 18  -14.701674109113     -3.553E-15 4.343E-20 0.000E+00
 ETOT 19  -14.701674109113     -3.553E-15 3.346E-20 0.000E+00
 ETOT 20  -14.701674109113      3.553E-15 9.830E-21 0.000E+00

 At SCF step   20   max residual=  9.83E-21 < tolwfr=  1.00E-20 =>converged.

 ----iterations are completed or convergence reached----

 dfpt_looppert: DFPT cycle converged with prtwf=-1. Will skip output of the 1st-order WFK file.
 dfpt_looppert : ek2=    1.5576791028E+01
          f-sum rule ratio=    1.1238038664E+00
 prteigrs : about to open file /scratch/users/j/a/jabreu/flow_simple_8atoms/flow/w418/t1/tmpdata/tmp_1WF1_EIG
 Expectation of eigenvalue derivatives (hartree) for nkpt=   2  k points:
  (in case of degenerate eigenvalues, averaged derivative)
 kpt#   1, nband= 33, wtk=  0.50000, kpt=  0.0000  0.0000  0.0000 (reduced coord)
   0.00000    0.00000   -0.00000   -0.00000    0.00000    0.00000   -0.00000   -0.00000
  -0.00000   -0.00000   -0.00000   -0.00000    0.00000    0.00000    0.00000    0.00000
  -0.00000    0.00000   -0.00000    0.00000   -0.00000   -0.00000   -0.00000   -0.00000
  -0.00000    0.00000   -0.00000   -0.00000   -0.00000   -0.00000   -0.00000   -0.00000
  -0.00000
 prteigrs : prtvol=0 or 1, do not print more k-points.

 Eight components of 2nd-order total energy (hartree) are
 1,2,3: 0th-order hamiltonian combined with 1st-order wavefunctions
     kin0=   1.43609765E+01 eigvalue=   3.10464148E+00  local=  -8.24671796E+00
 4,5,6: 1st-order hamiltonian combined with 1st and 0th-order wfs
     kin1=  -1.75052580E+01  Hartree=   0.00000000E+00     xc=   0.00000000E+00
 7,8,9: eventually, occupation + non-local contributions
    edocc=   3.30702921E+00     enl0=   2.17574493E+00   enl1=  -1.18980902E+01
 1-9 gives the relaxation energy (to be shifted if some occ is /=2.0)
   erelax=  -1.47016741E+01
  No Ewald or frozen-wf contrib.: the relaxation energy is the total one
 2DEtotal=   -0.1470167411E+02 Ha. Also 2DEtotal=   -0.400052897568E+03 eV
    (  non-var. 2DEtotal :   -1.4701674109E+01 Ha)

 CALCULATION OF EFFECTIVE MASSES
 NOTE : Additional infos (eff. mass eigenvalues, eigenvectors and, if degenerate, average mass) are available in stdout.

 COMMENTS:
 - At k-point ( 0.000, 0.000, 0.000), bands    23 through    24
   are DEGENERATE (effective mass tensor is therefore not defined).
   See Section IIIB Eqs. (67)-(70) and Appendix E of PRB 93 205147 (2016).
 - Angular average effective mass for Frohlich model is to be averaged over degenerate bands. See later.
 - Associated theta integrals calculated with ntheta=   1000 points.

 K-point ( 0.000, 0.000, 0.000) | band =    23
 Transport equivalent effective mass tensor:
             -0.1713871508             -0.0000000128              0.0000001056
             -0.0000000128             -0.1713871509             -0.0000001269
              0.0000001056             -0.0000001269             -1.9487586976
 Transport equivalent effective mass tensor eigenvalues:
             -1.9487586976             -0.1713871637             -0.1713871380
 Angular average effective mass 1/(<1/m>)=  -0.2462521770
 Angular average effective mass for Frohlich model (<m**0.5>)**2=  -0.3029471326
 Effective masses along directions: (cart. coord. / red. coord. -> eff. mass)
    1:   1.000000  0.000000  0.000000 /   0.894427 -0.447214  0.000000 ->  -0.1713871508
    2:   0.000000  1.000000  0.000000 /   0.000000  1.000000  0.000000 ->  -0.1713871509
    3:   0.000000  0.000000  1.000000 /   0.000000  0.000000  1.000000 ->  -1.9487573660
    4:   0.577350  0.577350  0.577350 /   0.482281  0.176527  0.858046 ->  -0.2462521748
    5:   0.000000  0.707107  0.707107 /   0.000000  0.437668  0.899136 ->  -0.3150653403
    6:   0.707107  0.000000  0.707107 /   0.475902 -0.237951  0.846698 ->  -0.3150652987
    7:   0.707107  0.707107  0.000000 /   0.939071  0.343724  0.000000 ->  -0.1713871509

 K-point ( 0.000, 0.000, 0.000) | band =    24
 Transport equivalent effective mass tensor:
             -1.7591769967              0.0000001341              0.0000008545
              0.0000001341             -1.7591769923             -0.0000001495
              0.0000008545             -0.0000001495             -1.9487586977
 Transport equivalent effective mass tensor eigenvalues:
             -1.9487586977             -1.7591771286             -1.7591768604
 Angular average effective mass 1/(<1/m>)=  -1.8181350620
 Angular average effective mass for Frohlich model (<m**0.5>)**2=  -1.8193819249
 Effective masses along directions: (cart. coord. / red. coord. -> eff. mass)
    1:   1.000000  0.000000  0.000000 /   0.894427 -0.447214  0.000000 ->  -1.7591769977
    2:   0.000000  1.000000  0.000000 /   0.000000  1.000000  0.000000 ->  -1.7591769939
    3:   0.000000  0.000000  1.000000 /   0.000000  0.000000  1.000000 ->  -1.9487600293
    4:   0.577350  0.577350  0.577350 /   0.482281  0.176527  0.858046 ->  -1.8181348718
    5:   0.000000  0.707107  0.707107 /   0.000000  0.437668  0.899136 ->  -1.8491216045
    6:   0.707107  0.000000  0.707107 /   0.475902 -0.237951  0.846698 ->  -1.8491196571
    7:   0.707107  0.707107  0.000000 /   0.939071  0.343724  0.000000 ->  -1.7591769897

 Angular average effective mass for Frohlich model, averaged over degenerate bands.
 Value of     (<<m**0.5>>)**2 =     9.017886E-01
 Absolute Value of <<m**0.5>> =     9.496255E-01

 K-point ( 0.333, 0.333, 0.000) | band =    25
 Effective mass tensor:
              0.3113787479              0.0000000000              0.0000000000
              0.0000000000              0.3113787479              0.0000000000
              0.0000000000              0.0000000000              0.2217350517
 Effective mass tensor eigenvalues:
              0.2217350517              0.3113787479              0.3113787479
 Angular average effective mass 1/(<1/m>)=   0.2744002961
 Angular average effective mass for Frohlich model (<m**0.5>)**2=   0.2766321074
 Effective masses along directions: (cart. coord. / red. coord. -> eff. mass)
    1:   1.000000  0.000000  0.000000 /   0.894427 -0.447214  0.000000 ->   0.3113787479
    2:   0.000000  1.000000  0.000000 /   0.000000  1.000000  0.000000 ->   0.3113787479
    3:   0.000000  0.000000  1.000000 /   0.000000  0.000000  1.000000 ->   0.2217350517
    4:   0.577350  0.577350  0.577350 /   0.482281  0.176527  0.858046 ->   0.2744002961
    5:   0.000000  0.707107  0.707107 /   0.000000  0.437668  0.899136 ->   0.2590200547
    6:   0.707107  0.000000  0.707107 /   0.475902 -0.237951  0.846698 ->   0.2590200547
    7:   0.707107  0.707107  0.000000 /   0.939071  0.343724  0.000000 ->   0.3113787479

 END OF EFFECTIVE MASSES SECTION

 ---- first-order wavefunction calculations are completed ----

 Total localisation tensor (bohr^2) in cartesian coordinates
  WARNING : still subject to testing - especially symmetries.
      direction              matrix element
   alpha     beta       real part   imaginary part
     1        1       4.4092800520    0.0000000000
     1        2      -1.5274194398    0.0000000000
     1        3       0.0000000000    0.0000000000
     2        1      -1.5274194398    0.0000000000
     2        2       2.6455680742    0.0000000000
     2        3       0.0000000000    0.0000000000
     3        1       0.0000000000    0.0000000000
     3        2       0.0000000000    0.0000000000
     3        3       2.1530204007    0.0000000000

 respfn : d/dk was computed, but no 2DTE, so no DDB output.

== END DATASET(S) ==============================================================

 -outvars: echo values of variables after computation  --------
            acell      1.0000000000E+00  1.0000000000E+00  1.0000000000E+00 Bohr
              amu      6.94100000E+00  1.21753000E+02
             ecut      4.20000000E+01 Hartree
           etotal     -1.4701674109E+01
            fcart      0.0000000000E+00  0.0000000000E+00  0.0000000000E+00
                       0.0000000000E+00  0.0000000000E+00  0.0000000000E+00
                       0.0000000000E+00  0.0000000000E+00  0.0000000000E+00
                       0.0000000000E+00  0.0000000000E+00  0.0000000000E+00
                       0.0000000000E+00  0.0000000000E+00  0.0000000000E+00
                       0.0000000000E+00  0.0000000000E+00  0.0000000000E+00
                       0.0000000000E+00  0.0000000000E+00  0.0000000000E+00
                       0.0000000000E+00  0.0000000000E+00  0.0000000000E+00
-          fftalg         512
           irdden           1
           irdwfk           1
           istwfk        1    0
              ixc     -116133
              kpt      0.00000000E+00  0.00000000E+00  0.00000000E+00
                       3.33333333E-01  3.33333333E-01  0.00000000E+00
           kptopt           0
P           mkmem           2
P          mkqmem           2
P          mk1mem           2
            natom           8
            nband          33
           nbdbuf           4
            ngfft          54      54      96
             nkpt           2
            nstep        2000
             nsym          24
           ntypat           2
              occ      2.000000  2.000000  2.000000  2.000000  2.000000  2.000000
                       2.000000  2.000000  2.000000  2.000000  2.000000  2.000000
                       2.000000  2.000000  2.000000  2.000000  2.000000  2.000000
                       2.000000  2.000000  2.000000  2.000000  2.000000  2.000000
                       0.000000  0.000000  0.000000  0.000000  0.000000  0.000000
                       0.000000  0.000000  0.000000
        optdriver           1
            prtwf          -1
            rfdir           1       1       1
           rfelfd           2
            rprim      8.7672931003E+00  0.0000000000E+00  0.0000000000E+00
                      -4.3836465502E+00  7.5926985473E+00  0.0000000000E+00
                       0.0000000000E+00  0.0000000000E+00  1.5598271959E+01
          spgroup         194
           strten      0.0000000000E+00  0.0000000000E+00  0.0000000000E+00
                       0.0000000000E+00  0.0000000000E+00  0.0000000000E+00
           symrel      1  0  0   0  1  0   0  0  1      -1  0  0   0 -1  0   0  0 -1
                       0  1  0   1  0  0   0  0  1       0 -1  0  -1  0  0   0  0 -1
                       1  1  0  -1  0  0   0  0  1      -1 -1  0   1  0  0   0  0 -1
                      -1  0  0   1  1  0   0  0  1       1  0  0  -1 -1  0   0  0 -1
                       0  1  0  -1 -1  0   0  0  1       0 -1  0   1  1  0   0  0 -1
                      -1 -1  0   0  1  0   0  0  1       1  1  0   0 -1  0   0  0 -1
                      -1  0  0   0 -1  0   0  0  1       1  0  0   0  1  0   0  0 -1
                       0 -1  0  -1  0  0   0  0  1       0  1  0   1  0  0   0  0 -1
                      -1 -1  0   1  0  0   0  0  1       1  1  0  -1  0  0   0  0 -1
                       1  0  0  -1 -1  0   0  0  1      -1  0  0   1  1  0   0  0 -1
                       0 -1  0   1  1  0   0  0  1       0  1  0  -1 -1  0   0  0 -1
                       1  1  0   0 -1  0   0  0  1      -1 -1  0   0  1  0   0  0 -1
            tnons      0.0000000  0.0000000  0.0000000    -0.0000000 -0.0000000  0.0000000
                       0.0000000  0.0000000  0.5000000    -0.0000000 -0.0000000  0.5000000
                      -0.0000000  0.0000000  0.5000000    -0.0000000 -0.0000000  0.5000000
                      -0.0000000  0.0000000  0.0000000    -0.0000000 -0.0000000  0.0000000
                      -0.0000000 -0.0000000  0.0000000     0.0000000 -0.0000000  0.0000000
                      -0.0000000 -0.0000000  0.5000000     0.0000000 -0.0000000  0.5000000
                      -0.0000000 -0.0000000  0.5000000     0.0000000  0.0000000  0.5000000
                      -0.0000000 -0.0000000  0.0000000     0.0000000  0.0000000  0.0000000
                      -0.0000000 -0.0000000  0.0000000    -0.0000000  0.0000000  0.0000000
                      -0.0000000 -0.0000000  0.5000000    -0.0000000  0.0000000  0.5000000
                       0.0000000 -0.0000000  0.5000000    -0.0000000 -0.0000000  0.5000000
                       0.0000000 -0.0000000  0.0000000    -0.0000000 -0.0000000  0.0000000
           tolwfr      1.00000000E-20
            typat      1  1  1  1  1  1  2  2
           useylm           1
              wtk        0.50000    0.50000
           xangst     -1.7639711750E-11  2.6785886820E+00  7.2360057322E-01
                       2.3197258448E+00  1.3392943410E+00  4.8507255802E+00
                      -3.4338840583E-16 -4.4607462423E-16  6.1906875104E+00
                      -3.4338840583E-16 -4.4607462423E-16  2.0635625035E+00
                      -1.7639711750E-11  2.6785886820E+00  3.4035244337E+00
                       2.3197258448E+00  1.3392943410E+00  7.5306494407E+00
                       2.3197258448E+00  1.3392943410E+00  2.0635625035E+00
                      -1.7639711750E-11  2.6785886820E+00  6.1906875104E+00
            xcart     -3.3334224270E-11  5.0617990315E+00  1.3674069130E+00
                       4.3836465501E+00  2.5308995158E+00  9.1665428923E+00
                      -6.4891004423E-16 -8.4295887463E-16  1.1698703969E+01
                      -6.4891004423E-16 -8.4295887463E-16  3.8995679897E+00
                      -3.3334224270E-11  5.0617990315E+00  6.4317290664E+00
                       4.3836465501E+00  2.5308995158E+00  1.4230865046E+01
                       4.3836465501E+00  2.5308995158E+00  3.8995679897E+00
                      -3.3334224270E-11  5.0617990315E+00  1.1698703969E+01
             xred      3.3333333333E-01  6.6666666667E-01  8.7664000000E-02
                       6.6666666667E-01  3.3333333333E-01  5.8766400000E-01
                      -1.2952601954E-16 -1.1102230246E-16  7.5000000000E-01
                      -1.2952601954E-16 -1.1102230246E-16  2.5000000000E-01
                       3.3333333333E-01  6.6666666667E-01  4.1233600000E-01
                       6.6666666667E-01  3.3333333333E-01  9.1233600000E-01
                       6.6666666667E-01  3.3333333333E-01  2.5000000000E-01
                       3.3333333333E-01  6.6666666667E-01  7.5000000000E-01
            znucl        3.00000   51.00000

- Timing analysis has been suppressed with timopt=0

 Suggested references for the acknowledgment of ABINIT usage.

 Calculation completed.
.Delivered  14 WARNINGs and   9 COMMENTs to log file.