.Version 9.5.1 of ABINIT

 ABINIT is a project of the Universite Catholique de Louvain,
 Corning Inc. and other collaborators, see ~abinit/doc/developers/contributors.txt .
 acknowledgments of the ABINIT effort.

.Starting date : Tue  4 May 2021.
- ( at 19h17 )

- input  file    -> /scratch/users/j/a/jabreu/flow_simple_6atoms/flow/w182/t1/run.abi
- output file    -> /scratch/users/j/a/jabreu/flow_simple_6atoms/flow/w182/t1/run.abo
- root for input  files -> /scratch/users/j/a/jabreu/flow_simple_6atoms/flow/w182/t1/indata/in
- root for output files -> /scratch/users/j/a/jabreu/flow_simple_6atoms/flow/w182/t1/outdata/out

 Symmetries : space group I-4 (# 82); Bravais tI (body-center tetrag.)
     intxc =       0      iscf =       7    lmnmax =      18     lnmax =       6
     mgfft =      60  mpssoang =       3    mqgrid =    3001     natom =       6
  nloc_mem =       1    nspden =       1   nspinor =       1    nsppol =       1
      nsym =       4    n1xccc =    2501    ntypat =       3    occopt =       1
   xclevel =       2
-    mband =          30        mffmem =           1         mkmem =           1
-   mkqmem =           1        mk1mem =           1           mpw =        9337
      nfft =      216000          nkpt =           1
  Rough estimation (10% accuracy) of disk space for files :

------------- Echo of variables that govern the present computation ------------
-
- outvars: echo of selected default values
-   iomode0 =  0 , fftalg0 =512 , wfoptalg0 =  0
-
- outvars: echo of global parameters not present in the input file
-  max_nthreads =    0
-
 -outvars: echo values of preprocessed input variables --------
            acell      1.0000000000E+00  1.0000000000E+00  1.0000000000E+00 Bohr
              amu      2.69815390E+01  7.49215900E+01  1.59994000E+01
             ecut      4.40000000E+01 Hartree
-          fftalg         512
           irdden           1
           irdwfk           1
           istwfk        1
              ixc     -116133
           kptopt           0
P           mkmem           1
P          mkqmem           1
P          mk1mem           1
            natom           6
            nband          30
           nbdbuf           4
            ngfft          60      60      60
             nkpt           1
            nstep        1000
             nsym           4
           ntypat           3
              occ      2.000000  2.000000  2.000000  2.000000  2.000000  2.000000
                       2.000000  2.000000  2.000000  2.000000  2.000000  2.000000
                       2.000000  2.000000  2.000000  2.000000  2.000000  2.000000
                       2.000000  2.000000  2.000000  0.000000  0.000000  0.000000
                       0.000000  0.000000  0.000000  0.000000  0.000000  0.000000
        optdriver           1
            prtwf          -1
            rfdir           1       1       1
           rfelfd           2
            rprim      8.4350557171E+00  0.0000000000E+00 -5.1519025293E+00
                      -2.6546565712E+00  8.0064326288E+00 -5.1519025293E+00
                       0.0000000000E+00  0.0000000000E+00  9.8839397318E+00
          spgroup          82
           symrel      1  0  0   0  1  0   0  0  1       0  1  0   1  0  0  -1 -1 -1
                       0  0  1  -1 -1 -1   0  1  0      -1 -1 -1   0  0  1   1  0  0
           tolwfr      1.00000000E-20
            typat      1  2  3  3  3  3
           useylm           1
           xangst      0.0000000000E+00  0.0000000000E+00  0.0000000000E+00
                       2.9965334905E+00  1.0592054173E+00 -1.1109158081E-01
                       3.1481441678E+00  5.6309266554E-01 -1.7117581831E+00
                       1.3601840911E+00  1.0714339439E+00  2.8064600744E-01
                      -8.5831095233E-01  2.6085560231E+00  2.8603896221E+00
                       2.4676936626E+00  4.2305607061E+00 -1.8736437696E+00
            xcart      0.0000000000E+00  0.0000000000E+00  0.0000000000E+00
                       5.6626276450E+00  2.0016081572E+00 -2.0993266340E-01
                       5.9491303040E+00  1.0640909253E+00 -3.2347541719E+00
                       2.5703754225E+00  2.0247167234E+00  5.3034409434E-01
                      -1.6219726368E+00  4.9294564859E+00  5.4053530191E+00
                       4.6632652021E+00  7.9946011230E+00 -3.5406735952E+00
             xred      0.0000000000E+00  0.0000000000E+00  0.0000000000E+00
                       7.5000000000E-01  2.5000000000E-01  5.0000000000E-01
                       7.4711375000E-01  1.3290450000E-01  1.3142675000E-01
                       3.8431300000E-01  2.5288625000E-01  3.8579075000E-01
                       1.4777500000E-03  6.1568700000E-01  8.6857325000E-01
                       8.6709550000E-01  9.9852225000E-01  6.1420925000E-01
            znucl       13.00000   33.00000    8.00000

 chkinp: Checking input parameters for consistency.

== DATASET  1 ==================================================================
-   mpi_nproc: 1, omp_nthreads: -1 (-1 if OMP is not activated)

--- !DatasetInfo
iteration_state: {dtset: 1, }
dimensions: {natom: 6, nkpt: 1, mband: 30, nsppol: 1, nspinor: 1, nspden: 1, mpw: 9337, }
cutoff_energies: {ecut:  44.0, pawecutdg:  -1.0, }
electrons: {nelect:   4.20000000E+01, charge:   0.00000000E+00, occopt:   1.00000000E+00, tsmear:   1.00000000E-02, }
meta: {optdriver: 1, rfelfd: 2, }
...

 Real(R)+Recip(G) space primitive vectors, cartesian coordinates (Bohr,Bohr^-1):
 R(1)=  8.4350557  0.0000000 -5.1519025  G(1)=  0.1185529  0.0393080  0.0000000
 R(2)= -2.6546566  8.0064326 -5.1519025  G(2)=  0.0000000  0.1248996  0.0000000
 R(3)=  0.0000000  0.0000000  9.8839397  G(3)=  0.0617945  0.0855915  0.1011742
 Unit cell volume ucvol=  6.6750896E+02 bohr^3
 Angles (23,13,12)=  1.21415450E+02  1.21415450E+02  8.75653684E+01 degrees

 getcut: wavevector=  0.0000  0.0000  0.0000  ngfft=  60  60  60
         ecut(hartree)=     44.000   => boxcut(ratio)=   2.03356

--- Pseudopotential description ------------------------------------------------
- pspini: atom type   1  psp file is /scratch/users/j/a/jabreu/pseudos/PBEsol/Al.psp8
- pspatm: opening atomic psp file    /scratch/users/j/a/jabreu/pseudos/PBEsol/Al.psp8
- Al    ONCVPSP-3.3.0  r_core=   1.76802   1.76802   1.70587
- 13.00000   3.00000    180112                znucl, zion, pspdat
    8 -116133    2    4       600   0.00000   pspcod,pspxc,lmax,lloc,mmax,r2well
    5.99000000000000    5.00000000000000    0.00000000000000   rchrg,fchrg,qchrg
     nproj     2     2     2
     extension_switch     1
  pspatm : epsatm=    0.68509324
         --- l  ekb(1:nproj) -->
             0    5.834965    0.726662
             1    6.225605    0.924840
             2   -2.432733   -0.548689
 pspatm: atomic psp has been read  and splines computed

- pspini: atom type   2  psp file is /scratch/users/j/a/jabreu/pseudos/PBEsol/As.psp8
- pspatm: opening atomic psp file    /scratch/users/j/a/jabreu/pseudos/PBEsol/As.psp8
- As    ONCVPSP-3.3.0  r_core=   1.76603   1.70395   1.80867
- 33.00000  15.00000    180112                znucl, zion, pspdat
    8 -116133    2    4       600   0.00000   pspcod,pspxc,lmax,lloc,mmax,r2well
    5.99000000000000    5.00000000000000    0.00000000000000   rchrg,fchrg,qchrg
     nproj     2     2     2
     extension_switch     1
  pspatm : epsatm=   28.79155382
         --- l  ekb(1:nproj) -->
             0    8.270760    0.868950
             1    4.919053    0.756587
             2  -10.048665   -4.076802
 pspatm: atomic psp has been read  and splines computed

- pspini: atom type   3  psp file is /scratch/users/j/a/jabreu/pseudos/PBEsol/O.psp8
- pspatm: opening atomic psp file    /scratch/users/j/a/jabreu/pseudos/PBEsol/O.psp8
- O     ONCVPSP-3.3.0  r_core=   1.35509   1.45563   1.26150
-  8.00000   6.00000    180112                znucl, zion, pspdat
    8 -116133    2    4       600   0.00000   pspcod,pspxc,lmax,lloc,mmax,r2well
    5.99000000000000    4.00000000000000    0.00000000000000   rchrg,fchrg,qchrg
     nproj     2     2     1
     extension_switch     1
  pspatm : epsatm=    6.22910522
         --- l  ekb(1:nproj) -->
             0    6.050032    0.820363
             1   -4.739617   -1.153841
             2   -1.335834
 pspatm: atomic psp has been read  and splines computed

   2.28450885E+03                                ecore*ucvol(ha*bohr**3)

-inwffil : will read wavefunctions from disk file /scratch/users/j/a/jabreu/flow_simple_6atoms/flow/w182/t1/indata/in_WFK

 ==>  initialize data related to q vector <==

 The list of irreducible perturbations for this q vector is:
    1)    idir= 1    ipert=   7
    2)    idir= 2    ipert=   7
    3)    idir= 3    ipert=   7

 Perturbation wavevector (in red.coord.)   0.000000  0.000000  0.000000
 Perturbation : derivative vs k along direction   1

 dfpt_looppert : COMMENT -
  In a d/dk calculation, iscf is set to -3 automatically.
 The set of symmetries contains only one element for this perturbation.
 symkpt : not enough symmetry to change the number of k points.

[...]

 Initialisation of the first-order wave-functions :
  ireadwf=   0

--- !BeginCycle
iteration_state: {dtset: 1, }
solver: {iscf: 7, nstep: 1000, nline: 4, wfoptalg: 0, }
tolerances: {tolwfr: 1.00E-20, }
...

     iter   2DEtotal(Ha)        deltaE(Ha) residm    vres2
-ETOT  1  -41.836875519604     -4.184E+01 9.335E-02 0.000E+00
 ETOT  2  -41.875089888539     -3.821E-02 1.112E-02 0.000E+00
 ETOT  3  -41.875244186834     -1.543E-04 9.803E-04 0.000E+00
 ETOT  4  -41.875246229305     -2.042E-06 2.065E-04 0.000E+00
 ETOT  5  -41.875246266212     -3.691E-08 3.160E-05 0.000E+00
 ETOT  6  -41.875246266985     -7.736E-10 6.867E-06 0.000E+00
 ETOT  7  -41.875246267003     -1.727E-11 1.297E-06 0.000E+00
 ETOT  8  -41.875246267003     -3.979E-13 2.756E-07 0.000E+00
 ETOT  9  -41.875246267003     -4.974E-14 5.113E-08 0.000E+00
 ETOT 10  -41.875246267003      4.974E-14 1.170E-08 0.000E+00
 ETOT 11  -41.875246267003     -2.842E-14 2.064E-09 0.000E+00
 ETOT 12  -41.875246267003     -7.105E-15 5.134E-10 0.000E+00
 ETOT 13  -41.875246267003      7.105E-15 8.726E-11 0.000E+00
 ETOT 14  -41.875246267003      0.000E+00 2.265E-11 0.000E+00
 ETOT 15  -41.875246267003      0.000E+00 3.750E-12 0.000E+00
 ETOT 16  -41.875246267003     -7.105E-15 1.003E-12 0.000E+00
 ETOT 17  -41.875246267003      0.000E+00 1.624E-13 0.000E+00
 ETOT 18  -41.875246267003     -7.105E-15 4.451E-14 0.000E+00
 ETOT 19  -41.875246267003      7.105E-15 7.072E-15 0.000E+00
 ETOT 20  -41.875246267003      0.000E+00 1.978E-15 0.000E+00
 ETOT 21  -41.875246267003      0.000E+00 3.091E-16 0.000E+00
 ETOT 22  -41.875246267003      7.105E-15 8.806E-17 0.000E+00
 ETOT 23  -41.875246267003      1.421E-14 1.355E-17 0.000E+00
 ETOT 24  -41.875246267003     -1.421E-14 3.925E-18 0.000E+00
 ETOT 25  -41.875246267003     -1.421E-14 5.959E-19 0.000E+00
 ETOT 26  -41.875246267003      1.421E-14 1.752E-19 0.000E+00
 ETOT 27  -41.875246267003      7.105E-15 2.626E-20 0.000E+00
 ETOT 28  -41.875246267003     -7.105E-15 9.635E-21 0.000E+00

 At SCF step   28   max residual=  9.64E-21 < tolwfr=  1.00E-20 =>converged.

 ----iterations are completed or convergence reached----

 dfpt_looppert: DFPT cycle converged with prtwf=-1. Will skip output of the 1st-order WFK file.
 dfpt_looppert : ek2=    5.1732196155E+01
          f-sum rule ratio=    1.0547734615E+00
 prteigrs : about to open file /scratch/users/j/a/jabreu/flow_simple_6atoms/flow/w182/t1/tmpdata/tmp_1WF1_EIG
 Expectation of eigenvalue derivatives (hartree) for nkpt=   1  k points:
  (in case of degenerate eigenvalues, averaged derivative)
 kpt#   1, nband= 30, wtk=  1.00000, kpt=  0.0000  0.0000  0.0000 (reduced coord)
   0.00000   -0.00000   -0.00000   -0.00000    0.00000    0.00000    0.00000    0.00000
  -0.00000   -0.00000   -0.00000   -0.00000    0.00000    0.00000   -0.00000   -0.00000
  -0.00000   -0.00000   -0.00000    0.00000    0.00000   -0.00000   -0.00000    0.00000
   0.00000    0.00000   -0.00000   -0.00000    0.00067   -0.00258

 Eight components of 2nd-order total energy (hartree) are
 1,2,3: 0th-order hamiltonian combined with 1st-order wavefunctions
     kin0=   4.71045463E+01 eigvalue=   5.58141433E+00  local=  -1.86584198E+01
 4,5,6: 1st-order hamiltonian combined with 1st and 0th-order wfs
     kin1=  -5.45657476E+01  Hartree=   0.00000000E+00     xc=   0.00000000E+00
 7,8,9: eventually, occupation + non-local contributions
    edocc=   7.13207668E+00     enl0=   7.15628773E-01   enl1=  -2.91847449E+01
 1-9 gives the relaxation energy (to be shifted if some occ is /=2.0)
   erelax=  -4.18752463E+01
  No Ewald or frozen-wf contrib.: the relaxation energy is the total one
 2DEtotal=   -0.4187524627E+02 Ha. Also 2DEtotal=   -0.113948340040E+04 eV
    (  non-var. 2DEtotal :   -4.1875246267E+01 Ha)

 Perturbation wavevector (in red.coord.)   0.000000  0.000000  0.000000
 Perturbation : derivative vs k along direction   2
 The set of symmetries contains only one element for this perturbation.
 symkpt : not enough symmetry to change the number of k points.

[...]

 Perturbation wavevector (in red.coord.)   0.000000  0.000000  0.000000
 Perturbation : derivative vs k along direction   3
 The set of symmetries contains only one element for this perturbation.
 symkpt : not enough symmetry to change the number of k points.

-inwffil : will read wavefunctions from disk file /scratch/users/j/a/jabreu/flow_simple_6atoms/flow/w182/t1/indata/in_WFK

 Initialisation of the first-order wave-functions :
  ireadwf=   0

--- !BeginCycle
iteration_state: {dtset: 1, }
solver: {iscf: 7, nstep: 1000, nline: 4, wfoptalg: 0, }
tolerances: {tolwfr: 1.00E-20, }
...

     iter   2DEtotal(Ha)        deltaE(Ha) residm    vres2
-ETOT  1  -57.067989411062     -5.707E+01 1.725E-01 0.000E+00
 ETOT  2  -57.120407545851     -5.242E-02 3.195E-02 0.000E+00
 ETOT  3  -57.120618565796     -2.110E-04 2.969E-03 0.000E+00
 ETOT  4  -57.120621872219     -3.306E-06 7.935E-04 0.000E+00
 ETOT  5  -57.120621943815     -7.160E-08 1.138E-04 0.000E+00
 ETOT  6  -57.120621945612     -1.797E-09 3.342E-05 0.000E+00
 ETOT  7  -57.120621945659     -4.745E-11 5.019E-06 0.000E+00
 ETOT  8  -57.120621945661     -1.279E-12 1.474E-06 0.000E+00
 ETOT  9  -57.120621945661     -2.842E-14 2.236E-07 0.000E+00
 ETOT 10  -57.120621945661      1.421E-14 6.570E-08 0.000E+00
 ETOT 11  -57.120621945661      2.132E-14 9.986E-09 0.000E+00
 ETOT 12  -57.120621945661     -3.553E-14 2.945E-09 0.000E+00
 ETOT 13  -57.120621945661      7.105E-15 4.464E-10 0.000E+00
 ETOT 14  -57.120621945661     -7.105E-15 1.325E-10 0.000E+00
 ETOT 15  -57.120621945661      0.000E+00 1.997E-11 0.000E+00
 ETOT 16  -57.120621945661      7.105E-15 5.973E-12 0.000E+00
 ETOT 17  -57.120621945661      7.105E-15 8.943E-13 0.000E+00
 ETOT 18  -57.120621945661     -1.421E-14 2.699E-13 0.000E+00
 ETOT 19  -57.120621945661      7.105E-15 4.010E-14 0.000E+00
 ETOT 20  -57.120621945661      2.132E-14 1.222E-14 0.000E+00
 ETOT 21  -57.120621945661     -2.842E-14 1.800E-15 0.000E+00
 ETOT 22  -57.120621945661      7.105E-15 5.543E-16 0.000E+00
 ETOT 23  -57.120621945661      0.000E+00 8.096E-17 0.000E+00
 ETOT 24  -57.120621945661      0.000E+00 2.518E-17 0.000E+00
 ETOT 25  -57.120621945661      0.000E+00 3.647E-18 0.000E+00
 ETOT 26  -57.120621945661     -7.105E-15 1.146E-18 0.000E+00
 ETOT 27  -57.120621945661     -7.105E-15 1.645E-19 0.000E+00
 ETOT 28  -57.120621945661      7.105E-15 5.224E-20 0.000E+00
 ETOT 29  -57.120621945661      0.000E+00 9.963E-21 0.000E+00

 At SCF step   29   max residual=  9.96E-21 < tolwfr=  1.00E-20 =>converged.

 ----iterations are completed or convergence reached----

 dfpt_looppert: DFPT cycle converged with prtwf=-1. Will skip output of the 1st-order WFK file.
 dfpt_looppert : ek2=    7.0902375162E+01
          f-sum rule ratio=    1.0463589029E+00
 prteigrs : about to open file /scratch/users/j/a/jabreu/flow_simple_6atoms/flow/w182/t1/tmpdata/tmp_1WF1_EIG
 Expectation of eigenvalue derivatives (hartree) for nkpt=   1  k points:
  (in case of degenerate eigenvalues, averaged derivative)
 kpt#   1, nband= 30, wtk=  1.00000, kpt=  0.0000  0.0000  0.0000 (reduced coord)
   0.00000   -0.00000   -0.00000   -0.00000   -0.00000   -0.00000    0.00000    0.00000
  -0.00000   -0.00000   -0.00000   -0.00000   -0.00000    0.00000   -0.00000    0.00000
  -0.00000   -0.00000   -0.00000    0.00000    0.00000   -0.00000   -0.00000    0.00000
   0.00000    0.00000   -0.00000   -0.00000   -0.00002    0.00019

 Eight components of 2nd-order total energy (hartree) are
 1,2,3: 0th-order hamiltonian combined with 1st-order wavefunctions
     kin0=   6.51692269E+01 eigvalue=   7.69949428E+00  local=  -2.59223633E+01
 4,5,6: 1st-order hamiltonian combined with 1st and 0th-order wfs
     kin1=  -7.41893315E+01  Hartree=   0.00000000E+00     xc=   0.00000000E+00
 7,8,9: eventually, occupation + non-local contributions
    edocc=   9.24039121E+00     enl0=   9.33872899E-01   enl1=  -4.00519124E+01
 1-9 gives the relaxation energy (to be shifted if some occ is /=2.0)
   erelax=  -5.71206219E+01
  No Ewald or frozen-wf contrib.: the relaxation energy is the total one
 2DEtotal=   -0.5712062195E+02 Ha. Also 2DEtotal=   -0.155433117009E+04 eV
    (  non-var. 2DEtotal :   -5.7120621945E+01 Ha)

 CALCULATION OF EFFECTIVE MASSES
 NOTE : Additional infos (eff. mass eigenvalues, eigenvectors and, if degenerate, average mass) are available in stdout.

 COMMENTS:
 - At k-point ( 0.000, 0.000, 0.000), bands    20 through    21
   are DEGENERATE (effective mass tensor is therefore not defined).
   See Section IIIB Eqs. (67)-(70) and Appendix E of PRB 93 205147 (2016).
 - Angular average effective mass for Frohlich model is to be averaged over degenerate bands. See later.
 - Associated theta integrals calculated with ntheta=   1000 points.

 K-point ( 0.000, 0.000, 0.000) | band =    20
 Transport equivalent effective mass tensor:
             -8.9121386581              0.2702706030             -0.3501259725
              0.2702706030             -8.7290817865             -0.4831358448
             -0.3501259725             -0.4831358448             -8.4831633737
 Transport equivalent effective mass tensor eigenvalues:
             -9.1082670283             -9.1041334059             -7.9119833841
 Angular average effective mass 1/(<1/m>)=  -8.4154664356
 Angular average effective mass for Frohlich model (<m**0.5>)**2=  -8.4450758407
 Effective masses along directions: (cart. coord. / red. coord. -> eff. mass)
    1:   1.000000  0.000000  0.000000 /   0.953876 -0.300201  0.000000 ->  -9.3806572700
    2:   0.000000  1.000000  0.000000 /   0.000000  1.000000  0.000000 ->  -8.7968948605
    3:   0.000000  0.000000  1.000000 /  -0.419567 -0.419567  0.804940 ->  -7.9455965127
    4:   0.577350  0.577350  0.577350 /   0.315176  0.019187  0.948839 ->  -8.1602753515
    5:   0.000000  0.707107  0.707107 /  -0.447767  0.248096  0.859042 ->  -9.6672961914
    6:   0.707107  0.000000  0.707107 /   0.252242 -0.599771  0.759374 ->  -8.8373403249
    7:   0.707107  0.707107  0.000000 /   0.844386  0.535736  0.000000 ->  -7.8847807172

 K-point ( 0.000, 0.000, 0.000) | band =    21
 Transport equivalent effective mass tensor:
            -47.9774882008              9.2741808666            -11.9074409249
              9.2741808666            -41.8302791156            -16.5030869737
            -11.9074409249            -16.5030869737            -33.4059468024
 Transport equivalent effective mass tensor eigenvalues:
            -54.6748181488            -54.6378298094            -13.9010661606
 Angular average effective mass 1/(<1/m>)= -16.1841815991
 Angular average effective mass for Frohlich model (<m**0.5>)**2= -20.0479396271
 Effective masses along directions: (cart. coord. / red. coord. -> eff. mass)
    1:   1.000000  0.000000  0.000000 /   0.953876 -0.300201  0.000000 -> -18.8314744085
    2:   0.000000  1.000000  0.000000 /   0.000000  1.000000  0.000000 -> -15.4644193976
    3:   0.000000  0.000000  1.000000 /  -0.419567 -0.419567  0.804940 -> -12.8286012118
    4:   0.577350  0.577350  0.577350 /   0.315176  0.019187  0.948839 -> -51.5763480894
    5:   0.000000  0.707107  0.707107 /  -0.447767  0.248096  0.859042 -> -26.5509147045
    6:   0.707107  0.000000  0.707107 /   0.252242 -0.599771  0.759374 -> -30.7506626710
    7:   0.707107  0.707107  0.000000 /   0.844386  0.535736  0.000000 -> -14.2411027220

 Angular average effective mass for Frohlich model, averaged over degenerate bands.
 Value of     (<<m**0.5>>)**2 =     1.362914E+01
 Absolute Value of <<m**0.5>> =     3.691767E+00

 K-point ( 0.000, 0.000, 0.000) | band =    22
 Effective mass tensor:
              0.5901693268             -0.0121105523              0.0155865841
             -0.0121105523              0.5821379116              0.0215894332
              0.0155865841              0.0215894332              0.5711264531
 Effective mass tensor eigenvalues:
              0.5456085066              0.5989125918              0.5989125930
 Angular average effective mass 1/(<1/m>)=   0.5800238113
 Angular average effective mass for Frohlich model (<m**0.5>)**2=   0.5803652401
 Effective masses along directions: (cart. coord. / red. coord. -> eff. mass)
    1:   1.000000  0.000000  0.000000 /   0.953876 -0.300201  0.000000 ->   0.5894665112
    2:   0.000000  1.000000  0.000000 /   0.000000  1.000000  0.000000 ->   0.5810483180
    3:   0.000000  0.000000  1.000000 /  -0.419567 -0.419567  0.804940 ->   0.5698898785
    4:   0.577350  0.577350  0.577350 /   0.315176  0.019187  0.948839 ->   0.5977537847
    5:   0.000000  0.707107  0.707107 /  -0.447767  0.248096  0.859042 ->   0.5981550687
    6:   0.707107  0.000000  0.707107 /   0.252242 -0.599771  0.759374 ->   0.5959871904
    7:   0.707107  0.707107  0.000000 /   0.844386  0.535736  0.000000 ->   0.5728034853

 END OF EFFECTIVE MASSES SECTION

 ---- first-order wavefunction calculations are completed ----

 Total localisation tensor (bohr^2) in cartesian coordinates
  WARNING : still subject to testing - especially symmetries.
      direction              matrix element
   alpha     beta       real part   imaginary part
     1        1       0.8186025615    0.0000000000
     1        2      -0.2225006886    0.0000000000
     1        3      -0.3117486875    0.0000000000
     2        1      -0.2225006886    0.0000000000
     2        2       0.6710611054    0.0000000000
     2        3      -0.4318079682    0.0000000000
     3        1      -0.3117486875    0.0000000000
     3        2      -0.4318079682    0.0000000000
     3        3       1.9375924597    0.0000000000

 respfn : d/dk was computed, but no 2DTE, so no DDB output.

== END DATASET(S) ==============================================================

 -outvars: echo values of variables after computation  --------
            acell      1.0000000000E+00  1.0000000000E+00  1.0000000000E+00 Bohr
              amu      2.69815390E+01  7.49215900E+01  1.59994000E+01
             ecut      4.40000000E+01 Hartree
           etotal     -5.7120621946E+01
            fcart      0.0000000000E+00  0.0000000000E+00  0.0000000000E+00
                       0.0000000000E+00  0.0000000000E+00  0.0000000000E+00
                       0.0000000000E+00  0.0000000000E+00  0.0000000000E+00
                       0.0000000000E+00  0.0000000000E+00  0.0000000000E+00
                       0.0000000000E+00  0.0000000000E+00  0.0000000000E+00
                       0.0000000000E+00  0.0000000000E+00  0.0000000000E+00
-          fftalg         512
           irdden           1
           irdwfk           1
           istwfk        1
              ixc     -116133
           kptopt           0
P           mkmem           1
P          mkqmem           1
P          mk1mem           1
            natom           6
            nband          30
           nbdbuf           4
            ngfft          60      60      60
             nkpt           1
            nstep        1000
             nsym           4
           ntypat           3
              occ      2.000000  2.000000  2.000000  2.000000  2.000000  2.000000
                       2.000000  2.000000  2.000000  2.000000  2.000000  2.000000
                       2.000000  2.000000  2.000000  2.000000  2.000000  2.000000
                       2.000000  2.000000  2.000000  0.000000  0.000000  0.000000
                       0.000000  0.000000  0.000000  0.000000  0.000000  0.000000
        optdriver           1
            prtwf          -1
            rfdir           1       1       1
           rfelfd           2
            rprim      8.4350557171E+00  0.0000000000E+00 -5.1519025293E+00
                      -2.6546565712E+00  8.0064326288E+00 -5.1519025293E+00
                       0.0000000000E+00  0.0000000000E+00  9.8839397318E+00
          spgroup          82
           strten      0.0000000000E+00  0.0000000000E+00  0.0000000000E+00
                       0.0000000000E+00  0.0000000000E+00  0.0000000000E+00
           symrel      1  0  0   0  1  0   0  0  1       0  1  0   1  0  0  -1 -1 -1
                       0  0  1  -1 -1 -1   0  1  0      -1 -1 -1   0  0  1   1  0  0
           tolwfr      1.00000000E-20
            typat      1  2  3  3  3  3
           useylm           1
           xangst      0.0000000000E+00  0.0000000000E+00  0.0000000000E+00
                       2.9965334905E+00  1.0592054173E+00 -1.1109158081E-01
                       3.1481441678E+00  5.6309266554E-01 -1.7117581831E+00
                       1.3601840911E+00  1.0714339439E+00  2.8064600744E-01
                      -8.5831095233E-01  2.6085560231E+00  2.8603896221E+00
                       2.4676936626E+00  4.2305607061E+00 -1.8736437696E+00
            xcart      0.0000000000E+00  0.0000000000E+00  0.0000000000E+00
                       5.6626276450E+00  2.0016081572E+00 -2.0993266340E-01
                       5.9491303040E+00  1.0640909253E+00 -3.2347541719E+00
                       2.5703754225E+00  2.0247167234E+00  5.3034409434E-01
                      -1.6219726368E+00  4.9294564859E+00  5.4053530191E+00
                       4.6632652021E+00  7.9946011230E+00 -3.5406735952E+00
             xred      0.0000000000E+00  0.0000000000E+00  0.0000000000E+00
                       7.5000000000E-01  2.5000000000E-01  5.0000000000E-01
                       7.4711375000E-01  1.3290450000E-01  1.3142675000E-01
                       3.8431300000E-01  2.5288625000E-01  3.8579075000E-01
                       1.4777500000E-03  6.1568700000E-01  8.6857325000E-01
                       8.6709550000E-01  9.9852225000E-01  6.1420925000E-01
            znucl       13.00000   33.00000    8.00000

- Timing analysis has been suppressed with timopt=0

 Suggested references for the acknowledgment of ABINIT usage.

 Calculation completed.
.Delivered   6 WARNINGs and   5 COMMENTs to log file.