.Version 9.5.1 of ABINIT

 ABINIT is a project of the Universite Catholique de Louvain,
 Corning Inc. and other collaborators, see ~abinit/doc/developers/contributors.txt .
 acknowledgments of the ABINIT effort.

.Starting date : Tue  4 May 2021.
- ( at 21h49 )

- input  file    -> /scratch/users/j/a/jabreu/flow_simple_6atoms/flow/w260/t1/run.abi
- output file    -> /scratch/users/j/a/jabreu/flow_simple_6atoms/flow/w260/t1/run.abo
- root for input  files -> /scratch/users/j/a/jabreu/flow_simple_6atoms/flow/w260/t1/indata/in
- root for output files -> /scratch/users/j/a/jabreu/flow_simple_6atoms/flow/w260/t1/outdata/out

 Symmetries : space group I-4 (# 82); Bravais tI (body-center tetrag.)
     intxc =       0      iscf =       7    lmnmax =      18     lnmax =       6
     mgfft =      60  mpssoang =       3    mqgrid =    3001     natom =       6
  nloc_mem =       1    nspden =       1   nspinor =       1    nsppol =       1
      nsym =       4    n1xccc =    2501    ntypat =       3    occopt =       1
   xclevel =       2
-    mband =          25        mffmem =           1         mkmem =           1
-   mkqmem =           1        mk1mem =           1           mpw =        8881
      nfft =      216000          nkpt =           1
  Rough estimation (10% accuracy) of disk space for files :

------------- Echo of variables that govern the present computation ------------
-
- outvars: echo of selected default values
-   iomode0 =  0 , fftalg0 =512 , wfoptalg0 =  0
-
- outvars: echo of global parameters not present in the input file
-  max_nthreads =    0
-
 -outvars: echo values of preprocessed input variables --------
            acell      1.0000000000E+00  1.0000000000E+00  1.0000000000E+00 Bohr
              amu      2.69815390E+01  3.09737620E+01  1.59994000E+01
             ecut      4.40000000E+01 Hartree
-          fftalg         512
           irdden           1
           irdwfk           1
           istwfk        1
              ixc     -116133
           kptopt           0
P           mkmem           1
P          mkqmem           1
P          mk1mem           1
            natom           6
            nband          25
           nbdbuf           4
            ngfft          60      60      60
             nkpt           1
            nstep        1000
             nsym           4
           ntypat           3
              occ      2.000000  2.000000  2.000000  2.000000  2.000000  2.000000
                       2.000000  2.000000  2.000000  2.000000  2.000000  2.000000
                       2.000000  2.000000  2.000000  2.000000  0.000000  0.000000
                       0.000000  0.000000  0.000000  0.000000  0.000000  0.000000
                       0.000000
        optdriver           1
            prtwf          -1
            rfdir           1       1       1
           rfelfd           2
            rprim      8.3106522548E+00  0.0000000000E+00 -5.0403940525E+00
                      -2.6346761970E+00  7.8819681703E+00 -5.0403940525E+00
                       0.0000000000E+00  0.0000000000E+00  9.7196971714E+00
          spgroup          82
           symrel      1  0  0   0  1  0   0  0  1       0  1  0   1  0  0  -1 -1 -1
                       0  0  1  -1 -1 -1   0  1  0      -1 -1 -1   0  0  1   1  0  0
           tolwfr      1.00000000E-20
            typat      1  2  3  3  3  3
           useylm           1
           xangst      0.0000000000E+00  0.0000000000E+00  0.0000000000E+00
                       2.9498031725E+00  1.0427394786E+00 -9.5540546145E-02
                       1.7135805664E+00  1.5785928693E-01 -2.7326399394E-01
                       4.0404497410E+00  5.7114073737E-01 -1.0603874764E+00
                       3.4793094012E+00  9.4623498263E-01  1.3373428912E+00
                       2.5658729811E+00  2.4957229076E+00 -3.8585360549E-01
            xcart      0.0000000000E+00  0.0000000000E+00  0.0000000000E+00
                       5.5743201419E+00  1.9704920426E+00 -1.8054546680E-01
                       3.2381979772E+00  2.9831081983E-01 -5.1639411052E-01
                       7.6353434642E+00  1.0792995770E+00 -2.0038419251E+00
                       6.5749418998E+00  1.7881249745E+00  2.5272118101E+00
                       4.8487972261E+00  4.7162327990E+00 -7.2915764175E-01
             xred      0.0000000000E+00  0.0000000000E+00  0.0000000000E+00
                       7.5000000000E-01  2.5000000000E-01  5.0000000000E-01
                       4.0164275000E-01  3.7847250000E-02  1.7478000000E-01
                       9.6215275000E-01  1.3693275000E-01  3.6379550000E-01
                       8.6306725000E-01  2.2686275000E-01  8.2522000000E-01
                       7.7313725000E-01  5.9835725000E-01  6.3620450000E-01
            znucl       13.00000   15.00000    8.00000

 chkinp: Checking input parameters for consistency.

== DATASET  1 ==================================================================
-   mpi_nproc: 1, omp_nthreads: -1 (-1 if OMP is not activated)

--- !DatasetInfo
iteration_state: {dtset: 1, }
dimensions: {natom: 6, nkpt: 1, mband: 25, nsppol: 1, nspinor: 1, nspden: 1, mpw: 8881, }
cutoff_energies: {ecut:  44.0, pawecutdg:  -1.0, }
electrons: {nelect:   3.20000000E+01, charge:   0.00000000E+00, occopt:   1.00000000E+00, tsmear:   1.00000000E-02, }
meta: {optdriver: 1, rfelfd: 2, }
...

 Real(R)+Recip(G) space primitive vectors, cartesian coordinates (Bohr,Bohr^-1):
 R(1)=  8.3106523  0.0000000 -5.0403941  G(1)=  0.1203275  0.0402214  0.0000000
 R(2)= -2.6346762  7.8819682 -5.0403941  G(2)=  0.0000000  0.1268719  0.0000000
 R(3)=  0.0000000  0.0000000  9.7196972  G(3)=  0.0623989  0.0866504  0.1028839
 Unit cell volume ucvol=  6.3668193E+02 bohr^3
 Angles (23,13,12)=  1.21236728E+02  1.21236728E+02  8.78709472E+01 degrees

 getcut: wavevector=  0.0000  0.0000  0.0000  ngfft=  60  60  60
         ecut(hartree)=     44.000   => boxcut(ratio)=   2.06793

--- Pseudopotential description ------------------------------------------------
- pspini: atom type   1  psp file is /scratch/users/j/a/jabreu/pseudos/PBEsol/Al.psp8
- pspatm: opening atomic psp file    /scratch/users/j/a/jabreu/pseudos/PBEsol/Al.psp8
- Al    ONCVPSP-3.3.0  r_core=   1.76802   1.76802   1.70587
- 13.00000   3.00000    180112                znucl, zion, pspdat
    8 -116133    2    4       600   0.00000   pspcod,pspxc,lmax,lloc,mmax,r2well
    5.99000000000000    5.00000000000000    0.00000000000000   rchrg,fchrg,qchrg
     nproj     2     2     2
     extension_switch     1
  pspatm : epsatm=    0.68509324
         --- l  ekb(1:nproj) -->
             0    5.834965    0.726662
             1    6.225605    0.924840
             2   -2.432733   -0.548689
 pspatm: atomic psp has been read  and splines computed

- pspini: atom type   2  psp file is /scratch/users/j/a/jabreu/pseudos/PBEsol/P.psp8
- pspatm: opening atomic psp file    /scratch/users/j/a/jabreu/pseudos/PBEsol/P.psp8
- P     ONCVPSP-3.3.0  r_core=   1.46089   1.55067   1.70594
- 15.00000   5.00000    180112                znucl, zion, pspdat
    8 -116133    2    4       600   0.00000   pspcod,pspxc,lmax,lloc,mmax,r2well
    5.99000000000000    5.00000000000000    0.00000000000000   rchrg,fchrg,qchrg
     nproj     2     2     2
     extension_switch     1
  pspatm : epsatm=    7.31221086
         --- l  ekb(1:nproj) -->
             0    6.742364    1.063650
             1    3.449117    0.910422
             2   -3.077645   -0.799176
 pspatm: atomic psp has been read  and splines computed

- pspini: atom type   3  psp file is /scratch/users/j/a/jabreu/pseudos/PBEsol/O.psp8
- pspatm: opening atomic psp file    /scratch/users/j/a/jabreu/pseudos/PBEsol/O.psp8
- O     ONCVPSP-3.3.0  r_core=   1.35509   1.45563   1.26150
-  8.00000   6.00000    180112                znucl, zion, pspdat
    8 -116133    2    4       600   0.00000   pspcod,pspxc,lmax,lloc,mmax,r2well
    5.99000000000000    4.00000000000000    0.00000000000000   rchrg,fchrg,qchrg
     nproj     2     2     1
     extension_switch     1
  pspatm : epsatm=    6.22910522
         --- l  ekb(1:nproj) -->
             0    6.050032    0.820363
             1   -4.739617   -1.153841
             2   -1.335834
 pspatm: atomic psp has been read  and splines computed

   1.05323920E+03                                ecore*ucvol(ha*bohr**3)

-inwffil : will read wavefunctions from disk file /scratch/users/j/a/jabreu/flow_simple_6atoms/flow/w260/t1/indata/in_WFK

 ==>  initialize data related to q vector <==

 The list of irreducible perturbations for this q vector is:
    1)    idir= 1    ipert=   7
    2)    idir= 2    ipert=   7
    3)    idir= 3    ipert=   7

 Perturbation wavevector (in red.coord.)   0.000000  0.000000  0.000000
 Perturbation : derivative vs k along direction   1

 dfpt_looppert : COMMENT -
  In a d/dk calculation, iscf is set to -3 automatically.
 The set of symmetries contains only one element for this perturbation.
 symkpt : not enough symmetry to change the number of k points.

[...]

 Initialisation of the first-order wave-functions :
  ireadwf=   0

--- !BeginCycle
iteration_state: {dtset: 1, }
solver: {iscf: 7, nstep: 1000, nline: 4, wfoptalg: 0, }
tolerances: {tolwfr: 1.00E-20, }
...

     iter   2DEtotal(Ha)        deltaE(Ha) residm    vres2
-ETOT  1  -21.906519293941     -2.191E+01 5.606E-02 0.000E+00
 ETOT  2  -21.923484195823     -1.696E-02 4.474E-03 0.000E+00
 ETOT  3  -21.923563476138     -7.928E-05 2.339E-04 0.000E+00
 ETOT  4  -21.923564192345     -7.162E-07 3.691E-05 0.000E+00
 ETOT  5  -21.923564200357     -8.012E-09 3.042E-06 0.000E+00
 ETOT  6  -21.923564200456     -9.857E-11 5.335E-07 0.000E+00
 ETOT  7  -21.923564200457     -1.240E-12 4.359E-08 0.000E+00
 ETOT  8  -21.923564200457     -6.040E-14 7.916E-09 0.000E+00
 ETOT  9  -21.923564200457      1.776E-14 6.413E-10 0.000E+00
 ETOT 10  -21.923564200457      7.105E-15 1.186E-10 0.000E+00
 ETOT 11  -21.923564200457      0.000E+00 9.567E-12 0.000E+00
 ETOT 12  -21.923564200457     -7.105E-15 1.785E-12 0.000E+00
 ETOT 13  -21.923564200457      7.105E-15 1.536E-13 0.000E+00
 ETOT 14  -21.923564200457      3.553E-15 2.699E-14 0.000E+00
 ETOT 15  -21.923564200457     -3.553E-15 2.908E-15 0.000E+00
 ETOT 16  -21.923564200457      0.000E+00 4.094E-16 0.000E+00
 ETOT 17  -21.923564200457      3.553E-15 5.522E-17 0.000E+00
 ETOT 18  -21.923564200457      0.000E+00 7.010E-18 0.000E+00
 ETOT 19  -21.923564200457      0.000E+00 1.051E-18 0.000E+00
 ETOT 20  -21.923564200457     -7.105E-15 1.334E-19 0.000E+00
 ETOT 21  -21.923564200457      3.553E-15 2.002E-20 0.000E+00
 ETOT 22  -21.923564200457     -3.553E-15 9.884E-21 0.000E+00

 At SCF step   22   max residual=  9.88E-21 < tolwfr=  1.00E-20 =>converged.

 ----iterations are completed or convergence reached----

 dfpt_looppert: DFPT cycle converged with prtwf=-1. Will skip output of the 1st-order WFK file.
 dfpt_looppert : ek2=    4.0669642727E+01
          f-sum rule ratio=    1.0876235445E+00
 prteigrs : about to open file /scratch/users/j/a/jabreu/flow_simple_6atoms/flow/w260/t1/tmpdata/tmp_1WF1_EIG
 Expectation of eigenvalue derivatives (hartree) for nkpt=   1  k points:
  (in case of degenerate eigenvalues, averaged derivative)
 kpt#   1, nband= 25, wtk=  1.00000, kpt=  0.0000  0.0000  0.0000 (reduced coord)
   0.00000    0.00000    0.00000    0.00000   -0.00000   -0.00000   -0.00000   -0.00000
   0.00000    0.00000   -0.00000   -0.00000   -0.00000    0.00000    0.00000    0.00000
  -0.00000   -0.00000    0.00000    0.00000    0.00000   -0.00000   -0.00000   -0.00000
   0.00038

 Eight components of 2nd-order total energy (hartree) are
 1,2,3: 0th-order hamiltonian combined with 1st-order wavefunctions
     kin0=   2.57881884E+01 eigvalue=   1.64576263E+00  local=  -1.11071250E+01
 4,5,6: 1st-order hamiltonian combined with 1st and 0th-order wfs
     kin1=  -4.42332610E+01  Hartree=   0.00000000E+00     xc=   0.00000000E+00
 7,8,9: eventually, occupation + non-local contributions
    edocc=   6.82222368E+00     enl0=  -1.22548548E+00   enl1=   3.86132577E-01
 1-9 gives the relaxation energy (to be shifted if some occ is /=2.0)
   erelax=  -2.19235642E+01
  No Ewald or frozen-wf contrib.: the relaxation energy is the total one
 2DEtotal=   -0.2192356420E+02 Ha. Also 2DEtotal=   -0.596570521038E+03 eV
    (  non-var. 2DEtotal :   -2.1923564200E+01 Ha)

 Perturbation wavevector (in red.coord.)   0.000000  0.000000  0.000000
 Perturbation : derivative vs k along direction   2
 The set of symmetries contains only one element for this perturbation.
 symkpt : not enough symmetry to change the number of k points.

[...]

 Perturbation wavevector (in red.coord.)   0.000000  0.000000  0.000000
 Perturbation : derivative vs k along direction   3
 The set of symmetries contains only one element for this perturbation.
 symkpt : not enough symmetry to change the number of k points.

-inwffil : will read wavefunctions from disk file /scratch/users/j/a/jabreu/flow_simple_6atoms/flow/w260/t1/indata/in_WFK

 Initialisation of the first-order wave-functions :
  ireadwf=   0

--- !BeginCycle
iteration_state: {dtset: 1, }
solver: {iscf: 7, nstep: 1000, nline: 4, wfoptalg: 0, }
tolerances: {tolwfr: 1.00E-20, }
...

     iter   2DEtotal(Ha)        deltaE(Ha) residm    vres2
-ETOT  1  -29.670990460237     -2.967E+01 1.254E-01 0.000E+00
 ETOT  2  -29.692609785671     -2.162E-02 1.110E-02 0.000E+00
 ETOT  3  -29.692691896840     -8.211E-05 6.292E-04 0.000E+00
 ETOT  4  -29.692692707928     -8.111E-07 1.053E-04 0.000E+00
 ETOT  5  -29.692692718300     -1.037E-08 8.021E-06 0.000E+00
 ETOT  6  -29.692692718446     -1.458E-10 1.521E-06 0.000E+00
 ETOT  7  -29.692692718448     -2.103E-12 1.127E-07 0.000E+00
 ETOT  8  -29.692692718448     -7.105E-14 2.226E-08 0.000E+00
 ETOT  9  -29.692692718448      2.842E-14 1.619E-09 0.000E+00
 ETOT 10  -29.692692718448      1.421E-14 3.276E-10 0.000E+00
 ETOT 11  -29.692692718448     -2.132E-14 2.356E-11 0.000E+00
 ETOT 12  -29.692692718448      0.000E+00 4.839E-12 0.000E+00
 ETOT 13  -29.692692718448      0.000E+00 3.458E-13 0.000E+00
 ETOT 14  -29.692692718448      3.553E-15 7.170E-14 0.000E+00
 ETOT 15  -29.692692718448      0.000E+00 5.102E-15 0.000E+00
 ETOT 16  -29.692692718448      3.553E-15 1.065E-15 0.000E+00
 ETOT 17  -29.692692718448     -3.553E-15 7.562E-17 0.000E+00
 ETOT 18  -29.692692718448      0.000E+00 1.586E-17 0.000E+00
 ETOT 19  -29.692692718448     -3.553E-15 1.368E-18 0.000E+00
 ETOT 20  -29.692692718448      0.000E+00 2.367E-19 0.000E+00
 ETOT 21  -29.692692718448      3.553E-15 2.649E-20 0.000E+00
 ETOT 22  -29.692692718448      0.000E+00 9.389E-21 0.000E+00

 At SCF step   22   max residual=  9.39E-21 < tolwfr=  1.00E-20 =>converged.

 ----iterations are completed or convergence reached----

 dfpt_looppert: DFPT cycle converged with prtwf=-1. Will skip output of the 1st-order WFK file.
 dfpt_looppert : ek2=    5.5552780050E+01
          f-sum rule ratio=    1.0769151064E+00
 prteigrs : about to open file /scratch/users/j/a/jabreu/flow_simple_6atoms/flow/w260/t1/tmpdata/tmp_1WF1_EIG
 Expectation of eigenvalue derivatives (hartree) for nkpt=   1  k points:
  (in case of degenerate eigenvalues, averaged derivative)
 kpt#   1, nband= 25, wtk=  1.00000, kpt=  0.0000  0.0000  0.0000 (reduced coord)
  -0.00000    0.00000    0.00000    0.00000   -0.00000   -0.00000   -0.00000   -0.00000
   0.00000    0.00000   -0.00000   -0.00000    0.00000   -0.00000   -0.00000   -0.00000
   0.00000    0.00000   -0.00000   -0.00000    0.00000   -0.00000   -0.00000   -0.00000
   0.00010

 Eight components of 2nd-order total energy (hartree) are
 1,2,3: 0th-order hamiltonian combined with 1st-order wavefunctions
     kin0=   3.59667304E+01 eigvalue=   2.30594388E+00  local=  -1.56720767E+01
 4,5,6: 1st-order hamiltonian combined with 1st and 0th-order wfs
     kin1=  -5.98256280E+01  Hartree=   0.00000000E+00     xc=   0.00000000E+00
 7,8,9: eventually, occupation + non-local contributions
    edocc=   8.81044181E+00     enl0=  -1.71834667E+00   enl1=   4.40242604E-01
 1-9 gives the relaxation energy (to be shifted if some occ is /=2.0)
   erelax=  -2.96926927E+01
  No Ewald or frozen-wf contrib.: the relaxation energy is the total one
 2DEtotal=   -0.2969269272E+02 Ha. Also 2DEtotal=   -0.807979259399E+03 eV
    (  non-var. 2DEtotal :   -2.9692692718E+01 Ha)

 CALCULATION OF EFFECTIVE MASSES
 NOTE : Additional infos (eff. mass eigenvalues, eigenvectors and, if degenerate, average mass) are available in stdout.

 COMMENTS:
 - At k-point ( 0.000, 0.000, 0.000), bands    15 through    16
   are DEGENERATE (effective mass tensor is therefore not defined).
   See Section IIIB Eqs. (67)-(70) and Appendix E of PRB 93 205147 (2016).
 - Angular average effective mass for Frohlich model is to be averaged over degenerate bands. See later.
 - Associated theta integrals calculated with ntheta=   1000 points.

 K-point ( 0.000, 0.000, 0.000) | band =    15
 Transport equivalent effective mass tensor:
             -3.6405942825             -0.0191064290              0.0235488969
             -0.0191064290             -3.6532125527              0.0329311911
              0.0235488969              0.0329311911             -3.6700256596
 Transport equivalent effective mass tensor eigenvalues:
             -3.7090373888             -3.6280298567             -3.6267652494
 Angular average effective mass 1/(<1/m>)=  -3.2756761597
 Angular average effective mass for Frohlich model (<m**0.5>)**2=  -3.2944858868
 Effective masses along directions: (cart. coord. / red. coord. -> eff. mass)
    1:   1.000000  0.000000  0.000000 /   0.953244 -0.302201  0.000000 ->  -3.4153161256
    2:   0.000000  1.000000  0.000000 /   0.000000  1.000000  0.000000 ->  -3.0552206431
    3:   0.000000  0.000000  1.000000 /  -0.418173 -0.418173  0.806389 ->  -3.4063134086
    4:   0.577350  0.577350  0.577350 /   0.318826  0.020171  0.947599 ->  -3.3434854078
    5:   0.000000  0.707107  0.707107 /  -0.445595  0.251209  0.859267 ->  -3.5801025318
    6:   0.707107  0.000000  0.707107 /   0.255307 -0.599187  0.758810 ->  -2.9319240568
    7:   0.707107  0.707107  0.000000 /   0.845560  0.533881  0.000000 ->  -3.1904788277

 K-point ( 0.000, 0.000, 0.000) | band =    16
 Transport equivalent effective mass tensor:
             -7.7387219874              0.8275373352             -1.0479594363
              0.8275373352             -7.1988784826             -1.4653033000
             -1.0479594363             -1.4653033000             -6.4648000423
 Transport equivalent effective mass tensor eigenvalues:
             -8.3457521718             -8.3277682927             -4.7288800478
 Angular average effective mass 1/(<1/m>)=  -4.8403886884
 Angular average effective mass for Frohlich model (<m**0.5>)**2=  -5.1129043453
 Effective masses along directions: (cart. coord. / red. coord. -> eff. mass)
    1:   1.000000  0.000000  0.000000 /   0.953244 -0.302201  0.000000 ->  -5.2568071608
    2:   0.000000  1.000000  0.000000 /   0.000000  1.000000  0.000000 ->  -5.5039710910
    3:   0.000000  0.000000  1.000000 /  -0.418173 -0.418173  0.806389 ->  -3.9995190496
    4:   0.577350  0.577350  0.577350 /   0.318826  0.020171  0.947599 ->  -6.2806732579
    5:   0.000000  0.707107  0.707107 /  -0.445595  0.251209  0.859267 ->  -5.6353095749
    6:   0.707107  0.000000  0.707107 /   0.255307 -0.599187  0.758810 ->  -8.1786025860
    7:   0.707107  0.707107  0.000000 /   0.845560  0.533881  0.000000 ->  -4.5100960779

 Angular average effective mass for Frohlich model, averaged over degenerate bands.
 Value of     (<<m**0.5>>)**2 =     4.153944E+00
 Absolute Value of <<m**0.5>> =     2.038123E+00

 K-point ( 0.000, 0.000, 0.000) | band =    17
 Effective mass tensor:
              0.5712266361             -0.0012957376              0.0016572130
             -0.0012957376              0.5703603803              0.0023013061
              0.0016572130              0.0023013061              0.5692164128
 Effective mass tensor eigenvalues:
              0.5664839886              0.5721597200              0.5721597206
 Angular average effective mass 1/(<1/m>)=   0.5702552148
 Angular average effective mass for Frohlich model (<m**0.5>)**2=   0.5702589998
 Effective masses along directions: (cart. coord. / red. coord. -> eff. mass)
    1:   1.000000  0.000000  0.000000 /   0.953244 -0.302201  0.000000 ->   0.5712188371
    2:   0.000000  1.000000  0.000000 /   0.000000  1.000000  0.000000 ->   0.5703481066
    3:   0.000000  0.000000  1.000000 /  -0.418173 -0.418173  0.806389 ->   0.5692022892
    4:   0.577350  0.577350  0.577350 /   0.318826  0.020171  0.947599 ->   0.5720418522
    5:   0.000000  0.707107  0.707107 /  -0.445595  0.251209  0.859267 ->   0.5720890099
    6:   0.707107  0.000000  0.707107 /   0.255307 -0.599187  0.758810 ->   0.5718760629
    7:   0.707107  0.707107  0.000000 /   0.845560  0.533881  0.000000 ->   0.5694836748

 END OF EFFECTIVE MASSES SECTION

 ---- first-order wavefunction calculations are completed ----

 Total localisation tensor (bohr^2) in cartesian coordinates
  WARNING : still subject to testing - especially symmetries.
      direction              matrix element
   alpha     beta       real part   imaginary part
     1        1       0.8555575338    0.0000000000
     1        2      -0.2337412855    0.0000000000
     1        3      -0.3220332846    0.0000000000
     2        1      -0.2337412855    0.0000000000
     2        2       0.6992667160    0.0000000000
     2        3      -0.4471700114    0.0000000000
     3        1      -0.3220332846    0.0000000000
     3        2      -0.4471700114    0.0000000000
     3        3       1.9997583809    0.0000000000

 respfn : d/dk was computed, but no 2DTE, so no DDB output.

== END DATASET(S) ==============================================================

 -outvars: echo values of variables after computation  --------
            acell      1.0000000000E+00  1.0000000000E+00  1.0000000000E+00 Bohr
              amu      2.69815390E+01  3.09737620E+01  1.59994000E+01
             ecut      4.40000000E+01 Hartree
           etotal     -2.9692692718E+01
            fcart      0.0000000000E+00  0.0000000000E+00  0.0000000000E+00
                       0.0000000000E+00  0.0000000000E+00  0.0000000000E+00
                       0.0000000000E+00  0.0000000000E+00  0.0000000000E+00
                       0.0000000000E+00  0.0000000000E+00  0.0000000000E+00
                       0.0000000000E+00  0.0000000000E+00  0.0000000000E+00
                       0.0000000000E+00  0.0000000000E+00  0.0000000000E+00
-          fftalg         512
           irdden           1
           irdwfk           1
           istwfk        1
              ixc     -116133
           kptopt           0
P           mkmem           1
P          mkqmem           1
P          mk1mem           1
            natom           6
            nband          25
           nbdbuf           4
            ngfft          60      60      60
             nkpt           1
            nstep        1000
             nsym           4
           ntypat           3
              occ      2.000000  2.000000  2.000000  2.000000  2.000000  2.000000
                       2.000000  2.000000  2.000000  2.000000  2.000000  2.000000
                       2.000000  2.000000  2.000000  2.000000  0.000000  0.000000
                       0.000000  0.000000  0.000000  0.000000  0.000000  0.000000
                       0.000000
        optdriver           1
            prtwf          -1
            rfdir           1       1       1
           rfelfd           2
            rprim      8.3106522548E+00  0.0000000000E+00 -5.0403940525E+00
                      -2.6346761970E+00  7.8819681703E+00 -5.0403940525E+00
                       0.0000000000E+00  0.0000000000E+00  9.7196971714E+00
          spgroup          82
           strten      0.0000000000E+00  0.0000000000E+00  0.0000000000E+00
                       0.0000000000E+00  0.0000000000E+00  0.0000000000E+00
           symrel      1  0  0   0  1  0   0  0  1       0  1  0   1  0  0  -1 -1 -1
                       0  0  1  -1 -1 -1   0  1  0      -1 -1 -1   0  0  1   1  0  0
           tolwfr      1.00000000E-20
            typat      1  2  3  3  3  3
           useylm           1
           xangst      0.0000000000E+00  0.0000000000E+00  0.0000000000E+00
                       2.9498031725E+00  1.0427394786E+00 -9.5540546145E-02
                       1.7135805664E+00  1.5785928693E-01 -2.7326399394E-01
                       4.0404497410E+00  5.7114073737E-01 -1.0603874764E+00
                       3.4793094012E+00  9.4623498263E-01  1.3373428912E+00
                       2.5658729811E+00  2.4957229076E+00 -3.8585360549E-01
            xcart      0.0000000000E+00  0.0000000000E+00  0.0000000000E+00
                       5.5743201419E+00  1.9704920426E+00 -1.8054546680E-01
                       3.2381979772E+00  2.9831081983E-01 -5.1639411052E-01
                       7.6353434642E+00  1.0792995770E+00 -2.0038419251E+00
                       6.5749418998E+00  1.7881249745E+00  2.5272118101E+00
                       4.8487972261E+00  4.7162327990E+00 -7.2915764175E-01
             xred      0.0000000000E+00  0.0000000000E+00  0.0000000000E+00
                       7.5000000000E-01  2.5000000000E-01  5.0000000000E-01
                       4.0164275000E-01  3.7847250000E-02  1.7478000000E-01
                       9.6215275000E-01  1.3693275000E-01  3.6379550000E-01
                       8.6306725000E-01  2.2686275000E-01  8.2522000000E-01
                       7.7313725000E-01  5.9835725000E-01  6.3620450000E-01
            znucl       13.00000   15.00000    8.00000

- Timing analysis has been suppressed with timopt=0

 Suggested references for the acknowledgment of ABINIT usage.

 Calculation completed.
.Delivered   6 WARNINGs and   5 COMMENTs to log file.