.Version 9.5.1 of ABINIT

 ABINIT is a project of the Universite Catholique de Louvain,
 Corning Inc. and other collaborators, see ~abinit/doc/developers/contributors.txt .
 acknowledgments of the ABINIT effort.

.Starting date : Tue 18 May 2021.
- ( at 13h19 )

- input  file    -> /scratch/users/j/a/jabreu/flow_simple_8atoms/flow/w302/t1/run.abi
- output file    -> /scratch/users/j/a/jabreu/flow_simple_8atoms/flow/w302/t1/run.abo
- root for input  files -> /scratch/users/j/a/jabreu/flow_simple_8atoms/flow/w302/t1/indata/in
- root for output files -> /scratch/users/j/a/jabreu/flow_simple_8atoms/flow/w302/t1/outdata/out

 Symmetries : space group R-3 m (#166); Bravais hR (rhombohedral)
     intxc =       0      iscf =       7    lmnmax =      18     lnmax =       6
     mgfft =      90  mpssoang =       3    mqgrid =    3001     natom =       8
  nloc_mem =       1    nspden =       1   nspinor =       1    nsppol =       1
      nsym =      12    n1xccc =    2501    ntypat =       3    occopt =       1
   xclevel =       2
-    mband =          56        mffmem =           1         mkmem =           2
-   mkqmem =           2        mk1mem =           2           mpw =       18044
      nfft =      729000          nkpt =           2
  Rough estimation (10% accuracy) of disk space for files :

------------- Echo of variables that govern the present computation ------------
-
- outvars: echo of selected default values
-   iomode0 =  0 , fftalg0 =512 , wfoptalg0 =  0
-
- outvars: echo of global parameters not present in the input file
-  max_nthreads =    0
-
 -outvars: echo values of preprocessed input variables --------
            acell      1.0000000000E+00  1.0000000000E+00  1.0000000000E+00 Bohr
              amu      3.90983000E+01  6.35460000E+01  3.09737620E+01
             ecut      4.60000000E+01 Hartree
-          fftalg         512
           irdden           1
           irdwfk           1
           istwfk        1    1
              ixc     -116133
              kpt      5.00000000E-01  5.00000000E-01  5.00000000E-01
                       5.00000000E-01  5.00000000E-01  0.00000000E+00
           kptopt           0
P           mkmem           2
P          mkqmem           2
P          mk1mem           2
            natom           8
            nband          56
           nbdbuf           4
            ngfft          90      90      90
             nkpt           2
            nstep        2000
             nsym          12
           ntypat           3
              occ      2.000000  2.000000  2.000000  2.000000  2.000000  2.000000
                       2.000000  2.000000  2.000000  2.000000  2.000000  2.000000
                       2.000000  2.000000  2.000000  2.000000  2.000000  2.000000
                       2.000000  2.000000  2.000000  2.000000  2.000000  2.000000
                       2.000000  2.000000  2.000000  2.000000  2.000000  2.000000
                       2.000000  2.000000  2.000000  2.000000  2.000000  2.000000
                       2.000000  2.000000  2.000000  2.000000  2.000000  2.000000
                       2.000000  2.000000  2.000000  2.000000  2.000000  0.000000
                       0.000000  0.000000  0.000000  0.000000  0.000000  0.000000
                       0.000000  0.000000
        optdriver           1
            prtwf          -1
            rfdir           1       1       1
           rfelfd           2
            rprim      9.7810600791E+00  0.0000000000E+00  9.8643167748E+00
                       4.0614667105E+00  8.8979561940E+00  9.8643167748E+00
                       0.0000000000E+00  0.0000000000E+00  1.3891503940E+01
          spgroup         166
           symrel      1  0  0   0  1  0   0  0  1      -1  0  0   0 -1  0   0  0 -1
                       0  1  0   1  0  0   0  0  1       0 -1  0  -1  0  0   0  0 -1
                       0  0  1   1  0  0   0  1  0       0  0 -1  -1  0  0   0 -1  0
                       1  0  0   0  0  1   0  1  0      -1  0  0   0  0 -1   0 -1  0
                       0  1  0   0  0  1   1  0  0       0 -1  0   0  0 -1  -1  0  0
                       0  0  1   0  1  0   1  0  0       0  0 -1   0 -1  0  -1  0  0
           tolwfr      1.00000000E-20
            typat      1  1  1  2  2  2  3  3
           useylm           1
              wtk        0.50000    0.50000
           xangst      6.6554039254E+00  4.2780840147E+00  1.6164360627E+01
                       3.6625748432E+00  2.3542978104E+00  8.8955052545E+00
                       6.6974576097E-01  4.3051160621E-01  1.6266498818E+00
                       1.0746178083E+00  2.3542978104E+00  6.2855194467E+00
                       2.5879570349E+00  0.0000000000E+00  6.2855194467E+00
                       3.6625748432E+00  2.3542978104E+00  5.2199716155E+00
                       1.8743446514E+00  1.2048260303E+00  4.5523281870E+00
                       5.4508050349E+00  3.5037695906E+00  1.3238682322E+01
            xcart      1.2576890723E+01  8.0844071612E+00  3.0546214698E+01
                       6.9212633948E+00  4.4489780970E+00  1.6810068745E+01
                       1.2656360669E+00  8.1354903277E-01  3.0739227908E+00
                       2.0307333553E+00  4.4489780970E+00  1.1877910357E+01
                       4.8905300395E+00  0.0000000000E+00  1.1877910357E+01
                       6.9212633948E+00  4.4489780970E+00  9.8643167748E+00
                       3.5419980699E+00  2.2767912350E+00  8.6026535405E+00
                       1.0300528720E+01  6.6211649590E+00  2.5017483949E+01
             xred      9.0856900000E-01  9.0856900000E-01  9.0856900000E-01
                       5.0000000000E-01  5.0000000000E-01  5.0000000000E-01
                       9.1431000000E-02  9.1431000000E-02  9.1431000000E-02
                      -2.7755575616E-17  5.0000000000E-01  5.0000000000E-01
                       5.0000000000E-01  0.0000000000E+00  5.0000000000E-01
                       5.0000000000E-01  5.0000000000E-01 -2.2204460493E-16
                       2.5587800000E-01  2.5587800000E-01  2.5587800000E-01
                       7.4412200000E-01  7.4412200000E-01  7.4412200000E-01
            znucl       19.00000   29.00000   15.00000

 chkinp: Checking input parameters for consistency.

== DATASET  1 ==================================================================
-   mpi_nproc: 1, omp_nthreads: -1 (-1 if OMP is not activated)

--- !DatasetInfo
iteration_state: {dtset: 1, }
dimensions: {natom: 8, nkpt: 2, mband: 56, nsppol: 1, nspinor: 1, nspden: 1, mpw: 18044, }
cutoff_energies: {ecut:  46.0, pawecutdg:  -1.0, }
electrons: {nelect:   9.40000000E+01, charge:   0.00000000E+00, occopt:   1.00000000E+00, tsmear:   1.00000000E-02, }
meta: {optdriver: 1, rfelfd: 2, }
...

 Real(R)+Recip(G) space primitive vectors, cartesian coordinates (Bohr,Bohr^-1):
 R(1)=  9.7810601  0.0000000  9.8643168  G(1)=  0.1022384 -0.0466667  0.0000000
 R(2)=  4.0614667  8.8979562  9.8643168  G(2)=  0.0000000  0.1123854  0.0000000
 R(3)=  0.0000000  0.0000000 13.8915039  G(3)= -0.0725992 -0.0466667  0.0719864
 Unit cell volume ucvol=  1.2089976E+03 bohr^3
 Angles (23,13,12)=  4.47571831E+01  4.47571831E+01  4.47571831E+01 degrees

 getcut: wavevector=  0.0000  0.0000  0.0000  ngfft=  90  90  90
         ecut(hartree)=     46.000   => boxcut(ratio)=   2.12202

--- Pseudopotential description ------------------------------------------------
- pspini: atom type   1  psp file is /scratch/users/j/a/jabreu/pseudos/PBEsol/K.psp8
- pspatm: opening atomic psp file    /scratch/users/j/a/jabreu/pseudos/PBEsol/K.psp8
- K     ONCVPSP-3.3.0  r_core=   1.36296   1.46408   1.61068
- 19.00000   9.00000    180112                znucl, zion, pspdat
    8 -116133    2    4       400   0.00000   pspcod,pspxc,lmax,lloc,mmax,r2well
    3.99000000000000    5.00000000000000    0.00000000000000   rchrg,fchrg,qchrg
     nproj     2     2     2
     extension_switch     1
  pspatm : epsatm=    8.32487830
         --- l  ekb(1:nproj) -->
             0   10.921326    0.816676
             1    4.431000    0.560368
             2   -3.384038   -1.043186
 pspatm: atomic psp has been read  and splines computed

- pspini: atom type   2  psp file is /scratch/users/j/a/jabreu/pseudos/PBEsol/Cu.psp8
- pspatm: opening atomic psp file    /scratch/users/j/a/jabreu/pseudos/PBEsol/Cu.psp8
- Cu    ONCVPSP-3.3.0  r_core=   1.26204   1.45626   1.76249
- 29.00000  19.00000    180112                znucl, zion, pspdat
    8 -116133    2    4       600   0.00000   pspcod,pspxc,lmax,lloc,mmax,r2well
    5.99000000000000    3.50000000000000    0.00000000000000   rchrg,fchrg,qchrg
     nproj     2     2     2
     extension_switch     1
  pspatm : epsatm=   21.63488701
         --- l  ekb(1:nproj) -->
             0    5.008230   -0.401634
             1   -3.496700   -0.765945
             2   -6.895851   -2.521180
 pspatm: atomic psp has been read  and splines computed

- pspini: atom type   3  psp file is /scratch/users/j/a/jabreu/pseudos/PBEsol/P.psp8
- pspatm: opening atomic psp file    /scratch/users/j/a/jabreu/pseudos/PBEsol/P.psp8
- P     ONCVPSP-3.3.0  r_core=   1.46089   1.55067   1.70594
- 15.00000   5.00000    180112                znucl, zion, pspdat
    8 -116133    2    4       600   0.00000   pspcod,pspxc,lmax,lloc,mmax,r2well
    5.99000000000000    5.00000000000000    0.00000000000000   rchrg,fchrg,qchrg
     nproj     2     2     2
     extension_switch     1
  pspatm : epsatm=    7.31221086
         --- l  ekb(1:nproj) -->
             0    6.742364    1.063650
             1    3.449117    0.910422
             2   -3.077645   -0.799176
 pspatm: atomic psp has been read  and splines computed

   9.82334946E+03                                ecore*ucvol(ha*bohr**3)

-inwffil : will read wavefunctions from disk file /scratch/users/j/a/jabreu/flow_simple_8atoms/flow/w302/t1/indata/in_WFK

 ==>  initialize data related to q vector <==

 The list of irreducible perturbations for this q vector is:
    1)    idir= 1    ipert=   9
    2)    idir= 2    ipert=   9
    3)    idir= 3    ipert=   9

 Perturbation wavevector (in red.coord.)   0.000000  0.000000  0.000000
 Perturbation : derivative vs k along direction   1

 dfpt_looppert : COMMENT -
  In a d/dk calculation, iscf is set to -3 automatically.
 The set of symmetries contains only one element for this perturbation.
 symkpt : not enough symmetry to change the number of k points.

[...]

 Initialisation of the first-order wave-functions :
  ireadwf=   0

--- !BeginCycle
iteration_state: {dtset: 1, }
solver: {iscf: 7, nstep: 2000, nline: 4, wfoptalg: 0, }
tolerances: {tolwfr: 1.00E-20, }
...

     iter   2DEtotal(Ha)        deltaE(Ha) residm    vres2
-ETOT  1  -52.516200860062     -5.252E+01 1.394E-01 0.000E+00
 ETOT  2  -52.750354542882     -2.342E-01 9.118E-03 0.000E+00
 ETOT  3  -52.757595606118     -7.241E-03 8.687E-04 0.000E+00
 ETOT  4  -52.757999589645     -4.040E-04 1.149E-04 0.000E+00
 ETOT  5  -52.758028815065     -2.923E-05 1.923E-05 0.000E+00
 ETOT  6  -52.758031256447     -2.441E-06 3.472E-06 0.000E+00
 ETOT  7  -52.758031479761     -2.233E-07 6.011E-07 0.000E+00
[...]
 1,2,3: 0th-order hamiltonian combined with 1st-order wavefunctions
     kin0=   7.50229840E+01 eigvalue=   1.73628532E+00  local=  -3.39291843E+01
 4,5,6: 1st-order hamiltonian combined with 1st and 0th-order wfs
     kin1=  -1.00353158E+02  Hartree=   0.00000000E+00     xc=   0.00000000E+00
 7,8,9: eventually, occupation + non-local contributions
    edocc=   1.08734097E+01     enl0=  -9.45463221E-01   enl1=  -5.16290475E+00
 1-9 gives the relaxation energy (to be shifted if some occ is /=2.0)
   erelax=  -5.27580315E+01
  No Ewald or frozen-wf contrib.: the relaxation energy is the total one
 2DEtotal=   -0.5275803150E+02 Ha. Also 2DEtotal=   -0.143561904695E+04 eV
    (  non-var. 2DEtotal :   -5.2758031503E+01 Ha)

 Perturbation wavevector (in red.coord.)   0.000000  0.000000  0.000000
 Perturbation : derivative vs k along direction   2
 The set of symmetries contains only one element for this perturbation.
 symkpt : not enough symmetry to change the number of k points.

[...]

 Perturbation wavevector (in red.coord.)   0.000000  0.000000  0.000000
 Perturbation : derivative vs k along direction   3
 The set of symmetries contains only one element for this perturbation.
 symkpt : not enough symmetry to change the number of k points.

-inwffil : will read wavefunctions from disk file /scratch/users/j/a/jabreu/flow_simple_8atoms/flow/w302/t1/indata/in_WFK

 Initialisation of the first-order wave-functions :
  ireadwf=   0

--- !BeginCycle
iteration_state: {dtset: 1, }
solver: {iscf: 7, nstep: 2000, nline: 4, wfoptalg: 0, }
tolerances: {tolwfr: 1.00E-20, }
...

     iter   2DEtotal(Ha)        deltaE(Ha) residm    vres2
-ETOT  1  -51.134378684682     -5.113E+01 1.173E-01 0.000E+00
 ETOT  2  -51.349416933267     -2.150E-01 6.474E-03 0.000E+00
 ETOT  3  -51.355110708292     -5.694E-03 2.966E-04 0.000E+00
 ETOT  4  -51.355377788638     -2.671E-04 4.061E-05 0.000E+00
 ETOT  5  -51.355393684062     -1.590E-05 5.938E-06 0.000E+00
 ETOT  6  -51.355394750861     -1.067E-06 9.641E-07 0.000E+00
 ETOT  7  -51.355394827917     -7.706E-08 1.368E-07 0.000E+00
 ETOT  8  -51.355394833739     -5.822E-09 2.830E-08 0.000E+00
 ETOT  9  -51.355394834195     -4.560E-10 6.220E-09 0.000E+00
 ETOT 10  -51.355394834231     -3.655E-11 1.435E-09 0.000E+00
 ETOT 11  -51.355394834234     -3.006E-12 4.086E-10 0.000E+00
 ETOT 12  -51.355394834235     -3.055E-13 9.848E-11 0.000E+00
 ETOT 13  -51.355394834235     -2.842E-14 2.860E-11 0.000E+00
 ETOT 14  -51.355394834235      6.395E-14 6.901E-12 0.000E+00
 ETOT 15  -51.355394834234      4.263E-14 1.997E-12 0.000E+00
 ETOT 16  -51.355394834235     -5.684E-14 4.758E-13 0.000E+00
 ETOT 17  -51.355394834235      7.105E-15 1.373E-13 0.000E+00
 ETOT 18  -51.355394834235      0.000E+00 3.238E-14 0.000E+00
 ETOT 19  -51.355394834235      7.105E-15 9.380E-15 0.000E+00
 ETOT 20  -51.355394834235      2.132E-14 2.193E-15 0.000E+00
 ETOT 21  -51.355394834235     -2.132E-14 6.396E-16 0.000E+00
 ETOT 22  -51.355394834235      0.000E+00 1.485E-16 0.000E+00
 ETOT 23  -51.355394834235     -1.421E-14 4.359E-17 0.000E+00
 ETOT 24  -51.355394834235      2.842E-14 1.005E-17 0.000E+00
 ETOT 25  -51.355394834235     -1.421E-14 2.971E-18 0.000E+00
 ETOT 26  -51.355394834235      0.000E+00 6.808E-19 0.000E+00
 ETOT 27  -51.355394834235      0.000E+00 2.026E-19 0.000E+00
 ETOT 28  -51.355394834235      0.000E+00 4.613E-20 0.000E+00
 ETOT 29  -51.355394834235     -7.105E-15 1.381E-20 0.000E+00
 ETOT 30  -51.355394834235      2.132E-14 9.721E-21 0.000E+00

 At SCF step   30   max residual=  9.72E-21 < tolwfr=  1.00E-20 =>converged.

 ----iterations are completed or convergence reached----

 dfpt_looppert: DFPT cycle converged with prtwf=-1. Will skip output of the 1st-order WFK file.
 dfpt_looppert : ek2=    9.3742613946E+01
          f-sum rule ratio=    1.0349910254E+00
 prteigrs : about to open file /scratch/users/j/a/jabreu/flow_simple_8atoms/flow/w302/t1/tmpdata/tmp_1WF1_EIG
 Expectation of eigenvalue derivatives (hartree) for nkpt=   2  k points:
  (in case of degenerate eigenvalues, averaged derivative)
 kpt#   1, nband= 56, wtk=  0.50000, kpt=  0.5000  0.5000  0.5000 (reduced coord)
   0.00000   -0.00000   -0.00000    0.00000    0.00000    0.00000    0.00000    0.00000
  -0.00000    0.00000    0.00000    0.00000    0.00000    0.00000    0.00000    0.00000
   0.00000    0.00000    0.00000   -0.00000   -0.00000   -0.00000   -0.00000   -0.00000
   0.00000    0.00000    0.00000    0.00000    0.00000    0.00000   -0.00000   -0.00000
   0.00000    0.00000    0.00000    0.00000    0.00000    0.00000    0.00000   -0.00000
  -0.00000    0.00000    0.00000   -0.00000   -0.00000   -0.00000   -0.00000    0.00000
  -0.00000   -0.00000    0.00000    0.00000    0.00000    0.00000    0.00000    0.00000
 prteigrs : prtvol=0 or 1, do not print more k-points.

 Eight components of 2nd-order total energy (hartree) are
 1,2,3: 0th-order hamiltonian combined with 1st-order wavefunctions
     kin0=   7.47509867E+01 eigvalue=   1.77592971E+00  local=  -3.37977390E+01
 4,5,6: 1st-order hamiltonian combined with 1st and 0th-order wfs
     kin1=  -9.70227641E+01  Hartree=   0.00000000E+00     xc=   0.00000000E+00
 7,8,9: eventually, occupation + non-local contributions
    edocc=   9.65878378E+00     enl0=  -1.03256630E+00   enl1=  -5.68802554E+00
 1-9 gives the relaxation energy (to be shifted if some occ is /=2.0)
   erelax=  -5.13553948E+01
  No Ewald or frozen-wf contrib.: the relaxation energy is the total one
 2DEtotal=   -0.5135539483E+02 Ha. Also 2DEtotal=   -0.139745136212E+04 eV
    (  non-var. 2DEtotal :   -5.1355394834E+01 Ha)

 CALCULATION OF EFFECTIVE MASSES
 NOTE : Additional infos (eff. mass eigenvalues, eigenvectors and, if degenerate, average mass) are available in stdout.

 COMMENTS:
 - At k-point ( 0.500, 0.500, 0.500), bands    46 through    47
   are DEGENERATE (effective mass tensor is therefore not defined).
   See Section IIIB Eqs. (67)-(70) and Appendix E of PRB 93 205147 (2016).
 - Angular average effective mass for Frohlich model is to be averaged over degenerate bands. See later.
 - Associated theta integrals calculated with ntheta=   1000 points.

 K-point ( 0.500, 0.500, 0.500) | band =    46
 Transport equivalent effective mass tensor:
             -0.7326118329             -0.1851056737             -0.6994088258
             -0.1851056737             -0.5636265672             -0.4495771070
             -0.6994088258             -0.4495771070             -2.1433371508
 Transport equivalent effective mass tensor eigenvalues:
             -2.5502920065             -0.4446421321             -0.4446414124
 Angular average effective mass 1/(<1/m>)=  -0.5588501437
 Angular average effective mass for Frohlich model (<m**0.5>)**2=  -0.6371378458
 Effective masses along directions: (cart. coord. / red. coord. -> eff. mass)
    1:   1.000000  0.000000  0.000000 /   0.923545  0.383491  0.000000 ->  -0.4473601005
    2:   0.000000  1.000000  0.000000 /   0.000000  1.000000  0.000000 ->  -0.4086682064
    3:   0.000000  0.000000  1.000000 /   0.501054  0.501054  0.705613 ->  -1.0344107710
    4:   0.577350  0.577350  0.577350 /   0.592374  0.688212  0.418875 ->  -1.1120735963
    5:   0.000000  0.707107  0.707107 /   0.389222  0.740314  0.548125 ->  -0.8167481345
    6:   0.707107  0.000000  0.707107 /   0.706667  0.500927  0.499694 ->  -1.0271097867
    7:   0.707107  0.707107  0.000000 /   0.602421  0.798178  0.000000 ->  -0.5125720523

 K-point ( 0.500, 0.500, 0.500) | band =    47
 Transport equivalent effective mass tensor:
             -2.0629245254             -0.3149134177             -1.1898651204
             -0.3149134177             -1.7754438749             -0.7648459608
             -1.1898651204             -0.7648459608             -4.4629037432
 Transport equivalent effective mass tensor eigenvalues:
             -5.1552382425             -1.5730174704             -1.5730164307
 Angular average effective mass 1/(<1/m>)=  -1.4111909292
 Angular average effective mass for Frohlich model (<m**0.5>)**2=  -1.5386693179
 Effective masses along directions: (cart. coord. / red. coord. -> eff. mass)
    1:   1.000000  0.000000  0.000000 /   0.923545  0.383491  0.000000 ->  -1.2918565454
    2:   0.000000  1.000000  0.000000 /   0.000000  1.000000  0.000000 ->  -1.2966332403
    3:   0.000000  0.000000  1.000000 /   0.501054  0.501054  0.705613 ->  -3.3369031208
    4:   0.577350  0.577350  0.577350 /   0.592374  0.688212  0.418875 ->  -2.0003736380
    5:   0.000000  0.707107  0.707107 /   0.389222  0.740314  0.548125 ->  -2.1623127909
    6:   0.707107  0.000000  0.707107 /   0.706667  0.500927  0.499694 ->  -3.3315245156
    7:   0.707107  0.707107  0.000000 /   0.602421  0.798178  0.000000 ->  -1.0704839881

 Angular average effective mass for Frohlich model, averaged over degenerate bands.
 Value of     (<<m**0.5>>)**2 =     1.039014E+00
 Absolute Value of <<m**0.5>> =     1.019320E+00

 K-point ( 0.500, 0.500, 0.000) | band =    48
 Effective mass tensor:
              0.7845087422              0.3702254978             -0.0512182988
              0.3702254978              0.4465364054             -0.0329255885
             -0.0512182988             -0.0329255885              0.6398730222
 Effective mass tensor eigenvalues:
              0.2085542159              0.6304171278              1.0319468262
 Angular average effective mass 1/(<1/m>)=   0.4081516176
 Angular average effective mass for Frohlich model (<m**0.5>)**2=   0.4700498029
 Effective masses along directions: (cart. coord. / red. coord. -> eff. mass)
    1:   1.000000  0.000000  0.000000 /   0.923545  0.383491  0.000000 ->   0.4766554296
    2:   0.000000  1.000000  0.000000 /   0.000000  1.000000  0.000000 ->   0.2716991172
    3:   0.000000  0.000000  1.000000 /   0.501054  0.501054  0.705613 ->   0.6362471626
    4:   0.577350  0.577350  0.577350 /   0.592374  0.688212  0.418875 ->   0.7243463364
    5:   0.000000  0.707107  0.707107 /   0.389222  0.740314  0.548125 ->   0.3735873415
    6:   0.707107  0.000000  0.707107 /   0.706667  0.500927  0.499694 ->   0.5225868406
    7:   0.707107  0.707107  0.000000 /   0.602421  0.798178  0.000000 ->   0.8653291065

 END OF EFFECTIVE MASSES SECTION

 ---- first-order wavefunction calculations are completed ----

 Total localisation tensor (bohr^2) in cartesian coordinates
  WARNING : still subject to testing - especially symmetries.
      direction              matrix element
   alpha     beta       real part   imaginary part
     1        1       1.9141639847    0.0000000000
     1        2       0.6167315580    0.0000000000
     1        3       2.3302660230    0.0000000000
     2        1       0.6167315580    0.0000000000
     2        2       1.3511499114    0.0000000000
     2        3       1.4978912512    0.0000000000
     3        1       2.3302660230    0.0000000000
     3        2       1.4978912512    0.0000000000
     3        3       6.0001783767    0.0000000000

 respfn : d/dk was computed, but no 2DTE, so no DDB output.

== END DATASET(S) ==============================================================

 -outvars: echo values of variables after computation  --------
            acell      1.0000000000E+00  1.0000000000E+00  1.0000000000E+00 Bohr
              amu      3.90983000E+01  6.35460000E+01  3.09737620E+01
             ecut      4.60000000E+01 Hartree
           etotal     -5.1355394834E+01
            fcart      0.0000000000E+00  0.0000000000E+00  0.0000000000E+00
                       0.0000000000E+00  0.0000000000E+00  0.0000000000E+00
                       0.0000000000E+00  0.0000000000E+00  0.0000000000E+00
                       0.0000000000E+00  0.0000000000E+00  0.0000000000E+00
                       0.0000000000E+00  0.0000000000E+00  0.0000000000E+00
                       0.0000000000E+00  0.0000000000E+00  0.0000000000E+00
                       0.0000000000E+00  0.0000000000E+00  0.0000000000E+00
                       0.0000000000E+00  0.0000000000E+00  0.0000000000E+00
-          fftalg         512
           irdden           1
           irdwfk           1
           istwfk        1    1
              ixc     -116133
              kpt      5.00000000E-01  5.00000000E-01  5.00000000E-01
                       5.00000000E-01  5.00000000E-01  0.00000000E+00
           kptopt           0
P           mkmem           2
P          mkqmem           2
P          mk1mem           2
            natom           8
            nband          56
           nbdbuf           4
            ngfft          90      90      90
             nkpt           2
            nstep        2000
             nsym          12
           ntypat           3
              occ      2.000000  2.000000  2.000000  2.000000  2.000000  2.000000
                       2.000000  2.000000  2.000000  2.000000  2.000000  2.000000
                       2.000000  2.000000  2.000000  2.000000  2.000000  2.000000
                       2.000000  2.000000  2.000000  2.000000  2.000000  2.000000
                       2.000000  2.000000  2.000000  2.000000  2.000000  2.000000
                       2.000000  2.000000  2.000000  2.000000  2.000000  2.000000
                       2.000000  2.000000  2.000000  2.000000  2.000000  2.000000
                       2.000000  2.000000  2.000000  2.000000  2.000000  0.000000
                       0.000000  0.000000  0.000000  0.000000  0.000000  0.000000
                       0.000000  0.000000
        optdriver           1
            prtwf          -1
            rfdir           1       1       1
           rfelfd           2
            rprim      9.7810600791E+00  0.0000000000E+00  9.8643167748E+00
                       4.0614667105E+00  8.8979561940E+00  9.8643167748E+00
                       0.0000000000E+00  0.0000000000E+00  1.3891503940E+01
          spgroup         166
           strten      0.0000000000E+00  0.0000000000E+00  0.0000000000E+00
                       0.0000000000E+00  0.0000000000E+00  0.0000000000E+00
           symrel      1  0  0   0  1  0   0  0  1      -1  0  0   0 -1  0   0  0 -1
                       0  1  0   1  0  0   0  0  1       0 -1  0  -1  0  0   0  0 -1
                       0  0  1   1  0  0   0  1  0       0  0 -1  -1  0  0   0 -1  0
                       1  0  0   0  0  1   0  1  0      -1  0  0   0  0 -1   0 -1  0
                       0  1  0   0  0  1   1  0  0       0 -1  0   0  0 -1  -1  0  0
                       0  0  1   0  1  0   1  0  0       0  0 -1   0 -1  0  -1  0  0
           tolwfr      1.00000000E-20
            typat      1  1  1  2  2  2  3  3
           useylm           1
              wtk        0.50000    0.50000
           xangst      6.6554039254E+00  4.2780840147E+00  1.6164360627E+01
                       3.6625748432E+00  2.3542978104E+00  8.8955052545E+00
                       6.6974576097E-01  4.3051160621E-01  1.6266498818E+00
                       1.0746178083E+00  2.3542978104E+00  6.2855194467E+00
                       2.5879570349E+00  0.0000000000E+00  6.2855194467E+00
                       3.6625748432E+00  2.3542978104E+00  5.2199716155E+00
                       1.8743446514E+00  1.2048260303E+00  4.5523281870E+00
                       5.4508050349E+00  3.5037695906E+00  1.3238682322E+01
            xcart      1.2576890723E+01  8.0844071612E+00  3.0546214698E+01
                       6.9212633948E+00  4.4489780970E+00  1.6810068745E+01
                       1.2656360669E+00  8.1354903277E-01  3.0739227908E+00
                       2.0307333553E+00  4.4489780970E+00  1.1877910357E+01
                       4.8905300395E+00  0.0000000000E+00  1.1877910357E+01
                       6.9212633948E+00  4.4489780970E+00  9.8643167748E+00
                       3.5419980699E+00  2.2767912350E+00  8.6026535405E+00
                       1.0300528720E+01  6.6211649590E+00  2.5017483949E+01
             xred      9.0856900000E-01  9.0856900000E-01  9.0856900000E-01
                       5.0000000000E-01  5.0000000000E-01  5.0000000000E-01
                       9.1431000000E-02  9.1431000000E-02  9.1431000000E-02
                      -2.7755575616E-17  5.0000000000E-01  5.0000000000E-01
                       5.0000000000E-01  0.0000000000E+00  5.0000000000E-01
                       5.0000000000E-01  5.0000000000E-01 -2.2204460493E-16
                       2.5587800000E-01  2.5587800000E-01  2.5587800000E-01
                       7.4412200000E-01  7.4412200000E-01  7.4412200000E-01
            znucl       19.00000   29.00000   15.00000

- Timing analysis has been suppressed with timopt=0

 Suggested references for the acknowledgment of ABINIT usage.

 Calculation completed.
.Delivered  14 WARNINGs and  11 COMMENTs to log file.