.Version 9.5.1 of ABINIT

 ABINIT is a project of the Universite Catholique de Louvain,
 Corning Inc. and other collaborators, see ~abinit/doc/developers/contributors.txt .
 acknowledgments of the ABINIT effort.

.Starting date : Tue 27 Apr 2021.
- ( at 15h30 )

- input  file    -> /scratch/users/j/a/jabreu/flow_simple/flow/w126/t1/run.abi
- output file    -> /scratch/users/j/a/jabreu/flow_simple/flow/w126/t1/run.abo
- root for input  files -> /scratch/users/j/a/jabreu/flow_simple/flow/w126/t1/indata/in
- root for output files -> /scratch/users/j/a/jabreu/flow_simple/flow/w126/t1/outdata/out

 Symmetries : space group I4/m m m (#139); Bravais tI (body-center tetrag.)
     intxc =       0      iscf =       7    lmnmax =      32     lnmax =       8
     mgfft =      50  mpssoang =       4    mqgrid =    3001     natom =       3
  nloc_mem =       1    nspden =       1   nspinor =       1    nsppol =       1
      nsym =      16    n1xccc =    2501    ntypat =       2    occopt =       1
   xclevel =       2
-    mband =          20        mffmem =           1         mkmem =           2
-   mkqmem =           2        mk1mem =           2           mpw =        2994
      nfft =      125000          nkpt =           2
  Rough estimation (10% accuracy) of disk space for files :

------------- Echo of variables that govern the present computation ------------
-
- outvars: echo of selected default values
-   iomode0 =  0 , fftalg0 =512 , wfoptalg0 =  0
-
- outvars: echo of global parameters not present in the input file
-  max_nthreads =    0
-
 -outvars: echo values of preprocessed input variables --------
            acell      1.0000000000E+00  1.0000000000E+00  1.0000000000E+00 Bohr
              amu      2.69815390E+01  1.90200000E+02
             ecut      3.70000000E+01 Hartree
-          fftalg         512
           irdden           1
           irdwfk           1
              ixc     -116133
              kpt     -2.77555756E-17 -2.77555756E-17  2.20930233E-01
                       5.00000000E-01  5.00000000E-01 -1.87952203E-01
           kptopt           0
P           mkmem           2
P          mkqmem           2
P          mk1mem           2
            natom           3
            nband          20
           nbdbuf           4
            ngfft          50      50      50
             nkpt           2
            nstep         100
             nsym          16
           ntypat           2
              occ      2.000000  2.000000  2.000000  2.000000  2.000000  2.000000
                       2.000000  2.000000  2.000000  2.000000  2.000000  0.000000
                       0.000000  0.000000  0.000000  0.000000  0.000000  0.000000
                       0.000000  0.000000
        optdriver           1
            prtwf          -1
            rfdir           1       1       1
           rfelfd           2
            rprim      5.6182625426E+00  0.0000000000E+00 -6.9007149853E+00
                      -7.1044527210E-01  5.5731626131E+00 -6.9007149853E+00
                       0.0000000000E+00  0.0000000000E+00  8.8985808591E+00
          spgroup         139
           symrel      1  0  0   0  1  0   0  0  1      -1  0  0   0 -1  0   0  0 -1
                      -1 -1 -1   0  0  1   0  1  0       1  1  1   0  0 -1   0 -1  0
                       0  1  0   1  0  0  -1 -1 -1       0 -1  0  -1  0  0   1  1  1
                       0  0  1  -1 -1 -1   1  0  0       0  0 -1   1  1  1  -1  0  0
                       0  1  0   1  0  0   0  0  1       0 -1  0  -1  0  0   0  0 -1
                      -1 -1 -1   0  0  1   1  0  0       1  1  1   0  0 -1  -1  0  0
                       1  0  0   0  1  0  -1 -1 -1      -1  0  0   0 -1  0   1  1  1
                       0  0  1  -1 -1 -1   0  1  0       0  0 -1   1  1  1   0 -1  0
           tolwfr      1.00000000E-20
            typat      1  1  2
           useylm           1
              wtk        0.50000    0.50000
           xangst      8.7895124539E-01  9.9810933243E-01 -2.4717269190E+00
                       1.7181537981E+00  1.9510813022E+00 -4.8316752674E+00
                       0.0000000000E+00  0.0000000000E+00  0.0000000000E+00
            xcart      1.6609771379E+00  1.8861532890E+00 -4.6708869521E+00
                       3.2468401326E+00  3.6870093241E+00 -9.1305430185E+00
                       0.0000000000E+00  0.0000000000E+00  0.0000000000E+00
             xred      3.3843500000E-01  3.3843500000E-01  8.3266726847E-17
                       6.6156500000E-01  6.6156500000E-01 -1.6653345369E-16
                       0.0000000000E+00  0.0000000000E+00  0.0000000000E+00
            znucl       13.00000   76.00000

 chkinp: Checking input parameters for consistency.

== DATASET  1 ==================================================================
-   mpi_nproc: 1, omp_nthreads: -1 (-1 if OMP is not activated)

--- !DatasetInfo
iteration_state: {dtset: 1, }
dimensions: {natom: 3, nkpt: 2, mband: 20, nsppol: 1, nspinor: 1, nspden: 1, mpw: 2994, }
cutoff_energies: {ecut:  37.0, pawecutdg:  -1.0, }
electrons: {nelect:   2.20000000E+01, charge:   0.00000000E+00, occopt:   1.00000000E+00, tsmear:   1.00000000E-02, }
meta: {optdriver: 1, rfelfd: 2, }
...

 Real(R)+Recip(G) space primitive vectors, cartesian coordinates (Bohr,Bohr^-1):
 R(1)=  5.6182625  0.0000000 -6.9007150  G(1)=  0.1779910  0.0226896  0.0000000
 R(2)= -0.7104453  5.5731626 -6.9007150  G(2)=  0.0000000  0.1794313  0.0000000
 R(3)=  0.0000000  0.0000000  8.8985809  G(3)=  0.1380293  0.1567417  0.1123775
 Unit cell volume ucvol=  2.7862783E+02 bohr^3
 Angles (23,13,12)=  1.40849015E+02  1.40849015E+02  5.65664308E+01 degrees

 getcut: wavevector=  0.0000  0.0000  0.0000  ngfft=  50  50  50
         ecut(hartree)=     37.000   => boxcut(ratio)=   2.05344

--- Pseudopotential description ------------------------------------------------
- pspini: atom type   1  psp file is /scratch/users/j/a/jabreu/pseudos/PBEsol/Al.psp8
- pspatm: opening atomic psp file    /scratch/users/j/a/jabreu/pseudos/PBEsol/Al.psp8
- Al    ONCVPSP-3.3.0  r_core=   1.76802   1.76802   1.70587
- 13.00000   3.00000    180112                znucl, zion, pspdat
    8 -116133    2    4       600   0.00000   pspcod,pspxc,lmax,lloc,mmax,r2well
    5.99000000000000    5.00000000000000    0.00000000000000   rchrg,fchrg,qchrg
     nproj     2     2     2
     extension_switch     1
  pspatm : epsatm=    0.68509324
         --- l  ekb(1:nproj) -->
             0    5.834965    0.726662
             1    6.225605    0.924840
             2   -2.432733   -0.548689
 pspatm: atomic psp has been read  and splines computed

- pspini: atom type   2  psp file is /scratch/users/j/a/jabreu/pseudos/PBEsol/Os.psp8
- pspatm: opening atomic psp file    /scratch/users/j/a/jabreu/pseudos/PBEsol/Os.psp8
- Os    ONCVPSP-3.3.0  r_core=   1.51352   1.55006   1.55006   2.27051
- 76.00000  16.00000    180112                znucl, zion, pspdat
    8 -116133    3    4       600   0.00000   pspcod,pspxc,lmax,lloc,mmax,r2well
    5.99000000000000    5.00000000000000    0.00000000000000   rchrg,fchrg,qchrg
     nproj     2     2     2     2
     extension_switch     1
  pspatm : epsatm=   26.11825460
         --- l  ekb(1:nproj) -->
             0    7.994989   -1.246074
             1    8.240861    1.154929
             2    2.240487    0.219183
             3    0.647575    0.186609
 pspatm: atomic psp has been read  and splines computed

   6.04745704E+02                                ecore*ucvol(ha*bohr**3)

-inwffil : will read wavefunctions from disk file /scratch/users/j/a/jabreu/flow_simple/flow/w126/t1/indata/in_WFK

 ==>  initialize data related to q vector <==

 The list of irreducible perturbations for this q vector is:
    1)    idir= 1    ipert=   4
    2)    idir= 2    ipert=   4
    3)    idir= 3    ipert=   4

 Perturbation wavevector (in red.coord.)   0.000000  0.000000  0.000000
 Perturbation : derivative vs k along direction   1

 dfpt_looppert : COMMENT -
  In a d/dk calculation, iscf is set to -3 automatically.
 The set of symmetries contains only one element for this perturbation.
 symkpt : not enough symmetry to change the number of k points.

[...]

 Initialisation of the first-order wave-functions :
  ireadwf=   0

--- !BeginCycle
iteration_state: {dtset: 1, }
solver: {iscf: 7, nstep: 100, nline: 4, wfoptalg: 0, }
tolerances: {tolwfr: 1.00E-20, }
...

     iter   2DEtotal(Ha)        deltaE(Ha) residm    vres2
-ETOT  1  -30.468875240977     -3.047E+01 3.816E-02 0.000E+00
 ETOT  2  -30.480131965039     -1.126E-02 3.277E-04 0.000E+00
 ETOT  3  -30.480135774387     -3.809E-06 2.185E-06 0.000E+00
 ETOT  4  -30.480135777732     -3.345E-09 2.343E-08 0.000E+00
 ETOT  5  -30.480135777738     -5.880E-12 1.899E-10 0.000E+00
 ETOT  6  -30.480135777738      1.776E-14 2.245E-12 0.000E+00
 ETOT  7  -30.480135777738     -2.842E-14 1.858E-14 0.000E+00
 ETOT  8  -30.480135777738      2.132E-14 2.360E-16 0.000E+00
 ETOT  9  -30.480135777738      3.553E-15 1.979E-18 0.000E+00
 ETOT 10  -30.480135777738     -1.066E-14 2.574E-20 0.000E+00
 ETOT 11  -30.480135777738     -7.105E-15 9.995E-21 0.000E+00

 At SCF step   11   max residual=  1.00E-20 < tolwfr=  1.00E-20 =>converged.

 ----iterations are completed or convergence reached----

 dfpt_looppert: DFPT cycle converged with prtwf=-1. Will skip output of the 1st-order WFK file.
 dfpt_looppert : ek2=    5.5925385075E+01
          f-sum rule ratio=    1.0490180061E+00
 prteigrs : about to open file /scratch/users/j/a/jabreu/flow_simple/flow/w126/t1/tmpdata/tmp_1WF1_EIG
 Expectation of eigenvalue derivatives (hartree) for nkpt=   2  k points:
  (in case of degenerate eigenvalues, averaged derivative)
 kpt#   1, nband= 20, wtk=  0.50000, kpt=  0.0000  0.0000  0.2209 (reduced coord)
   0.00044   -0.00629   -0.00620    0.00128    0.25256    0.10020   -0.18980   -0.06020
   0.13284   -0.15402   -0.00210   -0.05120   -0.08275    0.02978   -0.21397   -0.02738
  -0.60037    0.62652   -0.00322    0.17911
 prteigrs : prtvol=0 or 1, do not print more k-points.

 Eight components of 2nd-order total energy (hartree) are
 1,2,3: 0th-order hamiltonian combined with 1st-order wavefunctions
     kin0=   1.63843345E+01 eigvalue=  -1.21239384E+00  local=  -7.45016897E+00
 4,5,6: 1st-order hamiltonian combined with 1st and 0th-order wfs
     kin1=  -5.86667359E+01  Hartree=   0.00000000E+00     xc=   0.00000000E+00
 7,8,9: eventually, occupation + non-local contributions
    edocc=   2.09206375E+01     enl0=   1.83772663E+00   enl1=  -2.29353561E+00
 1-9 gives the relaxation energy (to be shifted if some occ is /=2.0)
   erelax=  -3.04801358E+01
  No Ewald or frozen-wf contrib.: the relaxation energy is the total one
 2DEtotal=   -0.3048013578E+02 Ha. Also 2DEtotal=   -0.829406674753E+03 eV
    (  non-var. 2DEtotal :   -3.0480135778E+01 Ha)

 Perturbation wavevector (in red.coord.)   0.000000  0.000000  0.000000
 Perturbation : derivative vs k along direction   2
 The set of symmetries contains only one element for this perturbation.
 symkpt : not enough symmetry to change the number of k points.

[...]

 Perturbation wavevector (in red.coord.)   0.000000  0.000000  0.000000
 Perturbation : derivative vs k along direction   3
 The set of symmetries contains only one element for this perturbation.
 symkpt : not enough symmetry to change the number of k points.

-inwffil : will read wavefunctions from disk file /scratch/users/j/a/jabreu/flow_simple/flow/w126/t1/indata/in_WFK

 Initialisation of the first-order wave-functions :
  ireadwf=   0

--- !BeginCycle
iteration_state: {dtset: 1, }
solver: {iscf: 7, nstep: 100, nline: 4, wfoptalg: 0, }
tolerances: {tolwfr: 1.00E-20, }
...

     iter   2DEtotal(Ha)        deltaE(Ha) residm    vres2
-ETOT  1  -45.141106776502     -4.514E+01 7.659E-02 0.000E+00
 ETOT  2  -45.159147043749     -1.804E-02 1.248E-03 0.000E+00
 ETOT  3  -45.159154946463     -7.903E-06 3.872E-06 0.000E+00
 ETOT  4  -45.159154952076     -5.612E-09 9.053E-08 0.000E+00
 ETOT  5  -45.159154952083     -7.404E-12 2.988E-10 0.000E+00
 ETOT  6  -45.159154952083     -7.105E-15 8.126E-12 0.000E+00
 ETOT  7  -45.159154952083      1.421E-14 2.586E-14 0.000E+00
 ETOT  8  -45.159154952083     -2.842E-14 7.661E-16 0.000E+00
 ETOT  9  -45.159154952083      7.105E-15 2.355E-18 0.000E+00
 ETOT 10  -45.159154952083     -7.105E-15 7.199E-20 0.000E+00
 ETOT 11  -45.159154952083      2.132E-14 9.224E-21 0.000E+00

 At SCF step   11   max residual=  9.22E-21 < tolwfr=  1.00E-20 =>converged.

 ----iterations are completed or convergence reached----

 dfpt_looppert: DFPT cycle converged with prtwf=-1. Will skip output of the 1st-order WFK file.
 dfpt_looppert : ek2=    9.7706922318E+01
          f-sum rule ratio=    8.8013189280E-01
 prteigrs : about to open file /scratch/users/j/a/jabreu/flow_simple/flow/w126/t1/tmpdata/tmp_1WF1_EIG
 Expectation of eigenvalue derivatives (hartree) for nkpt=   2  k points:
  (in case of degenerate eigenvalues, averaged derivative)
 kpt#   1, nband= 20, wtk=  0.50000, kpt=  0.0000  0.0000  0.2209 (reduced coord)
   0.00088   -0.01258   -0.01240    0.00256    0.50512    0.20040   -0.37960   -0.12040
   0.26568   -0.30803   -0.00419   -0.10240   -0.16550    0.05956   -0.42793   -0.05476
  -1.20073    1.25305   -0.00645    0.46475
 prteigrs : prtvol=0 or 1, do not print more k-points.

 Eight components of 2nd-order total energy (hartree) are
 1,2,3: 0th-order hamiltonian combined with 1st-order wavefunctions
     kin0=   2.87101698E+01 eigvalue=  -1.95810181E+00  local=  -1.31136248E+01
 4,5,6: 1st-order hamiltonian combined with 1st and 0th-order wfs
     kin1=  -8.59949785E+01  Hartree=   0.00000000E+00     xc=   0.00000000E+00
 7,8,9: eventually, occupation + non-local contributions
    edocc=   2.82261076E+01     enl0=   3.29460415E+00   enl1=  -4.32333143E+00
 1-9 gives the relaxation energy (to be shifted if some occ is /=2.0)
   erelax=  -4.51591550E+01
  No Ewald or frozen-wf contrib.: the relaxation energy is the total one
 2DEtotal=   -0.4515915495E+02 Ha. Also 2DEtotal=   -0.122884310019E+04 eV
    (  non-var. 2DEtotal :   -4.5159154952E+01 Ha)

 CALCULATION OF EFFECTIVE MASSES
 NOTE : Additional infos (eff. mass eigenvalues, eigenvectors and, if degenerate, average mass) are available in stdout.

 K-point (-0.000,-0.000, 0.221) | band =    11
 Effective mass tensor:
             -0.3407160873             -0.0437279119             -0.0921364226
             -0.0437279119             -0.3518646443             -0.1046272947
             -0.0921364226             -0.1046272947             -0.2062865520
 Effective mass tensor eigenvalues:
             -0.4653858251             -0.3022085911             -0.1312728673
 Angular average effective mass 1/(<1/m>)=  -0.2294376466
 Angular average effective mass for Frohlich model (<m**0.5>)**2=  -0.2501315688
 Effective masses along directions: (cart. coord. / red. coord. -> eff. mass)
    1:   1.000000  0.000000  0.000000 /   0.992099 -0.125454  0.000000 ->  -0.2995338254
    2:   0.000000  1.000000  0.000000 /   0.000000  1.000000  0.000000 ->  -0.2987682052
    3:   0.000000  0.000000  1.000000 /  -0.522505 -0.522505  0.673778 ->  -0.1564981856
    4:   0.577350  0.577350  0.577350 /  -0.139116 -0.221074  0.965284 ->  -0.4476904638
    5:   0.000000  0.707107  0.707107 /  -0.608596 -0.117081  0.784795 ->  -0.3168708746
    6:   0.707107  0.000000  0.707107 /  -0.108871 -0.646130  0.755422 ->  -0.2979701865
    7:   0.707107  0.707107  0.000000 /   0.756118  0.654435  0.000000 ->  -0.2961775493

 K-point ( 0.500, 0.500,-0.188) | band =    12
 Effective mass tensor:
              0.6956700218              0.0202931060              0.0511803927
              0.0202931060              0.7008437756              0.0581188687
              0.0511803927              0.0581188687              0.6164570193
 Effective mass tensor eigenvalues:
              0.5747881564              0.6777995753              0.7603830850
 Angular average effective mass 1/(<1/m>)=   0.6622135940
 Angular average effective mass for Frohlich model (<m**0.5>)**2=   0.6648662065
 Effective masses along directions: (cart. coord. / red. coord. -> eff. mass)
    1:   1.000000  0.000000  0.000000 /   0.992099 -0.125454  0.000000 ->   0.6910767770
    2:   0.000000  1.000000  0.000000 /   0.000000  1.000000  0.000000 ->   0.6950183604
    3:   0.000000  0.000000  1.000000 /  -0.522505 -0.522505  0.673778 ->   0.6081126241
    4:   0.577350  0.577350  0.577350 /  -0.139116 -0.221074  0.965284 ->   0.7564817311
    5:   0.000000  0.707107  0.707107 /  -0.608596 -0.117081  0.784795 ->   0.7099023427
    6:   0.707107  0.000000  0.707107 /  -0.108871 -0.646130  0.755422 ->   0.6999747355
    7:   0.707107  0.707107  0.000000 /   0.756118  0.654435  0.000000 ->   0.7088547632

 END OF EFFECTIVE MASSES SECTION

 ---- first-order wavefunction calculations are completed ----

 Total localisation tensor (bohr^2) in cartesian coordinates
  WARNING : still subject to testing - especially symmetries.
      direction              matrix element
   alpha     beta       real part   imaginary part
     1        1       1.9604054447    0.0000000000
     1        2      -0.2420448449    0.0000000000
     1        3      -2.0702982443    0.0000000000
     2        1      -0.2420448449    0.0000000000
     2        2       1.8987462272    0.0000000000
     2        3      -2.3510361088    0.0000000000
     3        1      -2.0702982443    0.0000000000
     3        2      -2.3510361088    0.0000000000
     3        3      11.4318069800    0.0000000000

 respfn : d/dk was computed, but no 2DTE, so no DDB output.

== END DATASET(S) ==============================================================

 -outvars: echo values of variables after computation  --------
            acell      1.0000000000E+00  1.0000000000E+00  1.0000000000E+00 Bohr
              amu      2.69815390E+01  1.90200000E+02
             ecut      3.70000000E+01 Hartree
           etotal     -4.5159154952E+01
            fcart      0.0000000000E+00  0.0000000000E+00  0.0000000000E+00
                       0.0000000000E+00  0.0000000000E+00  0.0000000000E+00
                       0.0000000000E+00  0.0000000000E+00  0.0000000000E+00
-          fftalg         512
           irdden           1
           irdwfk           1
              ixc     -116133
              kpt     -2.77555756E-17 -2.77555756E-17  2.20930233E-01
                       5.00000000E-01  5.00000000E-01 -1.87952203E-01
           kptopt           0
P           mkmem           2
P          mkqmem           2
P          mk1mem           2
            natom           3
            nband          20
           nbdbuf           4
            ngfft          50      50      50
             nkpt           2
            nstep         100
             nsym          16
           ntypat           2
              occ      2.000000  2.000000  2.000000  2.000000  2.000000  2.000000
                       2.000000  2.000000  2.000000  2.000000  2.000000  0.000000
                       0.000000  0.000000  0.000000  0.000000  0.000000  0.000000
                       0.000000  0.000000
        optdriver           1
            prtwf          -1
            rfdir           1       1       1
           rfelfd           2
            rprim      5.6182625426E+00  0.0000000000E+00 -6.9007149853E+00
                      -7.1044527210E-01  5.5731626131E+00 -6.9007149853E+00
                       0.0000000000E+00  0.0000000000E+00  8.8985808591E+00
          spgroup         139
           strten      0.0000000000E+00  0.0000000000E+00  0.0000000000E+00
                       0.0000000000E+00  0.0000000000E+00  0.0000000000E+00
           symrel      1  0  0   0  1  0   0  0  1      -1  0  0   0 -1  0   0  0 -1
                      -1 -1 -1   0  0  1   0  1  0       1  1  1   0  0 -1   0 -1  0
                       0  1  0   1  0  0  -1 -1 -1       0 -1  0  -1  0  0   1  1  1
                       0  0  1  -1 -1 -1   1  0  0       0  0 -1   1  1  1  -1  0  0
                       0  1  0   1  0  0   0  0  1       0 -1  0  -1  0  0   0  0 -1
                      -1 -1 -1   0  0  1   1  0  0       1  1  1   0  0 -1  -1  0  0
                       1  0  0   0  1  0  -1 -1 -1      -1  0  0   0 -1  0   1  1  1
                       0  0  1  -1 -1 -1   0  1  0       0  0 -1   1  1  1   0 -1  0
           tolwfr      1.00000000E-20
            typat      1  1  2
           useylm           1
              wtk        0.50000    0.50000
           xangst      8.7895124539E-01  9.9810933243E-01 -2.4717269190E+00
                       1.7181537981E+00  1.9510813022E+00 -4.8316752674E+00
                       0.0000000000E+00  0.0000000000E+00  0.0000000000E+00
            xcart      1.6609771379E+00  1.8861532890E+00 -4.6708869521E+00
                       3.2468401326E+00  3.6870093241E+00 -9.1305430185E+00
                       0.0000000000E+00  0.0000000000E+00  0.0000000000E+00
             xred      3.3843500000E-01  3.3843500000E-01  8.3266726847E-17
                       6.6156500000E-01  6.6156500000E-01 -1.6653345369E-16
                       0.0000000000E+00  0.0000000000E+00  0.0000000000E+00
            znucl       13.00000   76.00000

- Timing analysis has been suppressed with timopt=0

 Suggested references for the acknowledgment of ABINIT usage.

 Calculation completed.
.Delivered  14 WARNINGs and   9 COMMENTs to log file.