.Version 9.5.2 of ABINIT

 ABINIT is a project of the Universite Catholique de Louvain,
 Corning Inc. and other collaborators, see ~abinit/doc/developers/contributors.txt .
 acknowledgments of the ABINIT effort.

.Starting date : Mon 24 May 2021.
- ( at 11h07 )

- input  file    -> /scratch/users/j/a/jabreu/flow_simple_10atoms/flow/w295/t1/run.abi
- output file    -> /scratch/users/j/a/jabreu/flow_simple_10atoms/flow/w295/t1/run.abo
- root for input  files -> /scratch/users/j/a/jabreu/flow_simple_10atoms/flow/w295/t1/indata/in
- root for output files -> /scratch/users/j/a/jabreu/flow_simple_10atoms/flow/w295/t1/outdata/out

 Symmetries : space group R-3 c (#167); Bravais hR (rhombohedral)
     intxc =       0      iscf =       7    lmnmax =      18     lnmax =       6
     mgfft =      72  mpssoang =       3    mqgrid =    3001     natom =      10
  nloc_mem =       1    nspden =       1   nspinor =       1    nsppol =       1
      nsym =      12    n1xccc =    2501    ntypat =       3    occopt =       1
   xclevel =       2
-    mband =          43        mffmem =           1         mkmem =           2
-   mkqmem =           2        mk1mem =           2           mpw =        9911
      nfft =      373248          nkpt =           2
  Rough estimation (10% accuracy) of disk space for files :

------------- Echo of variables that govern the present computation ------------
-
- outvars: echo of selected default values
-   iomode0 =  0 , fftalg0 =512 , wfoptalg0 =  0
-
- outvars: echo of global parameters not present in the input file
-  max_nthreads =    0
-
 -outvars: echo values of preprocessed input variables --------
            acell      1.0000000000E+00  1.0000000000E+00  1.0000000000E+00 Bohr
              amu      1.14820000E+02  1.08110000E+01  1.59994000E+01
             ecut      4.40000000E+01 Hartree
-          fftalg         512
           irdden           1
           irdwfk           1
           istwfk        1    1
              ixc     -116133
              kpt      5.00000000E-01  5.00000000E-01  0.00000000E+00
                       0.00000000E+00  0.00000000E+00  0.00000000E+00
           kptopt           0
P           mkmem           2
P          mkqmem           2
P          mk1mem           2
            natom          10
            nband          43
           nbdbuf           4
            ngfft          72      72      72
             nkpt           2
            nstep        2000
             nsym          12
           ntypat           3
              occ      2.000000  2.000000  2.000000  2.000000  2.000000  2.000000
                       2.000000  2.000000  2.000000  2.000000  2.000000  2.000000
                       2.000000  2.000000  2.000000  2.000000  2.000000  2.000000
                       2.000000  2.000000  2.000000  2.000000  2.000000  2.000000
                       2.000000  2.000000  2.000000  2.000000  2.000000  2.000000
                       2.000000  2.000000  2.000000  2.000000  0.000000  0.000000
                       0.000000  0.000000  0.000000  0.000000  0.000000  0.000000
                       0.000000
        optdriver           1
            prtwf          -1
            rfdir           1       1       1
           rfelfd           2
            rprim      8.3475125733E+00  0.0000000000E+00  7.2886307268E+00
                       3.3119590360E+00  7.6623686615E+00  7.2886307268E+00
                       0.0000000000E+00  0.0000000000E+00  1.1081746434E+01
          spgroup         167
           symrel      1  0  0   0  1  0   0  0  1      -1  0  0   0 -1  0   0  0 -1
                       0  1  0   1  0  0   0  0  1       0 -1  0  -1  0  0   0  0 -1
                       0  0  1   1  0  0   0  1  0       0  0 -1  -1  0  0   0 -1  0
                       1  0  0   0  0  1   0  1  0      -1  0  0   0  0 -1   0 -1  0
                       0  1  0   0  0  1   1  0  0       0 -1  0   0  0 -1  -1  0  0
                       0  0  1   0  1  0   1  0  0       0  0 -1   0 -1  0  -1  0  0
            tnons      0.0000000  0.0000000  0.0000000    -0.0000000 -0.0000000  0.0000000
                       0.5000000  0.5000000  0.5000000     0.5000000  0.5000000  0.5000000
                       0.0000000 -0.0000000  0.0000000    -0.0000000 -0.0000000 -0.0000000
                       0.5000000  0.5000000  0.5000000     0.5000000  0.5000000  0.5000000
                      -0.0000000  0.0000000  0.0000000    -0.0000000 -0.0000000 -0.0000000
                       0.5000000  0.5000000  0.5000000     0.5000000  0.5000000  0.5000000
           tolwfr      1.00000000E-20
            typat      1  1  2  2  3  3  3  3  3  3
           useylm           1
              wtk        0.50000    0.50000
           xangst      3.0849633199E+00  2.0273754297E+00  6.7890810846E+00
                       0.0000000000E+00  0.0000000000E+00  0.0000000000E+00
                       4.6274449799E+00  3.0410631446E+00  1.0183621627E+01
                       1.5424816600E+00  1.0136877149E+00  3.3945405423E+00
                       5.2018877179E+00  2.1669602281E+00  7.2515178048E+00
                       2.7966078775E+00  3.9151660611E+00  7.8224243061E+00
                       2.7988760244E+00  1.0136877149E+00  8.6878416853E+00
                       9.6803892198E-01  1.8877906314E+00  6.3266443645E+00
                       3.3733187624E+00  1.3958479834E-01  5.7557378631E+00
                       3.3710506155E+00  3.0410631446E+00  4.8903204840E+00
            xcart      5.8297358046E+00  3.8311843307E+00  1.2829503944E+01
                       0.0000000000E+00  0.0000000000E+00  0.0000000000E+00
                       8.7446037070E+00  5.7467764961E+00  1.9244255916E+01
                       2.9148679023E+00  1.9155921654E+00  6.4147519719E+00
                       9.8301431608E+00  4.0949613719E+00  1.3703382699E+01
                       5.2848229895E+00  7.3985916203E+00  1.4782239634E+01
                       5.2891091660E+00  1.9155921654E+00  1.6417641471E+01
                       1.8293284485E+00  3.5674072896E+00  1.1955625189E+01
                       6.3746486198E+00  2.6377704117E-01  1.0876768254E+01
                       6.3703624433E+00  5.7467764961E+00  9.2413664167E+00
             xred      5.0000000000E-01  5.0000000000E-01  5.0000000000E-01
                       0.0000000000E+00  0.0000000000E+00  0.0000000000E+00
                       7.5000000000E-01  7.5000000000E-01  7.5000000000E-01
                       2.5000000000E-01  2.5000000000E-01  2.5000000000E-01
                       9.6557500000E-01  5.3442500000E-01  2.5000000000E-01
                       2.5000000000E-01  9.6557500000E-01  5.3442500000E-01
                       5.3442500000E-01  2.5000000000E-01  9.6557500000E-01
                       3.4425000000E-02  4.6557500000E-01  7.5000000000E-01
                       7.5000000000E-01  3.4425000000E-02  4.6557500000E-01
                       4.6557500000E-01  7.5000000000E-01  3.4425000000E-02
            znucl       49.00000    5.00000    8.00000

 chkinp: Checking input parameters for consistency.

== DATASET  1 ==================================================================
-   mpi_nproc: 1, omp_nthreads: -1 (-1 if OMP is not activated)

--- !DatasetInfo
iteration_state: {dtset: 1, }
dimensions: {natom: 10, nkpt: 2, mband: 43, nsppol: 1, nspinor: 1, nspden: 1, mpw: 9911, }
cutoff_energies: {ecut:  44.0, pawecutdg:  -1.0, }
electrons: {nelect:   6.80000000E+01, charge:   0.00000000E+00, occopt:   1.00000000E+00, tsmear:   1.00000000E-02, }
meta: {optdriver: 1, rfelfd: 2, }
...

 Real(R)+Recip(G) space primitive vectors, cartesian coordinates (Bohr,Bohr^-1):
 R(1)=  8.3475126  0.0000000  7.2886307  G(1)=  0.1197962 -0.0517803  0.0000000
 R(2)=  3.3119590  7.6623687  7.2886307  G(2)=  0.0000000  0.1305079  0.0000000
 R(3)=  0.0000000  0.0000000 11.0817464  G(3)= -0.0787917 -0.0517803  0.0902385
 Unit cell volume ucvol=  7.0880755E+02 bohr^3
 Angles (23,13,12)=  4.88741632E+01  4.88741632E+01  4.88741632E+01 degrees

 getcut: wavevector=  0.0000  0.0000  0.0000  ngfft=  72  72  72
         ecut(hartree)=     44.000   => boxcut(ratio)=   2.17609

--- Pseudopotential description ------------------------------------------------
- pspini: atom type   1  psp file is /scratch/users/j/a/jabreu/pseudos/PBEsol/In.psp8
- pspatm: opening atomic psp file    /scratch/users/j/a/jabreu/pseudos/PBEsol/In.psp8
- In    ONCVPSP-3.3.0  r_core=   2.10853   2.37566   1.87143
- 49.00000  13.00000    180112                znucl, zion, pspdat
    8 -116133    2    4       600   0.00000   pspcod,pspxc,lmax,lloc,mmax,r2well
    5.99000000000000    5.00000000000000    0.00000000000000   rchrg,fchrg,qchrg
     nproj     2     2     2
     extension_switch     1
  pspatm : epsatm=   25.17984752
         --- l  ekb(1:nproj) -->
             0   12.999887    1.931740
             1    5.981707    1.012544
             2   -4.048011   -1.239028
 pspatm: atomic psp has been read  and splines computed

- pspini: atom type   2  psp file is /scratch/users/j/a/jabreu/pseudos/PBEsol/B.psp8
- pspatm: opening atomic psp file    /scratch/users/j/a/jabreu/pseudos/PBEsol/B.psp8
- B     ONCVPSP-3.3.0  r_core=   1.20849   1.20849
-  5.00000   3.00000    180112                znucl, zion, pspdat
    8 -116133    1    4       600   0.00000   pspcod,pspxc,lmax,lloc,mmax,r2well
    5.99000000000000    2.90000000000000    0.00000000000000   rchrg,fchrg,qchrg
     nproj     2     2
     extension_switch     1
  pspatm : epsatm=    3.20154566
         --- l  ekb(1:nproj) -->
             0    8.466603    1.247630
             1   -3.609180   -0.822621
 pspatm: atomic psp has been read  and splines computed

- pspini: atom type   3  psp file is /scratch/users/j/a/jabreu/pseudos/PBEsol/O.psp8
- pspatm: opening atomic psp file    /scratch/users/j/a/jabreu/pseudos/PBEsol/O.psp8
- O     ONCVPSP-3.3.0  r_core=   1.35509   1.45563   1.26150
-  8.00000   6.00000    180112                znucl, zion, pspdat
    8 -116133    2    4       600   0.00000   pspcod,pspxc,lmax,lloc,mmax,r2well
    5.99000000000000    4.00000000000000    0.00000000000000   rchrg,fchrg,qchrg
     nproj     2     2     1
     extension_switch     1
  pspatm : epsatm=    6.22910522
         --- l  ekb(1:nproj) -->
             0    6.050032    0.820363
             1   -4.739617   -1.153841
             2   -1.335834
 pspatm: atomic psp has been read  and splines computed

   6.40134440E+03                                ecore*ucvol(ha*bohr**3)

 ==>  initialize data related to q vector <==

 The list of irreducible perturbations for this q vector is:
    1)    idir= 1    ipert=  11
    2)    idir= 2    ipert=  11
    3)    idir= 3    ipert=  11

 Perturbation wavevector (in red.coord.)   0.000000  0.000000  0.000000
 Perturbation : derivative vs k along direction   1

 dfpt_looppert : COMMENT -
  In a d/dk calculation, iscf is set to -3 automatically.
 The set of symmetries contains only one element for this perturbation.
 symkpt : not enough symmetry to change the number of k points.

 Initialisation of the first-order wave-functions :
  ireadwf=   0

--- !BeginCycle
[...]

 ----iterations are completed or convergence reached----

 dfpt_looppert: DFPT cycle converged with prtwf=-1. Will skip output of the 1st-order WFK file.
 dfpt_looppert : ek2=    9.1447651807E+01
          f-sum rule ratio=    1.0335562906E+00
 prteigrs : about to open file /scratch/users/j/a/jabreu/flow_simple_10atoms/flow/w295/t1/tmpdata/tmp_1WF1_EIG
 Expectation of eigenvalue derivatives (hartree) for nkpt=   2  k points:
  (in case of degenerate eigenvalues, averaged derivative)
 kpt#   1, nband= 43, wtk=  0.50000, kpt=  0.5000  0.5000  0.0000 (reduced coord)
   0.00000    0.00000   -0.00000    0.00000    0.00000   -0.00000    0.00000   -0.00000
   0.00000    0.00000    0.00000   -0.00000   -0.00000   -0.00000   -0.00000    0.00000
  -0.00000   -0.00000   -0.00000   -0.00000    0.00000    0.00000    0.00000    0.00000
   0.00000   -0.00000   -0.00000    0.00000    0.00000   -0.00000   -0.00000   -0.00000
   0.00000    0.00000    0.00000   -0.00000   -0.00000    0.00000   -0.00000   -0.00000
  -0.00000    0.00000    0.00000
 prteigrs : prtvol=0 or 1, do not print more k-points.

 Eight components of 2nd-order total energy (hartree) are
 1,2,3: 0th-order hamiltonian combined with 1st-order wavefunctions
     kin0=   9.49174185E+01 eigvalue=   3.04019717E+00  local=  -4.42060203E+01
 4,5,6: 1st-order hamiltonian combined with 1st and 0th-order wfs
     kin1=  -9.45162958E+01  Hartree=   0.00000000E+00     xc=   0.00000000E+00
 7,8,9: eventually, occupation + non-local contributions
    edocc=   1.02602887E+01     enl0=   5.42313619E+00   enl1=  -4.43537448E+01
 1-9 gives the relaxation energy (to be shifted if some occ is /=2.0)
   erelax=  -6.94350203E+01
  No Ewald or frozen-wf contrib.: the relaxation energy is the total one
 2DEtotal=   -0.6943502028E+02 Ha. Also 2DEtotal=   -0.188942299011E+04 eV
    (  non-var. 2DEtotal :   -6.9435020278E+01 Ha)

 Perturbation wavevector (in red.coord.)   0.000000  0.000000  0.000000
 Perturbation : derivative vs k along direction   2
 The set of symmetries contains only one element for this perturbation.
 symkpt : not enough symmetry to change the number of k points.

[...]

 Perturbation wavevector (in red.coord.)   0.000000  0.000000  0.000000
 Perturbation : derivative vs k along direction   3
 The set of symmetries contains only one element for this perturbation.
 symkpt : not enough symmetry to change the number of k points.

 Initialisation of the first-order wave-functions :
  ireadwf=   0

--- !BeginCycle
iteration_state: {dtset: 1, }
solver: {iscf: 7, nstep: 2000, nline: 4, wfoptalg: 0, }
tolerances: {tolwfr: 1.00E-20, }
...

     iter   2DEtotal(Ha)        deltaE(Ha) residm    vres2
-ETOT  1  -69.473630130968     -6.947E+01 7.891E-02 0.000E+00
 ETOT  2  -69.564538066535     -9.091E-02 6.272E-03 0.000E+00
 ETOT  3  -69.565299361088     -7.613E-04 1.251E-04 0.000E+00
 ETOT  4  -69.565312446825     -1.309E-05 1.151E-05 0.000E+00
 ETOT  5  -69.565312752972     -3.061E-07 9.424E-07 0.000E+00
 ETOT  6  -69.565312761659     -8.687E-09 1.493E-07 0.000E+00
 ETOT  7  -69.565312761931     -2.719E-10 3.834E-08 0.000E+00
 ETOT  8  -69.565312761940     -9.010E-12 1.023E-08 0.000E+00
 ETOT  9  -69.565312761940     -3.837E-13 2.648E-09 0.000E+00
 ETOT 10  -69.565312761940      2.842E-14 7.559E-10 0.000E+00
 ETOT 11  -69.565312761940     -2.842E-14 1.877E-10 0.000E+00
 ETOT 12  -69.565312761940     -1.421E-14 5.554E-11 0.000E+00
 ETOT 13  -69.565312761940      0.000E+00 1.342E-11 0.000E+00
 ETOT 14  -69.565312761940     -1.421E-14 4.067E-12 0.000E+00
 ETOT 15  -69.565312761940      0.000E+00 9.650E-13 0.000E+00
 ETOT 16  -69.565312761940      0.000E+00 2.972E-13 0.000E+00
 ETOT 17  -69.565312761940      1.421E-14 6.968E-14 0.000E+00
 ETOT 18  -69.565312761940     -1.421E-14 2.168E-14 0.000E+00
 ETOT 19  -69.565312761940      1.421E-14 5.044E-15 0.000E+00
 ETOT 20  -69.565312761940      1.421E-14 1.581E-15 0.000E+00
 ETOT 21  -69.565312761940     -1.421E-14 3.656E-16 0.000E+00
 ETOT 22  -69.565312761940      0.000E+00 1.151E-16 0.000E+00
 ETOT 23  -69.565312761940      2.842E-14 2.653E-17 0.000E+00
 ETOT 24  -69.565312761940     -1.421E-14 8.384E-18 0.000E+00
 ETOT 25  -69.565312761940      0.000E+00 1.927E-18 0.000E+00
 ETOT 26  -69.565312761940      0.000E+00 6.102E-19 0.000E+00
 ETOT 27  -69.565312761940      0.000E+00 1.400E-19 0.000E+00
 ETOT 28  -69.565312761940      0.000E+00 4.441E-20 0.000E+00
 ETOT 29  -69.565312761940     -1.421E-14 1.017E-20 0.000E+00
 ETOT 30  -69.565312761940      1.421E-14 9.835E-21 0.000E+00

 At SCF step   30   max residual=  9.84E-21 < tolwfr=  1.00E-20 =>converged.

 ----iterations are completed or convergence reached----

 dfpt_looppert: DFPT cycle converged with prtwf=-1. Will skip output of the 1st-order WFK file.
 dfpt_looppert : ek2=    9.1447651809E+01
          f-sum rule ratio=    1.0367179101E+00
 prteigrs : about to open file /scratch/users/j/a/jabreu/flow_simple_10atoms/flow/w295/t1/tmpdata/tmp_1WF1_EIG
 Expectation of eigenvalue derivatives (hartree) for nkpt=   2  k points:
  (in case of degenerate eigenvalues, averaged derivative)
 kpt#   1, nband= 43, wtk=  0.50000, kpt=  0.5000  0.5000  0.0000 (reduced coord)
  -0.00000   -0.00000    0.00000    0.00000   -0.00000    0.00000   -0.00000    0.00000
  -0.00000   -0.00000   -0.00000    0.00000   -0.00000   -0.00000   -0.00000   -0.00000
  -0.00000   -0.00000    0.00000    0.00000    0.00000   -0.00000   -0.00000   -0.00000
   0.00000   -0.00000   -0.00000   -0.00000   -0.00000   -0.00000    0.00000    0.00000
   0.00000   -0.00000   -0.00000   -0.00000    0.00000    0.00000   -0.00000    0.00000
   0.00000    0.00000   -0.00000
 prteigrs : prtvol=0 or 1, do not print more k-points.

 Eight components of 2nd-order total energy (hartree) are
 1,2,3: 0th-order hamiltonian combined with 1st-order wavefunctions
     kin0=   9.47379595E+01 eigvalue=   3.08449687E+00  local=  -4.38845829E+01
 4,5,6: 1st-order hamiltonian combined with 1st and 0th-order wfs
     kin1=  -9.48054185E+01  Hartree=   0.00000000E+00     xc=   0.00000000E+00
 7,8,9: eventually, occupation + non-local contributions
    edocc=   1.03401902E+01     enl0=   5.28724911E+00   enl1=  -4.43252071E+01
 1-9 gives the relaxation energy (to be shifted if some occ is /=2.0)
   erelax=  -6.95653128E+01
  No Ewald or frozen-wf contrib.: the relaxation energy is the total one
 2DEtotal=   -0.6956531276E+02 Ha. Also 2DEtotal=   -0.189296842891E+04 eV
    (  non-var. 2DEtotal :   -6.9565312762E+01 Ha)

 CALCULATION OF EFFECTIVE MASSES
 NOTE : Additional infos (eff. mass eigenvalues, eigenvectors and, if degenerate, average mass) are available in stdout.

 K-point ( 0.500, 0.500, 0.000) | band =    34
 Effective mass tensor:
             -4.4300695778              3.2724773594             -1.4805985452
              3.2724773594             -7.2590129344             -0.9730278758
             -1.4805985452             -0.9730278758             -2.5361367230
 Effective mass tensor eigenvalues:
             -9.4096272574             -4.1841480495             -0.6314439283
 Angular average effective mass 1/(<1/m>)=  -1.5552556632
 Angular average effective mass for Frohlich model (<m**0.5>)**2=  -2.2723051128
 Effective masses along directions: (cart. coord. / red. coord. -> eff. mass)
    1:   1.000000  0.000000  0.000000 /   0.929512  0.368793  0.000000 ->  -1.4236189443
    2:   0.000000  1.000000  0.000000 /   0.000000  1.000000  0.000000 ->  -2.7491434209
    3:   0.000000  0.000000  1.000000 /   0.481590  0.481590  0.732217 ->  -1.1590729300
    4:   0.577350  0.577350  0.577350 /   0.590641  0.689866  0.418603 ->  -3.5081347138
    5:   0.000000  0.707107  0.707107 /   0.364677  0.748054  0.554461 ->  -4.0821241544
    6:   0.707107  0.000000  0.707107 /   0.713937  0.484017  0.505986 ->  -4.5004578104
    7:   0.707107  0.707107  0.000000 /   0.605406  0.795917  0.000000 ->  -1.0812222994

 K-point ( 0.000, 0.000, 0.000) | band =    35
 Effective mass tensor:
              0.4217505016              0.0329031868              0.1101830473
              0.0329031868              0.3933065541              0.0724100676
              0.1101830473              0.0724100676              0.6141631606
 Effective mass tensor eigenvalues:
              0.3716832458              0.3716832460              0.6858537245
 Angular average effective mass 1/(<1/m>)=   0.4386630133
 Angular average effective mass for Frohlich model (<m**0.5>)**2=   0.4484445655
 Effective masses along directions: (cart. coord. / red. coord. -> eff. mass)
    1:   1.000000  0.000000  0.000000 /   0.929512  0.368793  0.000000 ->   0.4009527585
    2:   0.000000  1.000000  0.000000 /   0.000000  1.000000  0.000000 ->   0.3837829950
    3:   0.000000  0.000000  1.000000 /   0.481590  0.481590  0.732217 ->   0.5749557888
    4:   0.577350  0.577350  0.577350 /   0.590641  0.689866  0.418603 ->   0.5827203047
    5:   0.000000  0.707107  0.707107 /   0.364677  0.748054  0.554461 ->   0.5295482985
    6:   0.707107  0.000000  0.707107 /   0.713937  0.484017  0.505986 ->   0.5936703888
    7:   0.707107  0.707107  0.000000 /   0.605406  0.795917  0.000000 ->   0.4130905323

 END OF EFFECTIVE MASSES SECTION

 ---- first-order wavefunction calculations are completed ----

 Total localisation tensor (bohr^2) in cartesian coordinates
  WARNING : still subject to testing - especially symmetries.
      direction              matrix element
   alpha     beta       real part   imaginary part
     1        1       1.0160058508    0.0000000000
     1        2       0.3196978385    0.0000000000
     1        3       1.0705734216    0.0000000000
     2        1       0.3196978385    0.0000000000
     2        2       0.7396355668    0.0000000000
     2        3       0.7035592722    0.0000000000
     3        1       1.0705734216    0.0000000000
     3        2       0.7035592722    0.0000000000
     3        3       2.8916392330    0.0000000000

 respfn : d/dk was computed, but no 2DTE, so no DDB output.

== END DATASET(S) ==============================================================

 -outvars: echo values of variables after computation  --------
            acell      1.0000000000E+00  1.0000000000E+00  1.0000000000E+00 Bohr
              amu      1.14820000E+02  1.08110000E+01  1.59994000E+01
             ecut      4.40000000E+01 Hartree
           etotal     -6.9565312762E+01
            fcart      0.0000000000E+00  0.0000000000E+00  0.0000000000E+00
                       0.0000000000E+00  0.0000000000E+00  0.0000000000E+00
                       0.0000000000E+00  0.0000000000E+00  0.0000000000E+00
                       0.0000000000E+00  0.0000000000E+00  0.0000000000E+00
                       0.0000000000E+00  0.0000000000E+00  0.0000000000E+00
                       0.0000000000E+00  0.0000000000E+00  0.0000000000E+00
                       0.0000000000E+00  0.0000000000E+00  0.0000000000E+00
                       0.0000000000E+00  0.0000000000E+00  0.0000000000E+00
                       0.0000000000E+00  0.0000000000E+00  0.0000000000E+00
                       0.0000000000E+00  0.0000000000E+00  0.0000000000E+00
-          fftalg         512
           irdden           1
           irdwfk           1
           istwfk        1    1
              ixc     -116133
              kpt      5.00000000E-01  5.00000000E-01  0.00000000E+00
                       0.00000000E+00  0.00000000E+00  0.00000000E+00
           kptopt           0
P           mkmem           2
P          mkqmem           2
P          mk1mem           2
            natom          10
            nband          43
           nbdbuf           4
            ngfft          72      72      72
             nkpt           2
            nstep        2000
             nsym          12
           ntypat           3
              occ      2.000000  2.000000  2.000000  2.000000  2.000000  2.000000
                       2.000000  2.000000  2.000000  2.000000  2.000000  2.000000
                       2.000000  2.000000  2.000000  2.000000  2.000000  2.000000
                       2.000000  2.000000  2.000000  2.000000  2.000000  2.000000
                       2.000000  2.000000  2.000000  2.000000  2.000000  2.000000
                       2.000000  2.000000  2.000000  2.000000  0.000000  0.000000
                       0.000000  0.000000  0.000000  0.000000  0.000000  0.000000
                       0.000000
        optdriver           1
            prtwf          -1
            rfdir           1       1       1
           rfelfd           2
            rprim      8.3475125733E+00  0.0000000000E+00  7.2886307268E+00
                       3.3119590360E+00  7.6623686615E+00  7.2886307268E+00
                       0.0000000000E+00  0.0000000000E+00  1.1081746434E+01
          spgroup         167
           strten      0.0000000000E+00  0.0000000000E+00  0.0000000000E+00
                       0.0000000000E+00  0.0000000000E+00  0.0000000000E+00
           symrel      1  0  0   0  1  0   0  0  1      -1  0  0   0 -1  0   0  0 -1
                       0  1  0   1  0  0   0  0  1       0 -1  0  -1  0  0   0  0 -1
                       0  0  1   1  0  0   0  1  0       0  0 -1  -1  0  0   0 -1  0
                       1  0  0   0  0  1   0  1  0      -1  0  0   0  0 -1   0 -1  0
                       0  1  0   0  0  1   1  0  0       0 -1  0   0  0 -1  -1  0  0
                       0  0  1   0  1  0   1  0  0       0  0 -1   0 -1  0  -1  0  0
            tnons      0.0000000  0.0000000  0.0000000    -0.0000000 -0.0000000  0.0000000
                       0.5000000  0.5000000  0.5000000     0.5000000  0.5000000  0.5000000
                       0.0000000 -0.0000000  0.0000000    -0.0000000 -0.0000000 -0.0000000
                       0.5000000  0.5000000  0.5000000     0.5000000  0.5000000  0.5000000
                      -0.0000000  0.0000000  0.0000000    -0.0000000 -0.0000000 -0.0000000
                       0.5000000  0.5000000  0.5000000     0.5000000  0.5000000  0.5000000
           tolwfr      1.00000000E-20
            typat      1  1  2  2  3  3  3  3  3  3
           useylm           1
              wtk        0.50000    0.50000
           xangst      3.0849633199E+00  2.0273754297E+00  6.7890810846E+00
                       0.0000000000E+00  0.0000000000E+00  0.0000000000E+00
                       4.6274449799E+00  3.0410631446E+00  1.0183621627E+01
                       1.5424816600E+00  1.0136877149E+00  3.3945405423E+00
                       5.2018877179E+00  2.1669602281E+00  7.2515178048E+00
                       2.7966078775E+00  3.9151660611E+00  7.8224243061E+00
                       2.7988760244E+00  1.0136877149E+00  8.6878416853E+00
                       9.6803892198E-01  1.8877906314E+00  6.3266443645E+00
                       3.3733187624E+00  1.3958479834E-01  5.7557378631E+00
                       3.3710506155E+00  3.0410631446E+00  4.8903204840E+00
            xcart      5.8297358046E+00  3.8311843307E+00  1.2829503944E+01
                       0.0000000000E+00  0.0000000000E+00  0.0000000000E+00
                       8.7446037070E+00  5.7467764961E+00  1.9244255916E+01
                       2.9148679023E+00  1.9155921654E+00  6.4147519719E+00
                       9.8301431608E+00  4.0949613719E+00  1.3703382699E+01
                       5.2848229895E+00  7.3985916203E+00  1.4782239634E+01
                       5.2891091660E+00  1.9155921654E+00  1.6417641471E+01
                       1.8293284485E+00  3.5674072896E+00  1.1955625189E+01
                       6.3746486198E+00  2.6377704117E-01  1.0876768254E+01
                       6.3703624433E+00  5.7467764961E+00  9.2413664167E+00
             xred      5.0000000000E-01  5.0000000000E-01  5.0000000000E-01
                       0.0000000000E+00  0.0000000000E+00  0.0000000000E+00
                       7.5000000000E-01  7.5000000000E-01  7.5000000000E-01
                       2.5000000000E-01  2.5000000000E-01  2.5000000000E-01
                       9.6557500000E-01  5.3442500000E-01  2.5000000000E-01
                       2.5000000000E-01  9.6557500000E-01  5.3442500000E-01
                       5.3442500000E-01  2.5000000000E-01  9.6557500000E-01
                       3.4425000000E-02  4.6557500000E-01  7.5000000000E-01
                       7.5000000000E-01  3.4425000000E-02  4.6557500000E-01
                       4.6557500000E-01  7.5000000000E-01  3.4425000000E-02
            znucl       49.00000    5.00000    8.00000

- Timing analysis has been suppressed with timopt=0

 Suggested references for the acknowledgment of ABINIT usage.

 Calculation completed.
.Delivered   2 WARNINGs and   5 COMMENTs to log file.