.Version 9.5.1 of ABINIT

 ABINIT is a project of the Universite Catholique de Louvain,
 Corning Inc. and other collaborators, see ~abinit/doc/developers/contributors.txt .
 acknowledgments of the ABINIT effort.

.Starting date : Tue 11 May 2021.
- ( at 21h27 )

- input  file    -> /scratch/users/j/a/jabreu/flow_simple_8atoms/flow/w314/t1/run.abi
- output file    -> /scratch/users/j/a/jabreu/flow_simple_8atoms/flow/w314/t1/run.abo
- root for input  files -> /scratch/users/j/a/jabreu/flow_simple_8atoms/flow/w314/t1/indata/in
- root for output files -> /scratch/users/j/a/jabreu/flow_simple_8atoms/flow/w314/t1/outdata/out

 Symmetries : space group P-4 3 m (#215); Bravais cP (primitive cubic)
     intxc =       0      iscf =       7    lmnmax =      18     lnmax =       6
     mgfft =      72  mpssoang =       3    mqgrid =    3279     natom =       8
  nloc_mem =       1    nspden =       1   nspinor =       1    nsppol =       1
      nsym =      24    n1xccc =    2501    ntypat =       3    occopt =       1
   xclevel =       2
-    mband =          32        mffmem =           1         mkmem =           2
-   mkqmem =           2        mk1mem =           2           mpw =       18528
      nfft =      373248          nkpt =           2
  Rough estimation (10% accuracy) of disk space for files :

------------- Echo of variables that govern the present computation ------------
-
- outvars: echo of selected default values
-   iomode0 =  0 , fftalg0 =512 , wfoptalg0 =  0
-
- outvars: echo of global parameters not present in the input file
-  max_nthreads =    0
-
 -outvars: echo values of preprocessed input variables --------
            acell      1.0000000000E+00  1.0000000000E+00  1.0000000000E+00 Bohr
              amu      6.94100000E+00  9.29063800E+01  3.20660000E+01
             ecut      4.10000000E+01 Hartree
-          fftalg         512
           irdden           1
           irdwfk           1
           istwfk        1    1
              ixc     -116133
              kpt      5.00000000E-01  5.00000000E-01  0.00000000E+00
                       0.00000000E+00  0.00000000E+00  0.00000000E+00
           kptopt           0
P           mkmem           2
P          mkqmem           2
P          mk1mem           2
            natom           8
            nband          32
           nbdbuf           4
            ngfft          72      72      72
             nkpt           2
            nstep        2000
             nsym          24
           ntypat           3
              occ      2.000000  2.000000  2.000000  2.000000  2.000000  2.000000
                       2.000000  2.000000  2.000000  2.000000  2.000000  2.000000
                       2.000000  2.000000  2.000000  2.000000  2.000000  2.000000
                       2.000000  2.000000  2.000000  2.000000  2.000000  0.000000
                       0.000000  0.000000  0.000000  0.000000  0.000000  0.000000
                       0.000000  0.000000
        optdriver           1
            prtwf          -1
            rfdir           1       1       1
           rfelfd           2
            rprim      1.1373284764E+01  0.0000000000E+00  0.0000000000E+00
                       0.0000000000E+00  1.1373284764E+01  0.0000000000E+00
                       0.0000000000E+00  0.0000000000E+00  1.1373284764E+01
          spgroup         215
           symrel      1  0  0   0  1  0   0  0  1      -1  0  0   0  1  0   0  0 -1
                      -1  0  0   0 -1  0   0  0  1       1  0  0   0 -1  0   0  0 -1
                       0  1  0   1  0  0   0  0  1       0 -1  0   1  0  0   0  0 -1
                       0 -1  0  -1  0  0   0  0  1       0  1  0  -1  0  0   0  0 -1
                       0  0  1   1  0  0   0  1  0       0  0 -1   1  0  0   0 -1  0
                       0  0 -1  -1  0  0   0  1  0       0  0  1  -1  0  0   0 -1  0
                       1  0  0   0  0  1   0  1  0      -1  0  0   0  0  1   0 -1  0
                      -1  0  0   0  0 -1   0  1  0       1  0  0   0  0 -1   0 -1  0
                       0  1  0   0  0  1   1  0  0       0 -1  0   0  0  1  -1  0  0
                       0 -1  0   0  0 -1   1  0  0       0  1  0   0  0 -1  -1  0  0
                       0  0  1   0  1  0   1  0  0       0  0 -1   0  1  0  -1  0  0
                       0  0 -1   0 -1  0   1  0  0       0  0  1   0 -1  0  -1  0  0
           tolwfr      1.00000000E-20
            typat      1  1  1  2  3  3  3  3
           useylm           1
              wtk        0.50000    0.50000
           xangst      0.0000000000E+00  0.0000000000E+00  3.0092415419E+00
                       0.0000000000E+00  3.0092415419E+00  0.0000000000E+00
                       3.0092415419E+00  0.0000000000E+00  0.0000000000E+00
                       0.0000000000E+00  0.0000000000E+00  0.0000000000E+00
                       1.3086770172E+00  1.3086770172E+00  1.3086770172E+00
                       1.3086770172E+00  4.7098060665E+00  4.7098060665E+00
                       4.7098060665E+00  1.3086770172E+00  4.7098060665E+00
                       4.7098060665E+00  4.7098060665E+00  1.3086770172E+00
            xcart      0.0000000000E+00  0.0000000000E+00  5.6866423818E+00
                       0.0000000000E+00  5.6866423818E+00  0.0000000000E+00
                       5.6866423818E+00  0.0000000000E+00  0.0000000000E+00
                       0.0000000000E+00  0.0000000000E+00  0.0000000000E+00
                       2.4730411589E+00  2.4730411589E+00  2.4730411589E+00
                       2.4730411589E+00  8.9002436047E+00  8.9002436047E+00
                       8.9002436047E+00  2.4730411589E+00  8.9002436047E+00
                       8.9002436047E+00  8.9002436047E+00  2.4730411589E+00
             xred      0.0000000000E+00  0.0000000000E+00  5.0000000000E-01
                       0.0000000000E+00  5.0000000000E-01  0.0000000000E+00
                       5.0000000000E-01  0.0000000000E+00  0.0000000000E+00
                       0.0000000000E+00  0.0000000000E+00  0.0000000000E+00
                       2.1744300000E-01  2.1744300000E-01  2.1744300000E-01
                       2.1744300000E-01  7.8255700000E-01  7.8255700000E-01
                       7.8255700000E-01  2.1744300000E-01  7.8255700000E-01
                       7.8255700000E-01  7.8255700000E-01  2.1744300000E-01
            znucl        3.00000   41.00000   16.00000

 chkinp: Checking input parameters for consistency.

== DATASET  1 ==================================================================
-   mpi_nproc: 1, omp_nthreads: -1 (-1 if OMP is not activated)

--- !DatasetInfo
iteration_state: {dtset: 1, }
dimensions: {natom: 8, nkpt: 2, mband: 32, nsppol: 1, nspinor: 1, nspden: 1, mpw: 18528, }
cutoff_energies: {ecut:  41.0, pawecutdg:  -1.0, }
electrons: {nelect:   4.60000000E+01, charge:   0.00000000E+00, occopt:   1.00000000E+00, tsmear:   1.00000000E-02, }
meta: {optdriver: 1, rfelfd: 2, }
...

 Real(R)+Recip(G) space primitive vectors, cartesian coordinates (Bohr,Bohr^-1):
 R(1)= 11.3732848  0.0000000  0.0000000  G(1)=  0.0879253  0.0000000  0.0000000
 R(2)=  0.0000000 11.3732848  0.0000000  G(2)=  0.0000000  0.0879253  0.0000000
 R(3)=  0.0000000  0.0000000 11.3732848  G(3)=  0.0000000  0.0000000  0.0879253
 Unit cell volume ucvol=  1.4711527E+03 bohr^3
 Angles (23,13,12)=  9.00000000E+01  9.00000000E+01  9.00000000E+01 degrees

 getcut: wavevector=  0.0000  0.0000  0.0000  ngfft=  72  72  72
         ecut(hartree)=     41.000   => boxcut(ratio)=   2.19629

--- Pseudopotential description ------------------------------------------------
- pspini: atom type   1  psp file is /scratch/users/j/a/jabreu/pseudos/PBEsol/Li.psp8
- pspatm: opening atomic psp file    /scratch/users/j/a/jabreu/pseudos/PBEsol/Li.psp8
- Li    ONCVPSP-3.3.0  r_core=   1.40824   1.10935
-  3.00000   3.00000    180112                znucl, zion, pspdat
    8 -116133    1    4       400   0.00000   pspcod,pspxc,lmax,lloc,mmax,r2well
    3.99000000000000    0.00000000000000    0.00000000000000   rchrg,fchrg,qchrg
     nproj     2     2
     extension_switch     1
  pspatm : epsatm=    2.60859637
         --- l  ekb(1:nproj) -->
             0   -4.855856   -1.482423
             1   -2.171544   -0.427615
 pspatm: atomic psp has been read  and splines computed

- pspini: atom type   2  psp file is /scratch/users/j/a/jabreu/pseudos/PBEsol/Nb.psp8
- pspatm: opening atomic psp file    /scratch/users/j/a/jabreu/pseudos/PBEsol/Nb.psp8
- Nb    ONCVPSP-3.3.0  r_core=   1.50879   1.40458   1.40458
- 41.00000  13.00000    180112                znucl, zion, pspdat
    8 -116133    2    4       600   0.00000   pspcod,pspxc,lmax,lloc,mmax,r2well
    5.99000000000000    5.00000000000000    0.00000000000000   rchrg,fchrg,qchrg
     nproj     2     2     2
     extension_switch     1
  pspatm : epsatm=   15.66753381
         --- l  ekb(1:nproj) -->
             0   12.953547    1.345168
             1    7.772306    0.779703
             2    3.518917    1.091480
 pspatm: atomic psp has been read  and splines computed

- pspini: atom type   3  psp file is /scratch/users/j/a/jabreu/pseudos/PBEsol/S.psp8
- pspatm: opening atomic psp file    /scratch/users/j/a/jabreu/pseudos/PBEsol/S.psp8
- S     ONCVPSP-3.3.0  r_core=   1.45376   1.45376   1.61851
- 16.00000   6.00000    180112                znucl, zion, pspdat
    8 -116133    2    4       600   0.00000   pspcod,pspxc,lmax,lloc,mmax,r2well
    5.99000000000000    6.00000000000000    0.00000000000000   rchrg,fchrg,qchrg
     nproj     2     2     2
     extension_switch     1
  pspatm : epsatm=    8.71840985
         --- l  ekb(1:nproj) -->
             0    6.834532    0.579453
             1    3.282851    0.896984
             2   -3.496974   -0.974265
 pspatm: atomic psp has been read  and splines computed

   2.68488027E+03                                ecore*ucvol(ha*bohr**3)

-inwffil : will read wavefunctions from disk file /scratch/users/j/a/jabreu/flow_simple_8atoms/flow/w314/t1/indata/in_WFK

 ==>  initialize data related to q vector <==

 The list of irreducible perturbations for this q vector is:
    1)    idir= 1    ipert=   9
    2)    idir= 2    ipert=   9
    3)    idir= 3    ipert=   9

 Perturbation wavevector (in red.coord.)   0.000000  0.000000  0.000000
 Perturbation : derivative vs k along direction   1

 dfpt_looppert : COMMENT -
  In a d/dk calculation, iscf is set to -3 automatically.
 The set of symmetries contains only one element for this perturbation.
 symkpt : not enough symmetry to change the number of k points.

[...]

 Initialisation of the first-order wave-functions :
  ireadwf=   0

--- !BeginCycle
iteration_state: {dtset: 1, }
solver: {iscf: 7, nstep: 2000, nline: 4, wfoptalg: 0, }
tolerances: {tolwfr: 1.00E-20, }
...

     iter   2DEtotal(Ha)        deltaE(Ha) residm    vres2
-ETOT  1  -13.802605284217     -1.380E+01 3.357E-02 0.000E+00
 ETOT  2  -13.813798232703     -1.119E-02 6.749E-04 0.000E+00
 ETOT  3  -13.813829920331     -3.169E-05 9.849E-06 0.000E+00
 ETOT  4  -13.813830038622     -1.183E-07 4.900E-07 0.000E+00
 ETOT  5  -13.813830039126     -5.036E-10 8.258E-09 0.000E+00
[...]

 ----iterations are completed or convergence reached----

 dfpt_looppert: DFPT cycle converged with prtwf=-1. Will skip output of the 1st-order WFK file.
 dfpt_looppert : ek2=    2.8078618605E+01
          f-sum rule ratio=    1.0101199944E+00
 prteigrs : about to open file /scratch/users/j/a/jabreu/flow_simple_8atoms/flow/w314/t1/tmpdata/tmp_1WF1_EIG
 Expectation of eigenvalue derivatives (hartree) for nkpt=   2  k points:
  (in case of degenerate eigenvalues, averaged derivative)
 kpt#   1, nband= 32, wtk=  0.50000, kpt=  0.5000  0.5000  0.0000 (reduced coord)
   0.00000   -0.00000   -0.00000   -0.00000   -0.00000   -0.00000   -0.00000   -0.00000
  -0.00000   -0.00000    0.00000   -0.00000   -0.00000   -0.00000    0.00000   -0.00000
   0.00000   -0.00000   -0.00000   -0.00000    0.00000    0.00000    0.00000    0.00000
   0.00000    0.00000   -0.00000   -0.00000   -0.00000    0.00005    0.00001    0.00016
 prteigrs : prtvol=0 or 1, do not print more k-points.

 Eight components of 2nd-order total energy (hartree) are
 1,2,3: 0th-order hamiltonian combined with 1st-order wavefunctions
     kin0=   1.49125575E+01 eigvalue=   2.01122579E+00  local=  -9.18666351E+00
 4,5,6: 1st-order hamiltonian combined with 1st and 0th-order wfs
     kin1=  -2.83627741E+01  Hartree=   0.00000000E+00     xc=   0.00000000E+00
 7,8,9: eventually, occupation + non-local contributions
    edocc=   5.16581317E+00     enl0=   9.10897108E-01   enl1=   7.35113990E-01
 1-9 gives the relaxation energy (to be shifted if some occ is /=2.0)
   erelax=  -1.38138300E+01
  No Ewald or frozen-wf contrib.: the relaxation energy is the total one
 2DEtotal=   -0.1381383004E+02 Ha. Also 2DEtotal=   -0.375893431772E+03 eV
    (  non-var. 2DEtotal :   -1.3813830039E+01 Ha)

 Perturbation wavevector (in red.coord.)   0.000000  0.000000  0.000000
 Perturbation : derivative vs k along direction   2
 The set of symmetries contains only one element for this perturbation.
 symkpt : not enough symmetry to change the number of k points.

[...]

 Perturbation wavevector (in red.coord.)   0.000000  0.000000  0.000000
 Perturbation : derivative vs k along direction   3
 The set of symmetries contains only one element for this perturbation.
 symkpt : not enough symmetry to change the number of k points.

-inwffil : will read wavefunctions from disk file /scratch/users/j/a/jabreu/flow_simple_8atoms/flow/w314/t1/indata/in_WFK

 Initialisation of the first-order wave-functions :
  ireadwf=   0

--- !BeginCycle
iteration_state: {dtset: 1, }
solver: {iscf: 7, nstep: 2000, nline: 4, wfoptalg: 0, }
tolerances: {tolwfr: 1.00E-20, }
...

     iter   2DEtotal(Ha)        deltaE(Ha) residm    vres2
-ETOT  1  -13.985826828078     -1.399E+01 1.698E-02 0.000E+00
 ETOT  2  -13.996324586754     -1.050E-02 1.871E-04 0.000E+00
 ETOT  3  -13.996352672423     -2.809E-05 1.885E-06 0.000E+00
 ETOT  4  -13.996352772017     -9.959E-08 4.239E-08 0.000E+00
 ETOT  5  -13.996352772419     -4.019E-10 1.811E-09 0.000E+00
 ETOT  6  -13.996352772420     -1.792E-12 6.641E-11 0.000E+00
 ETOT  7  -13.996352772420     -7.105E-15 3.882E-12 0.000E+00
 ETOT  8  -13.996352772420      0.000E+00 1.458E-13 0.000E+00
 ETOT  9  -13.996352772420     -1.776E-14 8.737E-15 0.000E+00
 ETOT 10  -13.996352772420      3.553E-15 3.419E-16 0.000E+00
 ETOT 11  -13.996352772420      0.000E+00 2.204E-17 0.000E+00
 ETOT 12  -13.996352772420      3.553E-15 1.150E-18 0.000E+00
 ETOT 13  -13.996352772420      0.000E+00 7.653E-20 0.000E+00
 ETOT 14  -13.996352772420      3.553E-15 9.363E-21 0.000E+00

 At SCF step   14   max residual=  9.36E-21 < tolwfr=  1.00E-20 =>converged.

 ----iterations are completed or convergence reached----

 dfpt_looppert: DFPT cycle converged with prtwf=-1. Will skip output of the 1st-order WFK file.
 dfpt_looppert : ek2=    2.8078618605E+01
          f-sum rule ratio=    1.0233555047E+00
 prteigrs : about to open file /scratch/users/j/a/jabreu/flow_simple_8atoms/flow/w314/t1/tmpdata/tmp_1WF1_EIG
 Expectation of eigenvalue derivatives (hartree) for nkpt=   2  k points:
  (in case of degenerate eigenvalues, averaged derivative)
 kpt#   1, nband= 32, wtk=  0.50000, kpt=  0.5000  0.5000  0.0000 (reduced coord)
   0.00000   -0.00000   -0.00000    0.00000    0.00000    0.00000    0.00000   -0.00000
   0.00000    0.00000    0.00000    0.00000   -0.00000   -0.00000   -0.00000    0.00000
  -0.00000    0.00000    0.00000    0.00000   -0.00000   -0.00000   -0.00000    0.00000
   0.00000   -0.00000    0.00000    0.00000   -0.00000   -0.00000   -0.00015    0.00601
 prteigrs : prtvol=0 or 1, do not print more k-points.

 Eight components of 2nd-order total energy (hartree) are
 1,2,3: 0th-order hamiltonian combined with 1st-order wavefunctions
     kin0=   1.51476340E+01 eigvalue=   1.99468519E+00  local=  -9.40219235E+00
 4,5,6: 1st-order hamiltonian combined with 1st and 0th-order wfs
     kin1=  -2.87344089E+01  Hartree=   0.00000000E+00     xc=   0.00000000E+00
 7,8,9: eventually, occupation + non-local contributions
    edocc=   5.26022952E+00     enl0=   9.95996379E-01   enl1=   7.41703371E-01
 1-9 gives the relaxation energy (to be shifted if some occ is /=2.0)
   erelax=  -1.39963528E+01
  No Ewald or frozen-wf contrib.: the relaxation energy is the total one
 2DEtotal=   -0.1399635277E+02 Ha. Also 2DEtotal=   -0.380860127930E+03 eV
    (  non-var. 2DEtotal :   -1.3996352772E+01 Ha)

 CALCULATION OF EFFECTIVE MASSES
 NOTE : Additional infos (eff. mass eigenvalues, eigenvectors and, if degenerate, average mass) are available in stdout.

 K-point ( 0.500, 0.500, 0.000) | band =    23
 Effective mass tensor:
             -1.5302151112              0.0002749904             -0.0001078156
              0.0002749904             -1.5316391761             -0.0001591129
             -0.0001078156             -0.0001591129             -5.0630060742
 Effective mass tensor eigenvalues:
             -5.0630060846             -1.5316904272             -1.5301638496
 Angular average effective mass 1/(<1/m>)=  -1.9948010893
 Angular average effective mass for Frohlich model (<m**0.5>)**2=  -2.1445966530
 Effective masses along directions: (cart. coord. / red. coord. -> eff. mass)
    1:   1.000000  0.000000  0.000000 /   1.000000  0.000000  0.000000 ->  -1.5302150595
    2:   0.000000  1.000000  0.000000 /   0.000000  1.000000  0.000000 ->  -1.5316391217
    3:   0.000000  0.000000  1.000000 /   0.000000  0.000000  1.000000 ->  -5.0630060500
    4:   0.577350  0.577350  0.577350 /   0.577350  0.577350  0.577350 ->  -1.9945812195
    5:   0.000000  0.707107  0.707107 /   0.000000  0.707107  0.707107 ->  -2.3519301511
    6:   0.707107  0.000000  0.707107 /   0.707107  0.000000  0.707107 ->  -2.3502143891
    7:   0.707107  0.707107  0.000000 /   0.707107  0.707107  0.000000 ->  -1.5306518151

 COMMENTS:
 - At k-point ( 0.000, 0.000, 0.000), bands    24 through    25
   are DEGENERATE (effective mass tensor is therefore not defined).
   See Section IIIB Eqs. (67)-(70) and Appendix E of PRB 93 205147 (2016).
 - Angular average effective mass for Frohlich model is to be averaged over degenerate bands. See later.
 - Associated theta integrals calculated with ntheta=   1000 points.

 K-point ( 0.000, 0.000, 0.000) | band =    24
 Transport equivalent effective mass tensor:
              2.3587582566             -0.0000000146              0.0000001076
             -0.0000000146              2.3587564675              0.0000000311
              0.0000001076              0.0000000311              2.3587625024
 Transport equivalent effective mass tensor eigenvalues:
              2.3587625053              2.3587582540              2.3587564672
 Angular average effective mass 1/(<1/m>)=   2.1976759355
 Angular average effective mass for Frohlich model (<m**0.5>)**2=   2.2080975680
 Effective masses along directions: (cart. coord. / red. coord. -> eff. mass)
    1:   1.000000  0.000000  0.000000 /   1.000000  0.000000  0.000000 ->   2.5765865877
    2:   0.000000  1.000000  0.000000 /   0.000000  1.000000  0.000000 ->   2.5765862840
    3:   0.000000  0.000000  1.000000 /   0.000000  0.000000  1.000000 ->   2.5765864874
    4:   0.577350  0.577350  0.577350 /   0.577350  0.577350  0.577350 ->   1.8095987711
    5:   0.000000  0.707107  0.707107 /   0.000000  0.707107  0.707107 ->   2.1260330858
    6:   0.707107  0.000000  0.707107 /   0.707107  0.000000  0.707107 ->   2.1260333473
    7:   0.707107  0.707107  0.000000 /   0.707107  0.707107  0.000000 ->   2.1260330858

 K-point ( 0.000, 0.000, 0.000) | band =    25
 Transport equivalent effective mass tensor:
              1.5976921343              0.0000000093              0.0000000133
              0.0000000093              1.5976929807             -0.0000000149
              0.0000000133             -0.0000000149              1.5976885391
 Transport equivalent effective mass tensor eigenvalues:
              1.5976929809              1.5976921342              1.5976885390
 Angular average effective mass 1/(<1/m>)=   1.5380088908
 Angular average effective mass for Frohlich model (<m**0.5>)**2=   1.5415963530
 Effective masses along directions: (cart. coord. / red. coord. -> eff. mass)
    1:   1.000000  0.000000  0.000000 /   1.000000  0.000000  0.000000 ->   1.3944919568
    2:   0.000000  1.000000  0.000000 /   0.000000  1.000000  0.000000 ->   1.3944919563
    3:   0.000000  0.000000  1.000000 /   0.000000  0.000000  1.000000 ->   1.3944919569
    4:   0.577350  0.577350  0.577350 /   0.577350  0.577350  0.577350 ->   1.8095986223
    5:   0.000000  0.707107  0.707107 /   0.000000  0.707107  0.707107 ->   1.5751556823
    6:   0.707107  0.000000  0.707107 /   0.707107  0.000000  0.707107 ->   1.5751556660
    7:   0.707107  0.707107  0.000000 /   0.707107  0.707107  0.000000 ->   1.5751556918

 Angular average effective mass for Frohlich model, averaged over degenerate bands.
 Value of     (<<m**0.5>>)**2 =     1.859919E+00
 Absolute Value of <<m**0.5>> =     1.363789E+00

 END OF EFFECTIVE MASSES SECTION

 ---- first-order wavefunction calculations are completed ----

 Total localisation tensor (bohr^2) in cartesian coordinates
  WARNING : still subject to testing - especially symmetries.
      direction              matrix element
   alpha     beta       real part   imaginary part
     1        1       1.1757577577    0.0000000000
     1        2       0.0000000000    0.0000000000
     1        3       0.0000000000    0.0000000000
     2        1       0.0000000000    0.0000000000
     2        2       1.1757300044    0.0000000000
     2        3       0.0000000000    0.0000000000
     3        1       0.0000000000    0.0000000000
     3        2       0.0000000000    0.0000000000
     3        3       1.2329063131    0.0000000000

 respfn : d/dk was computed, but no 2DTE, so no DDB output.

== END DATASET(S) ==============================================================

 -outvars: echo values of variables after computation  --------
            acell      1.0000000000E+00  1.0000000000E+00  1.0000000000E+00 Bohr
              amu      6.94100000E+00  9.29063800E+01  3.20660000E+01
             ecut      4.10000000E+01 Hartree
           etotal     -1.3996352772E+01
            fcart      0.0000000000E+00  0.0000000000E+00  0.0000000000E+00
                       0.0000000000E+00  0.0000000000E+00  0.0000000000E+00
                       0.0000000000E+00  0.0000000000E+00  0.0000000000E+00
                       0.0000000000E+00  0.0000000000E+00  0.0000000000E+00
                       0.0000000000E+00  0.0000000000E+00  0.0000000000E+00
                       0.0000000000E+00  0.0000000000E+00  0.0000000000E+00
                       0.0000000000E+00  0.0000000000E+00  0.0000000000E+00
                       0.0000000000E+00  0.0000000000E+00  0.0000000000E+00
-          fftalg         512
           irdden           1
           irdwfk           1
           istwfk        1    1
              ixc     -116133
              kpt      5.00000000E-01  5.00000000E-01  0.00000000E+00
                       0.00000000E+00  0.00000000E+00  0.00000000E+00
           kptopt           0
P           mkmem           2
P          mkqmem           2
P          mk1mem           2
            natom           8
            nband          32
           nbdbuf           4
            ngfft          72      72      72
             nkpt           2
            nstep        2000
             nsym          24
           ntypat           3
              occ      2.000000  2.000000  2.000000  2.000000  2.000000  2.000000
                       2.000000  2.000000  2.000000  2.000000  2.000000  2.000000
                       2.000000  2.000000  2.000000  2.000000  2.000000  2.000000
                       2.000000  2.000000  2.000000  2.000000  2.000000  0.000000
                       0.000000  0.000000  0.000000  0.000000  0.000000  0.000000
                       0.000000  0.000000
        optdriver           1
            prtwf          -1
            rfdir           1       1       1
           rfelfd           2
            rprim      1.1373284764E+01  0.0000000000E+00  0.0000000000E+00
                       0.0000000000E+00  1.1373284764E+01  0.0000000000E+00
                       0.0000000000E+00  0.0000000000E+00  1.1373284764E+01
          spgroup         215
           strten      0.0000000000E+00  0.0000000000E+00  0.0000000000E+00
                       0.0000000000E+00  0.0000000000E+00  0.0000000000E+00
           symrel      1  0  0   0  1  0   0  0  1      -1  0  0   0  1  0   0  0 -1
                      -1  0  0   0 -1  0   0  0  1       1  0  0   0 -1  0   0  0 -1
                       0  1  0   1  0  0   0  0  1       0 -1  0   1  0  0   0  0 -1
                       0 -1  0  -1  0  0   0  0  1       0  1  0  -1  0  0   0  0 -1
                       0  0  1   1  0  0   0  1  0       0  0 -1   1  0  0   0 -1  0
                       0  0 -1  -1  0  0   0  1  0       0  0  1  -1  0  0   0 -1  0
                       1  0  0   0  0  1   0  1  0      -1  0  0   0  0  1   0 -1  0
                      -1  0  0   0  0 -1   0  1  0       1  0  0   0  0 -1   0 -1  0
                       0  1  0   0  0  1   1  0  0       0 -1  0   0  0  1  -1  0  0
                       0 -1  0   0  0 -1   1  0  0       0  1  0   0  0 -1  -1  0  0
                       0  0  1   0  1  0   1  0  0       0  0 -1   0  1  0  -1  0  0
                       0  0 -1   0 -1  0   1  0  0       0  0  1   0 -1  0  -1  0  0
           tolwfr      1.00000000E-20
            typat      1  1  1  2  3  3  3  3
           useylm           1
              wtk        0.50000    0.50000
           xangst      0.0000000000E+00  0.0000000000E+00  3.0092415419E+00
                       0.0000000000E+00  3.0092415419E+00  0.0000000000E+00
                       3.0092415419E+00  0.0000000000E+00  0.0000000000E+00
                       0.0000000000E+00  0.0000000000E+00  0.0000000000E+00
                       1.3086770172E+00  1.3086770172E+00  1.3086770172E+00
                       1.3086770172E+00  4.7098060665E+00  4.7098060665E+00
                       4.7098060665E+00  1.3086770172E+00  4.7098060665E+00
                       4.7098060665E+00  4.7098060665E+00  1.3086770172E+00
            xcart      0.0000000000E+00  0.0000000000E+00  5.6866423818E+00
                       0.0000000000E+00  5.6866423818E+00  0.0000000000E+00
                       5.6866423818E+00  0.0000000000E+00  0.0000000000E+00
                       0.0000000000E+00  0.0000000000E+00  0.0000000000E+00
                       2.4730411589E+00  2.4730411589E+00  2.4730411589E+00
                       2.4730411589E+00  8.9002436047E+00  8.9002436047E+00
                       8.9002436047E+00  2.4730411589E+00  8.9002436047E+00
                       8.9002436047E+00  8.9002436047E+00  2.4730411589E+00
             xred      0.0000000000E+00  0.0000000000E+00  5.0000000000E-01
                       0.0000000000E+00  5.0000000000E-01  0.0000000000E+00
                       5.0000000000E-01  0.0000000000E+00  0.0000000000E+00
                       0.0000000000E+00  0.0000000000E+00  0.0000000000E+00
                       2.1744300000E-01  2.1744300000E-01  2.1744300000E-01
                       2.1744300000E-01  7.8255700000E-01  7.8255700000E-01
                       7.8255700000E-01  2.1744300000E-01  7.8255700000E-01
                       7.8255700000E-01  7.8255700000E-01  2.1744300000E-01
            znucl        3.00000   41.00000   16.00000

- Timing analysis has been suppressed with timopt=0

 Suggested references for the acknowledgment of ABINIT usage.

 Calculation completed.
.Delivered  14 WARNINGs and   9 COMMENTs to log file.