.Version 9.5.1 of ABINIT

 ABINIT is a project of the Universite Catholique de Louvain,
 Corning Inc. and other collaborators, see ~abinit/doc/developers/contributors.txt .
 acknowledgments of the ABINIT effort.

.Starting date : Tue 27 Apr 2021.
- ( at 18h26 )

- input  file    -> /scratch/users/j/a/jabreu/flow_simple_4atoms/flow/w154/t1/run.abi
- output file    -> /scratch/users/j/a/jabreu/flow_simple_4atoms/flow/w154/t1/run.abo
- root for input  files -> /scratch/users/j/a/jabreu/flow_simple_4atoms/flow/w154/t1/indata/in
- root for output files -> /scratch/users/j/a/jabreu/flow_simple_4atoms/flow/w154/t1/outdata/out

 Symmetries : space group P-3 m 1 (#164); Bravais hP (primitive hexag.)
     intxc =       0      iscf =       7    lmnmax =      18     lnmax =       6
     mgfft =      72  mpssoang =       3    mqgrid =    3281     natom =       4
  nloc_mem =       1    nspden =       1   nspinor =       1    nsppol =       1
      nsym =      12    n1xccc =    2501    ntypat =       3    occopt =       1
   xclevel =       2
-    mband =          25        mffmem =           1         mkmem =           2
-   mkqmem =           2        mk1mem =           2           mpw =        5880
      nfft =      115200          nkpt =           2
  Rough estimation (10% accuracy) of disk space for files :

------------- Echo of variables that govern the present computation ------------
-
- outvars: echo of selected default values
-   iomode0 =  0 , fftalg0 =512 , wfoptalg0 =  0
-
- outvars: echo of global parameters not present in the input file
-  max_nthreads =    0
-
 -outvars: echo values of preprocessed input variables --------
            acell      1.0000000000E+00  1.0000000000E+00  1.0000000000E+00 Bohr
              amu      6.94100000E+00  5.89332000E+01  3.20660000E+01
             ecut      4.80000000E+01 Hartree
-          fftalg         512
           irdden           1
           irdwfk           1
              ixc     -116133
              kpt      7.89473684E-02  7.89473684E-02  5.00000000E-01
                       2.89473684E-01  2.89473684E-01  0.00000000E+00
           kptopt           0
P           mkmem           2
P          mkqmem           2
P          mk1mem           2
            natom           4
            nband          25
           nbdbuf           4
            ngfft          40      40      72
             nkpt           2
            nstep         100
             nsym          12
           ntypat           3
              occ      2.000000  2.000000  2.000000  2.000000  2.000000  2.000000
                       2.000000  2.000000  2.000000  2.000000  2.000000  2.000000
                       2.000000  2.000000  2.000000  2.000000  0.000000  0.000000
                       0.000000  0.000000  0.000000  0.000000  0.000000  0.000000
                       0.000000
        optdriver           1
            prtwf          -1
            rfdir           1       1       1
           rfelfd           2
            rprim      6.3706321636E+00  0.0000000000E+00  0.0000000000E+00
                      -3.1853160818E+00  5.5171292918E+00  0.0000000000E+00
                       0.0000000000E+00  0.0000000000E+00  1.0517261468E+01
          spgroup         164
           symrel      1  0  0   0  1  0   0  0  1      -1  0  0   0 -1  0   0  0 -1
                      -1  0  0   1  1  0   0  0  1       1  0  0  -1 -1  0   0  0 -1
                       0  1  0  -1 -1  0   0  0  1       0 -1  0   1  1  0   0  0 -1
                       0 -1  0  -1  0  0   0  0  1       0  1  0   1  0  0   0  0 -1
                      -1 -1  0   1  0  0   0  0  1       1  1  0  -1  0  0   0  0 -1
                       1  1  0   0 -1  0   0  0  1      -1 -1  0   0  1  0   0  0 -1
           tolwfr      1.00000000E-20
            typat      1  2  3  3
           useylm           1
              wtk        0.50000    0.50000
           xangst      0.0000000000E+00  0.0000000000E+00  0.0000000000E+00
                       0.0000000000E+00  0.0000000000E+00  2.7827475328E+00
                       1.6855966726E+00  9.7317969269E-01  1.6624412036E+00
                       0.0000000000E+00  1.9463593854E+00  3.9030538621E+00
            xcart      0.0000000000E+00  0.0000000000E+00  0.0000000000E+00
                       0.0000000000E+00  0.0000000000E+00  5.2586307340E+00
                       3.1853160818E+00  1.8390430973E+00  3.1415585868E+00
                       0.0000000000E+00  3.6780861945E+00  7.3757028812E+00
             xred      0.0000000000E+00  0.0000000000E+00  0.0000000000E+00
                       0.0000000000E+00  0.0000000000E+00  5.0000000000E-01
                       6.6666666667E-01  3.3333333333E-01  2.9870500000E-01
                       3.3333333333E-01  6.6666666667E-01  7.0129500000E-01
            znucl        3.00000   27.00000   16.00000

 chkinp: Checking input parameters for consistency.

== DATASET  1 ==================================================================
-   mpi_nproc: 1, omp_nthreads: -1 (-1 if OMP is not activated)

--- !DatasetInfo
iteration_state: {dtset: 1, }
dimensions: {natom: 4, nkpt: 2, mband: 25, nsppol: 1, nspinor: 1, nspden: 1, mpw: 5880, }
cutoff_energies: {ecut:  48.0, pawecutdg:  -1.0, }
electrons: {nelect:   3.20000000E+01, charge:   0.00000000E+00, occopt:   1.00000000E+00, tsmear:   1.00000000E-02, }
meta: {optdriver: 1, rfelfd: 2, }
...

 Real(R)+Recip(G) space primitive vectors, cartesian coordinates (Bohr,Bohr^-1):
 R(1)=  6.3706322  0.0000000  0.0000000  G(1)=  0.1569703  0.0906268  0.0000000
 R(2)= -3.1853161  5.5171293  0.0000000  G(2)=  0.0000000  0.1812537  0.0000000
 R(3)=  0.0000000  0.0000000 10.5172615  G(3)=  0.0000000  0.0000000  0.0950818
 Unit cell volume ucvol=  3.6965651E+02 bohr^3
 Angles (23,13,12)=  9.00000000E+01  9.00000000E+01  1.20000000E+02 degrees

 getcut: wavevector=  0.0000  0.0000  0.0000  ngfft=  40  40  72
         ecut(hartree)=     48.000   => boxcut(ratio)=   2.01322

--- Pseudopotential description ------------------------------------------------
- pspini: atom type   1  psp file is /scratch/users/j/a/jabreu/pseudos/PBEsol/Li.psp8
- pspatm: opening atomic psp file    /scratch/users/j/a/jabreu/pseudos/PBEsol/Li.psp8
- Li    ONCVPSP-3.3.0  r_core=   1.40824   1.10935
-  3.00000   3.00000    180112                znucl, zion, pspdat
    8 -116133    1    4       400   0.00000   pspcod,pspxc,lmax,lloc,mmax,r2well
    3.99000000000000    0.00000000000000    0.00000000000000   rchrg,fchrg,qchrg
     nproj     2     2
     extension_switch     1
  pspatm : epsatm=    2.60859637
         --- l  ekb(1:nproj) -->
             0   -4.855856   -1.482423
             1   -2.171544   -0.427615
 pspatm: atomic psp has been read  and splines computed

- pspini: atom type   2  psp file is /scratch/users/j/a/jabreu/pseudos/PBEsol/Co.psp8
- pspatm: opening atomic psp file    /scratch/users/j/a/jabreu/pseudos/PBEsol/Co.psp8
- Co    ONCVPSP-3.3.0  r_core=   1.26190   1.32357   1.66026
- 27.00000  17.00000    180112                znucl, zion, pspdat
    8 -116133    2    4       600   0.00000   pspcod,pspxc,lmax,lloc,mmax,r2well
    5.99000000000000    6.00000000000000    0.00000000000000   rchrg,fchrg,qchrg
     nproj     2     2     2
     extension_switch     1
  pspatm : epsatm=   18.79313233
         --- l  ekb(1:nproj) -->
             0    6.295970   -0.649806
             1   -2.108725   -0.098055
             2   -6.914380   -2.516418
 pspatm: atomic psp has been read  and splines computed

- pspini: atom type   3  psp file is /scratch/users/j/a/jabreu/pseudos/PBEsol/S.psp8
- pspatm: opening atomic psp file    /scratch/users/j/a/jabreu/pseudos/PBEsol/S.psp8
- S     ONCVPSP-3.3.0  r_core=   1.45376   1.45376   1.61851
- 16.00000   6.00000    180112                znucl, zion, pspdat
    8 -116133    2    4       600   0.00000   pspcod,pspxc,lmax,lloc,mmax,r2well
    5.99000000000000    6.00000000000000    0.00000000000000   rchrg,fchrg,qchrg
     nproj     2     2     2
     extension_switch     1
  pspatm : epsatm=    8.71840985
         --- l  ekb(1:nproj) -->
             0    6.834532    0.579453
             1    3.282851    0.896984
             2   -3.496974   -0.974265
 pspatm: atomic psp has been read  and splines computed

   1.24283355E+03                                ecore*ucvol(ha*bohr**3)

-inwffil : will read wavefunctions from disk file /scratch/users/j/a/jabreu/flow_simple_4atoms/flow/w154/t1/indata/in_WFK

 ==>  initialize data related to q vector <==

 The list of irreducible perturbations for this q vector is:
    1)    idir= 1    ipert=   5
    2)    idir= 2    ipert=   5
    3)    idir= 3    ipert=   5

 Perturbation wavevector (in red.coord.)   0.000000  0.000000  0.000000
 Perturbation : derivative vs k along direction   1

 dfpt_looppert : COMMENT -
  In a d/dk calculation, iscf is set to -3 automatically.
 The set of symmetries contains only one element for this perturbation.
 symkpt : not enough symmetry to change the number of k points.

[...]

 Initialisation of the first-order wave-functions :
  ireadwf=   0

--- !BeginCycle
iteration_state: {dtset: 1, }
solver: {iscf: 7, nstep: 100, nline: 4, wfoptalg: 0, }
tolerances: {tolwfr: 1.00E-20, }
...

     iter   2DEtotal(Ha)        deltaE(Ha) residm    vres2
-ETOT  1  -42.471773079202     -4.247E+01 1.674E-01 0.000E+00
 ETOT  2  -42.512133149532     -4.036E-02 1.296E-03 0.000E+00
 ETOT  3  -42.512471306351     -3.382E-04 2.597E-05 0.000E+00
 ETOT  4  -42.512476316271     -5.010E-06 4.904E-07 0.000E+00
 ETOT  5  -42.512476406088     -8.982E-08 1.445E-08 0.000E+00
 ETOT  6  -42.512476407813     -1.725E-09 4.562E-10 0.000E+00
 ETOT  7  -42.512476407848     -3.458E-11 1.067E-11 0.000E+00
 ETOT  8  -42.512476407849     -7.390E-13 5.134E-13 0.000E+00
 ETOT  9  -42.512476407849      3.553E-14 1.217E-14 0.000E+00
 ETOT 10  -42.512476407849     -3.553E-14 6.080E-16 0.000E+00
 ETOT 11  -42.512476407849      2.842E-14 1.460E-17 0.000E+00
 ETOT 12  -42.512476407849     -2.132E-14 7.333E-19 0.000E+00
 ETOT 13  -42.512476407849      2.132E-14 1.781E-20 0.000E+00
 ETOT 14  -42.512476407849     -7.105E-15 9.871E-21 0.000E+00

 At SCF step   14   max residual=  9.87E-21 < tolwfr=  1.00E-20 =>converged.

 ----iterations are completed or convergence reached----

 dfpt_looppert: DFPT cycle converged with prtwf=-1. Will skip output of the 1st-order WFK file.
 dfpt_looppert : ek2=    8.3006745685E+01
          f-sum rule ratio=    1.0132719265E+00
 prteigrs : about to open file /scratch/users/j/a/jabreu/flow_simple_4atoms/flow/w154/t1/tmpdata/tmp_1WF1_EIG
 Expectation of eigenvalue derivatives (hartree) for nkpt=   2  k points:
  (in case of degenerate eigenvalues, averaged derivative)
 kpt#   1, nband= 25, wtk=  0.50000, kpt=  0.0789  0.0789  0.5000 (reduced coord)
   0.00004    0.00009   -0.00068   -0.00020    0.00036    0.10890    0.04245    0.08155
  -0.18487    0.02857   -0.37789   -0.14402    0.11483   -0.03803    0.03485    0.00422
  -0.23965   -0.16273    0.29286   -0.11575   -0.18280    0.28369   -0.01685    0.07255
   0.41549
 prteigrs : prtvol=0 or 1, do not print more k-points.

 Eight components of 2nd-order total energy (hartree) are
 1,2,3: 0th-order hamiltonian combined with 1st-order wavefunctions
     kin0=   4.08719520E+01 eigvalue=  -4.73805021E-02  local=  -1.61081389E+01
 4,5,6: 1st-order hamiltonian combined with 1st and 0th-order wfs
     kin1=  -8.41084051E+01  Hartree=   0.00000000E+00     xc=   0.00000000E+00
 7,8,9: eventually, occupation + non-local contributions
    edocc=   1.79800016E+01     enl0=  -1.83957779E-01   enl1=  -9.16547706E-01
 1-9 gives the relaxation energy (to be shifted if some occ is /=2.0)
   erelax=  -4.25124764E+01
  No Ewald or frozen-wf contrib.: the relaxation energy is the total one
 2DEtotal=   -0.4251247641E+02 Ha. Also 2DEtotal=   -0.115682331437E+04 eV
    (  non-var. 2DEtotal :   -4.2512476408E+01 Ha)

 Perturbation wavevector (in red.coord.)   0.000000  0.000000  0.000000
 Perturbation : derivative vs k along direction   2
 The set of symmetries contains only one element for this perturbation.
 symkpt : not enough symmetry to change the number of k points.

[...]

 Perturbation wavevector (in red.coord.)   0.000000  0.000000  0.000000
 Perturbation : derivative vs k along direction   3
 The set of symmetries contains only one element for this perturbation.
 symkpt : not enough symmetry to change the number of k points.

-inwffil : will read wavefunctions from disk file /scratch/users/j/a/jabreu/flow_simple_4atoms/flow/w154/t1/indata/in_WFK

 Initialisation of the first-order wave-functions :
  ireadwf=   0

--- !BeginCycle
iteration_state: {dtset: 1, }
solver: {iscf: 7, nstep: 100, nline: 4, wfoptalg: 0, }
tolerances: {tolwfr: 1.00E-20, }
...

     iter   2DEtotal(Ha)        deltaE(Ha) residm    vres2
-ETOT  1  -11.426568492665     -1.143E+01 7.097E-02 0.000E+00
 ETOT  2  -11.437929040086     -1.136E-02 4.793E-04 0.000E+00
 ETOT  3  -11.438025819256     -9.678E-05 1.348E-05 0.000E+00
 ETOT  4  -11.438027235995     -1.417E-06 2.860E-07 0.000E+00
 ETOT  5  -11.438027260297     -2.430E-08 1.128E-08 0.000E+00
 ETOT  6  -11.438027260739     -4.420E-10 2.348E-10 0.000E+00
 ETOT  7  -11.438027260748     -8.349E-12 1.000E-11 0.000E+00
 ETOT  8  -11.438027260748     -1.492E-13 2.066E-13 0.000E+00
 ETOT  9  -11.438027260748     -2.487E-14 9.217E-15 0.000E+00
 ETOT 10  -11.438027260748      8.882E-15 1.892E-16 0.000E+00
 ETOT 11  -11.438027260748      1.776E-15 8.669E-18 0.000E+00
 ETOT 12  -11.438027260748      3.553E-15 1.785E-19 0.000E+00
 ETOT 13  -11.438027260748     -7.105E-15 9.961E-21 0.000E+00

 At SCF step   13   max residual=  9.96E-21 < tolwfr=  1.00E-20 =>converged.

 ----iterations are completed or convergence reached----

 dfpt_looppert: DFPT cycle converged with prtwf=-1. Will skip output of the 1st-order WFK file.
 dfpt_looppert : ek2=    2.2842012704E+01
          f-sum rule ratio=    9.9476905165E-01
 prteigrs : about to open file /scratch/users/j/a/jabreu/flow_simple_4atoms/flow/w154/t1/tmpdata/tmp_1WF1_EIG
 Expectation of eigenvalue derivatives (hartree) for nkpt=   2  k points:
  (in case of degenerate eigenvalues, averaged derivative)
 kpt#   1, nband= 25, wtk=  0.50000, kpt=  0.0789  0.0789  0.5000 (reduced coord)
  -0.00000   -0.00000    0.00000    0.00000   -0.00000   -0.00000    0.00000   -0.00000
   0.00000   -0.00000    0.00000   -0.00000   -0.00000    0.00000    0.00000    0.00000
   0.00000    0.00000    0.00000    0.00000    0.00000   -0.00000   -0.00000   -0.00000
  -0.00000
 prteigrs : prtvol=0 or 1, do not print more k-points.

 Eight components of 2nd-order total energy (hartree) are
 1,2,3: 0th-order hamiltonian combined with 1st-order wavefunctions
     kin0=   1.19006366E+01 eigvalue=  -8.78923915E-02  local=  -4.77396207E+00
 4,5,6: 1st-order hamiltonian combined with 1st and 0th-order wfs
     kin1=  -2.27225273E+01  Hartree=   0.00000000E+00     xc=   0.00000000E+00
 7,8,9: eventually, occupation + non-local contributions
    edocc=   4.34335412E+00     enl0=   5.58910089E-02   enl1=  -1.53527206E-01
 1-9 gives the relaxation energy (to be shifted if some occ is /=2.0)
   erelax=  -1.14380273E+01
  No Ewald or frozen-wf contrib.: the relaxation energy is the total one
 2DEtotal=   -0.1143802726E+02 Ha. Also 2DEtotal=   -0.311244550393E+03 eV
    (  non-var. 2DEtotal :   -1.1438027261E+01 Ha)

 CALCULATION OF EFFECTIVE MASSES
 NOTE : Additional infos (eff. mass eigenvalues, eigenvectors and, if degenerate, average mass) are available in stdout.

 K-point ( 0.079, 0.079, 0.500) | band =    16
 Effective mass tensor:
           -102.0580244195             58.4486171084            -54.5965742459
             58.4486171084            -34.5673746113             31.5213467955
            -54.5965742459             31.5213467955            -38.6291153107
 Effective mass tensor eigenvalues:
           -166.8095055647             -7.6229589454             -0.8220498314
 Angular average effective mass 1/(<1/m>)=  -2.2162321815
 Angular average effective mass for Frohlich model (<m**0.5>)**2=  -4.5441595751
 Effective masses along directions: (cart. coord. / red. coord. -> eff. mass)
    1:   1.000000  0.000000  0.000000 /   0.894427 -0.447214  0.000000 ->  -3.0590216410
    2:   0.000000  1.000000  0.000000 /   0.000000  1.000000  0.000000 ->  -1.0870177886
    3:   0.000000  0.000000  1.000000 /   0.000000  0.000000  1.000000 ->  -9.3634068682
    4:   0.577350  0.577350  0.577350 /   0.509024  0.186316  0.840346 ->  -1.2795680044
    5:   0.000000  0.707107  0.707107 /   0.000000  0.464541  0.885551 ->  -1.8581747426
    6:   0.707107  0.000000  0.707107 /   0.501541 -0.250770  0.827992 ->  -5.7499559804
    7:   0.707107  0.707107  0.000000 /   0.939071  0.343724  0.000000 ->  -0.8794934472

 K-point ( 0.289, 0.289, 0.000) | band =    17
 Effective mass tensor:
              1.0869374576              0.6913166342             -0.6204273736
              0.6913166342              1.8852011197              0.3582038740
             -0.6204273736              0.3582038740              1.8217558242
 Effective mass tensor eigenvalues:
              0.3411610372              2.1684003928              2.2843329714
 Angular average effective mass 1/(<1/m>)=   0.7832691474
 Angular average effective mass for Frohlich model (<m**0.5>)**2=   1.0187212681
 Effective masses along directions: (cart. coord. / red. coord. -> eff. mass)
    1:   1.000000  0.000000  0.000000 /   0.894427 -0.447214  0.000000 ->   0.5111481329
    2:   0.000000  1.000000  0.000000 /   0.000000  1.000000  0.000000 ->   1.0593560244
    3:   0.000000  0.000000  1.000000 /   0.000000  0.000000  1.000000 ->   1.0755564084
    4:   0.577350  0.577350  0.577350 /   0.509024  0.186316  0.840346 ->   1.0770121883
    5:   0.000000  0.707107  0.707107 /   0.000000  0.464541  0.885551 ->   2.2091970817
    6:   0.707107  0.000000  0.707107 /   0.501541 -0.250770  0.827992 ->   0.4382625129
    7:   0.707107  0.707107  0.000000 /   0.939071  0.343724  0.000000 ->   1.7439777341

 END OF EFFECTIVE MASSES SECTION

 ---- first-order wavefunction calculations are completed ----

 Total localisation tensor (bohr^2) in cartesian coordinates
  WARNING : still subject to testing - especially symmetries.
      direction              matrix element
   alpha     beta       real part   imaginary part
     1        1       2.1495244143    0.0000000000
     1        2      -0.7446170987    0.0000000000
     1        3       0.0000000000    0.0000000000
     2        1      -0.7446170987    0.0000000000
     2        2       1.2897146471    0.0000000000
     2        3       0.0000000000    0.0000000000
     3        1       0.0000000000    0.0000000000
     3        2       0.0000000000    0.0000000000
     3        3       1.1994703753    0.0000000000

 respfn : d/dk was computed, but no 2DTE, so no DDB output.

== END DATASET(S) ==============================================================

 -outvars: echo values of variables after computation  --------
            acell      1.0000000000E+00  1.0000000000E+00  1.0000000000E+00 Bohr
              amu      6.94100000E+00  5.89332000E+01  3.20660000E+01
             ecut      4.80000000E+01 Hartree
           etotal     -1.1438027261E+01
            fcart      0.0000000000E+00  0.0000000000E+00  0.0000000000E+00
                       0.0000000000E+00  0.0000000000E+00  0.0000000000E+00
                       0.0000000000E+00  0.0000000000E+00  0.0000000000E+00
                       0.0000000000E+00  0.0000000000E+00  0.0000000000E+00
-          fftalg         512
           irdden           1
           irdwfk           1
              ixc     -116133
              kpt      7.89473684E-02  7.89473684E-02  5.00000000E-01
                       2.89473684E-01  2.89473684E-01  0.00000000E+00
           kptopt           0
P           mkmem           2
P          mkqmem           2
P          mk1mem           2
            natom           4
            nband          25
           nbdbuf           4
            ngfft          40      40      72
             nkpt           2
            nstep         100
             nsym          12
           ntypat           3
              occ      2.000000  2.000000  2.000000  2.000000  2.000000  2.000000
                       2.000000  2.000000  2.000000  2.000000  2.000000  2.000000
                       2.000000  2.000000  2.000000  2.000000  0.000000  0.000000
                       0.000000  0.000000  0.000000  0.000000  0.000000  0.000000
                       0.000000
        optdriver           1
            prtwf          -1
            rfdir           1       1       1
           rfelfd           2
            rprim      6.3706321636E+00  0.0000000000E+00  0.0000000000E+00
                      -3.1853160818E+00  5.5171292918E+00  0.0000000000E+00
                       0.0000000000E+00  0.0000000000E+00  1.0517261468E+01
          spgroup         164
           strten      0.0000000000E+00  0.0000000000E+00  0.0000000000E+00
                       0.0000000000E+00  0.0000000000E+00  0.0000000000E+00
           symrel      1  0  0   0  1  0   0  0  1      -1  0  0   0 -1  0   0  0 -1
                      -1  0  0   1  1  0   0  0  1       1  0  0  -1 -1  0   0  0 -1
                       0  1  0  -1 -1  0   0  0  1       0 -1  0   1  1  0   0  0 -1
                       0 -1  0  -1  0  0   0  0  1       0  1  0   1  0  0   0  0 -1
                      -1 -1  0   1  0  0   0  0  1       1  1  0  -1  0  0   0  0 -1
                       1  1  0   0 -1  0   0  0  1      -1 -1  0   0  1  0   0  0 -1
           tolwfr      1.00000000E-20
            typat      1  2  3  3
           useylm           1
              wtk        0.50000    0.50000
           xangst      0.0000000000E+00  0.0000000000E+00  0.0000000000E+00
                       0.0000000000E+00  0.0000000000E+00  2.7827475328E+00
                       1.6855966726E+00  9.7317969269E-01  1.6624412036E+00
                       0.0000000000E+00  1.9463593854E+00  3.9030538621E+00
            xcart      0.0000000000E+00  0.0000000000E+00  0.0000000000E+00
                       0.0000000000E+00  0.0000000000E+00  5.2586307340E+00
                       3.1853160818E+00  1.8390430973E+00  3.1415585868E+00
                       0.0000000000E+00  3.6780861945E+00  7.3757028812E+00
             xred      0.0000000000E+00  0.0000000000E+00  0.0000000000E+00
                       0.0000000000E+00  0.0000000000E+00  5.0000000000E-01
                       6.6666666667E-01  3.3333333333E-01  2.9870500000E-01
                       3.3333333333E-01  6.6666666667E-01  7.0129500000E-01
            znucl        3.00000   27.00000   16.00000

- Timing analysis has been suppressed with timopt=0

 Suggested references for the acknowledgment of ABINIT usage.

 Calculation completed.
.Delivered  14 WARNINGs and   9 COMMENTs to log file.