.Version 9.5.1 of ABINIT

 ABINIT is a project of the Universite Catholique de Louvain,
 Corning Inc. and other collaborators, see ~abinit/doc/developers/contributors.txt .
 acknowledgments of the ABINIT effort.

.Starting date : Tue 27 Apr 2021.
- ( at 15h42 )

- input  file    -> /scratch/users/j/a/jabreu/flow_simple/flow/w169/t1/run.abi
- output file    -> /scratch/users/j/a/jabreu/flow_simple/flow/w169/t1/run.abo
- root for input  files -> /scratch/users/j/a/jabreu/flow_simple/flow/w169/t1/indata/in
- root for output files -> /scratch/users/j/a/jabreu/flow_simple/flow/w169/t1/outdata/out

 Symmetries : space group R-3 m (#166); Bravais hR (rhombohedral)
     intxc =       0      iscf =       7    lmnmax =      32     lnmax =       8
     mgfft =      90  mpssoang =       4    mqgrid =    3001     natom =       3
  nloc_mem =       1    nspden =       1   nspinor =       1    nsppol =       1
      nsym =      12    n1xccc =    2501    ntypat =       2    occopt =       1
   xclevel =       2
-    mband =          21        mffmem =           1         mkmem =           2
-   mkqmem =           2        mk1mem =           2           mpw =        9506
      nfft =      729000          nkpt =           2
  Rough estimation (10% accuracy) of disk space for files :

------------- Echo of variables that govern the present computation ------------
-
- outvars: echo of selected default values
-   iomode0 =  0 , fftalg0 =512 , wfoptalg0 =  0
-
- outvars: echo of global parameters not present in the input file
-  max_nthreads =    0
-
 -outvars: echo values of preprocessed input variables --------
            acell      1.0000000000E+00  1.0000000000E+00  1.0000000000E+00 Bohr
              amu      1.32905430E+02  1.59994000E+01
             ecut      4.40000000E+01 Hartree
-          fftalg         512
           irdden           1
           irdwfk           1
           istwfk        1    1
              ixc     -116133
              kpt      5.00000000E-01 -2.77555756E-17 -2.77555756E-17
                       0.00000000E+00  0.00000000E+00  0.00000000E+00
           kptopt           0
P           mkmem           2
P          mkqmem           2
P          mk1mem           2
            natom           3
            nband          21
           nbdbuf           4
            ngfft          90      90      90
             nkpt           2
            nstep         100
             nsym          12
           ntypat           2
              occ      2.000000  2.000000  2.000000  2.000000  2.000000  2.000000
                       2.000000  2.000000  2.000000  2.000000  2.000000  2.000000
                       0.000000  0.000000  0.000000  0.000000  0.000000  0.000000
                       0.000000  0.000000  0.000000
        optdriver           1
            prtwf          -1
            rfdir           1       1       1
           rfelfd           2
            rprim      7.4458701448E+00  0.0000000000E+00  1.1672386274E+01
                       3.4059476092E+00  6.6212161343E+00  1.1672386274E+01
                       0.0000000000E+00  0.0000000000E+00  1.3845056286E+01
          spgroup         166
           symrel      1  0  0   0  1  0   0  0  1      -1  0  0   0 -1  0   0  0 -1
                       0  1  0   1  0  0   0  0  1       0 -1  0  -1  0  0   0  0 -1
                       0  0  1   1  0  0   0  1  0       0  0 -1  -1  0  0   0 -1  0
                       1  0  0   0  0  1   0  1  0      -1  0  0   0  0 -1   0 -1  0
                       0  1  0   0  0  1   1  0  0       0 -1  0   0  0 -1  -1  0  0
                       0  0  1   0  1  0   1  0  0       0  0 -1   0 -1  0  -1  0  0
           tolwfr      1.00000000E-20
            typat      1  1  2
           useylm           1
              wtk        0.50000    0.50000
           xangst      4.2446633801E+00  2.5898733552E+00  1.4546715411E+01
                       1.4978712471E+00  9.1392331618E-01  5.1332943989E+00
                       0.0000000000E+00  0.0000000000E+00  0.0000000000E+00
            xcart      8.0212513147E+00  4.8941513603E+00  2.7489308261E+01
                       2.8305664393E+00  1.7270647740E+00  9.7005205735E+00
                       0.0000000000E+00  0.0000000000E+00  0.0000000000E+00
             xred      7.3916200000E-01  7.3916200000E-01  7.3916200000E-01
                       2.6083800000E-01  2.6083800000E-01  2.6083800000E-01
                       0.0000000000E+00  0.0000000000E+00  0.0000000000E+00
            znucl       55.00000    8.00000

 chkinp: Checking input parameters for consistency.

== DATASET  1 ==================================================================
-   mpi_nproc: 1, omp_nthreads: -1 (-1 if OMP is not activated)

--- !DatasetInfo
iteration_state: {dtset: 1, }
dimensions: {natom: 3, nkpt: 2, mband: 21, nsppol: 1, nspinor: 1, nspden: 1, mpw: 9506, }
cutoff_energies: {ecut:  44.0, pawecutdg:  -1.0, }
electrons: {nelect:   2.40000000E+01, charge:   0.00000000E+00, occopt:   1.00000000E+00, tsmear:   1.00000000E-02, }
meta: {optdriver: 1, rfelfd: 2, }
...

 Real(R)+Recip(G) space primitive vectors, cartesian coordinates (Bohr,Bohr^-1):
 R(1)=  7.4458701  0.0000000 11.6723863  G(1)=  0.1343026 -0.0690852  0.0000000
 R(2)=  3.4059476  6.6212161 11.6723863  G(2)=  0.0000000  0.1510297  0.0000000
 R(3)=  0.0000000  0.0000000 13.8450563  G(3)= -0.1132269 -0.0690852  0.0722279
 Unit cell volume ucvol=  6.8257118E+02 bohr^3
 Angles (23,13,12)=  3.25339950E+01  3.25339950E+01  3.25339950E+01 degrees

 getcut: wavevector=  0.0000  0.0000  0.0000  ngfft=  90  90  90
         ecut(hartree)=     44.000   => boxcut(ratio)=   2.17700

--- Pseudopotential description ------------------------------------------------
- pspini: atom type   1  psp file is /scratch/users/j/a/jabreu/pseudos/PBEsol/Cs.psp8
- pspatm: opening atomic psp file    /scratch/users/j/a/jabreu/pseudos/PBEsol/Cs.psp8
- Cs    ONCVPSP-3.3.0  r_core=   2.27353   1.85623   2.01788   1.90105
- 55.00000   9.00000    180112                znucl, zion, pspdat
    8 -116133    3    4       600   0.00000   pspcod,pspxc,lmax,lloc,mmax,r2well
    5.99000000000000    5.00000000000000    0.00000000000000   rchrg,fchrg,qchrg
     nproj     2     2     2     2
     extension_switch     1
  pspatm : epsatm=   22.12462445
         --- l  ekb(1:nproj) -->
             0    6.214110    0.767882
             1    6.311966    0.793598
             2    3.769790    0.913105
             3   -9.247129   -2.432478
 pspatm: atomic psp has been read  and splines computed

- pspini: atom type   2  psp file is /scratch/users/j/a/jabreu/pseudos/PBEsol/O.psp8
- pspatm: opening atomic psp file    /scratch/users/j/a/jabreu/pseudos/PBEsol/O.psp8
- O     ONCVPSP-3.3.0  r_core=   1.35509   1.45563   1.26150
-  8.00000   6.00000    180112                znucl, zion, pspdat
    8 -116133    2    4       600   0.00000   pspcod,pspxc,lmax,lloc,mmax,r2well
    5.99000000000000    4.00000000000000    0.00000000000000   rchrg,fchrg,qchrg
     nproj     2     2     1
     extension_switch     1
  pspatm : epsatm=    6.22910522
         --- l  ekb(1:nproj) -->
             0    6.050032    0.820363
             1   -4.739617   -1.153841
             2   -1.335834
 pspatm: atomic psp has been read  and splines computed

   1.21148050E+03                                ecore*ucvol(ha*bohr**3)

-inwffil : will read wavefunctions from disk file /scratch/users/j/a/jabreu/flow_simple/flow/w169/t1/indata/in_WFK

 ==>  initialize data related to q vector <==

 The list of irreducible perturbations for this q vector is:
    1)    idir= 1    ipert=   4
    2)    idir= 2    ipert=   4
    3)    idir= 3    ipert=   4

 Perturbation wavevector (in red.coord.)   0.000000  0.000000  0.000000
 Perturbation : derivative vs k along direction   1

 dfpt_looppert : COMMENT -
  In a d/dk calculation, iscf is set to -3 automatically.
 The set of symmetries contains only one element for this perturbation.
 symkpt : not enough symmetry to change the number of k points.

[...]

 Initialisation of the first-order wave-functions :
  ireadwf=   0

--- !BeginCycle
iteration_state: {dtset: 1, }
solver: {iscf: 7, nstep: 100, nline: 4, wfoptalg: 0, }
tolerances: {tolwfr: 1.00E-20, }
...

     iter   2DEtotal(Ha)        deltaE(Ha) residm    vres2
-ETOT  1  -24.662714458704     -2.466E+01 1.361E-01 0.000E+00
 ETOT  2  -24.691691464778     -2.898E-02 3.141E-02 0.000E+00
 ETOT  3  -24.692428624421     -7.372E-04 6.629E-04 0.000E+00
 ETOT  4  -24.692461786296     -3.316E-05 1.360E-04 0.000E+00
 ETOT  5  -24.692463744481     -1.958E-06 4.263E-06 0.000E+00
 ETOT  6  -24.692463877847     -1.334E-07 9.396E-07 0.000E+00
 ETOT  7  -24.692463887762     -9.915E-09 2.856E-08 0.000E+00
 ETOT  8  -24.692463888536     -7.737E-10 6.899E-09 0.000E+00
 ETOT  9  -24.692463888598     -6.237E-11 1.978E-10 0.000E+00
 ETOT 10  -24.692463888604     -5.116E-12 5.193E-11 0.000E+00
 ETOT 11  -24.692463888604     -4.192E-13 1.437E-12 0.000E+00
 ETOT 12  -24.692463888604     -2.842E-14 3.968E-13 0.000E+00
 ETOT 13  -24.692463888604      3.553E-15 1.088E-14 0.000E+00
 ETOT 14  -24.692463888604     -3.553E-15 3.066E-15 0.000E+00
 ETOT 15  -24.692463888604     -1.421E-14 8.423E-17 0.000E+00
 ETOT 16  -24.692463888604      0.000E+00 2.387E-17 0.000E+00
 ETOT 17  -24.692463888604      2.842E-14 6.585E-19 0.000E+00
 ETOT 18  -24.692463888604     -7.105E-15 1.868E-19 0.000E+00
 ETOT 19  -24.692463888604      0.000E+00 9.348E-21 0.000E+00

 At SCF step   19   max residual=  9.35E-21 < tolwfr=  1.00E-20 =>converged.

 ----iterations are completed or convergence reached----

 dfpt_looppert: DFPT cycle converged with prtwf=-1. Will skip output of the 1st-order WFK file.
 dfpt_looppert : ek2=    4.3224048794E+01
          f-sum rule ratio=    1.0337067899E+00
 prteigrs : about to open file /scratch/users/j/a/jabreu/flow_simple/flow/w169/t1/tmpdata/tmp_1WF1_EIG
 Expectation of eigenvalue derivatives (hartree) for nkpt=   2  k points:
  (in case of degenerate eigenvalues, averaged derivative)
 kpt#   1, nband= 21, wtk=  0.50000, kpt=  0.5000  0.0000  0.0000 (reduced coord)
  -0.00000   -0.00000    0.00000    0.00000   -0.00000    0.00000    0.00000   -0.00000
   0.00000   -0.00000   -0.00000    0.00000    0.00000    0.00000   -0.00000   -0.00000
   0.00000    0.00000    0.00000   -0.00000   -0.00001
 prteigrs : prtvol=0 or 1, do not print more k-points.

 Eight components of 2nd-order total energy (hartree) are
 1,2,3: 0th-order hamiltonian combined with 1st-order wavefunctions
     kin0=   2.05008034E+01 eigvalue=   2.74746056E-01  local=  -1.09970609E+01
 4,5,6: 1st-order hamiltonian combined with 1st and 0th-order wfs
     kin1=  -4.46809927E+01  Hartree=   0.00000000E+00     xc=   0.00000000E+00
 7,8,9: eventually, occupation + non-local contributions
    edocc=   1.19879846E+01     enl0=   2.92599079E+00   enl1=  -4.70393505E+00
 1-9 gives the relaxation energy (to be shifted if some occ is /=2.0)
   erelax=  -2.46924639E+01
  No Ewald or frozen-wf contrib.: the relaxation energy is the total one
 2DEtotal=   -0.2469246389E+02 Ha. Also 2DEtotal=   -0.671916113322E+03 eV
    (  non-var. 2DEtotal :   -2.4692463889E+01 Ha)

 Perturbation wavevector (in red.coord.)   0.000000  0.000000  0.000000
 Perturbation : derivative vs k along direction   2
 The set of symmetries contains only one element for this perturbation.
 symkpt : not enough symmetry to change the number of k points.

[...]

 Perturbation wavevector (in red.coord.)   0.000000  0.000000  0.000000
 Perturbation : derivative vs k along direction   3
 The set of symmetries contains only one element for this perturbation.
 symkpt : not enough symmetry to change the number of k points.

-inwffil : will read wavefunctions from disk file /scratch/users/j/a/jabreu/flow_simple/flow/w169/t1/indata/in_WFK

 Initialisation of the first-order wave-functions :
  ireadwf=   0

--- !BeginCycle
iteration_state: {dtset: 1, }
solver: {iscf: 7, nstep: 100, nline: 4, wfoptalg: 0, }
tolerances: {tolwfr: 1.00E-20, }
...

     iter   2DEtotal(Ha)        deltaE(Ha) residm    vres2
-ETOT  1  -25.591168299641     -2.559E+01 1.372E-01 0.000E+00
 ETOT  2  -25.620834687019     -2.967E-02 3.169E-02 0.000E+00
 ETOT  3  -25.621670410686     -8.357E-04 6.689E-04 0.000E+00
 ETOT  4  -25.621707487539     -3.708E-05 1.363E-04 0.000E+00
 ETOT  5  -25.621709616022     -2.128E-06 4.313E-06 0.000E+00
 ETOT  6  -25.621709756624     -1.406E-07 9.442E-07 0.000E+00
 ETOT  7  -25.621709766883     -1.026E-08 2.895E-08 0.000E+00
 ETOT  8  -25.621709767673     -7.902E-10 6.946E-09 0.000E+00
 ETOT  9  -25.621709767736     -6.309E-11 2.008E-10 0.000E+00
 ETOT 10  -25.621709767741     -5.166E-12 5.237E-11 0.000E+00
 ETOT 11  -25.621709767741     -4.299E-13 1.461E-12 0.000E+00
 ETOT 12  -25.621709767741     -5.329E-14 4.008E-13 0.000E+00
 ETOT 13  -25.621709767741      2.132E-14 1.108E-14 0.000E+00
 ETOT 14  -25.621709767741     -7.105E-15 3.102E-15 0.000E+00
 ETOT 15  -25.621709767741      1.066E-14 8.593E-17 0.000E+00
 ETOT 16  -25.621709767741     -3.553E-15 2.420E-17 0.000E+00
 ETOT 17  -25.621709767741     -7.105E-15 6.730E-19 0.000E+00
 ETOT 18  -25.621709767741      2.132E-14 1.898E-19 0.000E+00
 ETOT 19  -25.621709767741     -1.421E-14 9.814E-21 0.000E+00

 At SCF step   19   max residual=  9.81E-21 < tolwfr=  1.00E-20 =>converged.

 ----iterations are completed or convergence reached----

 dfpt_looppert: DFPT cycle converged with prtwf=-1. Will skip output of the 1st-order WFK file.
 dfpt_looppert : ek2=    4.3224048793E+01
          f-sum rule ratio=    1.0735504364E+00
 prteigrs : about to open file /scratch/users/j/a/jabreu/flow_simple/flow/w169/t1/tmpdata/tmp_1WF1_EIG
 Expectation of eigenvalue derivatives (hartree) for nkpt=   2  k points:
  (in case of degenerate eigenvalues, averaged derivative)
 kpt#   1, nband= 21, wtk=  0.50000, kpt=  0.5000  0.0000  0.0000 (reduced coord)
  -0.00000    0.00000   -0.00000   -0.00000    0.00000   -0.00000   -0.00000   -0.00000
   0.00000    0.00000   -0.00000    0.00000   -0.00000   -0.00000   -0.00000    0.00000
   0.00000   -0.00000   -0.00000    0.00000   -0.00001
 prteigrs : prtvol=0 or 1, do not print more k-points.

 Eight components of 2nd-order total energy (hartree) are
 1,2,3: 0th-order hamiltonian combined with 1st-order wavefunctions
     kin0=   1.81981159E+01 eigvalue=   2.04334856E-01  local=  -9.21590025E+00
 4,5,6: 1st-order hamiltonian combined with 1st and 0th-order wfs
     kin1=  -4.64031964E+01  Hartree=   0.00000000E+00     xc=   0.00000000E+00
 7,8,9: eventually, occupation + non-local contributions
    edocc=   1.41689680E+01     enl0=   2.26619124E+00   enl1=  -4.84022309E+00
 1-9 gives the relaxation energy (to be shifted if some occ is /=2.0)
   erelax=  -2.56217098E+01
  No Ewald or frozen-wf contrib.: the relaxation energy is the total one
 2DEtotal=   -0.2562170977E+02 Ha. Also 2DEtotal=   -0.697202179640E+03 eV
    (  non-var. 2DEtotal :   -2.5621709768E+01 Ha)

 CALCULATION OF EFFECTIVE MASSES
 NOTE : Additional infos (eff. mass eigenvalues, eigenvectors and, if degenerate, average mass) are available in stdout.

 K-point ( 0.500,-0.000,-0.000) | band =    12
 Effective mass tensor:
             -2.3723473015             -0.5146892860              0.6834392924
             -0.5146892860             -3.4671693298              0.2345293929
              0.6834392924              0.2345293929             -2.0228212321
 Effective mass tensor eigenvalues:
             -3.8088862999             -2.5708984154             -1.4825531481
 Angular average effective mass 1/(<1/m>)=  -2.2624006240
 Angular average effective mass for Frohlich model (<m**0.5>)**2=  -2.3676481511
 Effective masses along directions: (cart. coord. / red. coord. -> eff. mass)
    1:   1.000000  0.000000  0.000000 /   0.909376  0.415974  0.000000 ->  -2.0863159594
    2:   0.000000  1.000000  0.000000 /   0.000000  1.000000  0.000000 ->  -3.3514310675
    3:   0.000000  0.000000  1.000000 /   0.541775  0.541775  0.642620 ->  -1.8237149390
    4:   0.577350  0.577350  0.577350 /   0.596264  0.676769  0.431802 ->  -1.9446625573
    5:   0.000000  0.707107  0.707107 /   0.453459  0.710687  0.537865 ->  -2.2859715858
    6:   0.707107  0.000000  0.707107 /   0.682556  0.538323  0.494293 ->  -1.4953696692
    7:   0.707107  0.707107  0.000000 /   0.596175  0.802854  0.000000 ->  -3.0471744526

 K-point ( 0.000, 0.000, 0.000) | band =    13
 Effective mass tensor:
              0.3460577356              0.0031013489              0.0174195545
              0.0031013489              0.3428670737              0.0106285084
              0.0174195545              0.0106285084              0.4006726478
 Effective mass tensor eigenvalues:
              0.3409747913              0.3409747915              0.4076478743
 Angular average effective mass 1/(<1/m>)=   0.3606361421
 Angular average effective mass for Frohlich model (<m**0.5>)**2=   0.3613789328
 Effective masses along directions: (cart. coord. / red. coord. -> eff. mass)
    1:   1.000000  0.000000  0.000000 /   0.909376  0.415974  0.000000 ->   0.3452800742
    2:   0.000000  1.000000  0.000000 /   0.000000  1.000000  0.000000 ->   0.3425649619
    3:   0.000000  0.000000  1.000000 /   0.541775  0.541775  0.642620 ->   0.3994759067
    4:   0.577350  0.577350  0.577350 /   0.596264  0.676769  0.431802 ->   0.3811734257
    5:   0.000000  0.707107  0.707107 /   0.453459  0.710687  0.537865 ->   0.3795424012
    6:   0.707107  0.000000  0.707107 /   0.682556  0.538323  0.494293 ->   0.3884374498
    7:   0.707107  0.707107  0.000000 /   0.596175  0.802854  0.000000 ->   0.3465766368

 END OF EFFECTIVE MASSES SECTION

 ---- first-order wavefunction calculations are completed ----

 Total localisation tensor (bohr^2) in cartesian coordinates
  WARNING : still subject to testing - especially symmetries.
      direction              matrix element
   alpha     beta       real part   imaginary part
     1        1       2.3462861052    0.0000000000
     1        2       0.8122708446    0.0000000000
     1        3       4.4550410091    0.0000000000
     2        1       0.8122708446    0.0000000000
     2        2       1.5790673959    0.0000000000
     2        3       2.7837007921    0.0000000000
     3        1       4.4550410091    0.0000000000
     3        2       2.7837007921    0.0000000000
     3        3      16.5508026498    0.0000000000

 respfn : d/dk was computed, but no 2DTE, so no DDB output.

== END DATASET(S) ==============================================================

 -outvars: echo values of variables after computation  --------
            acell      1.0000000000E+00  1.0000000000E+00  1.0000000000E+00 Bohr
              amu      1.32905430E+02  1.59994000E+01
             ecut      4.40000000E+01 Hartree
           etotal     -2.5621709768E+01
            fcart      0.0000000000E+00  0.0000000000E+00  0.0000000000E+00
                       0.0000000000E+00  0.0000000000E+00  0.0000000000E+00
                       0.0000000000E+00  0.0000000000E+00  0.0000000000E+00
-          fftalg         512
           irdden           1
           irdwfk           1
           istwfk        1    1
              ixc     -116133
              kpt      5.00000000E-01 -2.77555756E-17 -2.77555756E-17
                       0.00000000E+00  0.00000000E+00  0.00000000E+00
           kptopt           0
P           mkmem           2
P          mkqmem           2
P          mk1mem           2
            natom           3
            nband          21
           nbdbuf           4
            ngfft          90      90      90
             nkpt           2
            nstep         100
             nsym          12
           ntypat           2
              occ      2.000000  2.000000  2.000000  2.000000  2.000000  2.000000
                       2.000000  2.000000  2.000000  2.000000  2.000000  2.000000
                       0.000000  0.000000  0.000000  0.000000  0.000000  0.000000
                       0.000000  0.000000  0.000000
        optdriver           1
            prtwf          -1
            rfdir           1       1       1
           rfelfd           2
            rprim      7.4458701448E+00  0.0000000000E+00  1.1672386274E+01
                       3.4059476092E+00  6.6212161343E+00  1.1672386274E+01
                       0.0000000000E+00  0.0000000000E+00  1.3845056286E+01
          spgroup         166
           strten      0.0000000000E+00  0.0000000000E+00  0.0000000000E+00
                       0.0000000000E+00  0.0000000000E+00  0.0000000000E+00
           symrel      1  0  0   0  1  0   0  0  1      -1  0  0   0 -1  0   0  0 -1
                       0  1  0   1  0  0   0  0  1       0 -1  0  -1  0  0   0  0 -1
                       0  0  1   1  0  0   0  1  0       0  0 -1  -1  0  0   0 -1  0
                       1  0  0   0  0  1   0  1  0      -1  0  0   0  0 -1   0 -1  0
                       0  1  0   0  0  1   1  0  0       0 -1  0   0  0 -1  -1  0  0
                       0  0  1   0  1  0   1  0  0       0  0 -1   0 -1  0  -1  0  0
           tolwfr      1.00000000E-20
            typat      1  1  2
           useylm           1
              wtk        0.50000    0.50000
           xangst      4.2446633801E+00  2.5898733552E+00  1.4546715411E+01
                       1.4978712471E+00  9.1392331618E-01  5.1332943989E+00
                       0.0000000000E+00  0.0000000000E+00  0.0000000000E+00
            xcart      8.0212513147E+00  4.8941513603E+00  2.7489308261E+01
                       2.8305664393E+00  1.7270647740E+00  9.7005205735E+00
                       0.0000000000E+00  0.0000000000E+00  0.0000000000E+00
             xred      7.3916200000E-01  7.3916200000E-01  7.3916200000E-01
                       2.6083800000E-01  2.6083800000E-01  2.6083800000E-01
                       0.0000000000E+00  0.0000000000E+00  0.0000000000E+00
            znucl       55.00000    8.00000

- Timing analysis has been suppressed with timopt=0

 Suggested references for the acknowledgment of ABINIT usage.

 Calculation completed.
.Delivered  14 WARNINGs and   9 COMMENTs to log file.