.Version 9.5.1 of ABINIT

 ABINIT is a project of the Universite Catholique de Louvain,
 Corning Inc. and other collaborators, see ~abinit/doc/developers/contributors.txt .
 acknowledgments of the ABINIT effort.

.Starting date : Wed 19 May 2021.
- ( at 15h33 )

- input  file    -> /scratch/users/j/a/jabreu/flow_simple_9atoms/flow/w178/t1/run.abi
- output file    -> /scratch/users/j/a/jabreu/flow_simple_9atoms/flow/w178/t1/run.abo
- root for input  files -> /scratch/users/j/a/jabreu/flow_simple_9atoms/flow/w178/t1/indata/in
- root for output files -> /scratch/users/j/a/jabreu/flow_simple_9atoms/flow/w178/t1/outdata/out

 Symmetries : space group P-3 1 m (#162); Bravais hP (primitive hexag.)
     intxc =       0      iscf =       7    lmnmax =      18     lnmax =       6
     mgfft =      90  mpssoang =       3    mqgrid =    3563     natom =       9
  nloc_mem =       1    nspden =       1   nspinor =       1    nsppol =       1
      nsym =      12    n1xccc =    2501    ntypat =       3    occopt =       1
   xclevel =       2
-    mband =          45        mffmem =           1         mkmem =           2
-   mkqmem =           2        mk1mem =           2           mpw =       26936
      nfft =      583200          nkpt =           2
  Rough estimation (10% accuracy) of disk space for files :

------------- Echo of variables that govern the present computation ------------
-
- outvars: echo of selected default values
-   iomode0 =  0 , fftalg0 =512 , wfoptalg0 =  0
-
- outvars: echo of global parameters not present in the input file
-  max_nthreads =    0
-
 -outvars: echo values of preprocessed input variables --------
            acell      1.0000000000E+00  1.0000000000E+00  1.0000000000E+00 Bohr
              amu      8.76200000E+01  4.00780000E+01  1.26904470E+02
             ecut      3.60000000E+01 Hartree
-          fftalg         512
           irdden           1
           irdwfk           1
           istwfk        1    1
              ixc     -116133
              kpt      0.00000000E+00  0.00000000E+00  0.00000000E+00
                       5.00000000E-01  0.00000000E+00  0.00000000E+00
           kptopt           0
P           mkmem           2
P          mkqmem           2
P          mk1mem           2
            natom           9
            nband          45
           nbdbuf           4
            ngfft          90      90      72
             nkpt           2
            nstep        2000
             nsym          12
           ntypat           3
              occ      2.000000  2.000000  2.000000  2.000000  2.000000  2.000000
                       2.000000  2.000000  2.000000  2.000000  2.000000  2.000000
                       2.000000  2.000000  2.000000  2.000000  2.000000  2.000000
                       2.000000  2.000000  2.000000  2.000000  2.000000  2.000000
                       2.000000  2.000000  2.000000  2.000000  2.000000  2.000000
                       2.000000  2.000000  2.000000  2.000000  2.000000  2.000000
                       0.000000  0.000000  0.000000  0.000000  0.000000  0.000000
                       0.000000  0.000000  0.000000
        optdriver           1
            prtwf          -1
            rfdir           1       1       1
           rfelfd           2
            rprim      1.5109723294E+01  0.0000000000E+00  0.0000000000E+00
                      -7.5548616468E+00  1.3085404216E+01  0.0000000000E+00
                       0.0000000000E+00  0.0000000000E+00  1.3189231483E+01
          spgroup         162
           symrel      1  0  0   0  1  0   0  0  1      -1  0  0   0 -1  0   0  0 -1
                       0  1  0   1  0  0   0  0  1       0 -1  0  -1  0  0   0  0 -1
                       0  1  0  -1 -1  0   0  0  1       0 -1  0   1  1  0   0  0 -1
                      -1 -1  0   0  1  0   0  0  1       1  1  0   0 -1  0   0  0 -1
                      -1 -1  0   1  0  0   0  0  1       1  1  0  -1  0  0   0  0 -1
                       1  0  0  -1 -1  0   0  0  1      -1  0  0   1  1  0   0  0 -1
           tolwfr      1.00000000E-20
            typat      1  1  2  3  3  3  3  3  3
           useylm           1
              wtk        0.50000    0.50000
           xangst      3.9978605975E+00  2.3081658922E+00  3.4897203498E+00
                       0.0000000000E+00  4.6163317843E+00  3.4897203498E+00
                       0.0000000000E+00  0.0000000000E+00  0.0000000000E+00
                      -2.6775111652E+00  4.6375853759E+00  1.6662367754E+00
                      -1.3203494324E+00  2.2869123006E+00  5.3132039241E+00
                       5.3550223303E+00  0.0000000000E+00  1.6662367754E+00
                       2.6406988648E+00  0.0000000000E+00  5.3132039241E+00
                       2.6775111652E+00  4.6375853759E+00  5.3132039241E+00
                       1.3203494324E+00  2.2869123006E+00  1.6662367754E+00
            xcart      7.5548616468E+00  4.3618014055E+00  6.5946157414E+00
                       0.0000000000E+00  8.7236028109E+00  6.5946157414E+00
                       0.0000000000E+00  0.0000000000E+00  0.0000000000E+00
                      -5.0597628199E+00  8.7637662783E+00  3.1487311780E+00
                      -2.4950988269E+00  4.3216379381E+00  1.0040500305E+01
                       1.0119525640E+01  0.0000000000E+00  3.1487311780E+00
                       4.9901976538E+00  0.0000000000E+00  1.0040500305E+01
                       5.0597628199E+00  8.7637662783E+00  1.0040500305E+01
                       2.4950988269E+00  4.3216379381E+00  3.1487311780E+00
             xred      6.6666666667E-01  3.3333333333E-01  5.0000000000E-01
                       3.3333333333E-01  6.6666666667E-01  5.0000000000E-01
                       0.0000000000E+00  0.0000000000E+00  0.0000000000E+00
                       0.0000000000E+00  6.6973600000E-01  2.3873500000E-01
                       0.0000000000E+00  3.3026400000E-01  7.6126500000E-01
                       6.6973600000E-01  0.0000000000E+00  2.3873500000E-01
                       3.3026400000E-01  0.0000000000E+00  7.6126500000E-01
                       6.6973600000E-01  6.6973600000E-01  7.6126500000E-01
                       3.3026400000E-01  3.3026400000E-01  2.3873500000E-01
            znucl       38.00000   20.00000   53.00000

 chkinp: Checking input parameters for consistency.

== DATASET  1 ==================================================================
-   mpi_nproc: 1, omp_nthreads: -1 (-1 if OMP is not activated)

--- !DatasetInfo
iteration_state: {dtset: 1, }
dimensions: {natom: 9, nkpt: 2, mband: 45, nsppol: 1, nspinor: 1, nspden: 1, mpw: 26936, }
cutoff_energies: {ecut:  36.0, pawecutdg:  -1.0, }
electrons: {nelect:   7.20000000E+01, charge:   0.00000000E+00, occopt:   1.00000000E+00, tsmear:   1.00000000E-02, }
meta: {optdriver: 1, rfelfd: 2, }
...

 Real(R)+Recip(G) space primitive vectors, cartesian coordinates (Bohr,Bohr^-1):
 R(1)= 15.1097233  0.0000000  0.0000000  G(1)=  0.0661825  0.0382105  0.0000000
 R(2)= -7.5548616 13.0854042  0.0000000  G(2)=  0.0000000  0.0764210  0.0000000
 R(3)=  0.0000000  0.0000000 13.1892315  G(3)=  0.0000000  0.0000000  0.0758194
 Unit cell volume ucvol=  2.6077331E+03 bohr^3
 Angles (23,13,12)=  9.00000000E+01  9.00000000E+01  1.20000000E+02 degrees

 getcut: wavevector=  0.0000  0.0000  0.0000  ngfft=  90  90  72
         ecut(hartree)=     36.000   => boxcut(ratio)=   2.02114

--- Pseudopotential description ------------------------------------------------
- pspini: atom type   1  psp file is /scratch/users/j/a/jabreu/pseudos/PBEsol/Sr.psp8
- pspatm: opening atomic psp file    /scratch/users/j/a/jabreu/pseudos/PBEsol/Sr.psp8
- Sr    ONCVPSP-3.3.0  r_core=   1.66721   1.31335   1.51547
- 38.00000  10.00000    180112                znucl, zion, pspdat
    8 -116133    2    4       600   0.00000   pspcod,pspxc,lmax,lloc,mmax,r2well
    5.99000000000000    6.00000000000000    0.00000000000000   rchrg,fchrg,qchrg
     nproj     2     2     2
     extension_switch     1
  pspatm : epsatm=   12.46450977
         --- l  ekb(1:nproj) -->
             0   10.029206    1.044171
             1    7.472414    1.670829
             2    4.142950    0.968140
 pspatm: atomic psp has been read  and splines computed

- pspini: atom type   2  psp file is /scratch/users/j/a/jabreu/pseudos/PBEsol/Ca.psp8
- pspatm: opening atomic psp file    /scratch/users/j/a/jabreu/pseudos/PBEsol/Ca.psp8
- Ca    ONCVPSP-3.3.0  r_core=   1.45885   1.45885   1.85192
- 20.00000  10.00000    180112                znucl, zion, pspdat
    8 -116133    2    4       400   0.00000   pspcod,pspxc,lmax,lloc,mmax,r2well
    3.99000000000000    6.00000000000000    0.00000000000000   rchrg,fchrg,qchrg
     nproj     2     2     2
     extension_switch     1
  pspatm : epsatm=   12.46045226
         --- l  ekb(1:nproj) -->
             0   10.054847    0.973777
             1    2.998958    0.458102
             2   -3.447298   -1.091650
 pspatm: atomic psp has been read  and splines computed

- pspini: atom type   3  psp file is /scratch/users/j/a/jabreu/pseudos/PBEsol/I.psp8
- pspatm: opening atomic psp file    /scratch/users/j/a/jabreu/pseudos/PBEsol/I.psp8
- I     ONCVPSP-3.3.0  r_core=   2.02042   2.17032   2.27639
- 53.00000   7.00000    180112                znucl, zion, pspdat
    8 -116133    2    4       600   0.00000   pspcod,pspxc,lmax,lloc,mmax,r2well
    5.99000000000000    4.00000000000000    0.00000000000000   rchrg,fchrg,qchrg
     nproj     2     2     2
     extension_switch     1
  pspatm : epsatm=   18.14229533
         --- l  ekb(1:nproj) -->
             0    6.015861    0.935228
             1    4.063749    0.754139
             2    4.149534    0.722940
 pspatm: atomic psp has been read  and splines computed

   1.05295136E+04                                ecore*ucvol(ha*bohr**3)

-inwffil : will read wavefunctions from disk file /scratch/users/j/a/jabreu/flow_simple_9atoms/flow/w178/t1/indata/in_WFK

 ==>  initialize data related to q vector <==

 The list of irreducible perturbations for this q vector is:
    1)    idir= 1    ipert=  10
    2)    idir= 2    ipert=  10
    3)    idir= 3    ipert=  10

 Perturbation wavevector (in red.coord.)   0.000000  0.000000  0.000000
 Perturbation : derivative vs k along direction   1

 dfpt_looppert : COMMENT -
  In a d/dk calculation, iscf is set to -3 automatically.
 The set of symmetries contains only one element for this perturbation.
 symkpt : not enough symmetry to change the number of k points.

[...]

 Initialisation of the first-order wave-functions :
  ireadwf=   0

--- !BeginCycle
iteration_state: {dtset: 1, }
solver: {iscf: 7, nstep: 2000, nline: 4, wfoptalg: 0, }
tolerances: {tolwfr: 1.00E-20, }
...

     iter   2DEtotal(Ha)        deltaE(Ha) residm    vres2
-ETOT  1  -18.224038235903     -1.822E+01 3.405E-02 0.000E+00
 ETOT  2  -18.269233568372     -4.520E-02 6.351E-03 0.000E+00
 ETOT  3  -18.269843326983     -6.098E-04 4.388E-04 0.000E+00
 ETOT  4  -18.269859308029     -1.598E-05 2.237E-04 0.000E+00
 ETOT  5  -18.269859854205     -5.462E-07 3.153E-05 0.000E+00
 ETOT  6  -18.269859875436     -2.123E-08 1.093E-05 0.000E+00
[...]
 Expectation of eigenvalue derivatives (hartree) for nkpt=   2  k points:
  (in case of degenerate eigenvalues, averaged derivative)
 kpt#   1, nband= 45, wtk=  0.50000, kpt=  0.0000  0.0000  0.0000 (reduced coord)
   0.00000    0.00000    0.00000    0.00000    0.00000   -0.00000   -0.00000   -0.00000
  -0.00000    0.00000    0.00000    0.00000   -0.00000   -0.00000   -0.00000   -0.00000
  -0.00000   -0.00000   -0.00000    0.00000    0.00000    0.00000    0.00000   -0.00000
  -0.00000   -0.00000   -0.00000   -0.00000    0.00000    0.00000    0.00000   -0.00000
  -0.00000   -0.00000   -0.00000    0.00000   -0.00000    0.00000    0.00000    0.00000
   0.00000    0.00000    0.00000    0.00000    0.01029
 prteigrs : prtvol=0 or 1, do not print more k-points.

 Eight components of 2nd-order total energy (hartree) are
 1,2,3: 0th-order hamiltonian combined with 1st-order wavefunctions
     kin0=   2.58185140E+01 eigvalue=   1.83154953E+00  local=  -1.86131231E+01
 4,5,6: 1st-order hamiltonian combined with 1st and 0th-order wfs
     kin1=  -3.37406977E+01  Hartree=   0.00000000E+00     xc=   0.00000000E+00
 7,8,9: eventually, occupation + non-local contributions
    edocc=   4.60102507E+00     enl0=   4.63189434E+00   enl1=  -2.79902204E+00
 1-9 gives the relaxation energy (to be shifted if some occ is /=2.0)
   erelax=  -1.82698599E+01
  No Ewald or frozen-wf contrib.: the relaxation energy is the total one
 2DEtotal=   -0.1826985988E+02 Ha. Also 2DEtotal=   -0.497148170164E+03 eV
    (  non-var. 2DEtotal :   -1.8269859876E+01 Ha)

 Perturbation wavevector (in red.coord.)   0.000000  0.000000  0.000000
 Perturbation : derivative vs k along direction   2
 The set of symmetries contains only one element for this perturbation.
 symkpt : not enough symmetry to change the number of k points.

[...]

 Perturbation wavevector (in red.coord.)   0.000000  0.000000  0.000000
 Perturbation : derivative vs k along direction   3
 The set of symmetries contains only one element for this perturbation.
 symkpt : not enough symmetry to change the number of k points.

-inwffil : will read wavefunctions from disk file /scratch/users/j/a/jabreu/flow_simple_9atoms/flow/w178/t1/indata/in_WFK

 Initialisation of the first-order wave-functions :
  ireadwf=   0

--- !BeginCycle
iteration_state: {dtset: 1, }
solver: {iscf: 7, nstep: 2000, nline: 4, wfoptalg: 0, }
tolerances: {tolwfr: 1.00E-20, }
...

     iter   2DEtotal(Ha)        deltaE(Ha) residm    vres2
-ETOT  1  -17.780364242685     -1.778E+01 3.368E-02 0.000E+00
 ETOT  2  -17.822323751188     -4.196E-02 4.992E-03 0.000E+00
 ETOT  3  -17.822795693692     -4.719E-04 6.011E-04 0.000E+00
 ETOT  4  -17.822805727093     -1.003E-05 1.453E-04 0.000E+00
 ETOT  5  -17.822806029247     -3.022E-07 2.137E-05 0.000E+00
 ETOT  6  -17.822806040091     -1.084E-08 9.411E-06 0.000E+00
 ETOT  7  -17.822806040515     -4.235E-10 1.840E-06 0.000E+00
 ETOT  8  -17.822806040532     -1.733E-11 1.400E-06 0.000E+00
 ETOT  9  -17.822806040533     -7.390E-13 2.840E-07 0.000E+00
 ETOT 10  -17.822806040533     -4.619E-14 2.200E-07 0.000E+00
 ETOT 11  -17.822806040533      1.066E-14 4.630E-08 0.000E+00
 ETOT 12  -17.822806040533      1.066E-14 3.637E-08 0.000E+00
 ETOT 13  -17.822806040533     -3.553E-15 7.899E-09 0.000E+00
 ETOT 14  -17.822806040533      0.000E+00 6.274E-09 0.000E+00
 ETOT 15  -17.822806040533     -7.105E-15 1.400E-09 0.000E+00
 ETOT 16  -17.822806040533      0.000E+00 1.122E-09 0.000E+00
 ETOT 17  -17.822806040533      3.553E-15 2.556E-10 0.000E+00
 ETOT 18  -17.822806040533      0.000E+00 2.063E-10 0.000E+00
 ETOT 19  -17.822806040533     -7.105E-15 4.773E-11 0.000E+00
 ETOT 20  -17.822806040533      0.000E+00 3.872E-11 0.000E+00
 ETOT 21  -17.822806040533     -3.553E-15 9.050E-12 0.000E+00
 ETOT 22  -17.822806040533      0.000E+00 7.369E-12 0.000E+00
 ETOT 23  -17.822806040533      7.105E-15 1.734E-12 0.000E+00
 ETOT 24  -17.822806040533      0.000E+00 1.415E-12 0.000E+00
 ETOT 25  -17.822806040533      0.000E+00 3.344E-13 0.000E+00
 ETOT 26  -17.822806040533      3.553E-15 2.735E-13 0.000E+00
 ETOT 27  -17.822806040533      0.000E+00 6.477E-14 0.000E+00
 ETOT 28  -17.822806040533     -3.553E-15 5.307E-14 0.000E+00
 ETOT 29  -17.822806040533      3.553E-15 1.258E-14 0.000E+00
 ETOT 30  -17.822806040533      3.553E-15 1.032E-14 0.000E+00
 ETOT 31  -17.822806040533     -3.553E-15 2.450E-15 0.000E+00
 ETOT 32  -17.822806040533      0.000E+00 2.012E-15 0.000E+00
 ETOT 33  -17.822806040533      0.000E+00 4.775E-16 0.000E+00
 ETOT 34  -17.822806040533      7.105E-15 3.925E-16 0.000E+00
 ETOT 35  -17.822806040533     -1.066E-14 9.316E-17 0.000E+00
 ETOT 36  -17.822806040533      1.421E-14 7.665E-17 0.000E+00
 ETOT 37  -17.822806040533     -3.553E-15 1.819E-17 0.000E+00
 ETOT 38  -17.822806040533      0.000E+00 1.498E-17 0.000E+00
 ETOT 39  -17.822806040533     -7.105E-15 3.553E-18 0.000E+00
 ETOT 40  -17.822806040533      3.553E-15 2.928E-18 0.000E+00
 ETOT 41  -17.822806040533      7.105E-15 6.943E-19 0.000E+00
 ETOT 42  -17.822806040533     -7.105E-15 5.726E-19 0.000E+00
 ETOT 43  -17.822806040533      3.553E-15 1.357E-19 0.000E+00
 ETOT 44  -17.822806040533      0.000E+00 1.120E-19 0.000E+00
 ETOT 45  -17.822806040533      3.553E-15 2.654E-20 0.000E+00
 ETOT 46  -17.822806040533     -3.553E-15 2.191E-20 0.000E+00
 ETOT 47  -17.822806040533     -3.553E-15 9.995E-21 0.000E+00

 At SCF step   47   max residual=  9.99E-21 < tolwfr=  1.00E-20 =>converged.

 ----iterations are completed or convergence reached----

 dfpt_looppert: DFPT cycle converged with prtwf=-1. Will skip output of the 1st-order WFK file.
 dfpt_looppert : ek2=    3.2680090283E+01
          f-sum rule ratio=    1.0070964428E+00
 prteigrs : about to open file /scratch/users/j/a/jabreu/flow_simple_9atoms/flow/w178/t1/tmpdata/tmp_1WF1_EIG
 Expectation of eigenvalue derivatives (hartree) for nkpt=   2  k points:
  (in case of degenerate eigenvalues, averaged derivative)
 kpt#   1, nband= 45, wtk=  0.50000, kpt=  0.0000  0.0000  0.0000 (reduced coord)
  -0.00000   -0.00000    0.00000   -0.00000   -0.00000    0.00000    0.00000    0.00000
   0.00000    0.00000    0.00000   -0.00000   -0.00000    0.00000    0.00000    0.00000
   0.00000    0.00000    0.00000   -0.00000    0.00000    0.00000   -0.00000   -0.00000
  -0.00000   -0.00000   -0.00000    0.00000    0.00000    0.00000   -0.00000   -0.00000
  -0.00000    0.00000    0.00000   -0.00000   -0.00000   -0.00000    0.00000    0.00000
   0.00000    0.00000   -0.00000    0.00003   -0.00001
 prteigrs : prtvol=0 or 1, do not print more k-points.

 Eight components of 2nd-order total energy (hartree) are
 1,2,3: 0th-order hamiltonian combined with 1st-order wavefunctions
     kin0=   2.56447034E+01 eigvalue=   1.79915323E+00  local=  -1.83477302E+01
 4,5,6: 1st-order hamiltonian combined with 1st and 0th-order wfs
     kin1=  -3.29120027E+01  Hartree=   0.00000000E+00     xc=   0.00000000E+00
 7,8,9: eventually, occupation + non-local contributions
    edocc=   4.04465133E+00     enl0=   4.68202832E+00   enl1=  -2.73360941E+00
 1-9 gives the relaxation energy (to be shifted if some occ is /=2.0)
   erelax=  -1.78228060E+01
  No Ewald or frozen-wf contrib.: the relaxation energy is the total one
 2DEtotal=   -0.1782280604E+02 Ha. Also 2DEtotal=   -0.484983216631E+03 eV
    (  non-var. 2DEtotal :   -1.7822806040E+01 Ha)

 CALCULATION OF EFFECTIVE MASSES
 NOTE : Additional infos (eff. mass eigenvalues, eigenvectors and, if degenerate, average mass) are available in stdout.

 K-point ( 0.000, 0.000, 0.000) | band =    36
 Effective mass tensor:
             -1.6070141825             -0.0000001663             -0.0000005365
             -0.0000001663             -1.6070140450              0.0000028744
             -0.0000005365              0.0000028744             -0.3216059226
 Effective mass tensor eigenvalues:
             -1.6070142937             -1.6070139338             -0.3216059226
 Angular average effective mass 1/(<1/m>)=  -0.6890311454
 Angular average effective mass for Frohlich model (<m**0.5>)**2=  -0.8375394057
 Effective masses along directions: (cart. coord. / red. coord. -> eff. mass)
    1:   1.000000  0.000000  0.000000 /   0.894427 -0.447214  0.000000 ->  -1.6070141825
    2:   0.000000  1.000000  0.000000 /   0.000000  1.000000  0.000000 ->  -1.6070140450
    3:   0.000000  0.000000  1.000000 /   0.000000  0.000000  1.000000 ->  -0.3216059226
    4:   0.577350  0.577350  0.577350 /   0.726256  0.265828  0.633946 ->  -0.6890297340
    5:   0.000000  0.707107  0.707107 /   0.000000  0.704307  0.709895 ->  -0.5359518232
    6:   0.707107  0.000000  0.707107 /   0.705004 -0.352502  0.615396 ->  -0.5359537266
    7:   0.707107  0.707107  0.000000 /   0.939071  0.343724  0.000000 ->  -1.6070142800

 K-point ( 0.500, 0.000, 0.000) | band =    37
 Effective mass tensor:
              0.5244190611             -0.2773632446             -0.1252264588
             -0.2773632446              0.8446905491              0.2168985886
             -0.1252264588              0.2168985886              0.9886746822
 Effective mass tensor eigenvalues:
              0.3642833172              0.7461674028              1.2473335723
 Angular average effective mass 1/(<1/m>)=   0.6138725245
 Angular average effective mass for Frohlich model (<m**0.5>)**2=   0.6628289938
 Effective masses along directions: (cart. coord. / red. coord. -> eff. mass)
    1:   1.000000  0.000000  0.000000 /   0.894427 -0.447214  0.000000 ->   0.4302177477
    2:   0.000000  1.000000  0.000000 /   0.000000  1.000000  0.000000 ->   0.6743175573
    3:   0.000000  0.000000  1.000000 /   0.000000  0.000000  1.000000 ->   0.9262493016
    4:   0.577350  0.577350  0.577350 /   0.726256  0.265828  0.633946 ->   0.4880108370
    5:   0.000000  0.707107  0.707107 /   0.000000  0.704307  0.709895 ->   0.9539636913
    6:   0.707107  0.000000  0.707107 /   0.705004 -0.352502  0.615396 ->   0.5444957477
    7:   0.707107  0.707107  0.000000 /   0.939071  0.343724  0.000000 ->   0.3798833927

 END OF EFFECTIVE MASSES SECTION

 ---- first-order wavefunction calculations are completed ----

 Total localisation tensor (bohr^2) in cartesian coordinates
  WARNING : still subject to testing - especially symmetries.
      direction              matrix element
   alpha     beta       real part   imaginary part
     1        1       2.4126056818    0.0000000000
     1        2      -0.8424797796    0.0000000000
     1        3       0.0000000000    0.0000000000
     2        1      -0.8424797796    0.0000000000
     2        2       1.4592177826    0.0000000000
     2        3       0.0000000000    0.0000000000
     3        1       0.0000000000    0.0000000000
     3        2       0.0000000000    0.0000000000
     3        3       1.3998261218    0.0000000000

 respfn : d/dk was computed, but no 2DTE, so no DDB output.

== END DATASET(S) ==============================================================

 -outvars: echo values of variables after computation  --------
            acell      1.0000000000E+00  1.0000000000E+00  1.0000000000E+00 Bohr
              amu      8.76200000E+01  4.00780000E+01  1.26904470E+02
             ecut      3.60000000E+01 Hartree
           etotal     -1.7822806041E+01
            fcart      0.0000000000E+00  0.0000000000E+00  0.0000000000E+00
                       0.0000000000E+00  0.0000000000E+00  0.0000000000E+00
                       0.0000000000E+00  0.0000000000E+00  0.0000000000E+00
                       0.0000000000E+00  0.0000000000E+00  0.0000000000E+00
                       0.0000000000E+00  0.0000000000E+00  0.0000000000E+00
                       0.0000000000E+00  0.0000000000E+00  0.0000000000E+00
                       0.0000000000E+00  0.0000000000E+00  0.0000000000E+00
                       0.0000000000E+00  0.0000000000E+00  0.0000000000E+00
                       0.0000000000E+00  0.0000000000E+00  0.0000000000E+00
-          fftalg         512
           irdden           1
           irdwfk           1
           istwfk        1    1
              ixc     -116133
              kpt      0.00000000E+00  0.00000000E+00  0.00000000E+00
                       5.00000000E-01  0.00000000E+00  0.00000000E+00
           kptopt           0
P           mkmem           2
P          mkqmem           2
P          mk1mem           2
            natom           9
            nband          45
           nbdbuf           4
            ngfft          90      90      72
             nkpt           2
            nstep        2000
             nsym          12
           ntypat           3
              occ      2.000000  2.000000  2.000000  2.000000  2.000000  2.000000
                       2.000000  2.000000  2.000000  2.000000  2.000000  2.000000
                       2.000000  2.000000  2.000000  2.000000  2.000000  2.000000
                       2.000000  2.000000  2.000000  2.000000  2.000000  2.000000
                       2.000000  2.000000  2.000000  2.000000  2.000000  2.000000
                       2.000000  2.000000  2.000000  2.000000  2.000000  2.000000
                       0.000000  0.000000  0.000000  0.000000  0.000000  0.000000
                       0.000000  0.000000  0.000000
        optdriver           1
            prtwf          -1
            rfdir           1       1       1
           rfelfd           2
            rprim      1.5109723294E+01  0.0000000000E+00  0.0000000000E+00
                      -7.5548616468E+00  1.3085404216E+01  0.0000000000E+00
                       0.0000000000E+00  0.0000000000E+00  1.3189231483E+01
          spgroup         162
           strten      0.0000000000E+00  0.0000000000E+00  0.0000000000E+00
                       0.0000000000E+00  0.0000000000E+00  0.0000000000E+00
           symrel      1  0  0   0  1  0   0  0  1      -1  0  0   0 -1  0   0  0 -1
                       0  1  0   1  0  0   0  0  1       0 -1  0  -1  0  0   0  0 -1
                       0  1  0  -1 -1  0   0  0  1       0 -1  0   1  1  0   0  0 -1
                      -1 -1  0   0  1  0   0  0  1       1  1  0   0 -1  0   0  0 -1
                      -1 -1  0   1  0  0   0  0  1       1  1  0  -1  0  0   0  0 -1
                       1  0  0  -1 -1  0   0  0  1      -1  0  0   1  1  0   0  0 -1
           tolwfr      1.00000000E-20
            typat      1  1  2  3  3  3  3  3  3
           useylm           1
              wtk        0.50000    0.50000
           xangst      3.9978605975E+00  2.3081658922E+00  3.4897203498E+00
                       0.0000000000E+00  4.6163317843E+00  3.4897203498E+00
                       0.0000000000E+00  0.0000000000E+00  0.0000000000E+00
                      -2.6775111652E+00  4.6375853759E+00  1.6662367754E+00
                      -1.3203494324E+00  2.2869123006E+00  5.3132039241E+00
                       5.3550223303E+00  0.0000000000E+00  1.6662367754E+00
                       2.6406988648E+00  0.0000000000E+00  5.3132039241E+00
                       2.6775111652E+00  4.6375853759E+00  5.3132039241E+00
                       1.3203494324E+00  2.2869123006E+00  1.6662367754E+00
            xcart      7.5548616468E+00  4.3618014055E+00  6.5946157414E+00
                       0.0000000000E+00  8.7236028109E+00  6.5946157414E+00
                       0.0000000000E+00  0.0000000000E+00  0.0000000000E+00
                      -5.0597628199E+00  8.7637662783E+00  3.1487311780E+00
                      -2.4950988269E+00  4.3216379381E+00  1.0040500305E+01
                       1.0119525640E+01  0.0000000000E+00  3.1487311780E+00
                       4.9901976538E+00  0.0000000000E+00  1.0040500305E+01
                       5.0597628199E+00  8.7637662783E+00  1.0040500305E+01
                       2.4950988269E+00  4.3216379381E+00  3.1487311780E+00
             xred      6.6666666667E-01  3.3333333333E-01  5.0000000000E-01
                       3.3333333333E-01  6.6666666667E-01  5.0000000000E-01
                       0.0000000000E+00  0.0000000000E+00  0.0000000000E+00
                       0.0000000000E+00  6.6973600000E-01  2.3873500000E-01
                       0.0000000000E+00  3.3026400000E-01  7.6126500000E-01
                       6.6973600000E-01  0.0000000000E+00  2.3873500000E-01
                       3.3026400000E-01  0.0000000000E+00  7.6126500000E-01
                       6.6973600000E-01  6.6973600000E-01  7.6126500000E-01
                       3.3026400000E-01  3.3026400000E-01  2.3873500000E-01
            znucl       38.00000   20.00000   53.00000

- Timing analysis has been suppressed with timopt=0

 Suggested references for the acknowledgment of ABINIT usage.

 Calculation completed.
.Delivered  14 WARNINGs and  11 COMMENTs to log file.