.Version 9.5.1 of ABINIT

 ABINIT is a project of the Universite Catholique de Louvain,
 Corning Inc. and other collaborators, see ~abinit/doc/developers/contributors.txt .
 acknowledgments of the ABINIT effort.

.Starting date : Wed 19 May 2021.
- ( at 03h14 )

- input  file    -> /scratch/users/j/a/jabreu/flow_simple_8atoms/flow/w487/t1/run.abi
- output file    -> /scratch/users/j/a/jabreu/flow_simple_8atoms/flow/w487/t1/run.abo
- root for input  files -> /scratch/users/j/a/jabreu/flow_simple_8atoms/flow/w487/t1/indata/in
- root for output files -> /scratch/users/j/a/jabreu/flow_simple_8atoms/flow/w487/t1/outdata/out

 Symmetries : space group Cm c m (# 63); Bravais oC (1-face-center ortho.)
     intxc =       0      iscf =       7    lmnmax =      18     lnmax =       6
     mgfft =      72  mpssoang =       3    mqgrid =    3357     natom =       8
  nloc_mem =       1    nspden =       1   nspinor =       1    nsppol =       1
      nsym =       8    n1xccc =    2501    ntypat =       3    occopt =       1
   xclevel =       2
-    mband =          61        mffmem =           1         mkmem =           2
-   mkqmem =           2        mk1mem =           2           mpw =       19251
      nfft =      373248          nkpt =           2
  Rough estimation (10% accuracy) of disk space for files :

------------- Echo of variables that govern the present computation ------------
-
- outvars: echo of selected default values
-   iomode0 =  0 , fftalg0 =512 , wfoptalg0 =  0
-
- outvars: echo of global parameters not present in the input file
-  max_nthreads =    0
-
 -outvars: echo values of preprocessed input variables --------
            acell      1.0000000000E+00  1.0000000000E+00  1.0000000000E+00 Bohr
              amu      2.29897680E+01  1.07868200E+02  1.21753000E+02
             ecut      4.40000000E+01 Hartree
-          fftalg         512
           irdden           1
           irdwfk           1
           istwfk        0    1
              ixc     -116133
              kpt     -5.00000000E-01  5.00000000E-01  0.00000000E+00
                       0.00000000E+00  0.00000000E+00  0.00000000E+00
           kptopt           0
P           mkmem           2
P          mkqmem           2
P          mk1mem           2
            natom           8
            nband          61
           nbdbuf           4
            ngfft          72      72      72
             nkpt           2
            nstep        2000
             nsym           8
           ntypat           3
              occ      2.000000  2.000000  2.000000  2.000000  2.000000  2.000000
                       2.000000  2.000000  2.000000  2.000000  2.000000  2.000000
                       2.000000  2.000000  2.000000  2.000000  2.000000  2.000000
                       2.000000  2.000000  2.000000  2.000000  2.000000  2.000000
                       2.000000  2.000000  2.000000  2.000000  2.000000  2.000000
                       2.000000  2.000000  2.000000  2.000000  2.000000  2.000000
                       2.000000  2.000000  2.000000  2.000000  2.000000  2.000000
                       2.000000  2.000000  2.000000  2.000000  2.000000  2.000000
                       2.000000  2.000000  2.000000  2.000000  0.000000  0.000000
                       0.000000  0.000000  0.000000  0.000000  0.000000  0.000000
                       0.000000
        optdriver           1
            prtwf          -1
            rfdir           1       1       1
           rfelfd           2
            rprim      1.1407030623E+01  0.0000000000E+00  0.0000000000E+00
                      -1.9440600896E+00  1.1240150266E+01  0.0000000000E+00
                       0.0000000000E+00  0.0000000000E+00  1.0779772414E+01
          spgroup          63
           symrel      1  0  0   0  1  0   0  0  1      -1  0  0   0 -1  0   0  0 -1
                       0 -1  0  -1  0  0   0  0 -1       0  1  0   1  0  0   0  0  1
                      -1  0  0   0 -1  0   0  0  1       1  0  0   0  1  0   0  0 -1
                       0  1  0   1  0  0   0  0 -1       0 -1  0  -1  0  0   0  0  1
            tnons      0.0000000  0.0000000  0.0000000    -0.0000000  0.0000000  0.0000000
                       0.0000000  0.0000000  0.0000000    -0.0000000  0.0000000  0.0000000
                      -0.0000000  0.0000000  0.5000000     0.0000000  0.0000000  0.5000000
                      -0.0000000  0.0000000  0.5000000     0.0000000  0.0000000  0.5000000
           tolwfr      1.00000000E-20
            typat      1  1  1  1  2  2  3  3
           useylm           1
              wtk        0.50000    0.50000
           xangst      5.5354389830E+00  1.9680251302E+00  4.2783074063E+00
                      -5.2785065098E-01  3.9800062119E+00  1.4261024688E+00
                       9.9584831152E-01  5.7898612927E+00  4.2783074063E+00
                       4.0117400205E+00  1.5817004945E-01  1.4261024688E+00
                       2.5037941660E+00  2.9740156711E+00  0.0000000000E+00
                       2.5037941660E+00  2.9740156711E+00  2.8522049375E+00
                       3.9711427370E+00  4.7169375551E+00  4.2783074063E+00
                       1.0364455950E+00  1.2310937870E+00  1.4261024688E+00
            xcart      1.0460463703E+01  3.7190285186E+00  8.0848293102E+00
                      -9.9749316942E-01  7.5211217478E+00  2.6949431034E+00
                       1.8818805787E+00  1.0941252191E+01  8.0848293102E+00
                       7.5810899551E+00  2.9889807588E-01  2.6949431034E+00
                       4.7314852669E+00  5.6200751332E+00  0.0000000000E+00
                       4.7314852669E+00  5.6200751332E+00  5.3898862068E+00
                       7.5043722076E+00  8.9137201650E+00  8.0848293102E+00
                       1.9585983262E+00  2.3264301014E+00  2.6949431034E+00
             xred      9.7340800000E-01  3.3087000000E-01  7.5000000000E-01
                       2.6592000000E-02  6.6913000000E-01  2.5000000000E-01
                       3.3087000000E-01  9.7340800000E-01  7.5000000000E-01
                       6.6913000000E-01  2.6592000000E-02  2.5000000000E-01
                       5.0000000000E-01  5.0000000000E-01  0.0000000000E+00
                       5.0000000000E-01  5.0000000000E-01  5.0000000000E-01
                       7.9302500000E-01  7.9302500000E-01  7.5000000000E-01
                       2.0697500000E-01  2.0697500000E-01  2.5000000000E-01
            znucl       11.00000   47.00000   51.00000

 chkinp: Checking input parameters for consistency.

== DATASET  1 ==================================================================
-   mpi_nproc: 1, omp_nthreads: -1 (-1 if OMP is not activated)

--- !DatasetInfo
iteration_state: {dtset: 1, }
dimensions: {natom: 8, nkpt: 2, mband: 61, nsppol: 1, nspinor: 1, nspden: 1, mpw: 19251, }
cutoff_energies: {ecut:  44.0, pawecutdg:  -1.0, }
electrons: {nelect:   1.04000000E+02, charge:   0.00000000E+00, occopt:   1.00000000E+00, tsmear:   1.00000000E-02, }
meta: {optdriver: 1, rfelfd: 2, }
...

 Real(R)+Recip(G) space primitive vectors, cartesian coordinates (Bohr,Bohr^-1):
 R(1)= 11.4070306  0.0000000  0.0000000  G(1)=  0.0876652  0.0151623  0.0000000
 R(2)= -1.9440601 11.2401503  0.0000000  G(2)=  0.0000000  0.0889668  0.0000000
 R(3)=  0.0000000  0.0000000 10.7797724  G(3)=  0.0000000  0.0000000  0.0927663
 Unit cell volume ucvol=  1.3821473E+03 bohr^3
 Angles (23,13,12)=  9.00000000E+01  9.00000000E+01  9.98126165E+01 degrees

 getcut: wavevector=  0.0000  0.0000  0.0000  ngfft=  72  72  72
         ecut(hartree)=     44.000   => boxcut(ratio)=   2.11384

--- Pseudopotential description ------------------------------------------------
- pspini: atom type   1  psp file is /scratch/users/j/a/jabreu/pseudos/PBEsol/Na.psp8
- pspatm: opening atomic psp file    /scratch/users/j/a/jabreu/pseudos/PBEsol/Na.psp8
- Na    ONCVPSP-3.3.0  r_core=   1.20708   1.55069
- 11.00000   9.00000    180112                znucl, zion, pspdat
    8 -116133    1    4       400   0.00000   pspcod,pspxc,lmax,lloc,mmax,r2well
    3.99000000000000    0.00000000000000    0.00000000000000   rchrg,fchrg,qchrg
     nproj     2     2
     extension_switch     1
  pspatm : epsatm=    9.32878306
         --- l  ekb(1:nproj) -->
             0    2.657905   -0.678300
             1   -6.761319   -2.404728
 pspatm: atomic psp has been read  and splines computed

- pspini: atom type   2  psp file is /scratch/users/j/a/jabreu/pseudos/PBEsol/Ag.psp8
- pspatm: opening atomic psp file    /scratch/users/j/a/jabreu/pseudos/PBEsol/Ag.psp8
- Ag    ONCVPSP-3.3.0  r_core=   1.41384   1.46535   1.61207
- 47.00000  19.00000    180112                znucl, zion, pspdat
    8 -116133    2    4       600   0.00000   pspcod,pspxc,lmax,lloc,mmax,r2well
    5.99000000000000    7.00000000000000    0.00000000000000   rchrg,fchrg,qchrg
     nproj     2     2     2
     extension_switch     1
  pspatm : epsatm=   27.64581383
         --- l  ekb(1:nproj) -->
             0    9.559407   -0.398585
             1    3.418858   -0.136622
             2   -1.644397   -0.401551
 pspatm: atomic psp has been read  and splines computed

- pspini: atom type   3  psp file is /scratch/users/j/a/jabreu/pseudos/PBEsol/Sb.psp8
- pspatm: opening atomic psp file    /scratch/users/j/a/jabreu/pseudos/PBEsol/Sb.psp8
- Sb    ONCVPSP-3.3.0  r_core=   1.81962   2.12485   1.81962
- 51.00000  15.00000    180112                znucl, zion, pspdat
    8 -116133    2    4       600   0.00000   pspcod,pspxc,lmax,lloc,mmax,r2well
    5.99000000000000    5.00000000000000    0.00000000000000   rchrg,fchrg,qchrg
     nproj     2     2     2
     extension_switch     1
  pspatm : epsatm=   26.35641246
         --- l  ekb(1:nproj) -->
             0    9.727814    1.485032
             1    5.505335    0.704623
             2   -4.710637   -1.436443
 pspatm: atomic psp has been read  and splines computed

   1.51132368E+04                                ecore*ucvol(ha*bohr**3)

-inwffil : will read wavefunctions from disk file /scratch/users/j/a/jabreu/flow_simple_8atoms/flow/w487/t1/indata/in_WFK

 ==>  initialize data related to q vector <==

 The list of irreducible perturbations for this q vector is:
    1)    idir= 1    ipert=   9
    2)    idir= 2    ipert=   9
    3)    idir= 3    ipert=   9

 Perturbation wavevector (in red.coord.)   0.000000  0.000000  0.000000
 Perturbation : derivative vs k along direction   1

 dfpt_looppert : COMMENT -
  In a d/dk calculation, iscf is set to -3 automatically.
 The set of symmetries contains only one element for this perturbation.
 symkpt : not enough symmetry to change the number of k points.

[...]

 Initialisation of the first-order wave-functions :
  ireadwf=   0

--- !BeginCycle
iteration_state: {dtset: 1, }
solver: {iscf: 7, nstep: 2000, nline: 4, wfoptalg: 0, }
tolerances: {tolwfr: 1.00E-20, }
...

     iter   2DEtotal(Ha)        deltaE(Ha) residm    vres2
-ETOT  1  -49.777808237249     -4.978E+01 7.274E-02 0.000E+00
 ETOT  2  -49.820350098025     -4.254E-02 3.282E-04 0.000E+00
 ETOT  3  -49.820523139766     -1.730E-04 1.898E-05 0.000E+00
 ETOT  4  -49.820525393299     -2.254E-06 9.554E-08 0.000E+00
 ETOT  5  -49.820525436828     -4.353E-08 1.032E-08 0.000E+00
 ETOT  6  -49.820525437833     -1.005E-09 8.335E-11 0.000E+00
 ETOT  7  -49.820525437859     -2.589E-11 1.046E-11 0.000E+00
 ETOT  8  -49.820525437859     -7.532E-13 9.823E-14 0.000E+00
 ETOT  9  -49.820525437859     -2.132E-14 1.352E-14 0.000E+00
 ETOT 10  -49.820525437859     -7.105E-15 1.406E-16 0.000E+00
 ETOT 11  -49.820525437859      1.421E-14 1.948E-17 0.000E+00
 ETOT 12  -49.820525437859      0.000E+00 2.120E-19 0.000E+00
 ETOT 13  -49.820525437859     -1.421E-14 2.937E-20 0.000E+00
 ETOT 14  -49.820525437859      0.000E+00 9.892E-21 0.000E+00

 At SCF step   14   max residual=  9.89E-21 < tolwfr=  1.00E-20 =>converged.

 ----iterations are completed or convergence reached----

 dfpt_looppert: DFPT cycle converged with prtwf=-1. Will skip output of the 1st-order WFK file.
 dfpt_looppert : ek2=    6.4994833750E+01
          f-sum rule ratio=    1.1088234816E+00
 prteigrs : about to open file /scratch/users/j/a/jabreu/flow_simple_8atoms/flow/w487/t1/tmpdata/tmp_1WF1_EIG
 Expectation of eigenvalue derivatives (hartree) for nkpt=   2  k points:
  (in case of degenerate eigenvalues, averaged derivative)
 kpt#   1, nband= 61, wtk=  0.50000, kpt= -0.5000  0.5000  0.0000 (reduced coord)
   0.00000    0.00000    0.00000    0.00000   -0.00000   -0.00000    0.00000   -0.00000
  -0.00000    0.00000    0.00000   -0.00000    0.00000    0.00000   -0.00000    0.00000
   0.00000    0.00000    0.00000    0.00000   -0.00000   -0.00000   -0.00000   -0.00000
   0.00000    0.00000   -0.00000    0.00000    0.00000   -0.00000   -0.00000   -0.00000
  -0.00000    0.00000   -0.00000   -0.00000   -0.00000   -0.00000    0.00000   -0.00000
  -0.00000   -0.00000   -0.00000    0.00000    0.00000    0.00000   -0.00000   -0.00000
   0.00000    0.00000   -0.00000   -0.00000   -0.00000   -0.00000    0.00000    0.00000
  -0.00000    0.00000    0.00000    0.00002    0.00358
 prteigrs : prtvol=0 or 1, do not print more k-points.

 Eight components of 2nd-order total energy (hartree) are
 1,2,3: 0th-order hamiltonian combined with 1st-order wavefunctions
     kin0=   5.99763332E+01 eigvalue=   6.95731086E+00  local=  -3.06820866E+01
 4,5,6: 1st-order hamiltonian combined with 1st and 0th-order wfs
     kin1=  -7.20677978E+01  Hartree=   0.00000000E+00     xc=   0.00000000E+00
 7,8,9: eventually, occupation + non-local contributions
    edocc=   8.75803001E+00     enl0=   4.81093803E+00   enl1=  -2.75732530E+01
 1-9 gives the relaxation energy (to be shifted if some occ is /=2.0)
   erelax=  -4.98205254E+01
  No Ewald or frozen-wf contrib.: the relaxation energy is the total one
 2DEtotal=   -0.4982052544E+02 Ha. Also 2DEtotal=   -0.135568544180E+04 eV
    (  non-var. 2DEtotal :   -4.9820525438E+01 Ha)

 Perturbation wavevector (in red.coord.)   0.000000  0.000000  0.000000
 Perturbation : derivative vs k along direction   2
 The set of symmetries contains only one element for this perturbation.
 symkpt : not enough symmetry to change the number of k points.

[...]

 Perturbation wavevector (in red.coord.)   0.000000  0.000000  0.000000
 Perturbation : derivative vs k along direction   3
 The set of symmetries contains only one element for this perturbation.
 symkpt : not enough symmetry to change the number of k points.

-inwffil : will read wavefunctions from disk file /scratch/users/j/a/jabreu/flow_simple_8atoms/flow/w487/t1/indata/in_WFK

 Initialisation of the first-order wave-functions :
  ireadwf=   0

--- !BeginCycle
iteration_state: {dtset: 1, }
solver: {iscf: 7, nstep: 2000, nline: 4, wfoptalg: 0, }
tolerances: {tolwfr: 1.00E-20, }
...

     iter   2DEtotal(Ha)        deltaE(Ha) residm    vres2
-ETOT  1  -59.794063612141     -5.979E+01 2.894E-02 0.000E+00
 ETOT  2  -59.844581634675     -5.052E-02 6.889E-04 0.000E+00
 ETOT  3  -59.844987919528     -4.063E-04 5.726E-06 0.000E+00
 ETOT  4  -59.844996775238     -8.856E-06 1.795E-07 0.000E+00
 ETOT  5  -59.844997016127     -2.409E-07 6.963E-09 0.000E+00
 ETOT  6  -59.844997023510     -7.383E-09 2.352E-10 0.000E+00
 ETOT  7  -59.844997023755     -2.453E-10 1.085E-11 0.000E+00
 ETOT  8  -59.844997023764     -8.697E-12 3.824E-13 0.000E+00
 ETOT  9  -59.844997023764     -2.700E-13 1.794E-14 0.000E+00
 ETOT 10  -59.844997023764     -1.421E-14 6.571E-16 0.000E+00
 ETOT 11  -59.844997023764     -1.421E-14 3.091E-17 0.000E+00
 ETOT 12  -59.844997023764      1.421E-14 1.172E-18 0.000E+00
 ETOT 13  -59.844997023764      0.000E+00 5.515E-20 0.000E+00
 ETOT 14  -59.844997023764      1.421E-14 9.868E-21 0.000E+00

 At SCF step   14   max residual=  9.87E-21 < tolwfr=  1.00E-20 =>converged.

 ----iterations are completed or convergence reached----

 dfpt_looppert: DFPT cycle converged with prtwf=-1. Will skip output of the 1st-order WFK file.
 dfpt_looppert : ek2=    7.0664922622E+01
          f-sum rule ratio=    1.2708444613E+00
 prteigrs : about to open file /scratch/users/j/a/jabreu/flow_simple_8atoms/flow/w487/t1/tmpdata/tmp_1WF1_EIG
 Expectation of eigenvalue derivatives (hartree) for nkpt=   2  k points:
  (in case of degenerate eigenvalues, averaged derivative)
 kpt#   1, nband= 61, wtk=  0.50000, kpt= -0.5000  0.5000  0.0000 (reduced coord)
  -0.00000    0.00000   -0.00000   -0.00000   -0.00000   -0.00000    0.00000    0.00000
   0.00000    0.00000   -0.00000    0.00000   -0.00000   -0.00000    0.00000    0.00000
  -0.00000    0.00000   -0.00000   -0.00000    0.00000   -0.00000   -0.00000    0.00000
  -0.00000   -0.00000   -0.00000    0.00000    0.00000   -0.00000   -0.00000    0.00000
   0.00000   -0.00000   -0.00000    0.00000   -0.00000   -0.00000   -0.00000   -0.00000
   0.00000   -0.00000   -0.00000   -0.00000    0.00000    0.00000   -0.00000    0.00000
  -0.00000   -0.00000    0.00000   -0.00000   -0.00000    0.00000   -0.00000    0.00000
  -0.00000    0.00000   -0.00000   -0.00000   -0.00000
 prteigrs : prtvol=0 or 1, do not print more k-points.

 Eight components of 2nd-order total energy (hartree) are
 1,2,3: 0th-order hamiltonian combined with 1st-order wavefunctions
     kin0=   6.48909754E+01 eigvalue=   7.51313659E+00  local=  -3.30540968E+01
 4,5,6: 1st-order hamiltonian combined with 1st and 0th-order wfs
     kin1=  -8.98041255E+01  Hartree=   0.00000000E+00     xc=   0.00000000E+00
 7,8,9: eventually, occupation + non-local contributions
    edocc=   1.52304468E+01     enl0=   5.26453504E+00   enl1=  -2.98858685E+01
 1-9 gives the relaxation energy (to be shifted if some occ is /=2.0)
   erelax=  -5.98449970E+01
  No Ewald or frozen-wf contrib.: the relaxation energy is the total one
 2DEtotal=   -0.5984499702E+02 Ha. Also 2DEtotal=   -0.162846518611E+04 eV
    (  non-var. 2DEtotal :   -5.9844997024E+01 Ha)

 CALCULATION OF EFFECTIVE MASSES
 NOTE : Additional infos (eff. mass eigenvalues, eigenvectors and, if degenerate, average mass) are available in stdout.

 K-point (-0.500, 0.500, 0.000) | band =    52
 Effective mass tensor:
             -0.6116121912             -0.4903370052              0.0000155895
             -0.4903370052             -0.7812458468              0.0000183705
              0.0000155895              0.0000183705             -0.3581462268
 Effective mass tensor eigenvalues:
             -1.1940476216             -0.3581462261             -0.1988104171
 Angular average effective mass 1/(<1/m>)=  -0.3464378980
 Angular average effective mass for Frohlich model (<m**0.5>)**2=  -0.3948999621
 Effective masses along directions: (cart. coord. / red. coord. -> eff. mass)
    1:   1.000000  0.000000  0.000000 /   0.985786 -0.168004  0.000000 ->  -0.3038596704
    2:   0.000000  1.000000  0.000000 /   0.000000  1.000000  0.000000 ->  -0.3881366476
    3:   0.000000  0.000000  1.000000 /   0.000000  0.000000  1.000000 ->  -0.3581462263
    4:   0.577350  0.577350  0.577350 /   0.625345  0.509621  0.590958 ->  -0.6624509547
    5:   0.000000  0.707107  0.707107 /   0.000000  0.721733  0.692172 ->  -0.3725329708
    6:   0.707107  0.000000  0.707107 /   0.721295 -0.122928  0.681632 ->  -0.3287730824
    7:   0.707107  0.707107  0.000000 /   0.775186  0.631733  0.000000 ->  -1.1518597973

 K-point ( 0.000, 0.000, 0.000) | band =    53
 Effective mass tensor:
             12.0812201901             13.6104492750             -0.0000025108
             13.6104492750             16.7896655759             -0.0000035748
             -0.0000025108             -0.0000035748              0.1359949763
 Effective mass tensor eigenvalues:
              0.1359949763              0.6228872196             28.2479985464
 Angular average effective mass 1/(<1/m>)=   0.3335541982
 Angular average effective mass for Frohlich model (<m**0.5>)**2=   0.5888780712
 Effective masses along directions: (cart. coord. / red. coord. -> eff. mass)
    1:   1.000000  0.000000  0.000000 /   0.985786 -0.168004  0.000000 ->   1.0479849759
    2:   0.000000  1.000000  0.000000 /   0.000000  1.000000  0.000000 ->   1.4564188879
    3:   0.000000  0.000000  1.000000 /   0.000000  0.000000  1.000000 ->   0.1359949763
    4:   0.577350  0.577350  0.577350 /   0.625345  0.509621  0.590958 ->   0.4028473724
    5:   0.000000  0.707107  0.707107 /   0.000000  0.721733  0.692172 ->   0.2487612938
    6:   0.707107  0.000000  0.707107 /   0.721295 -0.122928  0.681632 ->   0.2407486459
    7:   0.707107  0.707107  0.000000 /   0.775186  0.631733  0.000000 ->  21.3278225465

 END OF EFFECTIVE MASSES SECTION

 ---- first-order wavefunction calculations are completed ----

 Total localisation tensor (bohr^2) in cartesian coordinates
  WARNING : still subject to testing - especially symmetries.
      direction              matrix element
   alpha     beta       real part   imaginary part
     1        1       2.1160620475    0.0000000000
     1        2      -0.3453334381    0.0000000000
     1        3       0.0000000000    0.0000000000
     2        1      -0.3453334381    0.0000000000
     2        2       1.9966459666    0.0000000000
     2        3       0.0000000000    0.0000000000
     3        1       0.0000000000    0.0000000000
     3        2       0.0000000000    0.0000000000
     3        3       3.2128324507    0.0000000000

 respfn : d/dk was computed, but no 2DTE, so no DDB output.

== END DATASET(S) ==============================================================

 -outvars: echo values of variables after computation  --------
            acell      1.0000000000E+00  1.0000000000E+00  1.0000000000E+00 Bohr
              amu      2.29897680E+01  1.07868200E+02  1.21753000E+02
             ecut      4.40000000E+01 Hartree
           etotal     -5.9844997024E+01
            fcart      0.0000000000E+00  0.0000000000E+00  0.0000000000E+00
                       0.0000000000E+00  0.0000000000E+00  0.0000000000E+00
                       0.0000000000E+00  0.0000000000E+00  0.0000000000E+00
                       0.0000000000E+00  0.0000000000E+00  0.0000000000E+00
                       0.0000000000E+00  0.0000000000E+00  0.0000000000E+00
                       0.0000000000E+00  0.0000000000E+00  0.0000000000E+00
                       0.0000000000E+00  0.0000000000E+00  0.0000000000E+00
                       0.0000000000E+00  0.0000000000E+00  0.0000000000E+00
-          fftalg         512
           irdden           1
           irdwfk           1
           istwfk        0    1
              ixc     -116133
              kpt     -5.00000000E-01  5.00000000E-01  0.00000000E+00
                       0.00000000E+00  0.00000000E+00  0.00000000E+00
           kptopt           0
P           mkmem           2
P          mkqmem           2
P          mk1mem           2
            natom           8
            nband          61
           nbdbuf           4
            ngfft          72      72      72
             nkpt           2
            nstep        2000
             nsym           8
           ntypat           3
              occ      2.000000  2.000000  2.000000  2.000000  2.000000  2.000000
                       2.000000  2.000000  2.000000  2.000000  2.000000  2.000000
                       2.000000  2.000000  2.000000  2.000000  2.000000  2.000000
                       2.000000  2.000000  2.000000  2.000000  2.000000  2.000000
                       2.000000  2.000000  2.000000  2.000000  2.000000  2.000000
                       2.000000  2.000000  2.000000  2.000000  2.000000  2.000000
                       2.000000  2.000000  2.000000  2.000000  2.000000  2.000000
                       2.000000  2.000000  2.000000  2.000000  2.000000  2.000000
                       2.000000  2.000000  2.000000  2.000000  0.000000  0.000000
                       0.000000  0.000000  0.000000  0.000000  0.000000  0.000000
                       0.000000
        optdriver           1
            prtwf          -1
            rfdir           1       1       1
           rfelfd           2
            rprim      1.1407030623E+01  0.0000000000E+00  0.0000000000E+00
                      -1.9440600896E+00  1.1240150266E+01  0.0000000000E+00
                       0.0000000000E+00  0.0000000000E+00  1.0779772414E+01
          spgroup          63
           strten      0.0000000000E+00  0.0000000000E+00  0.0000000000E+00
                       0.0000000000E+00  0.0000000000E+00  0.0000000000E+00
           symrel      1  0  0   0  1  0   0  0  1      -1  0  0   0 -1  0   0  0 -1
                       0 -1  0  -1  0  0   0  0 -1       0  1  0   1  0  0   0  0  1
                      -1  0  0   0 -1  0   0  0  1       1  0  0   0  1  0   0  0 -1
                       0  1  0   1  0  0   0  0 -1       0 -1  0  -1  0  0   0  0  1
            tnons      0.0000000  0.0000000  0.0000000    -0.0000000  0.0000000  0.0000000
                       0.0000000  0.0000000  0.0000000    -0.0000000  0.0000000  0.0000000
                      -0.0000000  0.0000000  0.5000000     0.0000000  0.0000000  0.5000000
                      -0.0000000  0.0000000  0.5000000     0.0000000  0.0000000  0.5000000
           tolwfr      1.00000000E-20
            typat      1  1  1  1  2  2  3  3
           useylm           1
              wtk        0.50000    0.50000
           xangst      5.5354389830E+00  1.9680251302E+00  4.2783074063E+00
                      -5.2785065098E-01  3.9800062119E+00  1.4261024688E+00
                       9.9584831152E-01  5.7898612927E+00  4.2783074063E+00
                       4.0117400205E+00  1.5817004945E-01  1.4261024688E+00
                       2.5037941660E+00  2.9740156711E+00  0.0000000000E+00
                       2.5037941660E+00  2.9740156711E+00  2.8522049375E+00
                       3.9711427370E+00  4.7169375551E+00  4.2783074063E+00
                       1.0364455950E+00  1.2310937870E+00  1.4261024688E+00
            xcart      1.0460463703E+01  3.7190285186E+00  8.0848293102E+00
                      -9.9749316942E-01  7.5211217478E+00  2.6949431034E+00
                       1.8818805787E+00  1.0941252191E+01  8.0848293102E+00
                       7.5810899551E+00  2.9889807588E-01  2.6949431034E+00
                       4.7314852669E+00  5.6200751332E+00  0.0000000000E+00
                       4.7314852669E+00  5.6200751332E+00  5.3898862068E+00
                       7.5043722076E+00  8.9137201650E+00  8.0848293102E+00
                       1.9585983262E+00  2.3264301014E+00  2.6949431034E+00
             xred      9.7340800000E-01  3.3087000000E-01  7.5000000000E-01
                       2.6592000000E-02  6.6913000000E-01  2.5000000000E-01
                       3.3087000000E-01  9.7340800000E-01  7.5000000000E-01
                       6.6913000000E-01  2.6592000000E-02  2.5000000000E-01
                       5.0000000000E-01  5.0000000000E-01  0.0000000000E+00
                       5.0000000000E-01  5.0000000000E-01  5.0000000000E-01
                       7.9302500000E-01  7.9302500000E-01  7.5000000000E-01
                       2.0697500000E-01  2.0697500000E-01  2.5000000000E-01
            znucl       11.00000   47.00000   51.00000

- Timing analysis has been suppressed with timopt=0

 Suggested references for the acknowledgment of ABINIT usage.

 Calculation completed.
.Delivered  14 WARNINGs and  11 COMMENTs to log file.