.Version 9.5.2 of ABINIT

 ABINIT is a project of the Universite Catholique de Louvain,
 Corning Inc. and other collaborators, see ~abinit/doc/developers/contributors.txt .
 acknowledgments of the ABINIT effort.

.Starting date : Mon 31 May 2021.
- ( at 22h30 )

- input  file    -> /scratch/users/j/a/jabreu/flow_simple_11atoms/flow/w367/t1/run.abi
- output file    -> /scratch/users/j/a/jabreu/flow_simple_11atoms/flow/w367/t1/run.abo
- root for input  files -> /scratch/users/j/a/jabreu/flow_simple_11atoms/flow/w367/t1/indata/in
- root for output files -> /scratch/users/j/a/jabreu/flow_simple_11atoms/flow/w367/t1/outdata/out

 Symmetries : space group Pa -3 (#205); Bravais cP (primitive cubic)
     intxc =       0      iscf =       7    lmnmax =      32     lnmax =       8
     mgfft =      64  mpssoang =       4    mqgrid =    3140     natom =      12
  nloc_mem =       1    nspden =       1   nspinor =       1    nsppol =       1
      nsym =      24    n1xccc =    2501    ntypat =       2    occopt =       1
   xclevel =       2
-    mband =          65        mffmem =           1         mkmem =           2
-   mkqmem =           2        mk1mem =           2           mpw =       16218
      nfft =      262144          nkpt =           2
  Rough estimation (10% accuracy) of disk space for files :

------------- Echo of variables that govern the present computation ------------
-
- outvars: echo of selected default values
-   iomode0 =  0 , fftalg0 =512 , wfoptalg0 =  0
-
- outvars: echo of global parameters not present in the input file
-  max_nthreads =    0
-
 -outvars: echo values of preprocessed input variables --------
            acell      1.0000000000E+00  1.0000000000E+00  1.0000000000E+00 Bohr
              amu      3.09737620E+01  1.95080000E+02
             ecut      4.20000000E+01 Hartree
-          fftalg         512
           irdden           1
           irdwfk           1
           istwfk        0    1
              ixc     -116133
              kpt      3.75000000E-01  3.75000000E-01  0.00000000E+00
                       5.00000000E-01  5.00000000E-01  5.00000000E-01
           kptopt           0
P           mkmem           2
P          mkqmem           2
P          mk1mem           2
            natom          12
            nband          65
           nbdbuf           4
            ngfft          64      64      64
             nkpt           2
            nstep        2000
             nsym          24
           ntypat           2
              occ      2.000000  2.000000  2.000000  2.000000  2.000000  2.000000
                       2.000000  2.000000  2.000000  2.000000  2.000000  2.000000
                       2.000000  2.000000  2.000000  2.000000  2.000000  2.000000
                       2.000000  2.000000  2.000000  2.000000  2.000000  2.000000
                       2.000000  2.000000  2.000000  2.000000  2.000000  2.000000
                       2.000000  2.000000  2.000000  2.000000  2.000000  2.000000
                       2.000000  2.000000  2.000000  2.000000  2.000000  2.000000
                       2.000000  2.000000  2.000000  2.000000  2.000000  2.000000
                       2.000000  2.000000  2.000000  2.000000  2.000000  2.000000
                       2.000000  2.000000  0.000000  0.000000  0.000000  0.000000
                       0.000000  0.000000  0.000000  0.000000  0.000000
        optdriver           1
            prtwf          -1
            rfdir           1       1       1
           rfelfd           2
            rprim      1.0760490517E+01  0.0000000000E+00  0.0000000000E+00
                       0.0000000000E+00  1.0760490517E+01  0.0000000000E+00
                       0.0000000000E+00  0.0000000000E+00  1.0760490517E+01
          spgroup         205
           symrel      1  0  0   0  1  0   0  0  1      -1  0  0   0 -1  0   0  0 -1
                      -1  0  0   0  1  0   0  0 -1       1  0  0   0 -1  0   0  0  1
                      -1  0  0   0 -1  0   0  0  1       1  0  0   0  1  0   0  0 -1
                       1  0  0   0 -1  0   0  0 -1      -1  0  0   0  1  0   0  0  1
                       0  0  1   1  0  0   0  1  0       0  0 -1  -1  0  0   0 -1  0
                       0  0 -1   1  0  0   0 -1  0       0  0  1  -1  0  0   0  1  0
                       0  0 -1  -1  0  0   0  1  0       0  0  1   1  0  0   0 -1  0
                       0  0  1  -1  0  0   0 -1  0       0  0 -1   1  0  0   0  1  0
                       0  1  0   0  0  1   1  0  0       0 -1  0   0  0 -1  -1  0  0
                       0 -1  0   0  0  1  -1  0  0       0  1  0   0  0 -1   1  0  0
                       0 -1  0   0  0 -1   1  0  0       0  1  0   0  0  1  -1  0  0
                       0  1  0   0  0 -1  -1  0  0       0 -1  0   0  0  1   1  0  0
            tnons      0.0000000  0.0000000  0.0000000     0.0000000  0.0000000  0.0000000
                       0.0000000  0.5000000  0.5000000     0.0000000  0.5000000  0.5000000
                       0.5000000  0.0000000  0.5000000     0.5000000  0.0000000  0.5000000
                       0.5000000  0.5000000  0.0000000     0.5000000  0.5000000  0.0000000
                       0.0000000  0.0000000  0.0000000     0.0000000  0.0000000  0.0000000
                       0.5000000  0.5000000  0.0000000     0.5000000  0.5000000  0.0000000
                       0.0000000  0.5000000  0.5000000     0.0000000  0.5000000  0.5000000
                       0.5000000  0.0000000  0.5000000     0.5000000  0.0000000  0.5000000
                       0.0000000  0.0000000  0.0000000     0.0000000  0.0000000  0.0000000
                       0.5000000  0.0000000  0.5000000     0.5000000  0.0000000  0.5000000
                       0.5000000  0.5000000  0.0000000     0.5000000  0.5000000  0.0000000
                       0.0000000  0.5000000  0.5000000     0.0000000  0.5000000  0.5000000
           tolwfr      1.00000000E-20
            typat      1  1  1  1  1  1  1  1  2  2  2  2
           useylm           1
              wtk        0.50000    0.50000
           xangst      2.2159516432E+00  2.2159516432E+00  2.2159516432E+00
                       6.3115152439E-01  3.4782546919E+00  5.0630548107E+00
                       5.0630548107E+00  6.3115152439E-01  3.4782546919E+00
                       3.4782546919E+00  5.0630548107E+00  6.3115152439E-01
                       3.4782546919E+00  3.4782546919E+00  3.4782546919E+00
                       5.0630548107E+00  2.2159516432E+00  6.3115152439E-01
                       6.3115152439E-01  5.0630548107E+00  2.2159516432E+00
                       2.2159516432E+00  6.3115152439E-01  5.0630548107E+00
                       0.0000000000E+00  0.0000000000E+00  0.0000000000E+00
                       2.8471031676E+00  0.0000000000E+00  2.8471031676E+00
                       2.8471031676E+00  2.8471031676E+00  0.0000000000E+00
                       0.0000000000E+00  2.8471031676E+00  2.8471031676E+00
            xcart      4.1875417293E+00  4.1875417293E+00  4.1875417293E+00
                       1.1927035295E+00  6.5729487882E+00  9.5677869880E+00
                       9.5677869880E+00  1.1927035295E+00  6.5729487882E+00
                       6.5729487882E+00  9.5677869880E+00  1.1927035295E+00
                       6.5729487882E+00  6.5729487882E+00  6.5729487882E+00
                       9.5677869880E+00  4.1875417293E+00  1.1927035295E+00
                       1.1927035295E+00  9.5677869880E+00  4.1875417293E+00
                       4.1875417293E+00  1.1927035295E+00  9.5677869880E+00
                       0.0000000000E+00  0.0000000000E+00  0.0000000000E+00
                       5.3802452587E+00  0.0000000000E+00  5.3802452587E+00
                       5.3802452587E+00  5.3802452587E+00  0.0000000000E+00
                       0.0000000000E+00  5.3802452587E+00  5.3802452587E+00
             xred      3.8915900000E-01  3.8915900000E-01  3.8915900000E-01
                       1.1084100000E-01  6.1084100000E-01  8.8915900000E-01
                       8.8915900000E-01  1.1084100000E-01  6.1084100000E-01
                       6.1084100000E-01  8.8915900000E-01  1.1084100000E-01
                       6.1084100000E-01  6.1084100000E-01  6.1084100000E-01
                       8.8915900000E-01  3.8915900000E-01  1.1084100000E-01
                       1.1084100000E-01  8.8915900000E-01  3.8915900000E-01
                       3.8915900000E-01  1.1084100000E-01  8.8915900000E-01
                       0.0000000000E+00  0.0000000000E+00  0.0000000000E+00
                       5.0000000000E-01  0.0000000000E+00  5.0000000000E-01
                       5.0000000000E-01  5.0000000000E-01  0.0000000000E+00
                       0.0000000000E+00  5.0000000000E-01  5.0000000000E-01
            znucl       15.00000   78.00000

 chkinp: Checking input parameters for consistency.

== DATASET  1 ==================================================================
-   mpi_nproc: 1, omp_nthreads: -1 (-1 if OMP is not activated)

--- !DatasetInfo
iteration_state: {dtset: 1, }
dimensions: {natom: 12, nkpt: 2, mband: 65, nsppol: 1, nspinor: 1, nspden: 1, mpw: 16218, }
cutoff_energies: {ecut:  42.0, pawecutdg:  -1.0, }
electrons: {nelect:   1.12000000E+02, charge:   0.00000000E+00, occopt:   1.00000000E+00, tsmear:   1.00000000E-02, }
meta: {optdriver: 1, rfelfd: 2, }
...

 Real(R)+Recip(G) space primitive vectors, cartesian coordinates (Bohr,Bohr^-1):
 R(1)= 10.7604905  0.0000000  0.0000000  G(1)=  0.0929326  0.0000000  0.0000000
 R(2)=  0.0000000 10.7604905  0.0000000  G(2)=  0.0000000  0.0929326  0.0000000
 R(3)=  0.0000000  0.0000000 10.7604905  G(3)=  0.0000000  0.0000000  0.0929326
 Unit cell volume ucvol=  1.2459374E+03 bohr^3
 Angles (23,13,12)=  9.00000000E+01  9.00000000E+01  9.00000000E+01 degrees

 getcut: wavevector=  0.0000  0.0000  0.0000  ngfft=  64  64  64
         ecut(hartree)=     42.000   => boxcut(ratio)=   2.03872

--- Pseudopotential description ------------------------------------------------
- pspini: atom type   1  psp file is /scratch/users/j/a/jabreu/pseudos/PBEsol/P.psp8
- pspatm: opening atomic psp file    /scratch/users/j/a/jabreu/pseudos/PBEsol/P.psp8
- P     ONCVPSP-3.3.0  r_core=   1.46089   1.55067   1.70594
- 15.00000   5.00000    180112                znucl, zion, pspdat
    8 -116133    2    4       600   0.00000   pspcod,pspxc,lmax,lloc,mmax,r2well
    5.99000000000000    5.00000000000000    0.00000000000000   rchrg,fchrg,qchrg
     nproj     2     2     2
     extension_switch     1
  pspatm : epsatm=    7.31221086
         --- l  ekb(1:nproj) -->
             0    6.742364    1.063650
             1    3.449117    0.910422
             2   -3.077645   -0.799176
 pspatm: atomic psp has been read  and splines computed

- pspini: atom type   2  psp file is /scratch/users/j/a/jabreu/pseudos/PBEsol/Pt.psp8
- pspatm: opening atomic psp file    /scratch/users/j/a/jabreu/pseudos/PBEsol/Pt.psp8
- Pt    ONCVPSP-3.3.0  r_core=   1.45722   1.45722   1.45722   1.91724
- 78.00000  18.00000    180112                znucl, zion, pspdat
[...]

 ----iterations are completed or convergence reached----

 dfpt_looppert: DFPT cycle converged with prtwf=-1. Will skip output of the 1st-order WFK file.
 dfpt_looppert : ek2=    7.6373662345E+01
          f-sum rule ratio=    1.1268426529E+00
 prteigrs : about to open file /scratch/users/j/a/jabreu/flow_simple_11atoms/flow/w367/t1/tmpdata/tmp_1WF1_EIG
 Expectation of eigenvalue derivatives (hartree) for nkpt=   2  k points:
  (in case of degenerate eigenvalues, averaged derivative)
 kpt#   1, nband= 65, wtk=  0.50000, kpt=  0.3750  0.3750  0.0000 (reduced coord)
   0.00000    0.00000    0.00000    0.00000    0.00000    0.00000    0.00000   -0.00000
  -0.00000    0.00000   -0.00000    0.00000    0.00000    0.00000   -0.00000    0.00000
   0.00000    0.00000   -0.00000    0.00000    0.00000   -0.00000   -0.00000    0.00000
   0.00000   -0.00000   -0.00000    0.00000    0.00000    0.00000   -0.00000    0.00000
   0.00000    0.00000   -0.00000    0.00000   -0.00000   -0.00000   -0.00000    0.00000
  -0.00000    0.00000   -0.00000   -0.00000   -0.00000   -0.00000   -0.00000    0.00000
   0.00000    0.00000   -0.00000   -0.00000    0.00000    0.00000    0.00000    0.00000
  -0.00000   -0.00000   -0.00000   -0.00000    0.00000   -0.00000    0.00000   -0.00000
  -0.00120
 prteigrs : prtvol=0 or 1, do not print more k-points.

 Eight components of 2nd-order total energy (hartree) are
 1,2,3: 0th-order hamiltonian combined with 1st-order wavefunctions
     kin0=   7.39502251E+01 eigvalue=  -1.07631190E+01  local=  -4.30635105E+01
 4,5,6: 1st-order hamiltonian combined with 1st and 0th-order wfs
     kin1=  -8.60611003E+01  Hartree=   0.00000000E+00     xc=   0.00000000E+00
 7,8,9: eventually, occupation + non-local contributions
    edocc=   1.52536094E+01     enl0=   8.38892379E+00   enl1=  -1.47115744E+00
 1-9 gives the relaxation energy (to be shifted if some occ is /=2.0)
   erelax=  -4.37661289E+01
  No Ewald or frozen-wf contrib.: the relaxation energy is the total one
 2DEtotal=   -0.4376612887E+02 Ha. Also 2DEtotal=   -0.119093693261E+04 eV
    (  non-var. 2DEtotal :   -4.3766128864E+01 Ha)

 CALCULATION OF EFFECTIVE MASSES
 NOTE : Additional infos (eff. mass eigenvalues, eigenvectors and, if degenerate, average mass) are available in stdout.

--- !WARNING
src_file: m_efmas.F90
src_line: 0
message: |
    Effective masses calculations require given k-point(s) to be band extrema for given bands, but max abs gradient of band(s) was found to be greater than 1e-5. Abinit will continue anyway.
...

[...]

--- !WARNING
src_file: m_efmas.F90
src_line: 0
message: |
    Effective masses calculations require given k-point(s) to be band extrema for given bands, but max abs gradient of band(s) was found to be greater than 1e-5. Abinit will continue anyway.
...

 K-point ( 0.375, 0.375, 0.000) | band =    56
 Effective mass tensor:
             -0.1833492537             -0.0123923734              0.0000353624
             -0.0123923734             -0.1697792156             -0.0000343033
              0.0000353624             -0.0000343033             -0.5647126275
 Effective mass tensor eigenvalues:
             -0.5647126336             -0.1906924826             -0.1624359806
 Angular average effective mass 1/(<1/m>)=  -0.2277709091
 Angular average effective mass for Frohlich model (<m**0.5>)**2=  -0.2445935759
 Effective masses along directions: (cart. coord. / red. coord. -> eff. mass)
    1:   1.000000  0.000000  0.000000 /   1.000000  0.000000  0.000000 ->  -0.1824447181
    2:   0.000000  1.000000  0.000000 /   0.000000  1.000000  0.000000 ->  -0.1689416264
    3:   0.000000  0.000000  1.000000 /   0.000000  0.000000  1.000000 ->  -0.5647126128
    4:   0.577350  0.577350  0.577350 /   0.577350  0.577350  0.577350 ->  -0.2425036148
    5:   0.000000  0.707107  0.707107 /   0.000000  0.707107  0.707107 ->  -0.2601034827
    6:   0.707107  0.000000  0.707107 /   0.707107  0.000000  0.707107 ->  -0.2757609064
    7:   0.707107  0.707107  0.000000 /   0.707107  0.707107  0.000000 ->  -0.1886761917

 COMMENTS:
 - At k-point ( 0.500, 0.500, 0.500), bands    57 through    60
   are DEGENERATE (effective mass tensor is therefore not defined).
   See Section IIIB Eqs. (67)-(70) and Appendix E of PRB 93 205147 (2016).
 - Angular average effective mass for Frohlich model is to be averaged over degenerate bands. See later.
 - Associated theta integrals calculated with ntheta=   1000 points.

 K-point ( 0.500, 0.500, 0.500) | band =    57
 Transport equivalent effective mass tensor:
              2.4853787365             -0.0000000001              0.0000000007
             -0.0000000001              2.4853819528             -0.0000000000
              0.0000000007             -0.0000000000              2.4853832298
 Transport equivalent effective mass tensor eigenvalues:
              2.4853832298              2.4853819528              2.4853787365
 Angular average effective mass 1/(<1/m>)=   0.4952715800
 Angular average effective mass for Frohlich model (<m**0.5>)**2=   0.5585083961
 Effective masses along directions: (cart. coord. / red. coord. -> eff. mass)
    1:   1.000000  0.000000  0.000000 /   1.000000  0.000000  0.000000 ->   0.2364952687
    2:   0.000000  1.000000  0.000000 /   0.000000  1.000000  0.000000 ->   0.2364952687
    3:   0.000000  0.000000  1.000000 /   0.000000  0.000000  1.000000 ->   0.2364952687
    4:   0.577350  0.577350  0.577350 /   0.577350  0.577350  0.577350 ->   1.3156212964
    5:   0.000000  0.707107  0.707107 /   0.000000  0.707107  0.707107 ->   0.4015878081
    6:   0.707107  0.000000  0.707107 /   0.707107  0.000000  0.707107 ->   0.4015878082
    7:   0.707107  0.707107  0.000000 /   0.707107  0.707107  0.000000 ->   0.4015878082

[...]

 K-point ( 0.500, 0.500, 0.500) | band =    60
 Transport equivalent effective mass tensor:
              0.1888205307              0.0000000000              0.0000000000
              0.0000000000              0.1888203001             -0.0000000000
              0.0000000000             -0.0000000000              0.1888199710
 Transport equivalent effective mass tensor eigenvalues:
              0.1888205307              0.1888203001              0.1888199710
 Angular average effective mass 1/(<1/m>)=   0.1744330315
 Angular average effective mass for Frohlich model (<m**0.5>)**2=   0.1748999926
 Effective masses along directions: (cart. coord. / red. coord. -> eff. mass)
    1:   1.000000  0.000000  0.000000 /   1.000000  0.000000  0.000000 ->   0.2364952685
    2:   0.000000  1.000000  0.000000 /   0.000000  1.000000  0.000000 ->   0.2364952685
    3:   0.000000  0.000000  1.000000 /   0.000000  0.000000  1.000000 ->   0.2364952685
    4:   0.577350  0.577350  0.577350 /   0.577350  0.577350  0.577350 ->   0.1782335868
    5:   0.000000  0.707107  0.707107 /   0.000000  0.707107  0.707107 ->   0.1675964535
    6:   0.707107  0.000000  0.707107 /   0.707107  0.000000  0.707107 ->   0.1675964535
    7:   0.707107  0.707107  0.000000 /   0.707107  0.707107  0.000000 ->   0.1675964535

 Angular average effective mass for Frohlich model, averaged over degenerate bands.
 Value of     (<<m**0.5>>)**2 =     2.795476E-01
 Absolute Value of <<m**0.5>> =     5.287226E-01

 END OF EFFECTIVE MASSES SECTION

 ---- first-order wavefunction calculations are completed ----

 Total localisation tensor (bohr^2) in cartesian coordinates
  WARNING : still subject to testing - especially symmetries.
      direction              matrix element
   alpha     beta       real part   imaginary part
     1        1       2.6503539657    0.0000000000
     1        2       0.0000000000    0.0000000000
     1        3       0.0000000000    0.0000000000
     2        1       0.0000000000    0.0000000000
     2        2       2.6660489299    0.0000000000
     2        3       0.0000000000    0.0000000000
     3        1       0.0000000000    0.0000000000
     3        2       0.0000000000    0.0000000000
     3        3       2.2496649595    0.0000000000

 respfn : d/dk was computed, but no 2DTE, so no DDB output.

== END DATASET(S) ==============================================================

 -outvars: echo values of variables after computation  --------
            acell      1.0000000000E+00  1.0000000000E+00  1.0000000000E+00 Bohr
              amu      3.09737620E+01  1.95080000E+02
             ecut      4.20000000E+01 Hartree
           etotal     -4.3766128865E+01
            fcart      0.0000000000E+00  0.0000000000E+00  0.0000000000E+00
                       0.0000000000E+00  0.0000000000E+00  0.0000000000E+00
                       0.0000000000E+00  0.0000000000E+00  0.0000000000E+00
                       0.0000000000E+00  0.0000000000E+00  0.0000000000E+00
                       0.0000000000E+00  0.0000000000E+00  0.0000000000E+00
                       0.0000000000E+00  0.0000000000E+00  0.0000000000E+00
                       0.0000000000E+00  0.0000000000E+00  0.0000000000E+00
                       0.0000000000E+00  0.0000000000E+00  0.0000000000E+00
                       0.0000000000E+00  0.0000000000E+00  0.0000000000E+00
                       0.0000000000E+00  0.0000000000E+00  0.0000000000E+00
                       0.0000000000E+00  0.0000000000E+00  0.0000000000E+00
                       0.0000000000E+00  0.0000000000E+00  0.0000000000E+00
-          fftalg         512
           irdden           1
           irdwfk           1
           istwfk        0    1
              ixc     -116133
              kpt      3.75000000E-01  3.75000000E-01  0.00000000E+00
                       5.00000000E-01  5.00000000E-01  5.00000000E-01
           kptopt           0
P           mkmem           2
P          mkqmem           2
P          mk1mem           2
            natom          12
            nband          65
           nbdbuf           4
            ngfft          64      64      64
             nkpt           2
            nstep        2000
             nsym          24
           ntypat           2
              occ      2.000000  2.000000  2.000000  2.000000  2.000000  2.000000
                       2.000000  2.000000  2.000000  2.000000  2.000000  2.000000
                       2.000000  2.000000  2.000000  2.000000  2.000000  2.000000
                       2.000000  2.000000  2.000000  2.000000  2.000000  2.000000
                       2.000000  2.000000  2.000000  2.000000  2.000000  2.000000
                       2.000000  2.000000  2.000000  2.000000  2.000000  2.000000
                       2.000000  2.000000  2.000000  2.000000  2.000000  2.000000
                       2.000000  2.000000  2.000000  2.000000  2.000000  2.000000
                       2.000000  2.000000  2.000000  2.000000  2.000000  2.000000
                       2.000000  2.000000  0.000000  0.000000  0.000000  0.000000
                       0.000000  0.000000  0.000000  0.000000  0.000000
        optdriver           1
            prtwf          -1
            rfdir           1       1       1
           rfelfd           2
            rprim      1.0760490517E+01  0.0000000000E+00  0.0000000000E+00
                       0.0000000000E+00  1.0760490517E+01  0.0000000000E+00
                       0.0000000000E+00  0.0000000000E+00  1.0760490517E+01
          spgroup         205
           strten      0.0000000000E+00  0.0000000000E+00  0.0000000000E+00
                       0.0000000000E+00  0.0000000000E+00  0.0000000000E+00
           symrel      1  0  0   0  1  0   0  0  1      -1  0  0   0 -1  0   0  0 -1
                      -1  0  0   0  1  0   0  0 -1       1  0  0   0 -1  0   0  0  1
                      -1  0  0   0 -1  0   0  0  1       1  0  0   0  1  0   0  0 -1
                       1  0  0   0 -1  0   0  0 -1      -1  0  0   0  1  0   0  0  1
                       0  0  1   1  0  0   0  1  0       0  0 -1  -1  0  0   0 -1  0
                       0  0 -1   1  0  0   0 -1  0       0  0  1  -1  0  0   0  1  0
                       0  0 -1  -1  0  0   0  1  0       0  0  1   1  0  0   0 -1  0
                       0  0  1  -1  0  0   0 -1  0       0  0 -1   1  0  0   0  1  0
                       0  1  0   0  0  1   1  0  0       0 -1  0   0  0 -1  -1  0  0
                       0 -1  0   0  0  1  -1  0  0       0  1  0   0  0 -1   1  0  0
                       0 -1  0   0  0 -1   1  0  0       0  1  0   0  0  1  -1  0  0
                       0  1  0   0  0 -1  -1  0  0       0 -1  0   0  0  1   1  0  0
            tnons      0.0000000  0.0000000  0.0000000     0.0000000  0.0000000  0.0000000
                       0.0000000  0.5000000  0.5000000     0.0000000  0.5000000  0.5000000
                       0.5000000  0.0000000  0.5000000     0.5000000  0.0000000  0.5000000
                       0.5000000  0.5000000  0.0000000     0.5000000  0.5000000  0.0000000
                       0.0000000  0.0000000  0.0000000     0.0000000  0.0000000  0.0000000
                       0.5000000  0.5000000  0.0000000     0.5000000  0.5000000  0.0000000
                       0.0000000  0.5000000  0.5000000     0.0000000  0.5000000  0.5000000
                       0.5000000  0.0000000  0.5000000     0.5000000  0.0000000  0.5000000
                       0.0000000  0.0000000  0.0000000     0.0000000  0.0000000  0.0000000
                       0.5000000  0.0000000  0.5000000     0.5000000  0.0000000  0.5000000
                       0.5000000  0.5000000  0.0000000     0.5000000  0.5000000  0.0000000
                       0.0000000  0.5000000  0.5000000     0.0000000  0.5000000  0.5000000
           tolwfr      1.00000000E-20
            typat      1  1  1  1  1  1  1  1  2  2  2  2
           useylm           1
              wtk        0.50000    0.50000
           xangst      2.2159516432E+00  2.2159516432E+00  2.2159516432E+00
                       6.3115152439E-01  3.4782546919E+00  5.0630548107E+00
                       5.0630548107E+00  6.3115152439E-01  3.4782546919E+00
                       3.4782546919E+00  5.0630548107E+00  6.3115152439E-01
                       3.4782546919E+00  3.4782546919E+00  3.4782546919E+00
                       5.0630548107E+00  2.2159516432E+00  6.3115152439E-01
                       6.3115152439E-01  5.0630548107E+00  2.2159516432E+00
                       2.2159516432E+00  6.3115152439E-01  5.0630548107E+00
                       0.0000000000E+00  0.0000000000E+00  0.0000000000E+00
                       2.8471031676E+00  0.0000000000E+00  2.8471031676E+00
                       2.8471031676E+00  2.8471031676E+00  0.0000000000E+00
                       0.0000000000E+00  2.8471031676E+00  2.8471031676E+00
            xcart      4.1875417293E+00  4.1875417293E+00  4.1875417293E+00
                       1.1927035295E+00  6.5729487882E+00  9.5677869880E+00
                       9.5677869880E+00  1.1927035295E+00  6.5729487882E+00
                       6.5729487882E+00  9.5677869880E+00  1.1927035295E+00
                       6.5729487882E+00  6.5729487882E+00  6.5729487882E+00
                       9.5677869880E+00  4.1875417293E+00  1.1927035295E+00
                       1.1927035295E+00  9.5677869880E+00  4.1875417293E+00
                       4.1875417293E+00  1.1927035295E+00  9.5677869880E+00
                       0.0000000000E+00  0.0000000000E+00  0.0000000000E+00
                       5.3802452587E+00  0.0000000000E+00  5.3802452587E+00
                       5.3802452587E+00  5.3802452587E+00  0.0000000000E+00
                       0.0000000000E+00  5.3802452587E+00  5.3802452587E+00
             xred      3.8915900000E-01  3.8915900000E-01  3.8915900000E-01
                       1.1084100000E-01  6.1084100000E-01  8.8915900000E-01
                       8.8915900000E-01  1.1084100000E-01  6.1084100000E-01
                       6.1084100000E-01  8.8915900000E-01  1.1084100000E-01
                       6.1084100000E-01  6.1084100000E-01  6.1084100000E-01
                       8.8915900000E-01  3.8915900000E-01  1.1084100000E-01
                       1.1084100000E-01  8.8915900000E-01  3.8915900000E-01
                       3.8915900000E-01  1.1084100000E-01  8.8915900000E-01
                       0.0000000000E+00  0.0000000000E+00  0.0000000000E+00
                       5.0000000000E-01  0.0000000000E+00  5.0000000000E-01
                       5.0000000000E-01  5.0000000000E-01  0.0000000000E+00
                       0.0000000000E+00  5.0000000000E-01  5.0000000000E-01
            znucl       15.00000   78.00000

- Timing analysis has been suppressed with timopt=0

 Suggested references for the acknowledgment of ABINIT usage.

 Calculation completed.
.Delivered   8 WARNINGs and   5 COMMENTs to log file.