.Version 9.5.1 of ABINIT

 ABINIT is a project of the Universite Catholique de Louvain,
 Corning Inc. and other collaborators, see ~abinit/doc/developers/contributors.txt .
 acknowledgments of the ABINIT effort.

.Starting date : Tue 11 May 2021.
- ( at 21h15 )

- input  file    -> /scratch/users/j/a/jabreu/flow_simple_8atoms/flow/w276/t1/run.abi
- output file    -> /scratch/users/j/a/jabreu/flow_simple_8atoms/flow/w276/t1/run.abo
- root for input  files -> /scratch/users/j/a/jabreu/flow_simple_8atoms/flow/w276/t1/indata/in
- root for output files -> /scratch/users/j/a/jabreu/flow_simple_8atoms/flow/w276/t1/outdata/out

 Symmetries : space group P-4 3 m (#215); Bravais cP (primitive cubic)
     intxc =       0      iscf =       7    lmnmax =      18     lnmax =       6
     mgfft =      72  mpssoang =       3    mqgrid =    3247     natom =       8
  nloc_mem =       1    nspden =       1   nspinor =       1    nsppol =       1
      nsym =      24    n1xccc =    2501    ntypat =       3    occopt =       1
   xclevel =       2
-    mband =          32        mffmem =           1         mkmem =           2
-   mkqmem =           2        mk1mem =           2           mpw =       17892
      nfft =      373248          nkpt =           2
  Rough estimation (10% accuracy) of disk space for files :

------------- Echo of variables that govern the present computation ------------
-
- outvars: echo of selected default values
-   iomode0 =  0 , fftalg0 =512 , wfoptalg0 =  0
-
- outvars: echo of global parameters not present in the input file
-  max_nthreads =    0
-
 -outvars: echo values of preprocessed input variables --------
            acell      1.0000000000E+00  1.0000000000E+00  1.0000000000E+00 Bohr
              amu      6.94100000E+00  5.09415000E+01  3.20660000E+01
             ecut      4.20000000E+01 Hartree
-          fftalg         512
           irdden           1
           irdwfk           1
           istwfk        1    1
              ixc     -116133
              kpt      5.00000000E-01  5.00000000E-01  0.00000000E+00
                       0.00000000E+00  0.00000000E+00  0.00000000E+00
           kptopt           0
P           mkmem           2
P          mkqmem           2
P          mk1mem           2
            natom           8
            nband          32
           nbdbuf           4
            ngfft          72      72      72
             nkpt           2
            nstep        2000
             nsym          24
           ntypat           3
              occ      2.000000  2.000000  2.000000  2.000000  2.000000  2.000000
                       2.000000  2.000000  2.000000  2.000000  2.000000  2.000000
                       2.000000  2.000000  2.000000  2.000000  2.000000  2.000000
                       2.000000  2.000000  2.000000  2.000000  2.000000  0.000000
                       0.000000  0.000000  0.000000  0.000000  0.000000  0.000000
                       0.000000  0.000000
        optdriver           1
            prtwf          -1
            rfdir           1       1       1
           rfelfd           2
            rprim      1.1127931757E+01  0.0000000000E+00  0.0000000000E+00
                       0.0000000000E+00  1.1127931757E+01  0.0000000000E+00
                       0.0000000000E+00  0.0000000000E+00  1.1127931757E+01
          spgroup         215
           symrel      1  0  0   0  1  0   0  0  1      -1  0  0   0  1  0   0  0 -1
                      -1  0  0   0 -1  0   0  0  1       1  0  0   0 -1  0   0  0 -1
                       0  1  0   1  0  0   0  0  1       0 -1  0   1  0  0   0  0 -1
                       0 -1  0  -1  0  0   0  0  1       0  1  0  -1  0  0   0  0 -1
                       0  0  1   1  0  0   0  1  0       0  0 -1   1  0  0   0 -1  0
                       0  0 -1  -1  0  0   0  1  0       0  0  1  -1  0  0   0 -1  0
                       1  0  0   0  0  1   0  1  0      -1  0  0   0  0  1   0 -1  0
                      -1  0  0   0  0 -1   0  1  0       1  0  0   0  0 -1   0 -1  0
                       0  1  0   0  0  1   1  0  0       0 -1  0   0  0  1  -1  0  0
                       0 -1  0   0  0 -1   1  0  0       0  1  0   0  0 -1  -1  0  0
                       0  0  1   0  1  0   1  0  0       0  0 -1   0  1  0  -1  0  0
                       0  0 -1   0 -1  0   1  0  0       0  0  1   0 -1  0  -1  0  0
           tolwfr      1.00000000E-20
            typat      1  1  1  2  3  3  3  3
           useylm           1
              wtk        0.50000    0.50000
           xangst      0.0000000000E+00  0.0000000000E+00  2.9443239321E+00
                       0.0000000000E+00  2.9443239321E+00  0.0000000000E+00
                       2.9443239321E+00  0.0000000000E+00  0.0000000000E+00
                       0.0000000000E+00  0.0000000000E+00  0.0000000000E+00
                       1.2368398201E+00  1.2368398201E+00  1.2368398201E+00
                       1.2368398201E+00  4.6518080442E+00  4.6518080442E+00
                       4.6518080442E+00  1.2368398201E+00  4.6518080442E+00
                       4.6518080442E+00  4.6518080442E+00  1.2368398201E+00
            xcart      0.0000000000E+00  0.0000000000E+00  5.5639658783E+00
                       0.0000000000E+00  5.5639658783E+00  0.0000000000E+00
                       5.5639658783E+00  0.0000000000E+00  0.0000000000E+00
                       0.0000000000E+00  0.0000000000E+00  0.0000000000E+00
                       2.3372885303E+00  2.3372885303E+00  2.3372885303E+00
                       2.3372885303E+00  8.7906432262E+00  8.7906432262E+00
                       8.7906432262E+00  2.3372885303E+00  8.7906432262E+00
                       8.7906432262E+00  8.7906432262E+00  2.3372885303E+00
             xred      0.0000000000E+00  0.0000000000E+00  5.0000000000E-01
                       0.0000000000E+00  5.0000000000E-01  0.0000000000E+00
                       5.0000000000E-01  0.0000000000E+00  0.0000000000E+00
                       0.0000000000E+00  0.0000000000E+00  0.0000000000E+00
                       2.1003800000E-01  2.1003800000E-01  2.1003800000E-01
                       2.1003800000E-01  7.8996200000E-01  7.8996200000E-01
                       7.8996200000E-01  2.1003800000E-01  7.8996200000E-01
                       7.8996200000E-01  7.8996200000E-01  2.1003800000E-01
            znucl        3.00000   23.00000   16.00000

 chkinp: Checking input parameters for consistency.

== DATASET  1 ==================================================================
-   mpi_nproc: 1, omp_nthreads: -1 (-1 if OMP is not activated)

--- !DatasetInfo
iteration_state: {dtset: 1, }
dimensions: {natom: 8, nkpt: 2, mband: 32, nsppol: 1, nspinor: 1, nspden: 1, mpw: 17892, }
cutoff_energies: {ecut:  42.0, pawecutdg:  -1.0, }
electrons: {nelect:   4.60000000E+01, charge:   0.00000000E+00, occopt:   1.00000000E+00, tsmear:   1.00000000E-02, }
meta: {optdriver: 1, rfelfd: 2, }
...

 Real(R)+Recip(G) space primitive vectors, cartesian coordinates (Bohr,Bohr^-1):
 R(1)= 11.1279318  0.0000000  0.0000000  G(1)=  0.0898640  0.0000000  0.0000000
 R(2)=  0.0000000 11.1279318  0.0000000  G(2)=  0.0000000  0.0898640  0.0000000
 R(3)=  0.0000000  0.0000000 11.1279318  G(3)=  0.0000000  0.0000000  0.0898640
 Unit cell volume ucvol=  1.3779814E+03 bohr^3
 Angles (23,13,12)=  9.00000000E+01  9.00000000E+01  9.00000000E+01 degrees

 getcut: wavevector=  0.0000  0.0000  0.0000  ngfft=  72  72  72
         ecut(hartree)=     42.000   => boxcut(ratio)=   2.21783

 getcut : COMMENT -
  Note that boxcut > 2.2 ; recall that boxcut=Gcut(box)/Gcut(sphere) = 2
  is sufficient for exact treatment of convolution.
  Such a large boxcut is a waste : you could raise ecut
  e.g. ecut=   51.647089 Hartrees makes boxcut=2

--- Pseudopotential description ------------------------------------------------
- pspini: atom type   1  psp file is /scratch/users/j/a/jabreu/pseudos/PBEsol/Li.psp8
- pspatm: opening atomic psp file    /scratch/users/j/a/jabreu/pseudos/PBEsol/Li.psp8
- Li    ONCVPSP-3.3.0  r_core=   1.40824   1.10935
-  3.00000   3.00000    180112                znucl, zion, pspdat
    8 -116133    1    4       400   0.00000   pspcod,pspxc,lmax,lloc,mmax,r2well
    3.99000000000000    0.00000000000000    0.00000000000000   rchrg,fchrg,qchrg
     nproj     2     2
     extension_switch     1
  pspatm : epsatm=    2.60859637
         --- l  ekb(1:nproj) -->
             0   -4.855856   -1.482423
             1   -2.171544   -0.427615
 pspatm: atomic psp has been read  and splines computed

- pspini: atom type   2  psp file is /scratch/users/j/a/jabreu/pseudos/PBEsol/V.psp8
- pspatm: opening atomic psp file    /scratch/users/j/a/jabreu/pseudos/PBEsol/V.psp8
- V     ONCVPSP-3.3.0  r_core=   1.31479   1.31479   1.66904
- 23.00000  13.00000    180112                znucl, zion, pspdat
    8 -116133    2    4       600   0.00000   pspcod,pspxc,lmax,lloc,mmax,r2well
    5.99000000000000    5.00000000000000    0.00000000000000   rchrg,fchrg,qchrg
     nproj     2     2     2
     extension_switch     1
  pspatm : epsatm=   13.89775296
         --- l  ekb(1:nproj) -->
             0   11.839471    1.392889
             1    1.770377   -0.260831
             2   -4.955866   -1.607689
 pspatm: atomic psp has been read  and splines computed

- pspini: atom type   3  psp file is /scratch/users/j/a/jabreu/pseudos/PBEsol/S.psp8
- pspatm: opening atomic psp file    /scratch/users/j/a/jabreu/pseudos/PBEsol/S.psp8
- S     ONCVPSP-3.3.0  r_core=   1.45376   1.45376   1.61851
- 16.00000   6.00000    180112                znucl, zion, pspdat
    8 -116133    2    4       600   0.00000   pspcod,pspxc,lmax,lloc,mmax,r2well
    5.99000000000000    6.00000000000000    0.00000000000000   rchrg,fchrg,qchrg
     nproj     2     2     2
     extension_switch     1
  pspatm : epsatm=    8.71840985
         --- l  ekb(1:nproj) -->
             0    6.834532    0.579453
             1    3.282851    0.896984
             2   -3.496974   -0.974265
 pspatm: atomic psp has been read  and splines computed

   2.60347035E+03                                ecore*ucvol(ha*bohr**3)

-inwffil : will read wavefunctions from disk file /scratch/users/j/a/jabreu/flow_simple_8atoms/flow/w276/t1/indata/in_WFK

 ==>  initialize data related to q vector <==

 The list of irreducible perturbations for this q vector is:
    1)    idir= 1    ipert=   9
    2)    idir= 2    ipert=   9
    3)    idir= 3    ipert=   9

 Perturbation wavevector (in red.coord.)   0.000000  0.000000  0.000000
 Perturbation : derivative vs k along direction   1

 dfpt_looppert : COMMENT -
  In a d/dk calculation, iscf is set to -3 automatically.
 The set of symmetries contains only one element for this perturbation.
 symkpt : not enough symmetry to change the number of k points.

[...]

 Initialisation of the first-order wave-functions :
  ireadwf=   0

--- !BeginCycle
iteration_state: {dtset: 1, }
solver: {iscf: 7, nstep: 2000, nline: 4, wfoptalg: 0, }
tolerances: {tolwfr: 1.00E-20, }
...

     iter   2DEtotal(Ha)        deltaE(Ha) residm    vres2
-ETOT  1  -14.149555476723     -1.415E+01 7.670E-02 0.000E+00
[...]
 dfpt_looppert : ek2=    2.9330445317E+01
          f-sum rule ratio=    1.0097462711E+00
 prteigrs : about to open file /scratch/users/j/a/jabreu/flow_simple_8atoms/flow/w276/t1/tmpdata/tmp_1WF1_EIG
 Expectation of eigenvalue derivatives (hartree) for nkpt=   2  k points:
  (in case of degenerate eigenvalues, averaged derivative)
 kpt#   1, nband= 32, wtk=  0.50000, kpt=  0.5000  0.5000  0.0000 (reduced coord)
  -0.00000    0.00000    0.00000   -0.00000    0.00000    0.00000    0.00000    0.00000
  -0.00000   -0.00000    0.00000   -0.00000   -0.00000   -0.00000    0.00000   -0.00000
  -0.00000   -0.00000   -0.00000   -0.00000   -0.00000   -0.00000    0.00000   -0.00000
   0.00000   -0.00000   -0.00000   -0.00000   -0.00000    0.00000    0.00001    0.00045
 prteigrs : prtvol=0 or 1, do not print more k-points.

 Eight components of 2nd-order total energy (hartree) are
 1,2,3: 0th-order hamiltonian combined with 1st-order wavefunctions
     kin0=   1.79449779E+01 eigvalue=   2.10828531E+00  local=  -1.04064884E+01
 4,5,6: 1st-order hamiltonian combined with 1st and 0th-order wfs
     kin1=  -2.96163078E+01  Hartree=   0.00000000E+00     xc=   0.00000000E+00
 7,8,9: eventually, occupation + non-local contributions
    edocc=   4.43113292E+00     enl0=   8.43594222E-02   enl1=   1.29177333E+00
 1-9 gives the relaxation energy (to be shifted if some occ is /=2.0)
   erelax=  -1.41622672E+01
  No Ewald or frozen-wf contrib.: the relaxation energy is the total one
 2DEtotal=   -0.1416226723E+02 Ha. Also 2DEtotal=   -0.385374889872E+03 eV
    (  non-var. 2DEtotal :   -1.4162267228E+01 Ha)

 Perturbation wavevector (in red.coord.)   0.000000  0.000000  0.000000
 Perturbation : derivative vs k along direction   2
 The set of symmetries contains only one element for this perturbation.
 symkpt : not enough symmetry to change the number of k points.

[...]

 Perturbation wavevector (in red.coord.)   0.000000  0.000000  0.000000
 Perturbation : derivative vs k along direction   3
 The set of symmetries contains only one element for this perturbation.
 symkpt : not enough symmetry to change the number of k points.

-inwffil : will read wavefunctions from disk file /scratch/users/j/a/jabreu/flow_simple_8atoms/flow/w276/t1/indata/in_WFK

 Initialisation of the first-order wave-functions :
  ireadwf=   0

--- !BeginCycle
iteration_state: {dtset: 1, }
solver: {iscf: 7, nstep: 2000, nline: 4, wfoptalg: 0, }
tolerances: {tolwfr: 1.00E-20, }
...

     iter   2DEtotal(Ha)        deltaE(Ha) residm    vres2
-ETOT  1  -14.178486177607     -1.418E+01 5.147E-02 0.000E+00
 ETOT  2  -14.189508817201     -1.102E-02 9.093E-04 0.000E+00
 ETOT  3  -14.189536414368     -2.760E-05 2.662E-05 0.000E+00
 ETOT  4  -14.189536512900     -9.853E-08 1.549E-06 0.000E+00
 ETOT  5  -14.189536513314     -4.143E-10 8.079E-08 0.000E+00
 ETOT  6  -14.189536513316     -1.933E-12 5.681E-09 0.000E+00
 ETOT  7  -14.189536513316     -1.954E-14 4.490E-10 0.000E+00
 ETOT  8  -14.189536513316      1.599E-14 3.388E-11 0.000E+00
 ETOT  9  -14.189536513316      1.066E-14 2.803E-12 0.000E+00
 ETOT 10  -14.189536513316      1.776E-15 2.194E-13 0.000E+00
 ETOT 11  -14.189536513316     -1.776E-15 1.835E-14 0.000E+00
 ETOT 12  -14.189536513316      3.553E-15 1.456E-15 0.000E+00
 ETOT 13  -14.189536513316     -3.553E-15 1.224E-16 0.000E+00
 ETOT 14  -14.189536513316      3.553E-15 9.758E-18 0.000E+00
 ETOT 15  -14.189536513316     -3.553E-15 8.247E-19 0.000E+00
 ETOT 16  -14.189536513316      1.776E-15 6.583E-20 0.000E+00
 ETOT 17  -14.189536513316     -1.776E-15 9.957E-21 0.000E+00

 At SCF step   17   max residual=  9.96E-21 < tolwfr=  1.00E-20 =>converged.

 ----iterations are completed or convergence reached----

 dfpt_looppert: DFPT cycle converged with prtwf=-1. Will skip output of the 1st-order WFK file.
 dfpt_looppert : ek2=    2.9330445317E+01
          f-sum rule ratio=    1.0140793006E+00
 prteigrs : about to open file /scratch/users/j/a/jabreu/flow_simple_8atoms/flow/w276/t1/tmpdata/tmp_1WF1_EIG
 Expectation of eigenvalue derivatives (hartree) for nkpt=   2  k points:
  (in case of degenerate eigenvalues, averaged derivative)
 kpt#   1, nband= 32, wtk=  0.50000, kpt=  0.5000  0.5000  0.0000 (reduced coord)
   0.00000   -0.00000   -0.00000   -0.00000   -0.00000    0.00000    0.00000    0.00000
   0.00000    0.00000    0.00000    0.00000   -0.00000   -0.00000   -0.00000    0.00000
   0.00000    0.00000   -0.00000   -0.00000    0.00000    0.00000   -0.00000   -0.00000
   0.00000   -0.00000    0.00000    0.00000    0.00000    0.00009    0.00002   -0.00000
 prteigrs : prtvol=0 or 1, do not print more k-points.

 Eight components of 2nd-order total energy (hartree) are
 1,2,3: 0th-order hamiltonian combined with 1st-order wavefunctions
     kin0=   1.66499958E+01 eigvalue=   2.04710846E+00  local=  -9.45889793E+00
 4,5,6: 1st-order hamiltonian combined with 1st and 0th-order wfs
     kin1=  -2.97433975E+01  Hartree=   0.00000000E+00     xc=   0.00000000E+00
 7,8,9: eventually, occupation + non-local contributions
    edocc=   4.92344893E+00     enl0=   2.78812431E-02   enl1=   1.36432445E+00
 1-9 gives the relaxation energy (to be shifted if some occ is /=2.0)
   erelax=  -1.41895365E+01
  No Ewald or frozen-wf contrib.: the relaxation energy is the total one
 2DEtotal=   -0.1418953651E+02 Ha. Also 2DEtotal=   -0.386116924859E+03 eV
    (  non-var. 2DEtotal :   -1.4189536513E+01 Ha)

 CALCULATION OF EFFECTIVE MASSES
 NOTE : Additional infos (eff. mass eigenvalues, eigenvectors and, if degenerate, average mass) are available in stdout.

 K-point ( 0.500, 0.500, 0.000) | band =    23
 Effective mass tensor:
             -1.3749955699              0.0000354877             -0.0000051752
              0.0000354877             -1.3750025434             -0.0000051348
             -0.0000051752             -0.0000051348             -4.6189905456
 Effective mass tensor eigenvalues:
             -4.6189905456             -1.3750347152             -1.3749633980
 Angular average effective mass 1/(<1/m>)=  -1.7952848919
 Angular average effective mass for Frohlich model (<m**0.5>)**2=  -1.9331632347
 Effective masses along directions: (cart. coord. / red. coord. -> eff. mass)
    1:   1.000000  0.000000  0.000000 /   1.000000  0.000000  0.000000 ->  -1.3749955689
    2:   0.000000  1.000000  0.000000 /   0.000000  1.000000  0.000000 ->  -1.3750025424
    3:   0.000000  0.000000  1.000000 /   0.000000  0.000000  1.000000 ->  -4.6189905455
    4:   0.577350  0.577350  0.577350 /   0.577350  0.577350  0.577350 ->  -1.7952480488
    5:   0.000000  0.707107  0.707107 /   0.000000  0.707107  0.707107 ->  -2.1191664829
    6:   0.707107  0.000000  0.707107 /   0.707107  0.000000  0.707107 ->  -2.1191582293
    7:   0.707107  0.707107  0.000000 /   0.707107  0.707107  0.000000 ->  -1.3749635689

 COMMENTS:
 - At k-point ( 0.000, 0.000, 0.000), bands    24 through    25
   are DEGENERATE (effective mass tensor is therefore not defined).
   See Section IIIB Eqs. (67)-(70) and Appendix E of PRB 93 205147 (2016).
 - Angular average effective mass for Frohlich model is to be averaged over degenerate bands. See later.
 - Associated theta integrals calculated with ntheta=   1000 points.

 K-point ( 0.000, 0.000, 0.000) | band =    24
 Transport equivalent effective mass tensor:
              2.1738857516             -0.0000000001             -0.0000000000
             -0.0000000001              2.1738855260              0.0000000000
             -0.0000000000              0.0000000000              2.1738865389
 Transport equivalent effective mass tensor eigenvalues:
              2.1738865389              2.1738857516              2.1738855260
 Angular average effective mass 1/(<1/m>)=   2.1704071485
 Angular average effective mass for Frohlich model (<m**0.5>)**2=   2.1706290574
 Effective masses along directions: (cart. coord. / red. coord. -> eff. mass)
    1:   1.000000  0.000000  0.000000 /   1.000000  0.000000  0.000000 ->   2.2184663022
    2:   0.000000  1.000000  0.000000 /   0.000000  1.000000  0.000000 ->   2.2184663020
    3:   0.000000  0.000000  1.000000 /   0.000000  0.000000  1.000000 ->   2.2184663017
    4:   0.577350  0.577350  0.577350 /   0.577350  0.577350  0.577350 ->   2.1039409519
    5:   0.000000  0.707107  0.707107 /   0.000000  0.707107  0.707107 ->   2.1596864099
    6:   0.707107  0.000000  0.707107 /   0.707107  0.000000  0.707107 ->   2.1596864097
    7:   0.707107  0.707107  0.000000 /   0.707107  0.707107  0.000000 ->   2.1596864102

 K-point ( 0.000, 0.000, 0.000) | band =    25
 Transport equivalent effective mass tensor:
              2.0443670310             -0.0000000000              0.0000000000
             -0.0000000000              2.0443672345              0.0000000000
              0.0000000000              0.0000000000              2.0443662675
 Transport equivalent effective mass tensor eigenvalues:
              2.0443672345              2.0443670310              2.0443662675
 Angular average effective mass 1/(<1/m>)=   2.0414246916
 Angular average effective mass for Frohlich model (<m**0.5>)**2=   2.0416096512
 Effective masses along directions: (cart. coord. / red. coord. -> eff. mass)
    1:   1.000000  0.000000  0.000000 /   1.000000  0.000000  0.000000 ->   2.0006595808
    2:   0.000000  1.000000  0.000000 /   0.000000  1.000000  0.000000 ->   2.0006595793
    3:   0.000000  0.000000  1.000000 /   0.000000  0.000000  1.000000 ->   2.0006595812
    4:   0.577350  0.577350  0.577350 /   0.577350  0.577350  0.577350 ->   2.1039409503
    5:   0.000000  0.707107  0.707107 /   0.000000  0.707107  0.707107 ->   2.0510008649
    6:   0.707107  0.000000  0.707107 /   0.707107  0.000000  0.707107 ->   2.0510008660
    7:   0.707107  0.707107  0.000000 /   0.707107  0.707107  0.000000 ->   2.0510008645

 Angular average effective mass for Frohlich model, averaged over degenerate bands.
 Value of     (<<m**0.5>>)**2 =     2.105625E+00
 Absolute Value of <<m**0.5>> =     1.451077E+00

 END OF EFFECTIVE MASSES SECTION

 ---- first-order wavefunction calculations are completed ----

 Total localisation tensor (bohr^2) in cartesian coordinates
  WARNING : still subject to testing - especially symmetries.
      direction              matrix element
   alpha     beta       real part   imaginary part
     1        1       1.1157764819    0.0000000000
     1        2       0.0000000000    0.0000000000
     1        3       0.0000000000    0.0000000000
     2        1       0.0000000000    0.0000000000
     2        2       1.1157763013    0.0000000000
     2        3       0.0000000000    0.0000000000
     3        1       0.0000000000    0.0000000000
     3        2       0.0000000000    0.0000000000
     3        3       1.1481539195    0.0000000000

 respfn : d/dk was computed, but no 2DTE, so no DDB output.

== END DATASET(S) ==============================================================

 -outvars: echo values of variables after computation  --------
            acell      1.0000000000E+00  1.0000000000E+00  1.0000000000E+00 Bohr
              amu      6.94100000E+00  5.09415000E+01  3.20660000E+01
             ecut      4.20000000E+01 Hartree
           etotal     -1.4189536513E+01
            fcart      0.0000000000E+00  0.0000000000E+00  0.0000000000E+00
                       0.0000000000E+00  0.0000000000E+00  0.0000000000E+00
                       0.0000000000E+00  0.0000000000E+00  0.0000000000E+00
                       0.0000000000E+00  0.0000000000E+00  0.0000000000E+00
                       0.0000000000E+00  0.0000000000E+00  0.0000000000E+00
                       0.0000000000E+00  0.0000000000E+00  0.0000000000E+00
                       0.0000000000E+00  0.0000000000E+00  0.0000000000E+00
                       0.0000000000E+00  0.0000000000E+00  0.0000000000E+00
-          fftalg         512
           irdden           1
           irdwfk           1
           istwfk        1    1
              ixc     -116133
              kpt      5.00000000E-01  5.00000000E-01  0.00000000E+00
                       0.00000000E+00  0.00000000E+00  0.00000000E+00
           kptopt           0
P           mkmem           2
P          mkqmem           2
P          mk1mem           2
            natom           8
            nband          32
           nbdbuf           4
            ngfft          72      72      72
             nkpt           2
            nstep        2000
             nsym          24
           ntypat           3
              occ      2.000000  2.000000  2.000000  2.000000  2.000000  2.000000
                       2.000000  2.000000  2.000000  2.000000  2.000000  2.000000
                       2.000000  2.000000  2.000000  2.000000  2.000000  2.000000
                       2.000000  2.000000  2.000000  2.000000  2.000000  0.000000
                       0.000000  0.000000  0.000000  0.000000  0.000000  0.000000
                       0.000000  0.000000
        optdriver           1
            prtwf          -1
            rfdir           1       1       1
           rfelfd           2
            rprim      1.1127931757E+01  0.0000000000E+00  0.0000000000E+00
                       0.0000000000E+00  1.1127931757E+01  0.0000000000E+00
                       0.0000000000E+00  0.0000000000E+00  1.1127931757E+01
          spgroup         215
           strten      0.0000000000E+00  0.0000000000E+00  0.0000000000E+00
                       0.0000000000E+00  0.0000000000E+00  0.0000000000E+00
           symrel      1  0  0   0  1  0   0  0  1      -1  0  0   0  1  0   0  0 -1
                      -1  0  0   0 -1  0   0  0  1       1  0  0   0 -1  0   0  0 -1
                       0  1  0   1  0  0   0  0  1       0 -1  0   1  0  0   0  0 -1
                       0 -1  0  -1  0  0   0  0  1       0  1  0  -1  0  0   0  0 -1
                       0  0  1   1  0  0   0  1  0       0  0 -1   1  0  0   0 -1  0
                       0  0 -1  -1  0  0   0  1  0       0  0  1  -1  0  0   0 -1  0
                       1  0  0   0  0  1   0  1  0      -1  0  0   0  0  1   0 -1  0
                      -1  0  0   0  0 -1   0  1  0       1  0  0   0  0 -1   0 -1  0
                       0  1  0   0  0  1   1  0  0       0 -1  0   0  0  1  -1  0  0
                       0 -1  0   0  0 -1   1  0  0       0  1  0   0  0 -1  -1  0  0
                       0  0  1   0  1  0   1  0  0       0  0 -1   0  1  0  -1  0  0
                       0  0 -1   0 -1  0   1  0  0       0  0  1   0 -1  0  -1  0  0
           tolwfr      1.00000000E-20
            typat      1  1  1  2  3  3  3  3
           useylm           1
              wtk        0.50000    0.50000
           xangst      0.0000000000E+00  0.0000000000E+00  2.9443239321E+00
                       0.0000000000E+00  2.9443239321E+00  0.0000000000E+00
                       2.9443239321E+00  0.0000000000E+00  0.0000000000E+00
                       0.0000000000E+00  0.0000000000E+00  0.0000000000E+00
                       1.2368398201E+00  1.2368398201E+00  1.2368398201E+00
                       1.2368398201E+00  4.6518080442E+00  4.6518080442E+00
                       4.6518080442E+00  1.2368398201E+00  4.6518080442E+00
                       4.6518080442E+00  4.6518080442E+00  1.2368398201E+00
            xcart      0.0000000000E+00  0.0000000000E+00  5.5639658783E+00
                       0.0000000000E+00  5.5639658783E+00  0.0000000000E+00
                       5.5639658783E+00  0.0000000000E+00  0.0000000000E+00
                       0.0000000000E+00  0.0000000000E+00  0.0000000000E+00
                       2.3372885303E+00  2.3372885303E+00  2.3372885303E+00
                       2.3372885303E+00  8.7906432262E+00  8.7906432262E+00
                       8.7906432262E+00  2.3372885303E+00  8.7906432262E+00
                       8.7906432262E+00  8.7906432262E+00  2.3372885303E+00
             xred      0.0000000000E+00  0.0000000000E+00  5.0000000000E-01
                       0.0000000000E+00  5.0000000000E-01  0.0000000000E+00
                       5.0000000000E-01  0.0000000000E+00  0.0000000000E+00
                       0.0000000000E+00  0.0000000000E+00  0.0000000000E+00
                       2.1003800000E-01  2.1003800000E-01  2.1003800000E-01
                       2.1003800000E-01  7.8996200000E-01  7.8996200000E-01
                       7.8996200000E-01  2.1003800000E-01  7.8996200000E-01
                       7.8996200000E-01  7.8996200000E-01  2.1003800000E-01
            znucl        3.00000   23.00000   16.00000

- Timing analysis has been suppressed with timopt=0

 Suggested references for the acknowledgment of ABINIT usage.

 Calculation completed.
.Delivered  14 WARNINGs and  15 COMMENTs to log file.