.Version 9.7.2 of ABINIT

 ABINIT is a project of the Universite Catholique de Louvain,
 Corning Inc. and other collaborators, see ~abinit/doc/developers/contributors.txt .
 acknowledgments of the ABINIT effort.

.Starting date : Wed  1 Dec 2021.
- ( at 21h25 )

- input  file    -> /scratch/users/j/a/jabreu/flow_simple_remain_atoms/flow/w195/t1/run.abi
- output file    -> /scratch/users/j/a/jabreu/flow_simple_remain_atoms/flow/w195/t1/run.abo
- root for input  files -> /scratch/users/j/a/jabreu/flow_simple_remain_atoms/flow/w195/t1/indata/in
- root for output files -> /scratch/users/j/a/jabreu/flow_simple_remain_atoms/flow/w195/t1/outdata/out

 Symmetries : space group P6_3/m m c (#194); Bravais hP (primitive hexag.)
     intxc =       0      iscf =       7    lmnmax =      18     lnmax =       6
     mgfft =     120  mpssoang =       3    mqgrid =    5605     natom =       6
  nloc_mem =       1    nspden =       1   nspinor =       1    nsppol =       1
      nsym =      24    n1xccc =    2501    ntypat =       3    occopt =       1
   xclevel =       2
-    mband =          53        mffmem =           1         mkmem =           1
-   mkqmem =           1        mk1mem =           1           mpw =       13635
      nfft =      276480          nkpt =           1
  Rough estimation (10% accuracy) of disk space for files :

------------- Echo of variables that govern the present computation ------------
-
- outvars: echo of selected default values
-   iomode0 =  0 , fftalg0 =512 , wfoptalg0 =  0
-
- outvars: echo of global parameters not present in the input file
-  max_nthreads =    0
-
 -outvars: echo values of preprocessed input variables --------
            acell      1.0000000000E+00  1.0000000000E+00  1.0000000000E+00 Bohr
              amu      3.90983000E+01  6.53900000E+01  7.49215900E+01
             ecut      4.20000000E+01 Hartree
-          fftalg         512
           irdden           1
           irdwfk           1
           istwfk        1
              ixc     -116133
           kptopt           0
P           mkmem           1
P          mkqmem           1
P          mk1mem           1
            natom           6
            nband          53
           nbdbuf           4
            ngfft          48      48     120
             nkpt           1
            nstep        2000
             nsym          24
           ntypat           3
              occ      2.000000  2.000000  2.000000  2.000000  2.000000  2.000000
                       2.000000  2.000000  2.000000  2.000000  2.000000  2.000000
                       2.000000  2.000000  2.000000  2.000000  2.000000  2.000000
                       2.000000  2.000000  2.000000  2.000000  2.000000  2.000000
                       2.000000  2.000000  2.000000  2.000000  2.000000  2.000000
                       2.000000  2.000000  2.000000  2.000000  2.000000  2.000000
                       2.000000  2.000000  2.000000  2.000000  2.000000  2.000000
                       2.000000  2.000000  0.000000  0.000000  0.000000  0.000000
                       0.000000  0.000000  0.000000  0.000000  0.000000
        optdriver           1
            prtwf          -1
            rfdir           1       1       1
           rfelfd           2
            rprim      7.9186081216E+00  0.0000000000E+00  0.0000000000E+00
                      -3.9593040608E+00  6.8577157959E+00  0.0000000000E+00
                       0.0000000000E+00  0.0000000000E+00  1.9209533197E+01
          spgroup         194
           symrel      1  0  0   0  1  0   0  0  1      -1  0  0   0 -1  0   0  0 -1
                       0  1  0   1  0  0   0  0  1       0 -1  0  -1  0  0   0  0 -1
                       1  1  0  -1  0  0   0  0  1      -1 -1  0   1  0  0   0  0 -1
                      -1  0  0   1  1  0   0  0  1       1  0  0  -1 -1  0   0  0 -1
                       0  1  0  -1 -1  0   0  0  1       0 -1  0   1  1  0   0  0 -1
                      -1 -1  0   0  1  0   0  0  1       1  1  0   0 -1  0   0  0 -1
                      -1  0  0   0 -1  0   0  0  1       1  0  0   0  1  0   0  0 -1
                       0 -1  0  -1  0  0   0  0  1       0  1  0   1  0  0   0  0 -1
                      -1 -1  0   1  0  0   0  0  1       1  1  0  -1  0  0   0  0 -1
                       1  0  0  -1 -1  0   0  0  1      -1  0  0   1  1  0   0  0 -1
                       0 -1  0   1  1  0   0  0  1       0  1  0  -1 -1  0   0  0 -1
                       1  1  0   0 -1  0   0  0  1      -1 -1  0   0  1  0   0  0 -1
            tnons      0.0000000  0.0000000  0.0000000     0.0000000  0.0000000 -0.0000000
                       0.0000000  0.0000000  0.5000000     0.0000000  0.0000000  0.5000000
                       0.0000000  0.0000000  0.5000000     0.0000000  0.0000000  0.5000000
                       0.0000000  0.0000000  0.0000000     0.0000000  0.0000000 -0.0000000
                       0.0000000  0.0000000  0.0000000     0.0000000  0.0000000 -0.0000000
                       0.0000000  0.0000000  0.5000000     0.0000000  0.0000000  0.5000000
                       0.0000000  0.0000000  0.5000000     0.0000000  0.0000000  0.5000000
                       0.0000000  0.0000000  0.0000000     0.0000000  0.0000000 -0.0000000
                       0.0000000  0.0000000  0.0000000     0.0000000  0.0000000 -0.0000000
                       0.0000000  0.0000000  0.5000000     0.0000000  0.0000000  0.5000000
                       0.0000000  0.0000000  0.5000000     0.0000000  0.0000000  0.5000000
                       0.0000000  0.0000000  0.0000000     0.0000000  0.0000000 -0.0000000
           tolwfr      1.00000000E-20
            typat      1  1  2  2  3  3
           useylm           1
           xangst      0.0000000000E+00  0.0000000000E+00 -5.6428457216E-16
                       0.0000000000E+00  0.0000000000E+00  5.0826235778E+00
                       2.3500188843E-16  2.4192979348E+00  2.5413117889E+00
                       2.0951734709E+00  1.2096489674E+00  7.6239353667E+00
                       2.3500188843E-16  2.4192979348E+00  7.6239353667E+00
                       2.0951734709E+00  1.2096489674E+00  2.5413117889E+00
            xcart      0.0000000000E+00  0.0000000000E+00 -1.0663433024E-15
                       0.0000000000E+00  0.0000000000E+00  9.6047665986E+00
                       4.4408920985E-16  4.5718105306E+00  4.8023832993E+00
                       3.9593040608E+00  2.2859052653E+00  1.4407149898E+01
                       4.4408920985E-16  4.5718105306E+00  1.4407149898E+01
                       3.9593040608E+00  2.2859052653E+00  4.8023832993E+00
             xred      0.0000000000E+00  0.0000000000E+00 -5.5511151231E-17
                       0.0000000000E+00  0.0000000000E+00  5.0000000000E-01
                       3.3333333333E-01  6.6666666667E-01  2.5000000000E-01
                       6.6666666667E-01  3.3333333333E-01  7.5000000000E-01
                       3.3333333333E-01  6.6666666667E-01  7.5000000000E-01
                       6.6666666667E-01  3.3333333333E-01  2.5000000000E-01
            znucl       19.00000   30.00000   33.00000

 chkinp: Checking input parameters for consistency.

== DATASET  1 ==================================================================
-   mpi_nproc: 1, omp_nthreads: -1 (-1 if OMP is not activated)

--- !DatasetInfo
iteration_state: {dtset: 1, }
dimensions: {natom: 6, nkpt: 1, mband: 53, nsppol: 1, nspinor: 1, nspden: 1, mpw: 13635, }
cutoff_energies: {ecut:  42.0, pawecutdg:  -1.0, }
electrons: {nelect:   8.80000000E+01, charge:   0.00000000E+00, occopt:   1.00000000E+00, tsmear:   1.00000000E-02, }
meta: {optdriver: 1, rfelfd: 2, }
...

 Real(R)+Recip(G) space primitive vectors, cartesian coordinates (Bohr,Bohr^-1):
 R(1)=  7.9186081  0.0000000  0.0000000  G(1)=  0.1262848  0.0729106  0.0000000
 R(2)= -3.9593041  6.8577158  0.0000000  G(2)=  0.0000000  0.1458211  0.0000000
 R(3)=  0.0000000  0.0000000 19.2095332  G(3)=  0.0000000  0.0000000  0.0520575
 Unit cell volume ucvol=  1.0431461E+03 bohr^3
 Angles (23,13,12)=  9.00000000E+01  9.00000000E+01  1.20000000E+02 degrees

 getcut: wavevector=  0.0000  0.0000  0.0000  ngfft=  48  48 120
         ecut(hartree)=     42.000   => boxcut(ratio)=   2.07779

--- Pseudopotential description ------------------------------------------------
- pspini: atom type   1  psp file is /scratch/users/j/a/jabreu/pseudos/PBEsol/K.psp8
- pspatm: opening atomic psp file    /scratch/users/j/a/jabreu/pseudos/PBEsol/K.psp8
- K     ONCVPSP-3.3.0  r_core=   1.36296   1.46408   1.61068
- 19.00000   9.00000    180112                znucl, zion, pspdat
    8 -116133    2    4       400   0.00000   pspcod,pspxc,lmax,lloc,mmax,r2well
    3.99000000000000    5.00000000000000    0.00000000000000   rchrg,fchrg,qchrg
     nproj     2     2     2
     extension_switch     1
  pspatm : epsatm=    8.32487830
         --- l  ekb(1:nproj) -->
             0   10.921326    0.816676
             1    4.431000    0.560368
             2   -3.384038   -1.043186
 pspatm: atomic psp has been read  and splines computed

- pspini: atom type   2  psp file is /scratch/users/j/a/jabreu/pseudos/PBEsol/Zn.psp8
- pspatm: opening atomic psp file    /scratch/users/j/a/jabreu/pseudos/PBEsol/Zn.psp8
- Zn    ONCVPSP-3.3.0  r_core=   1.35823   1.66358   1.85211
- 30.00000  20.00000    180112                znucl, zion, pspdat
    8 -116133    2    4       600   0.00000   pspcod,pspxc,lmax,lloc,mmax,r2well
    5.99000000000000    2.50000000000000    0.00000000000000   rchrg,fchrg,qchrg
     nproj     2     2     2
     extension_switch     1
  pspatm : epsatm=   26.57343589
         --- l  ekb(1:nproj) -->
             0    2.830835   -1.519107
             1   -4.626739   -1.324150
             2   -6.948510   -2.555500
 pspatm: atomic psp has been read  and splines computed

- pspini: atom type   3  psp file is /scratch/users/j/a/jabreu/pseudos/PBEsol/As.psp8
- pspatm: opening atomic psp file    /scratch/users/j/a/jabreu/pseudos/PBEsol/As.psp8
- As    ONCVPSP-3.3.0  r_core=   1.76603   1.70395   1.80867
- 33.00000  15.00000    180112                znucl, zion, pspdat
    8 -116133    2    4       600   0.00000   pspcod,pspxc,lmax,lloc,mmax,r2well
    5.99000000000000    5.00000000000000    0.00000000000000   rchrg,fchrg,qchrg
     nproj     2     2     2
     extension_switch     1
  pspatm : epsatm=   28.79155382
         --- l  ekb(1:nproj) -->
             0    8.270760    0.868950
             1    4.919053    0.756587
             2  -10.048665   -4.076802
 pspatm: atomic psp has been read  and splines computed

   1.12094168E+04                                ecore*ucvol(ha*bohr**3)

 ==>  initialize data related to q vector <==

 The list of irreducible perturbations for this q vector is:
    1)    idir= 1    ipert=   7
    2)    idir= 2    ipert=   7
    3)    idir= 3    ipert=   7

 Perturbation wavevector (in red.coord.)   0.000000  0.000000  0.000000
 Perturbation : derivative vs k along direction   1

 dfpt_looppert : COMMENT -
  In a d/dk calculation, iscf is set to -3 automatically.
[...]
   0.00000    0.00000   -0.00000   -0.00000   -0.00000    0.00000   -0.00000   -0.00000
  -0.00000   -0.00000    0.00000    0.00000   -0.00000    0.00000    0.00000    0.00000
   0.00000   -0.00000   -0.00000   -0.00000    0.00022

 Eight components of 2nd-order total energy (hartree) are
 1,2,3: 0th-order hamiltonian combined with 1st-order wavefunctions
     kin0=   1.45823260E+02 eigvalue=   1.40811769E+01  local=  -5.91506110E+01
 4,5,6: 1st-order hamiltonian combined with 1st and 0th-order wfs
     kin1=  -3.28756846E+02  Hartree=   0.00000000E+00     xc=   0.00000000E+00
 7,8,9: eventually, occupation + non-local contributions
    edocc=   1.02850558E+02     enl0=   5.30826904E+00   enl1=  -8.90684604E+01
 1-9 gives the relaxation energy (to be shifted if some occ is /=2.0)
   erelax=  -2.08912653E+02
  No Ewald or frozen-wf contrib.: the relaxation energy is the total one
 2DEtotal=   -0.2089126531E+03 Ha. Also 2DEtotal=   -0.568480239567E+04 eV
    (  non-var. 2DEtotal :   -2.0891265306E+02 Ha)

 Perturbation wavevector (in red.coord.)   0.000000  0.000000  0.000000
 Perturbation : derivative vs k along direction   2
 The set of symmetries contains only one element for this perturbation.
 symkpt : not enough symmetry to change the number of k points.

[...]

 Perturbation wavevector (in red.coord.)   0.000000  0.000000  0.000000
 Perturbation : derivative vs k along direction   3
 The set of symmetries contains only one element for this perturbation.
 symkpt : not enough symmetry to change the number of k points.

 Initialisation of the first-order wave-functions :
  ireadwf=   0

--- !BeginCycle
iteration_state: {dtset: 1, }
solver: {iscf: 7, nstep: 2000, nline: 4, wfoptalg: 0, }
tolerances: {tolwfr: 1.00E-20, }
...

     iter   2DEtotal(Ha)        deltaE(Ha) residm    vres2
-ETOT  1  -15.800570147315     -1.580E+01 8.856E-03 0.000E+00
 ETOT  2  -15.825598585240     -2.503E-02 1.572E-04 0.000E+00
 ETOT  3  -15.825978620457     -3.800E-04 1.083E-05 0.000E+00
 ETOT  4  -15.825989830278     -1.121E-05 2.185E-07 0.000E+00
 ETOT  5  -15.825990246677     -4.164E-07 1.422E-08 0.000E+00
 ETOT  6  -15.825990264066     -1.739E-08 4.660E-10 0.000E+00
 ETOT  7  -15.825990264960     -8.940E-10 5.810E-11 0.000E+00
 ETOT  8  -15.825990265011     -5.122E-11 1.714E-12 0.000E+00
 ETOT  9  -15.825990265014     -3.146E-12 2.216E-13 0.000E+00
 ETOT 10  -15.825990265014     -1.954E-13 7.463E-15 0.000E+00
 ETOT 11  -15.825990265014      7.105E-15 9.138E-16 0.000E+00
 ETOT 12  -15.825990265014     -5.329E-15 3.375E-17 0.000E+00
 ETOT 13  -15.825990265014     -1.243E-14 3.961E-18 0.000E+00
 ETOT 14  -15.825990265014      1.066E-14 1.549E-19 0.000E+00
 ETOT 15  -15.825990265014     -7.105E-15 1.766E-20 0.000E+00
 ETOT 16  -15.825990265014      1.066E-14 9.277E-21 0.000E+00

 At SCF step   16   max residual=  9.28E-21 < tolwfr=  1.00E-20 =>converged.

 ----iterations are completed or convergence reached----

 dfpt_looppert: DFPT cycle converged with prtwf=-1. Will skip output of the 1st-order WFK file.
 dfpt_looppert : ek2=    1.8829499735E+01
          f-sum rule ratio=    1.0575980421E+00
 prteigrs : about to open file /scratch/users/j/a/jabreu/flow_simple_remain_atoms/flow/w195/t1/tmpdata/tmp_1WF1_EIG
 Expectation of eigenvalue derivatives (hartree) for nkpt=   1  k points:
  (in case of degenerate eigenvalues, averaged derivative)
 kpt#   1, nband= 53, wtk=  1.00000, kpt=  0.0000  0.0000  0.0000 (reduced coord)
  -0.00000   -0.00000    0.00000   -0.00000    0.00000    0.00000    0.00000    0.00000
   0.00000    0.00000   -0.00000   -0.00000    0.00000    0.00000    0.00000    0.00000
   0.00000   -0.00000    0.00000    0.00000    0.00000    0.00000   -0.00000   -0.00000
  -0.00000   -0.00000   -0.00000    0.00000   -0.00000   -0.00000    0.00000    0.00000
  -0.00000   -0.00000   -0.00000   -0.00000   -0.00000   -0.00000    0.00000   -0.00000
   0.00000    0.00000   -0.00000   -0.00000   -0.00000    0.00000    0.00000   -0.00000
  -0.00000   -0.00000    0.00000    0.00000    0.00000

 Eight components of 2nd-order total energy (hartree) are
 1,2,3: 0th-order hamiltonian combined with 1st-order wavefunctions
     kin0=   2.08610614E+01 eigvalue=   1.67568495E+00  local=  -8.51083217E+00
 4,5,6: 1st-order hamiltonian combined with 1st and 0th-order wfs
     kin1=  -1.99140421E+01  Hartree=   0.00000000E+00     xc=   0.00000000E+00
 7,8,9: eventually, occupation + non-local contributions
    edocc=   1.53889726E+00     enl0=   2.61178795E-01   enl1=  -1.17379385E+01
 1-9 gives the relaxation energy (to be shifted if some occ is /=2.0)
   erelax=  -1.58259903E+01
  No Ewald or frozen-wf contrib.: the relaxation energy is the total one
 2DEtotal=   -0.1582599027E+02 Ha. Also 2DEtotal=   -0.430647096066E+03 eV
    (  non-var. 2DEtotal :   -1.5825990265E+01 Ha)

 CALCULATION OF EFFECTIVE MASSES
 NOTE : Additional infos (eff. mass eigenvalues, eigenvectors and, if degenerate, average mass) are available in stdout.

 COMMENTS:
 - At k-point ( 0.000, 0.000, 0.000), bands    43 through    44
   are DEGENERATE (effective mass tensor is therefore not defined).
   See Section IIIB Eqs. (67)-(70) and Appendix E of PRB 93 205147 (2016).
 - Angular average effective mass for Frohlich model is to be averaged over degenerate bands. See later.
 - Associated theta integrals calculated with ntheta=   1000 points.

 K-point ( 0.000, 0.000, 0.000) | band =    43
 Transport equivalent effective mass tensor:
             -0.0287258508              0.0000000132             -0.0000001060
              0.0000000132             -0.0287257587              0.0000002054
             -0.0000001060              0.0000002054             -3.9142870631
 Transport equivalent effective mass tensor eigenvalues:
             -3.9142870631             -0.0287258527             -0.0287257568
 Angular average effective mass 1/(<1/m>)=  -0.0429311774
 Angular average effective mass for Frohlich model (<m**0.5>)**2=  -0.0638173278
 Effective masses along directions: (cart. coord. / red. coord. -> eff. mass)
    1:   1.000000  0.000000  0.000000 /   0.894427 -0.447214  0.000000 ->  -0.0287258047
    2:   0.000000  1.000000  0.000000 /   0.000000  1.000000  0.000000 ->  -0.0287258047
    3:   0.000000  0.000000  1.000000 /   0.000000  0.000000  1.000000 ->  -3.9142559104
    4:   0.577350  0.577350  0.577350 /   0.377457  0.138159  0.915663 ->  -0.0429311758
    5:   0.000000  0.707107  0.707107 /   0.000000  0.336213  0.941786 ->  -0.0570330547
    6:   0.707107  0.000000  0.707107 /   0.374375 -0.187188  0.908187 ->  -0.0570330641
    7:   0.707107  0.707107  0.000000 /   0.939071  0.343724  0.000000 ->  -0.0287258047

 K-point ( 0.000, 0.000, 0.000) | band =    44
 Transport equivalent effective mass tensor:
             -0.4573899851             -0.0000002099             -0.0000004482
             -0.0000002099             -0.4573914526              0.0000023840
             -0.0000004482              0.0000023840             -3.9142870697
 Transport equivalent effective mass tensor eigenvalues:
             -3.9142870697             -0.4573914820             -0.4573899556
 Angular average effective mass 1/(<1/m>)=  -0.6482136740
 Angular average effective mass for Frohlich model (<m**0.5>)**2=  -0.7732929563
 Effective masses along directions: (cart. coord. / red. coord. -> eff. mass)
    1:   1.000000  0.000000  0.000000 /   0.894427 -0.447214  0.000000 ->  -0.4573907186
    2:   0.000000  1.000000  0.000000 /   0.000000  1.000000  0.000000 ->  -0.4573907186
    3:   0.000000  0.000000  1.000000 /   0.000000  0.000000  1.000000 ->  -3.9143182249
    4:   0.577350  0.577350  0.577350 /   0.377457  0.138159  0.915663 ->  -0.6482134875
    5:   0.000000  0.707107  0.707107 /   0.000000  0.336213  0.941786 ->  -0.8190706898
    6:   0.707107  0.000000  0.707107 /   0.374375 -0.187188  0.908187 ->  -0.8190716764
    7:   0.707107  0.707107  0.000000 /   0.939071  0.343724  0.000000 ->  -0.4573907180

 Angular average effective mass for Frohlich model, averaged over degenerate bands.
 Value of     (<<m**0.5>>)**2 =     3.203513E-01
 Absolute Value of <<m**0.5>> =     5.659958E-01

 K-point ( 0.000, 0.000, 0.000) | band =    45
 Effective mass tensor:
              0.0320269080             -0.0000000000              0.0000000001
             -0.0000000000              0.0320269080             -0.0000000002
              0.0000000001             -0.0000000002              0.2915060610
 Effective mass tensor eigenvalues:
              0.0320269080              0.0320269080              0.2915060610
 Angular average effective mass 1/(<1/m>)=   0.0455387578
 Angular average effective mass for Frohlich model (<m**0.5>)**2=   0.0546948645
 Effective masses along directions: (cart. coord. / red. coord. -> eff. mass)
    1:   1.000000  0.000000  0.000000 /   0.894427 -0.447214  0.000000 ->   0.0320269080
    2:   0.000000  1.000000  0.000000 /   0.000000  1.000000  0.000000 ->   0.0320269080
    3:   0.000000  0.000000  1.000000 /   0.000000  0.000000  1.000000 ->   0.2915060610
    4:   0.577350  0.577350  0.577350 /   0.377457  0.138159  0.915663 ->   0.0455387577
    5:   0.000000  0.707107  0.707107 /   0.000000  0.336213  0.941786 ->   0.0577130535
    6:   0.707107  0.000000  0.707107 /   0.374375 -0.187188  0.908187 ->   0.0577130537
    7:   0.707107  0.707107  0.000000 /   0.939071  0.343724  0.000000 ->   0.0320269080

 END OF EFFECTIVE MASSES SECTION

 ---- first-order wavefunction calculations are completed ----

 Total localisation tensor (bohr^2) in cartesian coordinates
  WARNING : still subject to testing - especially symmetries.
      direction              matrix element
   alpha     beta       real part   imaginary part
     1        1      48.3196196883    0.0000000000
     1        2     -16.7384071133    0.0000000000
     1        3       0.0000000000    0.0000000000
     2        1     -16.7384071133    0.0000000000
     2        2      28.9917715579    0.0000000000
     2        3       0.0000000000    0.0000000000
     3        1       0.0000000000    0.0000000000
     3        2       0.0000000000    0.0000000000
     3        3       1.0183120724    0.0000000000

 respfn : d/dk was computed, but no 2DTE, so no DDB output.

== END DATASET(S) ==============================================================

 -outvars: echo values of variables after computation  --------
            acell      1.0000000000E+00  1.0000000000E+00  1.0000000000E+00 Bohr
              amu      3.90983000E+01  6.53900000E+01  7.49215900E+01
             ecut      4.20000000E+01 Hartree
           etotal     -1.5825990265E+01
            fcart      0.0000000000E+00  0.0000000000E+00  0.0000000000E+00
                       0.0000000000E+00  0.0000000000E+00  0.0000000000E+00
                       0.0000000000E+00  0.0000000000E+00  0.0000000000E+00
                       0.0000000000E+00  0.0000000000E+00  0.0000000000E+00
                       0.0000000000E+00  0.0000000000E+00  0.0000000000E+00
                       0.0000000000E+00  0.0000000000E+00  0.0000000000E+00
-          fftalg         512
           irdden           1
           irdwfk           1
           istwfk        1
              ixc     -116133
           kptopt           0
P           mkmem           1
P          mkqmem           1
P          mk1mem           1
            natom           6
            nband          53
           nbdbuf           4
            ngfft          48      48     120
             nkpt           1
            nstep        2000
             nsym          24
           ntypat           3
              occ      2.000000  2.000000  2.000000  2.000000  2.000000  2.000000
                       2.000000  2.000000  2.000000  2.000000  2.000000  2.000000
                       2.000000  2.000000  2.000000  2.000000  2.000000  2.000000
                       2.000000  2.000000  2.000000  2.000000  2.000000  2.000000
                       2.000000  2.000000  2.000000  2.000000  2.000000  2.000000
                       2.000000  2.000000  2.000000  2.000000  2.000000  2.000000
                       2.000000  2.000000  2.000000  2.000000  2.000000  2.000000
                       2.000000  2.000000  0.000000  0.000000  0.000000  0.000000
                       0.000000  0.000000  0.000000  0.000000  0.000000
        optdriver           1
            prtwf          -1
            rfdir           1       1       1
           rfelfd           2
            rprim      7.9186081216E+00  0.0000000000E+00  0.0000000000E+00
                      -3.9593040608E+00  6.8577157959E+00  0.0000000000E+00
                       0.0000000000E+00  0.0000000000E+00  1.9209533197E+01
          spgroup         194
           strten      0.0000000000E+00  0.0000000000E+00  0.0000000000E+00
                       0.0000000000E+00  0.0000000000E+00  0.0000000000E+00
           symrel      1  0  0   0  1  0   0  0  1      -1  0  0   0 -1  0   0  0 -1
                       0  1  0   1  0  0   0  0  1       0 -1  0  -1  0  0   0  0 -1
                       1  1  0  -1  0  0   0  0  1      -1 -1  0   1  0  0   0  0 -1
                      -1  0  0   1  1  0   0  0  1       1  0  0  -1 -1  0   0  0 -1
                       0  1  0  -1 -1  0   0  0  1       0 -1  0   1  1  0   0  0 -1
                      -1 -1  0   0  1  0   0  0  1       1  1  0   0 -1  0   0  0 -1
                      -1  0  0   0 -1  0   0  0  1       1  0  0   0  1  0   0  0 -1
                       0 -1  0  -1  0  0   0  0  1       0  1  0   1  0  0   0  0 -1
                      -1 -1  0   1  0  0   0  0  1       1  1  0  -1  0  0   0  0 -1
                       1  0  0  -1 -1  0   0  0  1      -1  0  0   1  1  0   0  0 -1
                       0 -1  0   1  1  0   0  0  1       0  1  0  -1 -1  0   0  0 -1
                       1  1  0   0 -1  0   0  0  1      -1 -1  0   0  1  0   0  0 -1
            tnons      0.0000000  0.0000000  0.0000000     0.0000000  0.0000000 -0.0000000
                       0.0000000  0.0000000  0.5000000     0.0000000  0.0000000  0.5000000
                       0.0000000  0.0000000  0.5000000     0.0000000  0.0000000  0.5000000
                       0.0000000  0.0000000  0.0000000     0.0000000  0.0000000 -0.0000000
                       0.0000000  0.0000000  0.0000000     0.0000000  0.0000000 -0.0000000
                       0.0000000  0.0000000  0.5000000     0.0000000  0.0000000  0.5000000
                       0.0000000  0.0000000  0.5000000     0.0000000  0.0000000  0.5000000
                       0.0000000  0.0000000  0.0000000     0.0000000  0.0000000 -0.0000000
                       0.0000000  0.0000000  0.0000000     0.0000000  0.0000000 -0.0000000
                       0.0000000  0.0000000  0.5000000     0.0000000  0.0000000  0.5000000
                       0.0000000  0.0000000  0.5000000     0.0000000  0.0000000  0.5000000
                       0.0000000  0.0000000  0.0000000     0.0000000  0.0000000 -0.0000000
           tolwfr      1.00000000E-20
            typat      1  1  2  2  3  3
           useylm           1
           xangst      0.0000000000E+00  0.0000000000E+00 -5.6428457216E-16
                       0.0000000000E+00  0.0000000000E+00  5.0826235778E+00
                       2.3500188843E-16  2.4192979348E+00  2.5413117889E+00
                       2.0951734709E+00  1.2096489674E+00  7.6239353667E+00
                       2.3500188843E-16  2.4192979348E+00  7.6239353667E+00
                       2.0951734709E+00  1.2096489674E+00  2.5413117889E+00
            xcart      0.0000000000E+00  0.0000000000E+00 -1.0663433024E-15
                       0.0000000000E+00  0.0000000000E+00  9.6047665986E+00
                       4.4408920985E-16  4.5718105306E+00  4.8023832993E+00
                       3.9593040608E+00  2.2859052653E+00  1.4407149898E+01
                       4.4408920985E-16  4.5718105306E+00  1.4407149898E+01
                       3.9593040608E+00  2.2859052653E+00  4.8023832993E+00
             xred      0.0000000000E+00  0.0000000000E+00 -5.5511151231E-17
                       0.0000000000E+00  0.0000000000E+00  5.0000000000E-01
                       3.3333333333E-01  6.6666666667E-01  2.5000000000E-01
                       6.6666666667E-01  3.3333333333E-01  7.5000000000E-01
                       3.3333333333E-01  6.6666666667E-01  7.5000000000E-01
                       6.6666666667E-01  3.3333333333E-01  2.5000000000E-01
            znucl       19.00000   30.00000   33.00000

- Timing analysis has been suppressed with timopt=0

 Suggested references for the acknowledgment of ABINIT usage.

 Calculation completed.
.Delivered   2 WARNINGs and   5 COMMENTs to log file.