.Version 9.5.1 of ABINIT

 ABINIT is a project of the Universite Catholique de Louvain,
 Corning Inc. and other collaborators, see ~abinit/doc/developers/contributors.txt .
 acknowledgments of the ABINIT effort.

.Starting date : Tue 11 May 2021.
- ( at 21h27 )

- input  file    -> /scratch/users/j/a/jabreu/flow_simple_8atoms/flow/w307/t1/run.abi
- output file    -> /scratch/users/j/a/jabreu/flow_simple_8atoms/flow/w307/t1/run.abo
- root for input  files -> /scratch/users/j/a/jabreu/flow_simple_8atoms/flow/w307/t1/indata/in
- root for output files -> /scratch/users/j/a/jabreu/flow_simple_8atoms/flow/w307/t1/outdata/out

 Symmetries : space group P6_3/m m c (#194); Bravais hP (primitive hexag.)
     intxc =       0      iscf =       7    lmnmax =      18     lnmax =       6
     mgfft =      90  mpssoang =       3    mqgrid =    4262     natom =       8
  nloc_mem =       1    nspden =       1   nspinor =       1    nsppol =       1
      nsym =      24    n1xccc =    2501    ntypat =       2    occopt =       1
   xclevel =       2
-    mband =          33        mffmem =           1         mkmem =           2
-   mkqmem =           2        mk1mem =           2           mpw =       11088
      nfft =      207360          nkpt =           2
  Rough estimation (10% accuracy) of disk space for files :

------------- Echo of variables that govern the present computation ------------
-
- outvars: echo of selected default values
-   iomode0 =  0 , fftalg0 =512 , wfoptalg0 =  0
-
- outvars: echo of global parameters not present in the input file
-  max_nthreads =    0
-
 -outvars: echo values of preprocessed input variables --------
            acell      1.0000000000E+00  1.0000000000E+00  1.0000000000E+00 Bohr
              amu      6.94100000E+00  7.49215900E+01
             ecut      4.20000000E+01 Hartree
-          fftalg         512
           irdden           1
           irdwfk           1
           istwfk        1    0
              ixc     -116133
              kpt      0.00000000E+00  0.00000000E+00  0.00000000E+00
                       3.33333333E-01  3.33333333E-01  0.00000000E+00
           kptopt           0
P           mkmem           2
P          mkqmem           2
P          mk1mem           2
            natom           8
            nband          33
           nbdbuf           4
            ngfft          48      48      90
             nkpt           2
            nstep        2000
             nsym          24
           ntypat           2
              occ      2.000000  2.000000  2.000000  2.000000  2.000000  2.000000
                       2.000000  2.000000  2.000000  2.000000  2.000000  2.000000
                       2.000000  2.000000  2.000000  2.000000  2.000000  2.000000
                       2.000000  2.000000  2.000000  2.000000  2.000000  2.000000
                       0.000000  0.000000  0.000000  0.000000  0.000000  0.000000
                       0.000000  0.000000  0.000000
        optdriver           1
            prtwf          -1
            rfdir           1       1       1
           rfelfd           2
            rprim      8.1817517096E+00  0.0000000000E+00  0.0000000000E+00
                      -4.0908758548E+00  7.0856048280E+00  0.0000000000E+00
                       0.0000000000E+00  0.0000000000E+00  1.4606477227E+01
          spgroup         194
           symrel      1  0  0   0  1  0   0  0  1      -1  0  0   0 -1  0   0  0 -1
                       0  1  0   1  0  0   0  0  1       0 -1  0  -1  0  0   0  0 -1
                       1  1  0  -1  0  0   0  0  1      -1 -1  0   1  0  0   0  0 -1
                      -1  0  0   1  1  0   0  0  1       1  0  0  -1 -1  0   0  0 -1
                       0  1  0  -1 -1  0   0  0  1       0 -1  0   1  1  0   0  0 -1
                      -1 -1  0   0  1  0   0  0  1       1  1  0   0 -1  0   0  0 -1
                      -1  0  0   0 -1  0   0  0  1       1  0  0   0  1  0   0  0 -1
                       0 -1  0  -1  0  0   0  0  1       0  1  0   1  0  0   0  0 -1
                      -1 -1  0   1  0  0   0  0  1       1  1  0  -1  0  0   0  0 -1
                       1  0  0  -1 -1  0   0  0  1      -1  0  0   1  1  0   0  0 -1
                       0 -1  0   1  1  0   0  0  1       0  1  0  -1 -1  0   0  0 -1
                       1  1  0   0 -1  0   0  0  1      -1 -1  0   0  1  0   0  0 -1
            tnons      0.0000000  0.0000000  0.0000000    -0.0000000 -0.0000000  0.0000000
                       0.0000000  0.0000000  0.5000000    -0.0000000 -0.0000000  0.5000000
                       0.0000000  0.0000000  0.5000000    -0.0000000 -0.0000000  0.5000000
                      -0.0000000  0.0000000  0.0000000     0.0000000 -0.0000000  0.0000000
                      -0.0000000  0.0000000  0.0000000     0.0000000 -0.0000000  0.0000000
                      -0.0000000 -0.0000000  0.5000000     0.0000000  0.0000000  0.5000000
                      -0.0000000 -0.0000000  0.5000000     0.0000000  0.0000000  0.5000000
                      -0.0000000 -0.0000000  0.0000000     0.0000000  0.0000000  0.0000000
                      -0.0000000 -0.0000000  0.0000000     0.0000000  0.0000000  0.0000000
                       0.0000000 -0.0000000  0.5000000    -0.0000000  0.0000000  0.5000000
                       0.0000000 -0.0000000  0.5000000    -0.0000000  0.0000000  0.5000000
                       0.0000000  0.0000000  0.0000000    -0.0000000 -0.0000000  0.0000000
           tolwfr      1.00000000E-20
            typat      1  1  1  1  1  1  2  2
           useylm           1
              wtk        0.50000    0.50000
           xangst     -3.2045451707E-16 -1.3876087627E-16  1.9323537116E+00
                      -3.2045451707E-16 -1.3876087627E-16  5.7970611347E+00
                       2.1647982655E+00  1.2498468614E+00  4.5192265429E+00
                       0.0000000000E+00  2.4996937227E+00  6.5451911976E-01
                       0.0000000000E+00  2.4996937227E+00  3.2101883033E+00
                       2.1647982655E+00  1.2498468614E+00  7.0748957264E+00
                       2.1647982655E+00  1.2498468614E+00  1.9323537116E+00
                       0.0000000000E+00  2.4996937227E+00  5.7970611347E+00
            xcart     -6.0557127532E-16 -2.6222005411E-16  3.6516193067E+00
                      -6.0557127532E-16 -2.6222005411E-16  1.0954857920E+01
                       4.0908758548E+00  2.3618682760E+00  8.5401004985E+00
                       0.0000000000E+00  4.7237365520E+00  1.2368618851E+00
                       0.0000000000E+00  4.7237365520E+00  6.0663767283E+00
                       4.0908758548E+00  2.3618682760E+00  1.3369615342E+01
                       4.0908758548E+00  2.3618682760E+00  3.6516193067E+00
                       0.0000000000E+00  4.7237365520E+00  1.0954857920E+01
             xred     -9.2518585385E-17 -3.7007434154E-17  2.5000000000E-01
                      -9.2518585385E-17 -3.7007434154E-17  7.5000000000E-01
                       6.6666666667E-01  3.3333333333E-01  5.8467900000E-01
                       3.3333333333E-01  6.6666666667E-01  8.4679000000E-02
                       3.3333333333E-01  6.6666666667E-01  4.1532100000E-01
                       6.6666666667E-01  3.3333333333E-01  9.1532100000E-01
                       6.6666666667E-01  3.3333333333E-01  2.5000000000E-01
                       3.3333333333E-01  6.6666666667E-01  7.5000000000E-01
            znucl        3.00000   33.00000

 chkinp: Checking input parameters for consistency.

== DATASET  1 ==================================================================
-   mpi_nproc: 1, omp_nthreads: -1 (-1 if OMP is not activated)

--- !DatasetInfo
iteration_state: {dtset: 1, }
dimensions: {natom: 8, nkpt: 2, mband: 33, nsppol: 1, nspinor: 1, nspden: 1, mpw: 11088, }
cutoff_energies: {ecut:  42.0, pawecutdg:  -1.0, }
electrons: {nelect:   4.80000000E+01, charge:   0.00000000E+00, occopt:   1.00000000E+00, tsmear:   1.00000000E-02, }
meta: {optdriver: 1, rfelfd: 2, }
...

 Real(R)+Recip(G) space primitive vectors, cartesian coordinates (Bohr,Bohr^-1):
 R(1)=  8.1817517  0.0000000  0.0000000  G(1)=  0.1222232  0.0705656  0.0000000
 R(2)= -4.0908759  7.0856048  0.0000000  G(2)=  0.0000000  0.1411312  0.0000000
 R(3)=  0.0000000  0.0000000 14.6064772  G(3)=  0.0000000  0.0000000  0.0684628
 Unit cell volume ucvol=  8.4677633E+02 bohr^3
 Angles (23,13,12)=  9.00000000E+01  9.00000000E+01  1.20000000E+02 degrees

 getcut: wavevector=  0.0000  0.0000  0.0000  ngfft=  48  48  90
         ecut(hartree)=     42.000   => boxcut(ratio)=   2.01097

--- Pseudopotential description ------------------------------------------------
- pspini: atom type   1  psp file is /scratch/users/j/a/jabreu/pseudos/PBEsol/Li.psp8
- pspatm: opening atomic psp file    /scratch/users/j/a/jabreu/pseudos/PBEsol/Li.psp8
- Li    ONCVPSP-3.3.0  r_core=   1.40824   1.10935
-  3.00000   3.00000    180112                znucl, zion, pspdat
    8 -116133    1    4       400   0.00000   pspcod,pspxc,lmax,lloc,mmax,r2well
    3.99000000000000    0.00000000000000    0.00000000000000   rchrg,fchrg,qchrg
     nproj     2     2
     extension_switch     1
  pspatm : epsatm=    2.60859637
         --- l  ekb(1:nproj) -->
             0   -4.855856   -1.482423
             1   -2.171544   -0.427615
 pspatm: atomic psp has been read  and splines computed

- pspini: atom type   2  psp file is /scratch/users/j/a/jabreu/pseudos/PBEsol/As.psp8
- pspatm: opening atomic psp file    /scratch/users/j/a/jabreu/pseudos/PBEsol/As.psp8
- As    ONCVPSP-3.3.0  r_core=   1.76603   1.70395   1.80867
- 33.00000  15.00000    180112                znucl, zion, pspdat
    8 -116133    2    4       600   0.00000   pspcod,pspxc,lmax,lloc,mmax,r2well
    5.99000000000000    5.00000000000000    0.00000000000000   rchrg,fchrg,qchrg
     nproj     2     2     2
     extension_switch     1
  pspatm : epsatm=   28.79155382
         --- l  ekb(1:nproj) -->
             0    8.270760    0.868950
             1    4.919053    0.756587
             2  -10.048665   -4.076802
 pspatm: atomic psp has been read  and splines computed

   3.51526492E+03                                ecore*ucvol(ha*bohr**3)

-inwffil : will read wavefunctions from disk file /scratch/users/j/a/jabreu/flow_simple_8atoms/flow/w307/t1/indata/in_WFK

 ==>  initialize data related to q vector <==

 The list of irreducible perturbations for this q vector is:
    1)    idir= 1    ipert=   9
    2)    idir= 2    ipert=   9
    3)    idir= 3    ipert=   9

 Perturbation wavevector (in red.coord.)   0.000000  0.000000  0.000000
 Perturbation : derivative vs k along direction   1

 dfpt_looppert : COMMENT -
  In a d/dk calculation, iscf is set to -3 automatically.
 The set of symmetries contains only one element for this perturbation.
 symkpt : not enough symmetry to change the number of k points.

[...]

 Initialisation of the first-order wave-functions :
  ireadwf=   0

--- !BeginCycle
iteration_state: {dtset: 1, }
solver: {iscf: 7, nstep: 2000, nline: 4, wfoptalg: 0, }
tolerances: {tolwfr: 1.00E-20, }
...

     iter   2DEtotal(Ha)        deltaE(Ha) residm    vres2
[...]
 1,2,3: 0th-order hamiltonian combined with 1st-order wavefunctions
     kin0=   7.22743564E+01 eigvalue=   1.38714849E+01  local=  -2.69253410E+01
 4,5,6: 1st-order hamiltonian combined with 1st and 0th-order wfs
     kin1=  -9.11912806E+01  Hartree=   0.00000000E+00     xc=   0.00000000E+00
 7,8,9: eventually, occupation + non-local contributions
    edocc=   1.89889462E+01     enl0=   5.41031653E+00   enl1=  -7.60482455E+01
 1-9 gives the relaxation energy (to be shifted if some occ is /=2.0)
   erelax=  -8.36197630E+01
  No Ewald or frozen-wf contrib.: the relaxation energy is the total one
 2DEtotal=   -0.8361976303E+02 Ha. Also 2DEtotal=   -0.227540947008E+04 eV
    (  non-var. 2DEtotal :   -8.3619763029E+01 Ha)

 Perturbation wavevector (in red.coord.)   0.000000  0.000000  0.000000
 Perturbation : derivative vs k along direction   2
 The set of symmetries contains only one element for this perturbation.
 symkpt : not enough symmetry to change the number of k points.

[...]

 Perturbation wavevector (in red.coord.)   0.000000  0.000000  0.000000
 Perturbation : derivative vs k along direction   3
 The set of symmetries contains only one element for this perturbation.
 symkpt : not enough symmetry to change the number of k points.

-inwffil : will read wavefunctions from disk file /scratch/users/j/a/jabreu/flow_simple_8atoms/flow/w307/t1/indata/in_WFK

 Initialisation of the first-order wave-functions :
  ireadwf=   0

--- !BeginCycle
iteration_state: {dtset: 1, }
solver: {iscf: 7, nstep: 2000, nline: 4, wfoptalg: 0, }
tolerances: {tolwfr: 1.00E-20, }
...

     iter   2DEtotal(Ha)        deltaE(Ha) residm    vres2
-ETOT  1  -18.890069648239     -1.889E+01 8.647E-02 0.000E+00
 ETOT  2  -18.900025469998     -9.956E-03 2.223E-04 0.000E+00
 ETOT  3  -18.900029369783     -3.900E-06 6.866E-05 0.000E+00
 ETOT  4  -18.900029373544     -3.762E-09 2.625E-07 0.000E+00
 ETOT  5  -18.900029373550     -5.162E-12 1.155E-07 0.000E+00
 ETOT  6  -18.900029373550     -1.421E-14 4.762E-10 0.000E+00
 ETOT  7  -18.900029373550      2.132E-14 2.233E-10 0.000E+00
 ETOT  8  -18.900029373550      1.066E-14 9.361E-13 0.000E+00
 ETOT  9  -18.900029373550      0.000E+00 4.438E-13 0.000E+00
 ETOT 10  -18.900029373550      0.000E+00 1.893E-15 0.000E+00
 ETOT 11  -18.900029373550      0.000E+00 8.978E-16 0.000E+00
 ETOT 12  -18.900029373550      0.000E+00 3.913E-18 0.000E+00
 ETOT 13  -18.900029373550     -7.105E-15 1.842E-18 0.000E+00
 ETOT 14  -18.900029373550      3.553E-15 9.974E-21 0.000E+00

 At SCF step   14   max residual=  9.97E-21 < tolwfr=  1.00E-20 =>converged.

 ----iterations are completed or convergence reached----

 dfpt_looppert: DFPT cycle converged with prtwf=-1. Will skip output of the 1st-order WFK file.
 dfpt_looppert : ek2=    1.7763968644E+01
          f-sum rule ratio=    1.1232836452E+00
 prteigrs : about to open file /scratch/users/j/a/jabreu/flow_simple_8atoms/flow/w307/t1/tmpdata/tmp_1WF1_EIG
 Expectation of eigenvalue derivatives (hartree) for nkpt=   2  k points:
  (in case of degenerate eigenvalues, averaged derivative)
 kpt#   1, nband= 33, wtk=  0.50000, kpt=  0.0000  0.0000  0.0000 (reduced coord)
  -0.00000    0.00000   -0.00000    0.00000   -0.00000   -0.00000    0.00000    0.00000
   0.00000    0.00000    0.00000    0.00000   -0.00000   -0.00000    0.00000    0.00000
   0.00000   -0.00000   -0.00000    0.00000    0.00000    0.00000    0.00000    0.00000
  -0.00000   -0.00000    0.00000    0.00000    0.00000   -0.00000   -0.00000    0.00000
   0.00000
 prteigrs : prtvol=0 or 1, do not print more k-points.

 Eight components of 2nd-order total energy (hartree) are
 1,2,3: 0th-order hamiltonian combined with 1st-order wavefunctions
     kin0=   1.78040123E+01 eigvalue=   3.22354863E+00  local=  -6.60268296E+00
 4,5,6: 1st-order hamiltonian combined with 1st and 0th-order wfs
     kin1=  -1.99539755E+01  Hartree=   0.00000000E+00     xc=   0.00000000E+00
 7,8,9: eventually, occupation + non-local contributions
    edocc=   3.37350794E+00     enl0=   1.10164348E+00   enl1=  -1.78460833E+01
 1-9 gives the relaxation energy (to be shifted if some occ is /=2.0)
   erelax=  -1.89000294E+01
  No Ewald or frozen-wf contrib.: the relaxation energy is the total one
 2DEtotal=   -0.1890002937E+02 Ha. Also 2DEtotal=   -0.514295954249E+03 eV
    (  non-var. 2DEtotal :   -1.8900029374E+01 Ha)

 CALCULATION OF EFFECTIVE MASSES
 NOTE : Additional infos (eff. mass eigenvalues, eigenvectors and, if degenerate, average mass) are available in stdout.

 COMMENTS:
 - At k-point ( 0.000, 0.000, 0.000), bands    23 through    24
   are DEGENERATE (effective mass tensor is therefore not defined).
   See Section IIIB Eqs. (67)-(70) and Appendix E of PRB 93 205147 (2016).
 - Angular average effective mass for Frohlich model is to be averaged over degenerate bands. See later.
 - Associated theta integrals calculated with ntheta=   1000 points.

 K-point ( 0.000, 0.000, 0.000) | band =    23
 Transport equivalent effective mass tensor:
             -0.1897980360             -0.0000020924             -0.0000402169
             -0.0000020924             -0.1898062296              0.0000267021
             -0.0000402169              0.0000267021             -2.3056913704
 Transport equivalent effective mass tensor eigenvalues:
             -2.3056913715             -0.1898067329             -0.1897975316
 Angular average effective mass 1/(<1/m>)=  -0.2734481757
 Angular average effective mass for Frohlich model (<m**0.5>)**2=  -0.3387577541
 Effective masses along directions: (cart. coord. / red. coord. -> eff. mass)
    1:   1.000000  0.000000  0.000000 /   0.894427 -0.447214  0.000000 ->  -0.1898021012
    2:   0.000000  1.000000  0.000000 /   0.000000  1.000000  0.000000 ->  -0.1898021047
    3:   0.000000  0.000000  1.000000 /   0.000000  0.000000  1.000000 ->  -2.3053259497
    4:   0.577350  0.577350  0.577350 /   0.481064  0.176082  0.858820 ->  -0.2734483129
    5:   0.000000  0.707107  0.707107 /   0.000000  0.436457  0.899725 ->  -0.3507291615
    6:   0.707107  0.000000  0.707107 /   0.474733 -0.237367  0.847517 ->  -0.3507438837
    7:   0.707107  0.707107  0.000000 /   0.939071  0.343724  0.000000 ->  -0.1898021041

 K-point ( 0.000, 0.000, 0.000) | band =    24
 Transport equivalent effective mass tensor:
             -2.0979014144              0.0000231383             -0.0001348345
              0.0000231383             -2.0978108202              0.0000209438
             -0.0001348345              0.0000209438             -2.3056928135
 Transport equivalent effective mass tensor eigenvalues:
             -2.3056929031             -2.0979068929             -2.0978052521
 Angular average effective mass 1/(<1/m>)=  -2.1628426757
 Angular average effective mass for Frohlich model (<m**0.5>)**2=  -2.1641080804
 Effective masses along directions: (cart. coord. / red. coord. -> eff. mass)
    1:   1.000000  0.000000  0.000000 /   0.894427 -0.447214  0.000000 ->  -2.0978560793
    2:   0.000000  1.000000  0.000000 /   0.000000  1.000000  0.000000 ->  -2.0978560787
    3:   0.000000  0.000000  1.000000 /   0.000000  0.000000  1.000000 ->  -2.3060590292
    4:   0.577350  0.577350  0.577350 /   0.481064  0.176082  0.858820 ->  -2.1630038873
    5:   0.000000  0.707107  0.707107 /   0.000000  0.436457  0.899725 ->  -2.1966775217
    6:   0.707107  0.000000  0.707107 /   0.474733 -0.237367  0.847517 ->  -2.1969932381
    7:   0.707107  0.707107  0.000000 /   0.939071  0.343724  0.000000 ->  -2.0978560066

 Angular average effective mass for Frohlich model, averaged over degenerate bands.
 Value of     (<<m**0.5>>)**2 =     1.053825E+00
 Absolute Value of <<m**0.5>> =     1.026560E+00

 K-point ( 0.333, 0.333, 0.000) | band =    25
 Effective mass tensor:
              0.3229174059             -0.0000000016             -0.0000000011
             -0.0000000016              0.3229174044              0.0000000005
             -0.0000000011              0.0000000005              0.2198960088
 Effective mass tensor eigenvalues:
              0.2198960088              0.3229174033              0.3229174070
 Angular average effective mass 1/(<1/m>)=   0.2793000051
 Angular average effective mass for Frohlich model (<m**0.5>)**2=   0.2822300703
 Effective masses along directions: (cart. coord. / red. coord. -> eff. mass)
    1:   1.000000  0.000000  0.000000 /   0.894427 -0.447214  0.000000 ->   0.3229174059
    2:   0.000000  1.000000  0.000000 /   0.000000  1.000000  0.000000 ->   0.3229174044
    3:   0.000000  0.000000  1.000000 /   0.000000  0.000000  1.000000 ->   0.2198960088
    4:   0.577350  0.577350  0.577350 /   0.481064  0.176082  0.858820 ->   0.2793000039
    5:   0.000000  0.707107  0.707107 /   0.000000  0.436457  0.899725 ->   0.2616304122
    6:   0.707107  0.000000  0.707107 /   0.474733 -0.237367  0.847517 ->   0.2616304111
    7:   0.707107  0.707107  0.000000 /   0.939071  0.343724  0.000000 ->   0.3229174035

 END OF EFFECTIVE MASSES SECTION

 ---- first-order wavefunction calculations are completed ----

 Total localisation tensor (bohr^2) in cartesian coordinates
  WARNING : still subject to testing - especially symmetries.
      direction              matrix element
   alpha     beta       real part   imaginary part
     1        1       3.6169471328    0.0000000000
     1        2      -1.2529493456    0.0000000000
     1        3       0.0000000000    0.0000000000
     2        1      -1.2529493456    0.0000000000
     2        2       2.1701719259    0.0000000000
     2        3       0.0000000000    0.0000000000
     3        1       0.0000000000    0.0000000000
     3        2       0.0000000000    0.0000000000
     3        3       1.8651500564    0.0000000000

 respfn : d/dk was computed, but no 2DTE, so no DDB output.

== END DATASET(S) ==============================================================

 -outvars: echo values of variables after computation  --------
            acell      1.0000000000E+00  1.0000000000E+00  1.0000000000E+00 Bohr
              amu      6.94100000E+00  7.49215900E+01
             ecut      4.20000000E+01 Hartree
           etotal     -1.8900029374E+01
            fcart      0.0000000000E+00  0.0000000000E+00  0.0000000000E+00
                       0.0000000000E+00  0.0000000000E+00  0.0000000000E+00
                       0.0000000000E+00  0.0000000000E+00  0.0000000000E+00
                       0.0000000000E+00  0.0000000000E+00  0.0000000000E+00
                       0.0000000000E+00  0.0000000000E+00  0.0000000000E+00
                       0.0000000000E+00  0.0000000000E+00  0.0000000000E+00
                       0.0000000000E+00  0.0000000000E+00  0.0000000000E+00
                       0.0000000000E+00  0.0000000000E+00  0.0000000000E+00
-          fftalg         512
           irdden           1
           irdwfk           1
           istwfk        1    0
              ixc     -116133
              kpt      0.00000000E+00  0.00000000E+00  0.00000000E+00
                       3.33333333E-01  3.33333333E-01  0.00000000E+00
           kptopt           0
P           mkmem           2
P          mkqmem           2
P          mk1mem           2
            natom           8
            nband          33
           nbdbuf           4
            ngfft          48      48      90
             nkpt           2
            nstep        2000
             nsym          24
           ntypat           2
              occ      2.000000  2.000000  2.000000  2.000000  2.000000  2.000000
                       2.000000  2.000000  2.000000  2.000000  2.000000  2.000000
                       2.000000  2.000000  2.000000  2.000000  2.000000  2.000000
                       2.000000  2.000000  2.000000  2.000000  2.000000  2.000000
                       0.000000  0.000000  0.000000  0.000000  0.000000  0.000000
                       0.000000  0.000000  0.000000
        optdriver           1
            prtwf          -1
            rfdir           1       1       1
           rfelfd           2
            rprim      8.1817517096E+00  0.0000000000E+00  0.0000000000E+00
                      -4.0908758548E+00  7.0856048280E+00  0.0000000000E+00
                       0.0000000000E+00  0.0000000000E+00  1.4606477227E+01
          spgroup         194
           strten      0.0000000000E+00  0.0000000000E+00  0.0000000000E+00
                       0.0000000000E+00  0.0000000000E+00  0.0000000000E+00
           symrel      1  0  0   0  1  0   0  0  1      -1  0  0   0 -1  0   0  0 -1
                       0  1  0   1  0  0   0  0  1       0 -1  0  -1  0  0   0  0 -1
                       1  1  0  -1  0  0   0  0  1      -1 -1  0   1  0  0   0  0 -1
                      -1  0  0   1  1  0   0  0  1       1  0  0  -1 -1  0   0  0 -1
                       0  1  0  -1 -1  0   0  0  1       0 -1  0   1  1  0   0  0 -1
                      -1 -1  0   0  1  0   0  0  1       1  1  0   0 -1  0   0  0 -1
                      -1  0  0   0 -1  0   0  0  1       1  0  0   0  1  0   0  0 -1
                       0 -1  0  -1  0  0   0  0  1       0  1  0   1  0  0   0  0 -1
                      -1 -1  0   1  0  0   0  0  1       1  1  0  -1  0  0   0  0 -1
                       1  0  0  -1 -1  0   0  0  1      -1  0  0   1  1  0   0  0 -1
                       0 -1  0   1  1  0   0  0  1       0  1  0  -1 -1  0   0  0 -1
                       1  1  0   0 -1  0   0  0  1      -1 -1  0   0  1  0   0  0 -1
            tnons      0.0000000  0.0000000  0.0000000    -0.0000000 -0.0000000  0.0000000
                       0.0000000  0.0000000  0.5000000    -0.0000000 -0.0000000  0.5000000
                       0.0000000  0.0000000  0.5000000    -0.0000000 -0.0000000  0.5000000
                      -0.0000000  0.0000000  0.0000000     0.0000000 -0.0000000  0.0000000
                      -0.0000000  0.0000000  0.0000000     0.0000000 -0.0000000  0.0000000
                      -0.0000000 -0.0000000  0.5000000     0.0000000  0.0000000  0.5000000
                      -0.0000000 -0.0000000  0.5000000     0.0000000  0.0000000  0.5000000
                      -0.0000000 -0.0000000  0.0000000     0.0000000  0.0000000  0.0000000
                      -0.0000000 -0.0000000  0.0000000     0.0000000  0.0000000  0.0000000
                       0.0000000 -0.0000000  0.5000000    -0.0000000  0.0000000  0.5000000
                       0.0000000 -0.0000000  0.5000000    -0.0000000  0.0000000  0.5000000
                       0.0000000  0.0000000  0.0000000    -0.0000000 -0.0000000  0.0000000
           tolwfr      1.00000000E-20
            typat      1  1  1  1  1  1  2  2
           useylm           1
              wtk        0.50000    0.50000
           xangst     -3.2045451707E-16 -1.3876087627E-16  1.9323537116E+00
                      -3.2045451707E-16 -1.3876087627E-16  5.7970611347E+00
                       2.1647982655E+00  1.2498468614E+00  4.5192265429E+00
                       0.0000000000E+00  2.4996937227E+00  6.5451911976E-01
                       0.0000000000E+00  2.4996937227E+00  3.2101883033E+00
                       2.1647982655E+00  1.2498468614E+00  7.0748957264E+00
                       2.1647982655E+00  1.2498468614E+00  1.9323537116E+00
                       0.0000000000E+00  2.4996937227E+00  5.7970611347E+00
            xcart     -6.0557127532E-16 -2.6222005411E-16  3.6516193067E+00
                      -6.0557127532E-16 -2.6222005411E-16  1.0954857920E+01
                       4.0908758548E+00  2.3618682760E+00  8.5401004985E+00
                       0.0000000000E+00  4.7237365520E+00  1.2368618851E+00
                       0.0000000000E+00  4.7237365520E+00  6.0663767283E+00
                       4.0908758548E+00  2.3618682760E+00  1.3369615342E+01
                       4.0908758548E+00  2.3618682760E+00  3.6516193067E+00
                       0.0000000000E+00  4.7237365520E+00  1.0954857920E+01
             xred     -9.2518585385E-17 -3.7007434154E-17  2.5000000000E-01
                      -9.2518585385E-17 -3.7007434154E-17  7.5000000000E-01
                       6.6666666667E-01  3.3333333333E-01  5.8467900000E-01
                       3.3333333333E-01  6.6666666667E-01  8.4679000000E-02
                       3.3333333333E-01  6.6666666667E-01  4.1532100000E-01
                       6.6666666667E-01  3.3333333333E-01  9.1532100000E-01
                       6.6666666667E-01  3.3333333333E-01  2.5000000000E-01
                       3.3333333333E-01  6.6666666667E-01  7.5000000000E-01
            znucl        3.00000   33.00000

- Timing analysis has been suppressed with timopt=0

 Suggested references for the acknowledgment of ABINIT usage.

 Calculation completed.
.Delivered  14 WARNINGs and   9 COMMENTs to log file.