.Version 9.5.1 of ABINIT

 ABINIT is a project of the Universite Catholique de Louvain,
 Corning Inc. and other collaborators, see ~abinit/doc/developers/contributors.txt .
 acknowledgments of the ABINIT effort.

.Starting date : Tue  4 May 2021.
- ( at 19h46 )

- input  file    -> /scratch/users/j/a/jabreu/flow_simple_6atoms/flow/w218/t1/run.abi
- output file    -> /scratch/users/j/a/jabreu/flow_simple_6atoms/flow/w218/t1/run.abo
- root for input  files -> /scratch/users/j/a/jabreu/flow_simple_6atoms/flow/w218/t1/indata/in
- root for output files -> /scratch/users/j/a/jabreu/flow_simple_6atoms/flow/w218/t1/outdata/out

 Symmetries : space group P4/n m m (#129); Bravais tP (primitive tetrag.)
     intxc =       0      iscf =       7    lmnmax =      32     lnmax =       8
     mgfft =      72  mpssoang =       4    mqgrid =    3541     natom =       6
  nloc_mem =       1    nspden =       1   nspinor =       1    nsppol =       1
      nsym =      16    n1xccc =    2501    ntypat =       3    occopt =       1
   xclevel =       2
-    mband =          33        mffmem =           1         mkmem =           2
-   mkqmem =           2        mk1mem =           2           mpw =       11390
      nfft =      180000          nkpt =           2
  Rough estimation (10% accuracy) of disk space for files :

------------- Echo of variables that govern the present computation ------------
-
- outvars: echo of selected default values
-   iomode0 =  0 , fftalg0 =512 , wfoptalg0 =  0
-
- outvars: echo of global parameters not present in the input file
-  max_nthreads =    0
-
 -outvars: echo values of preprocessed input variables --------
            acell      1.0000000000E+00  1.0000000000E+00  1.0000000000E+00 Bohr
              amu      1.38905500E+02  1.59994000E+01  1.89984032E+01
             ecut      5.20000000E+01 Hartree
-          fftalg         512
           irdden           1
           irdwfk           1
              ixc     -116133
              kpt      2.79411765E-01  2.79411765E-01  5.00000000E-01
                       4.11764706E-01  4.11764706E-01  5.00000000E-01
           kptopt           0
P           mkmem           2
P          mkqmem           2
P          mk1mem           2
            natom           6
            nband          33
           nbdbuf           4
            ngfft          50      50      72
             nkpt           2
            nstep        1000
             nsym          16
           ntypat           3
              occ      2.000000  2.000000  2.000000  2.000000  2.000000  2.000000
                       2.000000  2.000000  2.000000  2.000000  2.000000  2.000000
                       2.000000  2.000000  2.000000  2.000000  2.000000  2.000000
                       2.000000  2.000000  2.000000  2.000000  2.000000  2.000000
                       0.000000  0.000000  0.000000  0.000000  0.000000  0.000000
                       0.000000  0.000000  0.000000
        optdriver           1
            prtwf          -1
            rfdir           1       1       1
           rfelfd           2
            rprim      7.6270529169E+00  0.0000000000E+00  0.0000000000E+00
                       0.0000000000E+00  7.6270529169E+00  0.0000000000E+00
                       0.0000000000E+00  0.0000000000E+00  1.0907047207E+01
          spgroup         129
           symrel      1  0  0   0  1  0   0  0  1      -1  0  0   0 -1  0   0  0 -1
                      -1  0  0   0  1  0   0  0 -1       1  0  0   0 -1  0   0  0  1
                      -1  0  0   0 -1  0   0  0  1       1  0  0   0  1  0   0  0 -1
                       1  0  0   0 -1  0   0  0 -1      -1  0  0   0  1  0   0  0  1
                       0  1  0   1  0  0   0  0  1       0 -1  0  -1  0  0   0  0 -1
                       0 -1  0   1  0  0   0  0 -1       0  1  0  -1  0  0   0  0  1
                       0 -1  0  -1  0  0   0  0  1       0  1  0   1  0  0   0  0 -1
                       0  1  0  -1  0  0   0  0 -1       0 -1  0   1  0  0   0  0  1
            tnons      0.0000000  0.0000000  0.0000000     0.5000000  0.5000000  0.0000000
                       0.5000000  0.5000000  0.0000000     0.0000000  0.0000000  0.0000000
                       0.0000000  0.0000000  0.0000000     0.5000000  0.5000000  0.0000000
                       0.5000000  0.5000000  0.0000000     0.0000000  0.0000000  0.0000000
                       0.5000000  0.5000000  0.0000000     0.0000000  0.0000000  0.0000000
                       0.0000000  0.0000000  0.0000000     0.5000000  0.5000000  0.0000000
                       0.5000000  0.5000000  0.0000000     0.0000000  0.0000000  0.0000000
                       0.0000000  0.0000000  0.0000000     0.5000000  0.5000000  0.0000000
           tolwfr      1.00000000E-20
            typat      1  1  2  2  3  3
           useylm           1
              wtk        0.50000    0.50000
           xangst      0.0000000000E+00  2.0180312862E+00  4.1331348181E+00
                       2.0180312862E+00  0.0000000000E+00  1.6386259767E+00
                       2.0180312862E+00  2.0180312862E+00  2.8858803974E+00
                       0.0000000000E+00  0.0000000000E+00  2.8858803974E+00
                       0.0000000000E+00  0.0000000000E+00  0.0000000000E+00
                       2.0180312862E+00  2.0180312862E+00  0.0000000000E+00
            xcart      0.0000000000E+00  3.8135264585E+00  7.8104928765E+00
                       3.8135264585E+00  0.0000000000E+00  3.0965543301E+00
                       3.8135264585E+00  3.8135264585E+00  5.4535236033E+00
                       0.0000000000E+00  0.0000000000E+00  5.4535236033E+00
                       0.0000000000E+00  0.0000000000E+00  0.0000000000E+00
                       3.8135264585E+00  3.8135264585E+00  0.0000000000E+00
             xred      0.0000000000E+00  5.0000000000E-01  7.1609600000E-01
                       5.0000000000E-01  0.0000000000E+00  2.8390400000E-01
                       5.0000000000E-01  5.0000000000E-01  5.0000000000E-01
                       0.0000000000E+00  0.0000000000E+00  5.0000000000E-01
                       0.0000000000E+00  0.0000000000E+00  0.0000000000E+00
                       5.0000000000E-01  5.0000000000E-01  0.0000000000E+00
            znucl       57.00000    8.00000    9.00000

 chkinp: Checking input parameters for consistency.

== DATASET  1 ==================================================================
-   mpi_nproc: 1, omp_nthreads: -1 (-1 if OMP is not activated)

--- !DatasetInfo
iteration_state: {dtset: 1, }
dimensions: {natom: 6, nkpt: 2, mband: 33, nsppol: 1, nspinor: 1, nspden: 1, mpw: 11390, }
cutoff_energies: {ecut:  52.0, pawecutdg:  -1.0, }
electrons: {nelect:   4.80000000E+01, charge:   0.00000000E+00, occopt:   1.00000000E+00, tsmear:   1.00000000E-02, }
meta: {optdriver: 1, rfelfd: 2, }
...

 Real(R)+Recip(G) space primitive vectors, cartesian coordinates (Bohr,Bohr^-1):
 R(1)=  7.6270529  0.0000000  0.0000000  G(1)=  0.1311122  0.0000000  0.0000000
 R(2)=  0.0000000  7.6270529  0.0000000  G(2)=  0.0000000  0.1311122  0.0000000
 R(3)=  0.0000000  0.0000000 10.9070472  G(3)=  0.0000000  0.0000000  0.0916838
 Unit cell volume ucvol=  6.3448405E+02 bohr^3
 Angles (23,13,12)=  9.00000000E+01  9.00000000E+01  9.00000000E+01 degrees

 getcut: wavevector=  0.0000  0.0000  0.0000  ngfft=  50  50  72
         ecut(hartree)=     52.000   => boxcut(ratio)=   2.01951

--- Pseudopotential description ------------------------------------------------
- pspini: atom type   1  psp file is /scratch/users/j/a/jabreu/pseudos/PBEsol/La.psp8
- pspatm: opening atomic psp file    /scratch/users/j/a/jabreu/pseudos/PBEsol/La.psp8
- La    ONCVPSP-3.3.0  r_core=   2.11664   1.60878   1.85636   1.66739
- 57.00000  11.00000    180112                znucl, zion, pspdat
    8 -116133    3    4       600   0.00000   pspcod,pspxc,lmax,lloc,mmax,r2well
    5.99000000000000    5.00000000000000    0.00000000000000   rchrg,fchrg,qchrg
     nproj     2     2     2     2
     extension_switch     1
  pspatm : epsatm=   29.08531775
         --- l  ekb(1:nproj) -->
             0    6.695600    0.639047
             1    6.383649    1.151322
             2    3.612966    0.847811
             3  -13.718437   -4.858923
 pspatm: atomic psp has been read  and splines computed

- pspini: atom type   2  psp file is /scratch/users/j/a/jabreu/pseudos/PBEsol/O.psp8
- pspatm: opening atomic psp file    /scratch/users/j/a/jabreu/pseudos/PBEsol/O.psp8
- O     ONCVPSP-3.3.0  r_core=   1.35509   1.45563   1.26150
-  8.00000   6.00000    180112                znucl, zion, pspdat
    8 -116133    2    4       600   0.00000   pspcod,pspxc,lmax,lloc,mmax,r2well
    5.99000000000000    4.00000000000000    0.00000000000000   rchrg,fchrg,qchrg
     nproj     2     2     1
     extension_switch     1
  pspatm : epsatm=    6.22910522
         --- l  ekb(1:nproj) -->
             0    6.050032    0.820363
             1   -4.739617   -1.153841
             2   -1.335834
 pspatm: atomic psp has been read  and splines computed

- pspini: atom type   3  psp file is /scratch/users/j/a/jabreu/pseudos/PBEsol/F.psp8
- pspatm: opening atomic psp file    /scratch/users/j/a/jabreu/pseudos/PBEsol/F.psp8
- F     ONCVPSP-3.3.0  r_core=   1.30942   1.45782   1.60379
-  9.00000   7.00000    180112                znucl, zion, pspdat
    8 -116133    2    4       600   0.00000   pspcod,pspxc,lmax,lloc,mmax,r2well
    5.99000000000000    2.50000000000000    0.00000000000000   rchrg,fchrg,qchrg
     nproj     2     2     1
     extension_switch     1
  pspatm : epsatm=    4.89824824
         --- l  ekb(1:nproj) -->
             0    6.506434    1.065875
             1   -3.978753   -1.295852
             2   -2.394754
 pspatm: atomic psp has been read  and splines computed

   3.86041644E+03                                ecore*ucvol(ha*bohr**3)

-inwffil : will read wavefunctions from disk file /scratch/users/j/a/jabreu/flow_simple_6atoms/flow/w218/t1/indata/in_WFK

 ==>  initialize data related to q vector <==

 The list of irreducible perturbations for this q vector is:
    1)    idir= 1    ipert=   7
    2)    idir= 2    ipert=   7
    3)    idir= 3    ipert=   7

 Perturbation wavevector (in red.coord.)   0.000000  0.000000  0.000000
 Perturbation : derivative vs k along direction   1

 dfpt_looppert : COMMENT -
  In a d/dk calculation, iscf is set to -3 automatically.
 The set of symmetries contains only one element for this perturbation.
 symkpt : not enough symmetry to change the number of k points.

[...]

 Initialisation of the first-order wave-functions :
  ireadwf=   0

--- !BeginCycle
iteration_state: {dtset: 1, }
solver: {iscf: 7, nstep: 1000, nline: 4, wfoptalg: 0, }
tolerances: {tolwfr: 1.00E-20, }
...

     iter   2DEtotal(Ha)        deltaE(Ha) residm    vres2
-ETOT  1  -35.915860458483     -3.592E+01 5.078E-02 0.000E+00
 ETOT  2  -36.102064118570     -1.862E-01 2.775E-02 0.000E+00
 ETOT  3  -36.130764113079     -2.870E-02 7.593E-03 0.000E+00
 ETOT  4  -36.138046346144     -7.282E-03 5.168E-03 0.000E+00
 ETOT  5  -36.140096475614     -2.050E-03 4.003E-03 0.000E+00
[...]
    (  non-var. 2DEtotal :   -3.6140986154E+01 Ha)

 Perturbation wavevector (in red.coord.)   0.000000  0.000000  0.000000
 Perturbation : derivative vs k along direction   2
 The set of symmetries contains only one element for this perturbation.
 symkpt : not enough symmetry to change the number of k points.

[...]

 Perturbation wavevector (in red.coord.)   0.000000  0.000000  0.000000
 Perturbation : derivative vs k along direction   3
 The set of symmetries contains only one element for this perturbation.
 symkpt : not enough symmetry to change the number of k points.

-inwffil : will read wavefunctions from disk file /scratch/users/j/a/jabreu/flow_simple_6atoms/flow/w218/t1/indata/in_WFK

 Initialisation of the first-order wave-functions :
  ireadwf=   0

--- !BeginCycle
iteration_state: {dtset: 1, }
solver: {iscf: 7, nstep: 1000, nline: 4, wfoptalg: 0, }
tolerances: {tolwfr: 1.00E-20, }
...

     iter   2DEtotal(Ha)        deltaE(Ha) residm    vres2
-ETOT  1  -16.935915736812     -1.694E+01 3.646E-02 0.000E+00
 ETOT  2  -17.030940482765     -9.502E-02 1.620E-02 0.000E+00
 ETOT  3  -17.037407991891     -6.468E-03 4.230E-03 0.000E+00
 ETOT  4  -17.038465371790     -1.057E-03 3.227E-03 0.000E+00
 ETOT  5  -17.038719815875     -2.544E-04 3.077E-03 0.000E+00
 ETOT  6  -17.038789014463     -6.920E-05 2.553E-03 0.000E+00
 ETOT  7  -17.038809500685     -2.049E-05 2.387E-03 0.000E+00
 ETOT  8  -17.038815947068     -6.446E-06 1.998E-03 0.000E+00
 ETOT  9  -17.038818044074     -2.097E-06 1.855E-03 0.000E+00
 ETOT 10  -17.038818737762     -6.937E-07 1.551E-03 0.000E+00
 ETOT 11  -17.038818969287     -2.315E-07 1.498E-03 0.000E+00
 ETOT 12  -17.038819047093     -7.781E-08 1.307E-03 0.000E+00
 ETOT 13  -17.038819073391     -2.630E-08 1.228E-03 0.000E+00
 ETOT 14  -17.038819082321     -8.929E-09 1.019E-03 0.000E+00
 ETOT 15  -17.038819085365     -3.044E-09 9.731E-04 0.000E+00
 ETOT 16  -17.038819086406     -1.041E-09 8.083E-04 0.000E+00
 ETOT 17  -17.038819086763     -3.573E-10 7.816E-04 0.000E+00
 ETOT 18  -17.038819086886     -1.229E-10 6.797E-04 0.000E+00
 ETOT 19  -17.038819086929     -4.238E-11 6.408E-04 0.000E+00
 ETOT 20  -17.038819086943     -1.466E-11 5.716E-04 0.000E+00
 ETOT 21  -17.038819086948     -5.070E-12 5.400E-04 0.000E+00
 ETOT 22  -17.038819086950     -1.759E-12 4.795E-04 0.000E+00
 ETOT 23  -17.038819086951     -6.146E-13 4.549E-04 0.000E+00
 ETOT 24  -17.038819086951     -2.167E-13 4.021E-04 0.000E+00
 ETOT 25  -17.038819086951     -8.527E-14 3.838E-04 0.000E+00
 ETOT 26  -17.038819086951     -2.487E-14 3.379E-04 0.000E+00
 ETOT 27  -17.038819086951     -1.066E-14 3.248E-04 0.000E+00
 ETOT 28  -17.038819086951      7.105E-15 2.848E-04 0.000E+00
 ETOT 29  -17.038819086951     -7.105E-15 2.757E-04 0.000E+00
 ETOT 30  -17.038819086951      0.000E+00 2.407E-04 0.000E+00
 ETOT 31  -17.038819086951      3.553E-15 2.347E-04 0.000E+00
 ETOT 32  -17.038819086951      3.553E-15 2.040E-04 0.000E+00
 ETOT 33  -17.038819086951     -3.553E-15 2.001E-04 0.000E+00
 ETOT 34  -17.038819086951     -1.421E-14 1.731E-04 0.000E+00
 ETOT 35  -17.038819086951      1.066E-14 1.709E-04 0.000E+00
 ETOT 36  -17.038819086951      1.066E-14 1.472E-04 0.000E+00
 ETOT 37  -17.038819086951     -1.066E-14 1.461E-04 0.000E+00
 ETOT 38  -17.038819086951      1.421E-14 1.253E-04 0.000E+00
 ETOT 39  -17.038819086951     -1.066E-14 1.250E-04 0.000E+00
 ETOT 40  -17.038819086951      7.105E-15 1.067E-04 0.000E+00
 ETOT 41  -17.038819086951      3.553E-15 1.070E-04 0.000E+00
 ETOT 42  -17.038819086951      0.000E+00 9.099E-05 0.000E+00
 ETOT 43  -17.038819086951      0.000E+00 9.166E-05 0.000E+00
 ETOT 44  -17.038819086951     -7.105E-15 7.764E-05 0.000E+00
 ETOT 45  -17.038819086951      3.553E-15 7.856E-05 0.000E+00
 ETOT 46  -17.038819086951      0.000E+00 6.630E-05 0.000E+00
 ETOT 47  -17.038819086951      0.000E+00 6.737E-05 0.000E+00
 ETOT 48  -17.038819086951      3.553E-15 5.666E-05 0.000E+00
 ETOT 49  -17.038819086951      0.000E+00 5.779E-05 0.000E+00
 ETOT 50  -17.038819086951      0.000E+00 4.844E-05 0.000E+00
 ETOT 51  -17.038819086951      7.105E-15 4.959E-05 0.000E+00
 ETOT 52  -17.038819086951     -7.105E-15 4.144E-05 0.000E+00
 ETOT 53  -17.038819086951      0.000E+00 4.257E-05 0.000E+00
 ETOT 54  -17.038819086951      0.000E+00 3.548E-05 0.000E+00
 ETOT 55  -17.038819086951      0.000E+00 3.656E-05 0.000E+00
 ETOT 56  -17.038819086951     -3.553E-15 3.038E-05 0.000E+00
 ETOT 57  -17.038819086951      3.553E-15 3.140E-05 0.000E+00
 ETOT 58  -17.038819086951      0.000E+00 2.603E-05 0.000E+00
 ETOT 59  -17.038819086951      0.000E+00 2.698E-05 0.000E+00
 ETOT 60  -17.038819086951     -3.553E-15 2.231E-05 0.000E+00
 ETOT 61  -17.038819086951      3.553E-15 2.319E-05 0.000E+00
[...]
 ETOT  632  -17.038819086951     -7.105E-15 1.726E-20 0.000E+00
 ETOT  633  -17.038819086951      1.066E-14 2.312E-20 0.000E+00
 ETOT  634  -17.038819086951     -1.066E-14 1.591E-20 0.000E+00
 ETOT  635  -17.038819086951      3.553E-15 2.132E-20 0.000E+00
 ETOT  636  -17.038819086951     -3.553E-15 1.467E-20 0.000E+00
 ETOT  637  -17.038819086951     -3.553E-15 1.966E-20 0.000E+00
 ETOT  638  -17.038819086951      0.000E+00 1.353E-20 0.000E+00
 ETOT  639  -17.038819086951      1.066E-14 1.813E-20 0.000E+00
 ETOT  640  -17.038819086951     -3.553E-15 1.248E-20 0.000E+00
 ETOT  641  -17.038819086951     -3.553E-15 1.672E-20 0.000E+00
 ETOT  642  -17.038819086951      0.000E+00 1.151E-20 0.000E+00
 ETOT  643  -17.038819086951      7.105E-15 1.542E-20 0.000E+00
 ETOT  644  -17.038819086951     -3.553E-15 1.061E-20 0.000E+00
 ETOT  645  -17.038819086951      7.105E-15 1.422E-20 0.000E+00
 ETOT  646  -17.038819086951     -3.553E-15 9.957E-21 0.000E+00

 At SCF step  646   max residual=  9.96E-21 < tolwfr=  1.00E-20 =>converged.

 ----iterations are completed or convergence reached----

 dfpt_looppert: DFPT cycle converged with prtwf=-1. Will skip output of the 1st-order WFK file.
 dfpt_looppert : ek2=    3.1857858880E+01
          f-sum rule ratio=    9.8808103679E-01
 prteigrs : about to open file /scratch/users/j/a/jabreu/flow_simple_6atoms/flow/w218/t1/tmpdata/tmp_1WF1_EIG
 Expectation of eigenvalue derivatives (hartree) for nkpt=   2  k points:
  (in case of degenerate eigenvalues, averaged derivative)
 kpt#   1, nband= 33, wtk=  0.50000, kpt=  0.2794  0.2794  0.5000 (reduced coord)
   0.00000    0.00000   -0.00000    0.00000    0.00000   -0.00000   -0.00000   -0.00000
  -0.00000    0.00000    0.00000   -0.00000   -0.00000    0.00000    0.00000   -0.00000
   0.00000    0.00000   -0.00000   -0.00000    0.00000    0.00000    0.00000    0.00000
  -0.00000    0.00000   -0.00000   -0.00000    0.00000   -0.00000    0.00000   -0.00000
  -0.00000
 prteigrs : prtvol=0 or 1, do not print more k-points.

 Eight components of 2nd-order total energy (hartree) are
 1,2,3: 0th-order hamiltonian combined with 1st-order wavefunctions
     kin0=   4.04890813E+01 eigvalue=   1.78639819E-01  local=  -2.11071291E+01
 4,5,6: 1st-order hamiltonian combined with 1st and 0th-order wfs
     kin1=  -3.14781462E+01  Hartree=   0.00000000E+00     xc=   0.00000000E+00
 7,8,9: eventually, occupation + non-local contributions
    edocc=   9.38694864E-01     enl0=  -3.46046783E+00   enl1=  -2.59949194E+00
 1-9 gives the relaxation energy (to be shifted if some occ is /=2.0)
   erelax=  -1.70388191E+01
  No Ewald or frozen-wf contrib.: the relaxation energy is the total one
 2DEtotal=   -0.1703881909E+02 Ha. Also 2DEtotal=   -0.463649846696E+03 eV
    (  non-var. 2DEtotal :   -1.7038819087E+01 Ha)

 CALCULATION OF EFFECTIVE MASSES
 NOTE : Additional infos (eff. mass eigenvalues, eigenvectors and, if degenerate, average mass) are available in stdout.

 K-point ( 0.279, 0.279, 0.500) | band =    24
 Effective mass tensor:
             -1.6356738721             -0.3459712530             -0.0000000013
             -0.3459712530             -1.6356738637              0.0000000009
             -0.0000000013              0.0000000009             -6.5577152503
 Effective mass tensor eigenvalues:
             -6.5577152503             -1.9816451209             -1.2897026150
 Angular average effective mass 1/(<1/m>)=  -2.0942468265
 Angular average effective mass for Frohlich model (<m**0.5>)**2=  -2.3354438196
 Effective masses along directions: (cart. coord. / red. coord. -> eff. mass)
    1:   1.000000  0.000000  0.000000 /   1.000000  0.000000  0.000000 ->  -1.5624954039
    2:   0.000000  1.000000  0.000000 /   0.000000  1.000000  0.000000 ->  -1.5624953959
    3:   0.000000  0.000000  1.000000 /   0.000000  0.000000  1.000000 ->  -6.5577152503
    4:   0.577350  0.577350  0.577350 /   0.497209  0.497209  0.711032 ->  -2.5823009879
    5:   0.000000  0.707107  0.707107 /   0.000000  0.573065  0.819510 ->  -2.5236783452
    6:   0.707107  0.000000  0.707107 /   0.573065  0.000000  0.819510 ->  -2.5236783573
    7:   0.707107  0.707107  0.000000 /   0.707107  0.707107  0.000000 ->  -1.9816451209

 K-point ( 0.412, 0.412, 0.500) | band =    25
 Effective mass tensor:
              2.7651731405              0.9642449813              0.0000279423
              0.9642449813              2.7651755955             -0.0000257131
              0.0000279423             -0.0000257131              5.8574461482
 Effective mass tensor eigenvalues:
              1.8009293864              3.7294193493              5.8574461485
 Angular average effective mass 1/(<1/m>)=   3.0177140451
 Angular average effective mass for Frohlich model (<m**0.5>)**2=   3.2446353747
 Effective masses along directions: (cart. coord. / red. coord. -> eff. mass)
    1:   1.000000  0.000000  0.000000 /   1.000000  0.000000  0.000000 ->   2.4289310639
    2:   0.000000  1.000000  0.000000 /   0.000000  1.000000  0.000000 ->   2.4289332203
    3:   0.000000  0.000000  1.000000 /   0.000000  0.000000  1.000000 ->   5.8574461474
    4:   0.577350  0.577350  0.577350 /   0.497209  0.497209  0.711032 ->   4.2432864234
    5:   0.000000  0.707107  0.707107 /   0.000000  0.573065  0.819510 ->   3.4338818313
    6:   0.707107  0.000000  0.707107 /   0.573065  0.000000  0.819510 ->   3.4339396535
    7:   0.707107  0.707107  0.000000 /   0.707107  0.707107  0.000000 ->   3.7294193493

 END OF EFFECTIVE MASSES SECTION

 ---- first-order wavefunction calculations are completed ----

 Total localisation tensor (bohr^2) in cartesian coordinates
  WARNING : still subject to testing - especially symmetries.
      direction              matrix element
   alpha     beta       real part   imaginary part
     1        1       0.7528318747    0.0000000000
     1        2       0.0000000000    0.0000000000
     1        3       0.0000000000    0.0000000000
     2        1       0.0000000000    0.0000000000
     2        2       0.7528318823    0.0000000000
     2        3       0.0000000000    0.0000000000
     3        1       0.0000000000    0.0000000000
     3        2       0.0000000000    0.0000000000
     3        3       0.6829426178    0.0000000000

 respfn : d/dk was computed, but no 2DTE, so no DDB output.

== END DATASET(S) ==============================================================

 -outvars: echo values of variables after computation  --------
            acell      1.0000000000E+00  1.0000000000E+00  1.0000000000E+00 Bohr
              amu      1.38905500E+02  1.59994000E+01  1.89984032E+01
             ecut      5.20000000E+01 Hartree
           etotal     -1.7038819087E+01
            fcart      0.0000000000E+00  0.0000000000E+00  0.0000000000E+00
                       0.0000000000E+00  0.0000000000E+00  0.0000000000E+00
                       0.0000000000E+00  0.0000000000E+00  0.0000000000E+00
                       0.0000000000E+00  0.0000000000E+00  0.0000000000E+00
                       0.0000000000E+00  0.0000000000E+00  0.0000000000E+00
                       0.0000000000E+00  0.0000000000E+00  0.0000000000E+00
-          fftalg         512
           irdden           1
           irdwfk           1
              ixc     -116133
              kpt      2.79411765E-01  2.79411765E-01  5.00000000E-01
                       4.11764706E-01  4.11764706E-01  5.00000000E-01
           kptopt           0
P           mkmem           2
P          mkqmem           2
P          mk1mem           2
            natom           6
            nband          33
           nbdbuf           4
            ngfft          50      50      72
             nkpt           2
            nstep        1000
             nsym          16
           ntypat           3
              occ      2.000000  2.000000  2.000000  2.000000  2.000000  2.000000
                       2.000000  2.000000  2.000000  2.000000  2.000000  2.000000
                       2.000000  2.000000  2.000000  2.000000  2.000000  2.000000
                       2.000000  2.000000  2.000000  2.000000  2.000000  2.000000
                       0.000000  0.000000  0.000000  0.000000  0.000000  0.000000
                       0.000000  0.000000  0.000000
        optdriver           1
            prtwf          -1
            rfdir           1       1       1
           rfelfd           2
            rprim      7.6270529169E+00  0.0000000000E+00  0.0000000000E+00
                       0.0000000000E+00  7.6270529169E+00  0.0000000000E+00
                       0.0000000000E+00  0.0000000000E+00  1.0907047207E+01
          spgroup         129
           strten      0.0000000000E+00  0.0000000000E+00  0.0000000000E+00
                       0.0000000000E+00  0.0000000000E+00  0.0000000000E+00
           symrel      1  0  0   0  1  0   0  0  1      -1  0  0   0 -1  0   0  0 -1
                      -1  0  0   0  1  0   0  0 -1       1  0  0   0 -1  0   0  0  1
                      -1  0  0   0 -1  0   0  0  1       1  0  0   0  1  0   0  0 -1
                       1  0  0   0 -1  0   0  0 -1      -1  0  0   0  1  0   0  0  1
                       0  1  0   1  0  0   0  0  1       0 -1  0  -1  0  0   0  0 -1
                       0 -1  0   1  0  0   0  0 -1       0  1  0  -1  0  0   0  0  1
                       0 -1  0  -1  0  0   0  0  1       0  1  0   1  0  0   0  0 -1
                       0  1  0  -1  0  0   0  0 -1       0 -1  0   1  0  0   0  0  1
            tnons      0.0000000  0.0000000  0.0000000     0.5000000  0.5000000  0.0000000
                       0.5000000  0.5000000  0.0000000     0.0000000  0.0000000  0.0000000
                       0.0000000  0.0000000  0.0000000     0.5000000  0.5000000  0.0000000
                       0.5000000  0.5000000  0.0000000     0.0000000  0.0000000  0.0000000
                       0.5000000  0.5000000  0.0000000     0.0000000  0.0000000  0.0000000
                       0.0000000  0.0000000  0.0000000     0.5000000  0.5000000  0.0000000
                       0.5000000  0.5000000  0.0000000     0.0000000  0.0000000  0.0000000
                       0.0000000  0.0000000  0.0000000     0.5000000  0.5000000  0.0000000
           tolwfr      1.00000000E-20
            typat      1  1  2  2  3  3
           useylm           1
              wtk        0.50000    0.50000
           xangst      0.0000000000E+00  2.0180312862E+00  4.1331348181E+00
                       2.0180312862E+00  0.0000000000E+00  1.6386259767E+00
                       2.0180312862E+00  2.0180312862E+00  2.8858803974E+00
                       0.0000000000E+00  0.0000000000E+00  2.8858803974E+00
                       0.0000000000E+00  0.0000000000E+00  0.0000000000E+00
                       2.0180312862E+00  2.0180312862E+00  0.0000000000E+00
            xcart      0.0000000000E+00  3.8135264585E+00  7.8104928765E+00
                       3.8135264585E+00  0.0000000000E+00  3.0965543301E+00
                       3.8135264585E+00  3.8135264585E+00  5.4535236033E+00
                       0.0000000000E+00  0.0000000000E+00  5.4535236033E+00
                       0.0000000000E+00  0.0000000000E+00  0.0000000000E+00
                       3.8135264585E+00  3.8135264585E+00  0.0000000000E+00
             xred      0.0000000000E+00  5.0000000000E-01  7.1609600000E-01
                       5.0000000000E-01  0.0000000000E+00  2.8390400000E-01
                       5.0000000000E-01  5.0000000000E-01  5.0000000000E-01
                       0.0000000000E+00  0.0000000000E+00  5.0000000000E-01
                       0.0000000000E+00  0.0000000000E+00  0.0000000000E+00
                       5.0000000000E-01  5.0000000000E-01  0.0000000000E+00
            znucl       57.00000    8.00000    9.00000

- Timing analysis has been suppressed with timopt=0

 Suggested references for the acknowledgment of ABINIT usage.

 Calculation completed.
.Delivered  14 WARNINGs and   9 COMMENTs to log file.