.Version 9.5.2 of ABINIT

 ABINIT is a project of the Universite Catholique de Louvain,
 Corning Inc. and other collaborators, see ~abinit/doc/developers/contributors.txt .
 acknowledgments of the ABINIT effort.

.Starting date : Mon 31 May 2021.
- ( at 22h04 )

- input  file    -> /scratch/users/j/a/jabreu/flow_simple_11atoms/flow/w339/t1/run.abi
- output file    -> /scratch/users/j/a/jabreu/flow_simple_11atoms/flow/w339/t1/run.abo
- root for input  files -> /scratch/users/j/a/jabreu/flow_simple_11atoms/flow/w339/t1/indata/in
- root for output files -> /scratch/users/j/a/jabreu/flow_simple_11atoms/flow/w339/t1/outdata/out

 Symmetries : space group P2_1/c (# 14); Bravais mP (primitive monocl.)
     intxc =       0      iscf =       7    lmnmax =      18     lnmax =       6
     mgfft =      60  mpssoang =       3    mqgrid =    3001     natom =      12
  nloc_mem =       1    nspden =       1   nspinor =       1    nsppol =       1
      nsym =       4    n1xccc =    2501    ntypat =       3    occopt =       1
   xclevel =       2
-    mband =          57        mffmem =           1         mkmem =           2
-   mkqmem =           2        mk1mem =           2           mpw =       11942
      nfft =      216000          nkpt =           2
  Rough estimation (10% accuracy) of disk space for files :

------------- Echo of variables that govern the present computation ------------
-
- outvars: echo of selected default values
-   iomode0 =  0 , fftalg0 =512 , wfoptalg0 =  0
-
- outvars: echo of global parameters not present in the input file
-  max_nthreads =    0
-
 -outvars: echo values of preprocessed input variables --------
            acell      1.0000000000E+00  1.0000000000E+00  1.0000000000E+00 Bohr
              amu      9.29063800E+01  1.40067400E+01  1.59994000E+01
             ecut      4.40000000E+01 Hartree
-          fftalg         512
           irdden           1
           irdwfk           1
           istwfk        1    1
              ixc     -116133
              kpt      0.00000000E+00  0.00000000E+00  0.00000000E+00
                       0.00000000E+00  5.00000000E-01  0.00000000E+00
           kptopt           0
P           mkmem           2
P          mkqmem           2
P          mk1mem           2
            natom          12
            nband          57
           nbdbuf           4
            ngfft          60      60      60
             nkpt           2
            nstep        2000
             nsym           4
           ntypat           3
              occ      2.000000  2.000000  2.000000  2.000000  2.000000  2.000000
                       2.000000  2.000000  2.000000  2.000000  2.000000  2.000000
                       2.000000  2.000000  2.000000  2.000000  2.000000  2.000000
                       2.000000  2.000000  2.000000  2.000000  2.000000  2.000000
                       2.000000  2.000000  2.000000  2.000000  2.000000  2.000000
                       2.000000  2.000000  2.000000  2.000000  2.000000  2.000000
                       2.000000  2.000000  2.000000  2.000000  2.000000  2.000000
                       2.000000  2.000000  2.000000  2.000000  2.000000  2.000000
                       0.000000  0.000000  0.000000  0.000000  0.000000  0.000000
                       0.000000  0.000000  0.000000
        optdriver           1
            prtwf          -1
            rfdir           1       1       1
           rfelfd           2
            rprim      9.4856677434E+00  0.0000000000E+00  0.0000000000E+00
                       0.0000000000E+00  9.2207052906E+00  1.6210202079E+00
                       0.0000000000E+00  0.0000000000E+00  9.7708749800E+00
          spgroup          14
           symrel      1  0  0   0  1  0   0  0  1      -1  0  0   0 -1  0   0  0 -1
                       1  0  0   0 -1  0   0  0 -1      -1  0  0   0  1  0   0  0  1
            tnons      0.0000000  0.0000000  0.0000000    -0.0000000  0.0000000  0.0000000
                       0.5000000  0.0000000  0.5000000     0.5000000  0.0000000  0.5000000
           tolwfr      1.00000000E-20
            typat      1  1  1  1  2  2  2  2  3  3  3  3
           useylm           1
              wtk        0.50000    0.50000
           xangst      2.2649987567E+00  3.4458768340E+00  4.3204990447E+00
                       4.7747983457E+00  1.4335102529E+00  4.2930944251E+00
                       2.7546004213E+00  1.4335102529E+00  1.7078322514E+00
                       2.4480083232E-01  3.4458768340E+00  1.7352368710E+00
                       3.7403693863E+00  2.7266307805E+00  5.5344348906E+00
                       1.2305697973E+00  2.1527563064E+00  3.0791585792E+00
                       1.2792297917E+00  2.1527563064E+00  4.9389640550E-01
                       3.7890293808E+00  2.7266307805E+00  2.9491727169E+00
                       1.6242218236E+00  4.5794560421E+00  2.6060340898E+00
                       4.1340214127E+00  2.9993104485E-01  8.3703503254E-01
                       3.3953773544E+00  2.9993104485E-01  3.4222972062E+00
                       8.8557776539E-01  4.5794560421E+00  5.1912962635E+00
            xcart      4.2802273415E+00  6.5117635040E+00  8.1645599518E+00
                       9.0230612132E+00  2.7089417866E+00  8.1127727261E+00
                       5.2054404019E+00  2.7089417866E+00  3.2273352361E+00
                       4.6260653018E-01  6.5117635040E+00  3.2791224618E+00
                       7.0682737760E+00  5.1525854406E+00  1.0458566243E+01
                       2.3254399043E+00  4.0681198500E+00  5.8187664344E+00
                       2.4173939674E+00  4.0681198500E+00  9.3332894441E-01
                       7.1602278391E+00  5.1525854406E+00  5.5731287535E+00
                       3.0693344257E+00  8.6539177571E+00  4.9246907228E+00
                       7.8121682974E+00  5.6678753351E-01  1.5817669751E+00
                       6.4163333177E+00  5.6678753351E-01  6.4672044651E+00
                       1.6734994460E+00  8.6539177571E+00  9.8101282128E+00
             xred      4.5123100000E-01  7.0621100000E-01  7.1843900000E-01
                       9.5123100000E-01  2.9378900000E-01  7.8156100000E-01
                       5.4876900000E-01  2.9378900000E-01  2.8156100000E-01
                       4.8769000000E-02  7.0621100000E-01  2.1843900000E-01
                       7.4515300000E-01  5.5880600000E-01  9.7767400000E-01
                       2.4515300000E-01  4.4119400000E-01  5.2232600000E-01
                       2.5484700000E-01  4.4119400000E-01  2.2326000000E-02
                       7.5484700000E-01  5.5880600000E-01  4.7767400000E-01
                       3.2357600000E-01  9.3853100000E-01  3.4831200000E-01
                       8.2357600000E-01  6.1469000000E-02  1.5168800000E-01
                       6.7642400000E-01  6.1469000000E-02  6.5168800000E-01
                       1.7642400000E-01  9.3853100000E-01  8.4831200000E-01
            znucl       41.00000    7.00000    8.00000

 chkinp: Checking input parameters for consistency.

== DATASET  1 ==================================================================
-   mpi_nproc: 1, omp_nthreads: -1 (-1 if OMP is not activated)

--- !DatasetInfo
iteration_state: {dtset: 1, }
dimensions: {natom: 12, nkpt: 2, mband: 57, nsppol: 1, nspinor: 1, nspden: 1, mpw: 11942, }
cutoff_energies: {ecut:  44.0, pawecutdg:  -1.0, }
electrons: {nelect:   9.60000000E+01, charge:   0.00000000E+00, occopt:   1.00000000E+00, tsmear:   1.00000000E-02, }
meta: {optdriver: 1, rfelfd: 2, }
...

 Real(R)+Recip(G) space primitive vectors, cartesian coordinates (Bohr,Bohr^-1):
 R(1)=  9.4856677  0.0000000  0.0000000  G(1)=  0.1054222  0.0000000  0.0000000
 R(2)=  0.0000000  9.2207053  1.6210202  G(2)=  0.0000000  0.1084516  0.0000000
 R(3)=  0.0000000  0.0000000  9.7708750  G(3)=  0.0000000 -0.0179925  0.1023450
 Unit cell volume ucvol=  8.5460515E+02 bohr^3
 Angles (23,13,12)=  8.00291641E+01  9.00000000E+01  9.00000000E+01 degrees

 getcut: wavevector=  0.0000  0.0000  0.0000  ngfft=  60  60  60
         ecut(hartree)=     44.000   => boxcut(ratio)=   2.05649

--- Pseudopotential description ------------------------------------------------
- pspini: atom type   1  psp file is /scratch/users/j/a/jabreu/pseudos/PBEsol/Nb.psp8
- pspatm: opening atomic psp file    /scratch/users/j/a/jabreu/pseudos/PBEsol/Nb.psp8
- Nb    ONCVPSP-3.3.0  r_core=   1.50879   1.40458   1.40458
- 41.00000  13.00000    180112                znucl, zion, pspdat
    8 -116133    2    4       600   0.00000   pspcod,pspxc,lmax,lloc,mmax,r2well
    5.99000000000000    5.00000000000000    0.00000000000000   rchrg,fchrg,qchrg
     nproj     2     2     2
     extension_switch     1
  pspatm : epsatm=   15.66753381
         --- l  ekb(1:nproj) -->
             0   12.953547    1.345168
             1    7.772306    0.779703
             2    3.518917    1.091480
 pspatm: atomic psp has been read  and splines computed

- pspini: atom type   2  psp file is /scratch/users/j/a/jabreu/pseudos/PBEsol/N.psp8
- pspatm: opening atomic psp file    /scratch/users/j/a/jabreu/pseudos/PBEsol/N.psp8
- N     ONCVPSP-3.3.0  r_core=   1.20551   1.35824
-  7.00000   5.00000    180112                znucl, zion, pspdat
    8 -116133    1    4       600   0.00000   pspcod,pspxc,lmax,lloc,mmax,r2well
    5.99000000000000    4.00000000000000    0.00000000000000   rchrg,fchrg,qchrg
     nproj     2     2
     extension_switch     1
  pspatm : epsatm=    5.26508895
         --- l  ekb(1:nproj) -->
             0    7.464189    0.625868
             1   -4.309714   -1.012941
 pspatm: atomic psp has been read  and splines computed

- pspini: atom type   3  psp file is /scratch/users/j/a/jabreu/pseudos/PBEsol/O.psp8
- pspatm: opening atomic psp file    /scratch/users/j/a/jabreu/pseudos/PBEsol/O.psp8
- O     ONCVPSP-3.3.0  r_core=   1.35509   1.45563   1.26150
-  8.00000   6.00000    180112                znucl, zion, pspdat
    8 -116133    2    4       600   0.00000   pspcod,pspxc,lmax,lloc,mmax,r2well
    5.99000000000000    4.00000000000000    0.00000000000000   rchrg,fchrg,qchrg
     nproj     2     2     1
     extension_switch     1
  pspatm : epsatm=    6.22910522
         --- l  ekb(1:nproj) -->
             0    6.050032    0.820363
             1   -4.739617   -1.153841
             2   -1.335834
 pspatm: atomic psp has been read  and splines computed

   1.04301035E+04                                ecore*ucvol(ha*bohr**3)

 ==>  initialize data related to q vector <==

 The list of irreducible perturbations for this q vector is:
    1)    idir= 1    ipert=  13
    2)    idir= 2    ipert=  13
    3)    idir= 3    ipert=  13

 Perturbation wavevector (in red.coord.)   0.000000  0.000000  0.000000
 Perturbation : derivative vs k along direction   1

 dfpt_looppert : COMMENT -
  In a d/dk calculation, iscf is set to -3 automatically.
 The set of symmetries contains only one element for this perturbation.
 symkpt : not enough symmetry to change the number of k points.

 Initialisation of the first-order wave-functions :
  ireadwf=   0

--- !BeginCycle
iteration_state: {dtset: 1, }
[...]
 Expectation of eigenvalue derivatives (hartree) for nkpt=   2  k points:
  (in case of degenerate eigenvalues, averaged derivative)
 kpt#   1, nband= 57, wtk=  0.50000, kpt=  0.0000  0.0000  0.0000 (reduced coord)
   0.00000    0.00000    0.00000    0.00000    0.00000    0.00000   -0.00000    0.00000
   0.00000    0.00000    0.00000   -0.00000   -0.00000   -0.00000   -0.00000    0.00000
   0.00000    0.00000   -0.00000   -0.00000   -0.00000    0.00000    0.00000    0.00000
   0.00000   -0.00000    0.00000    0.00000   -0.00000    0.00000   -0.00000    0.00000
   0.00000    0.00000   -0.00000   -0.00000   -0.00000    0.00000    0.00000    0.00000
   0.00000   -0.00000    0.00000   -0.00000    0.00000   -0.00000    0.00000   -0.00000
   0.00000    0.00000    0.00000    0.00000   -0.00000    0.00000   -0.00000   -0.00000
  -0.00000
 prteigrs : prtvol=0 or 1, do not print more k-points.

 Eight components of 2nd-order total energy (hartree) are
 1,2,3: 0th-order hamiltonian combined with 1st-order wavefunctions
     kin0=   9.15944958E+01 eigvalue=  -7.90170011E+00  local=  -5.29371094E+01
 4,5,6: 1st-order hamiltonian combined with 1st and 0th-order wfs
     kin1=  -8.84885660E+01  Hartree=   0.00000000E+00     xc=   0.00000000E+00
 7,8,9: eventually, occupation + non-local contributions
    edocc=   1.06895493E+01     enl0=   2.75103245E+00   enl1=   9.60298363E-02
 1-9 gives the relaxation energy (to be shifted if some occ is /=2.0)
   erelax=  -4.41962681E+01
  No Ewald or frozen-wf contrib.: the relaxation energy is the total one
 2DEtotal=   -0.4419626809E+02 Ha. Also 2DEtotal=   -0.120264161625E+04 eV
    (  non-var. 2DEtotal :   -4.4196268092E+01 Ha)

 Perturbation wavevector (in red.coord.)   0.000000  0.000000  0.000000
 Perturbation : derivative vs k along direction   2
 The set of symmetries contains only one element for this perturbation.
 symkpt : not enough symmetry to change the number of k points.

[...]

 Perturbation wavevector (in red.coord.)   0.000000  0.000000  0.000000
 Perturbation : derivative vs k along direction   3
 The set of symmetries contains only one element for this perturbation.
 symkpt : not enough symmetry to change the number of k points.

 Initialisation of the first-order wave-functions :
  ireadwf=   0

--- !BeginCycle
iteration_state: {dtset: 1, }
solver: {iscf: 7, nstep: 2000, nline: 4, wfoptalg: 0, }
tolerances: {tolwfr: 1.00E-20, }
...

     iter   2DEtotal(Ha)        deltaE(Ha) residm    vres2
-ETOT  1  -43.701036905817     -4.370E+01 6.787E-02 0.000E+00
 ETOT  2  -44.001962372213     -3.009E-01 1.473E-02 0.000E+00
 ETOT  3  -44.010061830696     -8.099E-03 3.279E-04 0.000E+00
 ETOT  4  -44.010358359681     -2.965E-04 1.331E-04 0.000E+00
 ETOT  5  -44.010371298129     -1.294E-05 7.458E-06 0.000E+00
 ETOT  6  -44.010371932456     -6.343E-07 3.284E-06 0.000E+00
 ETOT  7  -44.010371966572     -3.412E-08 2.206E-07 0.000E+00
 ETOT  8  -44.010371968530     -1.958E-09 1.034E-07 0.000E+00
 ETOT  9  -44.010371968648     -1.184E-10 1.056E-08 0.000E+00
 ETOT 10  -44.010371968655     -7.297E-12 3.549E-09 0.000E+00
 ETOT 11  -44.010371968656     -4.547E-13 5.881E-10 0.000E+00
 ETOT 12  -44.010371968656     -4.974E-14 1.759E-10 0.000E+00
 ETOT 13  -44.010371968656      2.842E-14 3.354E-11 0.000E+00
 ETOT 14  -44.010371968656     -1.421E-14 9.997E-12 0.000E+00
 ETOT 15  -44.010371968656     -4.974E-14 1.920E-12 0.000E+00
 ETOT 16  -44.010371968656      1.421E-14 5.728E-13 0.000E+00
 ETOT 17  -44.010371968656     -2.132E-14 1.103E-13 0.000E+00
 ETOT 18  -44.010371968656      2.132E-14 3.302E-14 0.000E+00
 ETOT 19  -44.010371968656     -7.105E-15 6.370E-15 0.000E+00
 ETOT 20  -44.010371968656      0.000E+00 1.913E-15 0.000E+00
 ETOT 21  -44.010371968656      0.000E+00 3.694E-16 0.000E+00
 ETOT 22  -44.010371968656      1.421E-14 1.113E-16 0.000E+00
 ETOT 23  -44.010371968656     -1.421E-14 2.151E-17 0.000E+00
 ETOT 24  -44.010371968656      7.105E-15 6.501E-18 0.000E+00
 ETOT 25  -44.010371968656     -1.421E-14 1.257E-18 0.000E+00
 ETOT 26  -44.010371968656     -1.421E-14 3.809E-19 0.000E+00
 ETOT 27  -44.010371968656     -7.105E-15 7.367E-20 0.000E+00
 ETOT 28  -44.010371968656      3.553E-14 2.238E-20 0.000E+00
 ETOT 29  -44.010371968656     -7.105E-15 9.971E-21 0.000E+00

 At SCF step   29   max residual=  9.97E-21 < tolwfr=  1.00E-20 =>converged.

 ----iterations are completed or convergence reached----

 dfpt_looppert: DFPT cycle converged with prtwf=-1. Will skip output of the 1st-order WFK file.
 dfpt_looppert : ek2=    8.1848984016E+01
          f-sum rule ratio=    1.0772583738E+00
 prteigrs : about to open file /scratch/users/j/a/jabreu/flow_simple_11atoms/flow/w339/t1/tmpdata/tmp_1WF1_EIG
 Expectation of eigenvalue derivatives (hartree) for nkpt=   2  k points:
  (in case of degenerate eigenvalues, averaged derivative)
 kpt#   1, nband= 57, wtk=  0.50000, kpt=  0.0000  0.0000  0.0000 (reduced coord)
   0.00000   -0.00000    0.00000   -0.00000    0.00000   -0.00000    0.00000   -0.00000
  -0.00000    0.00000   -0.00000   -0.00000    0.00000    0.00000   -0.00000   -0.00000
   0.00000    0.00000   -0.00000   -0.00000   -0.00000   -0.00000    0.00000   -0.00000
  -0.00000    0.00000   -0.00000   -0.00000   -0.00000    0.00000   -0.00000   -0.00000
  -0.00000    0.00000    0.00000   -0.00000   -0.00000    0.00000   -0.00000   -0.00000
   0.00000   -0.00000    0.00000    0.00000   -0.00000   -0.00000    0.00000    0.00000
  -0.00000    0.00000   -0.00000   -0.00000    0.00000   -0.00000    0.00000   -0.00000
   0.00000
 prteigrs : prtvol=0 or 1, do not print more k-points.

 Eight components of 2nd-order total energy (hartree) are
 1,2,3: 0th-order hamiltonian combined with 1st-order wavefunctions
     kin0=   9.11553016E+01 eigvalue=  -8.51405222E+00  local=  -5.11907262E+01
 4,5,6: 1st-order hamiltonian combined with 1st and 0th-order wfs
     kin1=  -8.81725034E+01  Hartree=   0.00000000E+00     xc=   0.00000000E+00
 7,8,9: eventually, occupation + non-local contributions
    edocc=   1.04854130E+01     enl0=   2.07443572E+00   enl1=   1.51759481E-01
 1-9 gives the relaxation energy (to be shifted if some occ is /=2.0)
   erelax=  -4.40103720E+01
  No Ewald or frozen-wf contrib.: the relaxation energy is the total one
 2DEtotal=   -0.4401037197E+02 Ha. Also 2DEtotal=   -0.119758312546E+04 eV
    (  non-var. 2DEtotal :   -4.4010371968E+01 Ha)

 CALCULATION OF EFFECTIVE MASSES
 NOTE : Additional infos (eff. mass eigenvalues, eigenvectors and, if degenerate, average mass) are available in stdout.

--- !WARNING
src_file: m_efmas.F90
src_line: 0
message: |

    Band(s)    48,
    are not band extrema, but saddle points;
    the transport equivalent formalism breaks down in these conditions.
    The associated tensor(s) will therefore not be printed.
...

 K-point ( 0.000, 0.000, 0.000) | band =    48
 Effective mass tensor:
     *** SADDLE POINT: TRANSPORT EQV. EFF. MASS NOT DEFINED (see WARNING above) ***
 Angular average effective mass 1/(<1/m>)=  -1.1488839621
 Angular average effective mass for Frohlich model (<m**0.5>)**2=  -2.3134725539
 Effective masses along directions: (cart. coord. / red. coord. -> eff. mass)
    1:   1.000000  0.000000  0.000000 /   1.000000  0.000000  0.000000 ->  23.5235826811
    2:   0.000000  1.000000  0.000000 /   0.000000  1.000000  0.000000 ->  -0.5801264931
    3:   0.000000  0.000000  1.000000 /   0.000000  0.163666  0.986516 ->  -1.0752939020
    4:   0.577350  0.577350  0.577350 /   0.544946  0.622850  0.561331 ->  -1.0666356180
    5:   0.000000  0.707107  0.707107 /   0.000000  0.742840  0.669469 ->  -0.7005027228
    6:   0.707107  0.000000  0.707107 /   0.691674  0.118201  0.712471 ->  -2.2536029550
    7:   0.707107  0.707107  0.000000 /   0.717051  0.697021  0.000000 ->  -1.1895900445

 K-point ( 0.000, 0.500, 0.000) | band =    49
 Effective mass tensor:
              1.0396122800              0.0000014638              0.0000104004
              0.0000014638              1.1361685769              0.1064211761
              0.0000104004              0.1064211761              0.8129166764
 Effective mass tensor eigenvalues:
              0.7810266980              1.0396122802              1.1680585552
 Angular average effective mass 1/(<1/m>)=   0.9682465199
 Angular average effective mass for Frohlich model (<m**0.5>)**2=   0.9768855747
 Effective masses along directions: (cart. coord. / red. coord. -> eff. mass)
    1:   1.000000  0.000000  0.000000 /   1.000000  0.000000  0.000000 ->   1.0396122798
    2:   0.000000  1.000000  0.000000 /   0.000000  1.000000  0.000000 ->   1.1222366857
    3:   0.000000  0.000000  1.000000 /   0.000000  0.163666  0.986516 ->   0.8029485546
    4:   0.577350  0.577350  0.577350 /   0.544946  0.622850  0.561331 ->   1.0471011069
    5:   0.000000  0.707107  0.707107 /   0.000000  0.742840  0.669469 ->   1.0508724511
    6:   0.707107  0.000000  0.707107 /   0.691674  0.118201  0.712471 ->   0.9060916322
    7:   0.707107  0.707107  0.000000 /   0.717051  0.697021  0.000000 ->   1.0793456604

 END OF EFFECTIVE MASSES SECTION

 ---- first-order wavefunction calculations are completed ----

 Total localisation tensor (bohr^2) in cartesian coordinates
  WARNING : still subject to testing - especially symmetries.
      direction              matrix element
   alpha     beta       real part   imaginary part
     1        1       1.0886785620    0.0000000000
     1        2       0.0000000000    0.0000000000
     1        3       0.0000000000    0.0000000000
     2        1       0.0000000000    0.0000000000
     2        2       0.9375215596    0.0000000000
     2        3       0.1648183458    0.0000000000
     3        1       0.0000000000    0.0000000000
     3        2       0.1648183458    0.0000000000
     3        3       1.2182337091    0.0000000000

 respfn : d/dk was computed, but no 2DTE, so no DDB output.

== END DATASET(S) ==============================================================

 -outvars: echo values of variables after computation  --------
            acell      1.0000000000E+00  1.0000000000E+00  1.0000000000E+00 Bohr
              amu      9.29063800E+01  1.40067400E+01  1.59994000E+01
             ecut      4.40000000E+01 Hartree
           etotal     -4.4010371969E+01
            fcart      0.0000000000E+00  0.0000000000E+00  0.0000000000E+00
                       0.0000000000E+00  0.0000000000E+00  0.0000000000E+00
                       0.0000000000E+00  0.0000000000E+00  0.0000000000E+00
                       0.0000000000E+00  0.0000000000E+00  0.0000000000E+00
                       0.0000000000E+00  0.0000000000E+00  0.0000000000E+00
                       0.0000000000E+00  0.0000000000E+00  0.0000000000E+00
                       0.0000000000E+00  0.0000000000E+00  0.0000000000E+00
                       0.0000000000E+00  0.0000000000E+00  0.0000000000E+00
                       0.0000000000E+00  0.0000000000E+00  0.0000000000E+00
                       0.0000000000E+00  0.0000000000E+00  0.0000000000E+00
                       0.0000000000E+00  0.0000000000E+00  0.0000000000E+00
                       0.0000000000E+00  0.0000000000E+00  0.0000000000E+00
-          fftalg         512
           irdden           1
           irdwfk           1
           istwfk        1    1
              ixc     -116133
              kpt      0.00000000E+00  0.00000000E+00  0.00000000E+00
                       0.00000000E+00  5.00000000E-01  0.00000000E+00
           kptopt           0
P           mkmem           2
P          mkqmem           2
P          mk1mem           2
            natom          12
            nband          57
           nbdbuf           4
            ngfft          60      60      60
             nkpt           2
            nstep        2000
             nsym           4
           ntypat           3
              occ      2.000000  2.000000  2.000000  2.000000  2.000000  2.000000
                       2.000000  2.000000  2.000000  2.000000  2.000000  2.000000
                       2.000000  2.000000  2.000000  2.000000  2.000000  2.000000
                       2.000000  2.000000  2.000000  2.000000  2.000000  2.000000
                       2.000000  2.000000  2.000000  2.000000  2.000000  2.000000
                       2.000000  2.000000  2.000000  2.000000  2.000000  2.000000
                       2.000000  2.000000  2.000000  2.000000  2.000000  2.000000
                       2.000000  2.000000  2.000000  2.000000  2.000000  2.000000
                       0.000000  0.000000  0.000000  0.000000  0.000000  0.000000
                       0.000000  0.000000  0.000000
        optdriver           1
            prtwf          -1
            rfdir           1       1       1
           rfelfd           2
            rprim      9.4856677434E+00  0.0000000000E+00  0.0000000000E+00
                       0.0000000000E+00  9.2207052906E+00  1.6210202079E+00
                       0.0000000000E+00  0.0000000000E+00  9.7708749800E+00
          spgroup          14
           strten      0.0000000000E+00  0.0000000000E+00  0.0000000000E+00
                       0.0000000000E+00  0.0000000000E+00  0.0000000000E+00
           symrel      1  0  0   0  1  0   0  0  1      -1  0  0   0 -1  0   0  0 -1
                       1  0  0   0 -1  0   0  0 -1      -1  0  0   0  1  0   0  0  1
            tnons      0.0000000  0.0000000  0.0000000    -0.0000000  0.0000000  0.0000000
                       0.5000000  0.0000000  0.5000000     0.5000000  0.0000000  0.5000000
           tolwfr      1.00000000E-20
            typat      1  1  1  1  2  2  2  2  3  3  3  3
           useylm           1
              wtk        0.50000    0.50000
           xangst      2.2649987567E+00  3.4458768340E+00  4.3204990447E+00
                       4.7747983457E+00  1.4335102529E+00  4.2930944251E+00
                       2.7546004213E+00  1.4335102529E+00  1.7078322514E+00
                       2.4480083232E-01  3.4458768340E+00  1.7352368710E+00
                       3.7403693863E+00  2.7266307805E+00  5.5344348906E+00
                       1.2305697973E+00  2.1527563064E+00  3.0791585792E+00
                       1.2792297917E+00  2.1527563064E+00  4.9389640550E-01
                       3.7890293808E+00  2.7266307805E+00  2.9491727169E+00
                       1.6242218236E+00  4.5794560421E+00  2.6060340898E+00
                       4.1340214127E+00  2.9993104485E-01  8.3703503254E-01
                       3.3953773544E+00  2.9993104485E-01  3.4222972062E+00
                       8.8557776539E-01  4.5794560421E+00  5.1912962635E+00
            xcart      4.2802273415E+00  6.5117635040E+00  8.1645599518E+00
                       9.0230612132E+00  2.7089417866E+00  8.1127727261E+00
                       5.2054404019E+00  2.7089417866E+00  3.2273352361E+00
                       4.6260653018E-01  6.5117635040E+00  3.2791224618E+00
                       7.0682737760E+00  5.1525854406E+00  1.0458566243E+01
                       2.3254399043E+00  4.0681198500E+00  5.8187664344E+00
                       2.4173939674E+00  4.0681198500E+00  9.3332894441E-01
                       7.1602278391E+00  5.1525854406E+00  5.5731287535E+00
                       3.0693344257E+00  8.6539177571E+00  4.9246907228E+00
                       7.8121682974E+00  5.6678753351E-01  1.5817669751E+00
                       6.4163333177E+00  5.6678753351E-01  6.4672044651E+00
                       1.6734994460E+00  8.6539177571E+00  9.8101282128E+00
             xred      4.5123100000E-01  7.0621100000E-01  7.1843900000E-01
                       9.5123100000E-01  2.9378900000E-01  7.8156100000E-01
                       5.4876900000E-01  2.9378900000E-01  2.8156100000E-01
                       4.8769000000E-02  7.0621100000E-01  2.1843900000E-01
                       7.4515300000E-01  5.5880600000E-01  9.7767400000E-01
                       2.4515300000E-01  4.4119400000E-01  5.2232600000E-01
                       2.5484700000E-01  4.4119400000E-01  2.2326000000E-02
                       7.5484700000E-01  5.5880600000E-01  4.7767400000E-01
                       3.2357600000E-01  9.3853100000E-01  3.4831200000E-01
                       8.2357600000E-01  6.1469000000E-02  1.5168800000E-01
                       6.7642400000E-01  6.1469000000E-02  6.5168800000E-01
                       1.7642400000E-01  9.3853100000E-01  8.4831200000E-01
            znucl       41.00000    7.00000    8.00000

- Timing analysis has been suppressed with timopt=0

 Suggested references for the acknowledgment of ABINIT usage.

 Calculation completed.
.Delivered   3 WARNINGs and   5 COMMENTs to log file.