.Version 9.5.1 of ABINIT

 ABINIT is a project of the Universite Catholique de Louvain,
 Corning Inc. and other collaborators, see ~abinit/doc/developers/contributors.txt .
 acknowledgments of the ABINIT effort.

.Starting date : Wed  5 May 2021.
- ( at 19h49 )

- input  file    -> /scratch/users/j/a/jabreu/flow_simple_7atoms/flow/w143/t1/run.abi
- output file    -> /scratch/users/j/a/jabreu/flow_simple_7atoms/flow/w143/t1/run.abo
- root for input  files -> /scratch/users/j/a/jabreu/flow_simple_7atoms/flow/w143/t1/indata/in
- root for output files -> /scratch/users/j/a/jabreu/flow_simple_7atoms/flow/w143/t1/outdata/out

 Symmetries : space group I4/m m m (#139); Bravais tI (body-center tetrag.)
     intxc =       0      iscf =       7    lmnmax =      18     lnmax =       6
     mgfft =     108  mpssoang =       3    mqgrid =    3001     natom =       7
  nloc_mem =       1    nspden =       1   nspinor =       1    nsppol =       1
      nsym =      16    n1xccc =    2501    ntypat =       3    occopt =       1
   xclevel =       2
-    mband =          37        mffmem =           1         mkmem =           1
-   mkqmem =           1        mk1mem =           1           mpw =       22269
      nfft =     1259712          nkpt =           1
  Rough estimation (10% accuracy) of disk space for files :

------------- Echo of variables that govern the present computation ------------
-
- outvars: echo of selected default values
-   iomode0 =  0 , fftalg0 =512 , wfoptalg0 =  0
-
- outvars: echo of global parameters not present in the input file
-  max_nthreads =    0
-
 -outvars: echo values of preprocessed input variables --------
            acell      1.0000000000E+00  1.0000000000E+00  1.0000000000E+00 Bohr
              amu      3.90983000E+01  1.26904470E+02  1.59994000E+01
             ecut      4.40000000E+01 Hartree
-          fftalg         512
           irdden           1
           irdwfk           1
           istwfk        1
              ixc     -116133
           kptopt           0
P           mkmem           1
P          mkqmem           1
P          mk1mem           1
            natom           7
            nband          37
           nbdbuf           4
            ngfft         108     108     108
             nkpt           1
            nstep        2000
             nsym          16
           ntypat           3
              occ      2.000000  2.000000  2.000000  2.000000  2.000000  2.000000
                       2.000000  2.000000  2.000000  2.000000  2.000000  2.000000
                       2.000000  2.000000  2.000000  2.000000  2.000000  2.000000
                       2.000000  2.000000  2.000000  2.000000  2.000000  2.000000
                       2.000000  2.000000  2.000000  2.000000  0.000000  0.000000
                       0.000000  0.000000  0.000000  0.000000  0.000000  0.000000
                       0.000000
        optdriver           1
            prtwf          -1
            rfdir           1       1       1
           rfelfd           2
            rprim      9.4989033866E+00  0.0000000000E+00 -1.5040661706E+01
                      -7.9521762890E-01  9.4655583285E+00 -1.5040661706E+01
                       0.0000000000E+00  0.0000000000E+00  1.7789060406E+01
          spgroup         139
           symrel      1  0  0   0  1  0   0  0  1      -1  0  0   0 -1  0   0  0 -1
                      -1 -1 -1   0  0  1   0  1  0       1  1  1   0  0 -1   0 -1  0
                       0  1  0   1  0  0  -1 -1 -1       0 -1  0  -1  0  0   1  1  1
                       0  0  1  -1 -1 -1   1  0  0       0  0 -1   1  1  1  -1  0  0
                       0  1  0   1  0  0   0  0  1       0 -1  0  -1  0  0   0  0 -1
                      -1 -1 -1   0  0  1   1  0  0       1  1  1   0  0 -1  -1  0  0
                       1  0  0   0  1  0  -1 -1 -1      -1  0  0   0 -1  0   1  1  1
                       0  0  1  -1 -1 -1   0  1  0       0  0 -1   1  1  1   0 -1  0
           tolwfr      1.00000000E-20
            typat      1  1  1  1  2  2  3
           useylm           1
           xangst      2.5133015894E+00  0.0000000000E+00  7.2719497589E-01
                       6.7713895371E-01  7.3641195710E-01 -2.3403000095E+00
                       3.9286531800E+00  4.2725457769E+00 -1.3578050745E+01
                      -2.1040552254E-01  2.5044788670E+00  7.2719497589E-01
                       1.6270789755E+00  1.7695044808E+00 -5.6234439342E+00
                       2.9787131582E+00  3.2394532532E+00 -1.0294906820E+01
                       0.0000000000E+00  0.0000000000E+00  0.0000000000E+00
            xcart      4.7494516933E+00  0.0000000000E+00  1.3741993497E+00
                       1.2796071764E+00  1.3916169199E+00 -4.4225260868E+00
                       7.4240785813E+00  8.0739414086E+00 -2.5658797326E+01
                      -3.9760881445E-01  4.7327791643E+00  1.3741993497E+00
                       3.0747336603E+00  3.3438788596E+00 -1.0626768959E+01
                       5.6289520974E+00  6.1216794689E+00 -1.9454554453E+01
                       0.0000000000E+00  0.0000000000E+00  0.0000000000E+00
             xred      5.0000000000E-01  0.0000000000E+00  5.0000000000E-01
                       1.4701900000E-01  1.4701900000E-01  2.7755575616E-17
                       8.5298100000E-01  8.5298100000E-01 -2.2204460493E-16
                       0.0000000000E+00  5.0000000000E-01  5.0000000000E-01
                       3.5326800000E-01  3.5326800000E-01 -1.1102230246E-16
                       6.4673200000E-01  6.4673200000E-01 -2.2204460493E-16
                       0.0000000000E+00  0.0000000000E+00  0.0000000000E+00
            znucl       19.00000   53.00000    8.00000

 chkinp: Checking input parameters for consistency.

== DATASET  1 ==================================================================
-   mpi_nproc: 1, omp_nthreads: -1 (-1 if OMP is not activated)

--- !DatasetInfo
iteration_state: {dtset: 1, }
dimensions: {natom: 7, nkpt: 1, mband: 37, nsppol: 1, nspinor: 1, nspden: 1, mpw: 22269, }
cutoff_energies: {ecut:  44.0, pawecutdg:  -1.0, }
electrons: {nelect:   5.60000000E+01, charge:   0.00000000E+00, occopt:   1.00000000E+00, tsmear:   1.00000000E-02, }
meta: {optdriver: 1, rfelfd: 2, }
...

 Real(R)+Recip(G) space primitive vectors, cartesian coordinates (Bohr,Bohr^-1):
 R(1)=  9.4989034  0.0000000-15.0406617  G(1)=  0.1052753  0.0088444  0.0000000
 R(2)= -0.7952176  9.4655583-15.0406617  G(2)=  0.0000000  0.1056462  0.0000000
 R(3)=  0.0000000  0.0000000 17.7890604  G(3)=  0.0890103  0.0968018  0.0562143
 Unit cell volume ucvol=  1.5994575E+03 bohr^3
 Angles (23,13,12)=  1.47725614E+02  1.47725614E+02  4.62905810E+01 degrees

 getcut: wavevector=  0.0000  0.0000  0.0000  ngfft= 108 108 108
         ecut(hartree)=     44.000   => boxcut(ratio)=   2.03351

--- Pseudopotential description ------------------------------------------------
- pspini: atom type   1  psp file is /scratch/users/j/a/jabreu/pseudos/PBEsol/K.psp8
- pspatm: opening atomic psp file    /scratch/users/j/a/jabreu/pseudos/PBEsol/K.psp8
- K     ONCVPSP-3.3.0  r_core=   1.36296   1.46408   1.61068
- 19.00000   9.00000    180112                znucl, zion, pspdat
    8 -116133    2    4       400   0.00000   pspcod,pspxc,lmax,lloc,mmax,r2well
    3.99000000000000    5.00000000000000    0.00000000000000   rchrg,fchrg,qchrg
     nproj     2     2     2
     extension_switch     1
  pspatm : epsatm=    8.32487830
         --- l  ekb(1:nproj) -->
             0   10.921326    0.816676
             1    4.431000    0.560368
             2   -3.384038   -1.043186
 pspatm: atomic psp has been read  and splines computed

- pspini: atom type   2  psp file is /scratch/users/j/a/jabreu/pseudos/PBEsol/I.psp8
- pspatm: opening atomic psp file    /scratch/users/j/a/jabreu/pseudos/PBEsol/I.psp8
- I     ONCVPSP-3.3.0  r_core=   2.02042   2.17032   2.27639
- 53.00000   7.00000    180112                znucl, zion, pspdat
    8 -116133    2    4       600   0.00000   pspcod,pspxc,lmax,lloc,mmax,r2well
    5.99000000000000    4.00000000000000    0.00000000000000   rchrg,fchrg,qchrg
     nproj     2     2     2
     extension_switch     1
  pspatm : epsatm=   18.14229533
         --- l  ekb(1:nproj) -->
             0    6.015861    0.935228
             1    4.063749    0.754139
             2    4.149534    0.722940
 pspatm: atomic psp has been read  and splines computed

- pspini: atom type   3  psp file is /scratch/users/j/a/jabreu/pseudos/PBEsol/O.psp8
- pspatm: opening atomic psp file    /scratch/users/j/a/jabreu/pseudos/PBEsol/O.psp8
- O     ONCVPSP-3.3.0  r_core=   1.35509   1.45563   1.26150
-  8.00000   6.00000    180112                znucl, zion, pspdat
    8 -116133    2    4       600   0.00000   pspcod,pspxc,lmax,lloc,mmax,r2well
    5.99000000000000    4.00000000000000    0.00000000000000   rchrg,fchrg,qchrg
     nproj     2     2     1
     extension_switch     1
  pspatm : epsatm=    6.22910522
         --- l  ekb(1:nproj) -->
             0    6.050032    0.820363
             1   -4.739617   -1.153841
             2   -1.335834
 pspatm: atomic psp has been read  and splines computed

   4.24553971E+03                                ecore*ucvol(ha*bohr**3)

-inwffil : will read wavefunctions from disk file /scratch/users/j/a/jabreu/flow_simple_7atoms/flow/w143/t1/indata/in_WFK

 ==>  initialize data related to q vector <==

 The list of irreducible perturbations for this q vector is:
    1)    idir= 1    ipert=   8
    2)    idir= 2    ipert=   8
    3)    idir= 3    ipert=   8

 Perturbation wavevector (in red.coord.)   0.000000  0.000000  0.000000
 Perturbation : derivative vs k along direction   1

 dfpt_looppert : COMMENT -
  In a d/dk calculation, iscf is set to -3 automatically.
 The set of symmetries contains only one element for this perturbation.
 symkpt : not enough symmetry to change the number of k points.

[...]

 Initialisation of the first-order wave-functions :
  ireadwf=   0

--- !BeginCycle
iteration_state: {dtset: 1, }
solver: {iscf: 7, nstep: 2000, nline: 4, wfoptalg: 0, }
tolerances: {tolwfr: 1.00E-20, }
...

     iter   2DEtotal(Ha)        deltaE(Ha) residm    vres2
-ETOT  1  -27.652457081026     -2.765E+01 5.229E-02 0.000E+00
 ETOT  2  -27.795296733597     -1.428E-01 1.860E-03 0.000E+00
 ETOT  3  -27.798962378534     -3.666E-03 6.829E-05 0.000E+00
 ETOT  4  -27.799095909533     -1.335E-04 6.416E-06 0.000E+00
 ETOT  5  -27.799101545030     -5.635E-06 7.406E-07 0.000E+00
 ETOT  6  -27.799101804675     -2.596E-07 6.919E-08 0.000E+00
 ETOT  7  -27.799101817406     -1.273E-08 8.538E-09 0.000E+00
 ETOT  8  -27.799101818067     -6.613E-10 8.024E-10 0.000E+00
 ETOT  9  -27.799101818103     -3.567E-11 1.004E-10 0.000E+00
 ETOT 10  -27.799101818105     -1.915E-12 9.554E-12 0.000E+00
 ETOT 11  -27.799101818105     -2.238E-13 1.194E-12 0.000E+00
 ETOT 12  -27.799101818105      4.974E-14 1.154E-13 0.000E+00
 ETOT 13  -27.799101818105     -1.066E-14 1.431E-14 0.000E+00
 ETOT 14  -27.799101818105      1.776E-14 1.406E-15 0.000E+00
 ETOT 15  -27.799101818105     -3.553E-15 1.728E-16 0.000E+00
 ETOT 16  -27.799101818105     -7.105E-15 1.728E-17 0.000E+00
 ETOT 17  -27.799101818105      1.421E-14 2.100E-18 0.000E+00
 ETOT 18  -27.799101818105     -7.105E-15 2.137E-19 0.000E+00
 ETOT 19  -27.799101818105      7.105E-15 2.567E-20 0.000E+00
 ETOT 20  -27.799101818105     -3.553E-15 9.840E-21 0.000E+00

 At SCF step   20   max residual=  9.84E-21 < tolwfr=  1.00E-20 =>converged.

 ----iterations are completed or convergence reached----

 dfpt_looppert: DFPT cycle converged with prtwf=-1. Will skip output of the 1st-order WFK file.
 dfpt_looppert : ek2=    4.9349787543E+01
          f-sum rule ratio=    1.1535378760E+00
 prteigrs : about to open file /scratch/users/j/a/jabreu/flow_simple_7atoms/flow/w143/t1/tmpdata/tmp_1WF1_EIG
 Expectation of eigenvalue derivatives (hartree) for nkpt=   1  k points:
  (in case of degenerate eigenvalues, averaged derivative)
 kpt#   1, nband= 37, wtk=  1.00000, kpt=  0.0000  0.0000  0.0000 (reduced coord)
  -0.00000   -0.00000    0.00000   -0.00000   -0.00000    0.00000    0.00000   -0.00000
  -0.00000   -0.00000    0.00000   -0.00000   -0.00000   -0.00000    0.00000    0.00000
  -0.00000   -0.00000    0.00000    0.00000    0.00000    0.00000   -0.00000   -0.00000
  -0.00000    0.00000   -0.00000   -0.00000    0.00000   -0.00000   -0.00000   -0.00000
  -0.00000    0.00000    0.00000    0.00000    0.00001

 Eight components of 2nd-order total energy (hartree) are
 1,2,3: 0th-order hamiltonian combined with 1st-order wavefunctions
     kin0=   3.53136371E+01 eigvalue=   2.85614335E+00  local=  -2.20155786E+01
 4,5,6: 1st-order hamiltonian combined with 1st and 0th-order wfs
     kin1=  -5.69268491E+01  Hartree=   0.00000000E+00     xc=   0.00000000E+00
 7,8,9: eventually, occupation + non-local contributions
    edocc=   9.72788706E+00     enl0=   1.91701288E+00   enl1=   1.32864547E+00
 1-9 gives the relaxation energy (to be shifted if some occ is /=2.0)
   erelax=  -2.77991018E+01
  No Ewald or frozen-wf contrib.: the relaxation energy is the total one
 2DEtotal=   -0.2779910182E+02 Ha. Also 2DEtotal=   -0.756452030536E+03 eV
    (  non-var. 2DEtotal :   -2.7799101818E+01 Ha)

 Perturbation wavevector (in red.coord.)   0.000000  0.000000  0.000000
 Perturbation : derivative vs k along direction   2
 The set of symmetries contains only one element for this perturbation.
 symkpt : not enough symmetry to change the number of k points.

[...]

 Perturbation wavevector (in red.coord.)   0.000000  0.000000  0.000000
 Perturbation : derivative vs k along direction   3
 The set of symmetries contains only one element for this perturbation.
 symkpt : not enough symmetry to change the number of k points.

-inwffil : will read wavefunctions from disk file /scratch/users/j/a/jabreu/flow_simple_7atoms/flow/w143/t1/indata/in_WFK

 Initialisation of the first-order wave-functions :
  ireadwf=   0

--- !BeginCycle
iteration_state: {dtset: 1, }
solver: {iscf: 7, nstep: 2000, nline: 4, wfoptalg: 0, }
tolerances: {tolwfr: 1.00E-20, }
...

     iter   2DEtotal(Ha)        deltaE(Ha) residm    vres2
-ETOT  1  -51.175209941259     -5.118E+01 1.374E-01 0.000E+00
 ETOT  2  -51.380958309221     -2.057E-01 3.917E-03 0.000E+00
 ETOT  3  -51.385521658412     -4.563E-03 1.771E-04 0.000E+00
 ETOT  4  -51.385688425114     -1.668E-04 7.324E-06 0.000E+00
 ETOT  5  -51.385696014265     -7.589E-06 4.336E-07 0.000E+00
 ETOT  6  -51.385696400134     -3.859E-07 2.130E-08 0.000E+00
 ETOT  7  -51.385696421388     -2.125E-08 1.305E-09 0.000E+00
 ETOT  8  -51.385696422621     -1.233E-09 7.618E-11 0.000E+00
 ETOT  9  -51.385696422696     -7.428E-11 4.531E-12 0.000E+00
 ETOT 10  -51.385696422700     -4.427E-12 2.960E-13 0.000E+00
 ETOT 11  -51.385696422700     -3.055E-13 1.707E-14 0.000E+00
 ETOT 12  -51.385696422700     -2.842E-14 1.181E-15 0.000E+00
 ETOT 13  -51.385696422701     -1.066E-13 6.694E-17 0.000E+00
 ETOT 14  -51.385696422701      4.263E-14 6.104E-18 0.000E+00
 ETOT 15  -51.385696422701      0.000E+00 2.681E-19 0.000E+00
 ETOT 16  -51.385696422701      2.132E-14 5.998E-20 0.000E+00
 ETOT 17  -51.385696422701     -1.421E-14 9.599E-21 0.000E+00

 At SCF step   17   max residual=  9.60E-21 < tolwfr=  1.00E-20 =>converged.

 ----iterations are completed or convergence reached----

 dfpt_looppert: DFPT cycle converged with prtwf=-1. Will skip output of the 1st-order WFK file.
 dfpt_looppert : ek2=    9.0436764259E+01
          f-sum rule ratio=    1.1637095230E+00
 prteigrs : about to open file /scratch/users/j/a/jabreu/flow_simple_7atoms/flow/w143/t1/tmpdata/tmp_1WF1_EIG
 Expectation of eigenvalue derivatives (hartree) for nkpt=   1  k points:
  (in case of degenerate eigenvalues, averaged derivative)
 kpt#   1, nband= 37, wtk=  1.00000, kpt=  0.0000  0.0000  0.0000 (reduced coord)
  -0.00000    0.00000   -0.00000   -0.00000    0.00000    0.00000    0.00000    0.00000
   0.00000    0.00000    0.00000    0.00000    0.00000   -0.00000    0.00000   -0.00000
   0.00000    0.00000    0.00000   -0.00000   -0.00000   -0.00000    0.00000    0.00000
   0.00000    0.00000   -0.00000   -0.00000    0.00000    0.00000   -0.00000   -0.00000
  -0.00000   -0.00000   -0.00000    0.00000    0.00009

 Eight components of 2nd-order total energy (hartree) are
 1,2,3: 0th-order hamiltonian combined with 1st-order wavefunctions
     kin0=   6.47080656E+01 eigvalue=   5.09836344E+00  local=  -4.02916616E+01
 4,5,6: 1st-order hamiltonian combined with 1st and 0th-order wfs
     kin1=  -1.05242124E+02  Hartree=   0.00000000E+00     xc=   0.00000000E+00
 7,8,9: eventually, occupation + non-local contributions
    edocc=   1.84087106E+01     enl0=   3.46221839E+00   enl1=   2.47073095E+00
 1-9 gives the relaxation energy (to be shifted if some occ is /=2.0)
   erelax=  -5.13856964E+01
  No Ewald or frozen-wf contrib.: the relaxation energy is the total one
 2DEtotal=   -0.5138569642E+02 Ha. Also 2DEtotal=   -0.139827591027E+04 eV
    (  non-var. 2DEtotal :   -5.1385696422E+01 Ha)

 CALCULATION OF EFFECTIVE MASSES
 NOTE : Additional infos (eff. mass eigenvalues, eigenvectors and, if degenerate, average mass) are available in stdout.

 COMMENTS:
 - At k-point ( 0.000, 0.000, 0.000), bands    27 through    28
   are DEGENERATE (effective mass tensor is therefore not defined).
   See Section IIIB Eqs. (67)-(70) and Appendix E of PRB 93 205147 (2016).
 - Angular average effective mass for Frohlich model is to be averaged over degenerate bands. See later.
 - Associated theta integrals calculated with ntheta=   1000 points.

 K-point ( 0.000, 0.000, 0.000) | band =    27
 Transport equivalent effective mass tensor:
             -1.9817013241             -1.3137773104              4.1751619957
             -1.3137773104             -2.2024519803              4.5406444945
              4.1751619957              4.5406444945            -15.2037586725
 Transport equivalent effective mass tensor eigenvalues:
            -17.8405706735             -0.7736714393             -0.7736698641
 Angular average effective mass 1/(<1/m>)=  -1.0296285112
 Angular average effective mass for Frohlich model (<m**0.5>)**2=  -1.3652229244
 Effective masses along directions: (cart. coord. / red. coord. -> eff. mass)
    1:   1.000000  0.000000  0.000000 /   0.996514 -0.083425  0.000000 ->  -0.6527535817
    2:   0.000000  1.000000  0.000000 /   0.000000  1.000000  0.000000 ->  -0.6578230535
    3:   0.000000  0.000000  1.000000 /  -0.542418 -0.542418  0.641534 ->  -4.4049337701
    4:   0.577350  0.577350  0.577350 /  -0.281433 -0.323511  0.903402 ->  -0.9342631777
    5:   0.000000  0.707107  0.707107 /  -0.627920 -0.232750  0.742660 ->  -0.7776631649
    6:   0.707107  0.000000  0.707107 /  -0.226631 -0.647611  0.727487 ->  -0.7764880348
    7:   0.707107  0.707107  0.000000 /   0.738585  0.674160  0.000000 ->  -1.0433056434

 K-point ( 0.000, 0.000, 0.000) | band =    28
 Transport equivalent effective mass tensor:
             -7.5464053645             -3.1735661010             10.0855176910
             -3.1735661010             -8.0796414641             10.9683559472
             10.0855176910             10.9683559472            -39.4854370594
 Transport equivalent effective mass tensor eigenvalues:
            -45.8549314772             -4.6282776710             -4.6282747398
 Angular average effective mass 1/(<1/m>)=  -3.1190044223
 Angular average effective mass for Frohlich model (<m**0.5>)**2=  -3.9957615425
 Effective masses along directions: (cart. coord. / red. coord. -> eff. mass)
    1:   1.000000  0.000000  0.000000 /   0.996514 -0.083425  0.000000 ->  -4.6099334152
    2:   0.000000  1.000000  0.000000 /   0.000000  1.000000  0.000000 ->  -4.8493039556
    3:   0.000000  0.000000  1.000000 /  -0.542418 -0.542418  0.641534 ->  -5.7728689732
    4:   0.577350  0.577350  0.577350 /  -0.281433 -0.323511  0.903402 ->  -1.3796571175
    5:   0.000000  0.707107  0.707107 /  -0.627920 -0.232750  0.742660 ->  -4.1570332916
    6:   0.707107  0.000000  0.707107 /  -0.226631 -0.647611  0.727487 ->  -4.7039538716
    7:   0.707107  0.707107  0.000000 /   0.738585  0.674160  0.000000 ->  -1.5500512095

 Angular average effective mass for Frohlich model, averaged over degenerate bands.
 Value of     (<<m**0.5>>)**2 =     2.508054E+00
 Absolute Value of <<m**0.5>> =     1.583684E+00

 K-point ( 0.000, 0.000, 0.000) | band =    29
 Effective mass tensor:
              0.3244815479              0.0025455724             -0.0080897695
              0.0025455724              0.3249092637             -0.0087979032
             -0.0080897695             -0.0087979032              0.3501003972
 Effective mass tensor eigenvalues:
              0.3221408658              0.3221408660              0.3552094769
 Angular average effective mass 1/(<1/m>)=   0.3324577026
 Angular average effective mass for Frohlich model (<m**0.5>)**2=   0.3326657195
 Effective masses along directions: (cart. coord. / red. coord. -> eff. mass)
    1:   1.000000  0.000000  0.000000 /   0.996514 -0.083425  0.000000 ->   0.3242777205
    2:   0.000000  1.000000  0.000000 /   0.000000  1.000000  0.000000 ->   0.3246712578
    3:   0.000000  0.000000  1.000000 /  -0.542418 -0.542418  0.641534 ->   0.3496638884
    4:   0.577350  0.577350  0.577350 /  -0.281433 -0.323511  0.903402 ->   0.3234717547
    5:   0.000000  0.707107  0.707107 /  -0.627920 -0.232750  0.742660 ->   0.3282078002
    6:   0.707107  0.000000  0.707107 /  -0.226631 -0.647611  0.727487 ->   0.3286737647
    7:   0.707107  0.707107  0.000000 /   0.738585  0.674160  0.000000 ->   0.3268335556

 END OF EFFECTIVE MASSES SECTION

 ---- first-order wavefunction calculations are completed ----

 Total localisation tensor (bohr^2) in cartesian coordinates
  WARNING : still subject to testing - especially symmetries.
      direction              matrix element
   alpha     beta       real part   imaginary part
     1        1       1.4175265948    0.0000000000
     1        2      -0.1174313831    0.0000000000
     1        3      -2.0423078417    0.0000000000
     2        1      -0.1174313831    0.0000000000
     2        2       1.3977979937    0.0000000000
     2        3      -2.2210846975    0.0000000000
     3        1      -2.0423078417    0.0000000000
     3        2      -2.2210846975    0.0000000000
     3        3      16.2424136604    0.0000000000

 respfn : d/dk was computed, but no 2DTE, so no DDB output.

== END DATASET(S) ==============================================================

 -outvars: echo values of variables after computation  --------
            acell      1.0000000000E+00  1.0000000000E+00  1.0000000000E+00 Bohr
              amu      3.90983000E+01  1.26904470E+02  1.59994000E+01
             ecut      4.40000000E+01 Hartree
           etotal     -5.1385696423E+01
            fcart      0.0000000000E+00  0.0000000000E+00  0.0000000000E+00
                       0.0000000000E+00  0.0000000000E+00  0.0000000000E+00
                       0.0000000000E+00  0.0000000000E+00  0.0000000000E+00
                       0.0000000000E+00  0.0000000000E+00  0.0000000000E+00
                       0.0000000000E+00  0.0000000000E+00  0.0000000000E+00
                       0.0000000000E+00  0.0000000000E+00  0.0000000000E+00
                       0.0000000000E+00  0.0000000000E+00  0.0000000000E+00
-          fftalg         512
           irdden           1
           irdwfk           1
           istwfk        1
              ixc     -116133
           kptopt           0
P           mkmem           1
P          mkqmem           1
P          mk1mem           1
            natom           7
            nband          37
           nbdbuf           4
            ngfft         108     108     108
             nkpt           1
            nstep        2000
             nsym          16
           ntypat           3
              occ      2.000000  2.000000  2.000000  2.000000  2.000000  2.000000
                       2.000000  2.000000  2.000000  2.000000  2.000000  2.000000
                       2.000000  2.000000  2.000000  2.000000  2.000000  2.000000
                       2.000000  2.000000  2.000000  2.000000  2.000000  2.000000
                       2.000000  2.000000  2.000000  2.000000  0.000000  0.000000
                       0.000000  0.000000  0.000000  0.000000  0.000000  0.000000
                       0.000000
        optdriver           1
            prtwf          -1
            rfdir           1       1       1
           rfelfd           2
            rprim      9.4989033866E+00  0.0000000000E+00 -1.5040661706E+01
                      -7.9521762890E-01  9.4655583285E+00 -1.5040661706E+01
                       0.0000000000E+00  0.0000000000E+00  1.7789060406E+01
          spgroup         139
           strten      0.0000000000E+00  0.0000000000E+00  0.0000000000E+00
                       0.0000000000E+00  0.0000000000E+00  0.0000000000E+00
           symrel      1  0  0   0  1  0   0  0  1      -1  0  0   0 -1  0   0  0 -1
                      -1 -1 -1   0  0  1   0  1  0       1  1  1   0  0 -1   0 -1  0
                       0  1  0   1  0  0  -1 -1 -1       0 -1  0  -1  0  0   1  1  1
                       0  0  1  -1 -1 -1   1  0  0       0  0 -1   1  1  1  -1  0  0
                       0  1  0   1  0  0   0  0  1       0 -1  0  -1  0  0   0  0 -1
                      -1 -1 -1   0  0  1   1  0  0       1  1  1   0  0 -1  -1  0  0
                       1  0  0   0  1  0  -1 -1 -1      -1  0  0   0 -1  0   1  1  1
                       0  0  1  -1 -1 -1   0  1  0       0  0 -1   1  1  1   0 -1  0
           tolwfr      1.00000000E-20
            typat      1  1  1  1  2  2  3
           useylm           1
           xangst      2.5133015894E+00  0.0000000000E+00  7.2719497589E-01
                       6.7713895371E-01  7.3641195710E-01 -2.3403000095E+00
                       3.9286531800E+00  4.2725457769E+00 -1.3578050745E+01
                      -2.1040552254E-01  2.5044788670E+00  7.2719497589E-01
                       1.6270789755E+00  1.7695044808E+00 -5.6234439342E+00
                       2.9787131582E+00  3.2394532532E+00 -1.0294906820E+01
                       0.0000000000E+00  0.0000000000E+00  0.0000000000E+00
            xcart      4.7494516933E+00  0.0000000000E+00  1.3741993497E+00
                       1.2796071764E+00  1.3916169199E+00 -4.4225260868E+00
                       7.4240785813E+00  8.0739414086E+00 -2.5658797326E+01
                      -3.9760881445E-01  4.7327791643E+00  1.3741993497E+00
                       3.0747336603E+00  3.3438788596E+00 -1.0626768959E+01
                       5.6289520974E+00  6.1216794689E+00 -1.9454554453E+01
                       0.0000000000E+00  0.0000000000E+00  0.0000000000E+00
             xred      5.0000000000E-01  0.0000000000E+00  5.0000000000E-01
                       1.4701900000E-01  1.4701900000E-01  2.7755575616E-17
                       8.5298100000E-01  8.5298100000E-01 -2.2204460493E-16
                       0.0000000000E+00  5.0000000000E-01  5.0000000000E-01
                       3.5326800000E-01  3.5326800000E-01 -1.1102230246E-16
                       6.4673200000E-01  6.4673200000E-01 -2.2204460493E-16
                       0.0000000000E+00  0.0000000000E+00  0.0000000000E+00
            znucl       19.00000   53.00000    8.00000

- Timing analysis has been suppressed with timopt=0

 Suggested references for the acknowledgment of ABINIT usage.

 Calculation completed.
.Delivered   6 WARNINGs and   5 COMMENTs to log file.