.Version 9.5.1 of ABINIT

 ABINIT is a project of the Universite Catholique de Louvain,
 Corning Inc. and other collaborators, see ~abinit/doc/developers/contributors.txt .
 acknowledgments of the ABINIT effort.

.Starting date : Wed 19 May 2021.
- ( at 01h20 )

- input  file    -> /scratch/users/j/a/jabreu/flow_simple_8atoms/flow/w421/t1/run.abi
- output file    -> /scratch/users/j/a/jabreu/flow_simple_8atoms/flow/w421/t1/run.abo
- root for input  files -> /scratch/users/j/a/jabreu/flow_simple_8atoms/flow/w421/t1/indata/in
- root for output files -> /scratch/users/j/a/jabreu/flow_simple_8atoms/flow/w421/t1/outdata/out

 Symmetries : space group P6_3/m m c (#194); Bravais hP (primitive hexag.)
     intxc =       0      iscf =       7    lmnmax =      18     lnmax =       6
     mgfft =     144  mpssoang =       3    mqgrid =    7143     natom =       8
  nloc_mem =       1    nspden =       1   nspinor =       1    nsppol =       1
      nsym =      24    n1xccc =    2501    ntypat =       3    occopt =       1
   xclevel =       2
-    mband =          41        mffmem =           1         mkmem =           2
-   mkqmem =           2        mk1mem =           2           mpw =       10798
      nfft =      230400          nkpt =           2
  Rough estimation (10% accuracy) of disk space for files :

------------- Echo of variables that govern the present computation ------------
-
- outvars: echo of selected default values
-   iomode0 =  0 , fftalg0 =512 , wfoptalg0 =  0
-
- outvars: echo of global parameters not present in the input file
-  max_nthreads =    0
-
 -outvars: echo values of preprocessed input variables --------
            acell      1.0000000000E+00  1.0000000000E+00  1.0000000000E+00 Bohr
              amu      8.54678000E+01  4.49559100E+01  1.59994000E+01
             ecut      4.40000000E+01 Hartree
-          fftalg         512
           irdden           1
           irdwfk           1
           istwfk        1    1
              ixc     -116133
              kpt      0.00000000E+00  0.00000000E+00  0.00000000E+00
                       5.00000000E-01  0.00000000E+00  0.00000000E+00
           kptopt           0
P           mkmem           2
P          mkqmem           2
P          mk1mem           2
            natom           8
            nband          41
           nbdbuf           4
            ngfft          40      40     144
             nkpt           2
            nstep        2000
             nsym          24
           ntypat           3
              occ      2.000000  2.000000  2.000000  2.000000  2.000000  2.000000
                       2.000000  2.000000  2.000000  2.000000  2.000000  2.000000
                       2.000000  2.000000  2.000000  2.000000  2.000000  2.000000
                       2.000000  2.000000  2.000000  2.000000  2.000000  2.000000
                       2.000000  2.000000  2.000000  2.000000  2.000000  2.000000
                       2.000000  2.000000  0.000000  0.000000  0.000000  0.000000
                       0.000000  0.000000  0.000000  0.000000  0.000000
        optdriver           1
            prtwf          -1
            rfdir           1       1       1
           rfelfd           2
            rprim      6.1055155880E+00  0.0000000000E+00  0.0000000000E+00
                      -3.0527577940E+00  5.2875316024E+00  0.0000000000E+00
                       0.0000000000E+00  0.0000000000E+00  2.3920095857E+01
          spgroup         194
           symrel      1  0  0   0  1  0   0  0  1      -1  0  0   0 -1  0   0  0 -1
                       0  1  0   1  0  0   0  0  1       0 -1  0  -1  0  0   0  0 -1
                       1  1  0  -1  0  0   0  0  1      -1 -1  0   1  0  0   0  0 -1
                      -1  0  0   1  1  0   0  0  1       1  0  0  -1 -1  0   0  0 -1
                       0  1  0  -1 -1  0   0  0  1       0 -1  0   1  1  0   0  0 -1
                      -1 -1  0   0  1  0   0  0  1       1  1  0   0 -1  0   0  0 -1
                      -1  0  0   0 -1  0   0  0  1       1  0  0   0  1  0   0  0 -1
                       0 -1  0  -1  0  0   0  0  1       0  1  0   1  0  0   0  0 -1
                      -1 -1  0   1  0  0   0  0  1       1  1  0  -1  0  0   0  0 -1
                       1  0  0  -1 -1  0   0  0  1      -1  0  0   1  1  0   0  0 -1
                       0 -1  0   1  1  0   0  0  1       0  1  0  -1 -1  0   0  0 -1
                       1  1  0   0 -1  0   0  0  1      -1 -1  0   0  1  0   0  0 -1
            tnons      0.0000000  0.0000000  0.0000000    -0.0000000 -0.0000000  0.0000000
                       0.0000000 -0.0000000  0.5000000    -0.0000000 -0.0000000  0.5000000
                      -0.0000000 -0.0000000  0.5000000     0.0000000 -0.0000000  0.5000000
                       0.0000000  0.0000000  0.0000000    -0.0000000 -0.0000000  0.0000000
                      -0.0000000 -0.0000000  0.0000000     0.0000000  0.0000000  0.0000000
                      -0.0000000  0.0000000  0.5000000     0.0000000 -0.0000000  0.5000000
                      -0.0000000 -0.0000000  0.5000000     0.0000000  0.0000000  0.5000000
                      -0.0000000 -0.0000000  0.0000000     0.0000000 -0.0000000  0.0000000
                       0.0000000 -0.0000000  0.0000000    -0.0000000 -0.0000000  0.0000000
                      -0.0000000 -0.0000000  0.5000000     0.0000000  0.0000000  0.5000000
                       0.0000000  0.0000000  0.5000000    -0.0000000 -0.0000000  0.5000000
                       0.0000000 -0.0000000  0.0000000    -0.0000000  0.0000000  0.0000000
           tolwfr      1.00000000E-20
            typat      1  1  2  2  3  3  3  3
           useylm           1
              wtk        0.50000    0.50000
           xangst      2.3500188843E-16  1.8653608091E+00  3.1644923887E+00
                       1.6154498479E+00  9.3268040456E-01  9.4934771660E+00
                       2.9891826938E-17  5.1774162988E-17  0.0000000000E+00
                       2.9891826938E-17  5.1774162988E-17  6.3289847773E+00
                       2.3500188843E-16  1.8653608091E+00  7.3980642279E+00
                       1.6154498479E+00  9.3268040456E-01  1.0690794506E+00
                       2.3500188843E-16  1.8653608091E+00  1.1588890104E+01
                       1.6154498479E+00  9.3268040456E-01  5.2599053267E+00
            xcart      4.4408920985E-16  3.5250210683E+00  5.9800239642E+00
                       3.0527577940E+00  1.7625105341E+00  1.7940071893E+01
                       5.6487366525E-17  9.7838988807E-17  0.0000000000E+00
                       5.6487366525E-17  9.7838988807E-17  1.1960047928E+01
                       4.4408920985E-16  3.5250210683E+00  1.3980315304E+01
                       3.0527577940E+00  1.7625105341E+00  2.0202673760E+00
                       4.4408920985E-16  3.5250210683E+00  2.1899828481E+01
                       3.0527577940E+00  1.7625105341E+00  9.9397805524E+00
             xred      3.3333333333E-01  6.6666666667E-01  2.5000000000E-01
                       6.6666666667E-01  3.3333333333E-01  7.5000000000E-01
                       1.8503717077E-17  1.8503717077E-17  0.0000000000E+00
                       1.8503717077E-17  1.8503717077E-17  5.0000000000E-01
                       3.3333333333E-01  6.6666666667E-01  5.8445900000E-01
                       6.6666666667E-01  3.3333333333E-01  8.4459000000E-02
                       3.3333333333E-01  6.6666666667E-01  9.1554100000E-01
                       6.6666666667E-01  3.3333333333E-01  4.1554100000E-01
            znucl       37.00000   21.00000    8.00000

 chkinp: Checking input parameters for consistency.

== DATASET  1 ==================================================================
-   mpi_nproc: 1, omp_nthreads: -1 (-1 if OMP is not activated)

--- !DatasetInfo
iteration_state: {dtset: 1, }
dimensions: {natom: 8, nkpt: 2, mband: 41, nsppol: 1, nspinor: 1, nspden: 1, mpw: 10798, }
cutoff_energies: {ecut:  44.0, pawecutdg:  -1.0, }
electrons: {nelect:   6.40000000E+01, charge:   0.00000000E+00, occopt:   1.00000000E+00, tsmear:   1.00000000E-02, }
meta: {optdriver: 1, rfelfd: 2, }
...

 Real(R)+Recip(G) space primitive vectors, cartesian coordinates (Bohr,Bohr^-1):
 R(1)=  6.1055156  0.0000000  0.0000000  G(1)=  0.1637863  0.0945621  0.0000000
 R(2)= -3.0527578  5.2875316  0.0000000  G(2)=  0.0000000  0.1891242  0.0000000
 R(3)=  0.0000000  0.0000000 23.9200959  G(3)=  0.0000000  0.0000000  0.0418059
 Unit cell volume ucvol=  7.7221500E+02 bohr^3
 Angles (23,13,12)=  9.00000000E+01  9.00000000E+01  1.20000000E+02 degrees

 getcut: wavevector=  0.0000  0.0000  0.0000  ngfft=  40  40 144
         ecut(hartree)=     44.000   => boxcut(ratio)=   2.01608

--- Pseudopotential description ------------------------------------------------
- pspini: atom type   1  psp file is /scratch/users/j/a/jabreu/pseudos/PBEsol/Rb.psp8
- pspatm: opening atomic psp file    /scratch/users/j/a/jabreu/pseudos/PBEsol/Rb.psp8
- Rb    ONCVPSP-3.3.0  r_core=   1.71227   1.75361   1.90633
- 37.00000   9.00000    180112                znucl, zion, pspdat
    8 -116133    2    4       600   0.00000   pspcod,pspxc,lmax,lloc,mmax,r2well
    5.99000000000000    7.00000000000000    0.00000000000000   rchrg,fchrg,qchrg
     nproj     2     2     2
     extension_switch     1
  pspatm : epsatm=   34.48400912
         --- l  ekb(1:nproj) -->
             0    8.196957   -0.477221
             1    3.231347   -0.378736
             2   -1.047201    0.996637
 pspatm: atomic psp has been read  and splines computed

- pspini: atom type   2  psp file is /scratch/users/j/a/jabreu/pseudos/PBEsol/Sc.psp8
- pspatm: opening atomic psp file    /scratch/users/j/a/jabreu/pseudos/PBEsol/Sc.psp8
- Sc    ONCVPSP-3.3.0  r_core=   1.35663   1.35663   1.66161
- 21.00000  11.00000    180112                znucl, zion, pspdat
    8 -116133    2    4       600   0.00000   pspcod,pspxc,lmax,lloc,mmax,r2well
    5.99000000000000    5.00000000000000    0.00000000000000   rchrg,fchrg,qchrg
     nproj     2     2     2
     extension_switch     1
  pspatm : epsatm=   13.58981094
         --- l  ekb(1:nproj) -->
             0   10.810997    0.948773
             1    2.871172    0.364831
             2   -4.789751   -1.321945
 pspatm: atomic psp has been read  and splines computed

- pspini: atom type   3  psp file is /scratch/users/j/a/jabreu/pseudos/PBEsol/O.psp8
- pspatm: opening atomic psp file    /scratch/users/j/a/jabreu/pseudos/PBEsol/O.psp8
- O     ONCVPSP-3.3.0  r_core=   1.35509   1.45563   1.26150
-  8.00000   6.00000    180112                znucl, zion, pspdat
    8 -116133    2    4       600   0.00000   pspcod,pspxc,lmax,lloc,mmax,r2well
    5.99000000000000    4.00000000000000    0.00000000000000   rchrg,fchrg,qchrg
     nproj     2     2     1
     extension_switch     1
  pspatm : epsatm=    6.22910522
         --- l  ekb(1:nproj) -->
             0    6.050032    0.820363
             1   -4.739617   -1.153841
             2   -1.335834
 pspatm: atomic psp has been read  and splines computed

   7.74809990E+03                                ecore*ucvol(ha*bohr**3)

[...]
  -0.00000    0.00000   -0.00000   -0.00000   -0.00000   -0.00000    0.00000    0.00000
  -0.00000
 prteigrs : prtvol=0 or 1, do not print more k-points.

 Eight components of 2nd-order total energy (hartree) are
 1,2,3: 0th-order hamiltonian combined with 1st-order wavefunctions
     kin0=   1.59598072E+02 eigvalue=   2.02901362E+00  local=  -8.10235861E+01
 4,5,6: 1st-order hamiltonian combined with 1st and 0th-order wfs
     kin1=  -1.88027093E+02  Hartree=   0.00000000E+00     xc=   0.00000000E+00
 7,8,9: eventually, occupation + non-local contributions
    edocc=   2.28593671E+01     enl0=  -1.20931677E+01   enl1=   5.28769434E+00
 1-9 gives the relaxation energy (to be shifted if some occ is /=2.0)
   erelax=  -9.13696993E+01
  No Ewald or frozen-wf contrib.: the relaxation energy is the total one
 2DEtotal=   -0.9136969933E+02 Ha. Also 2DEtotal=   -0.248629596151E+04 eV
    (  non-var. 2DEtotal :   -9.1369699324E+01 Ha)

 Perturbation wavevector (in red.coord.)   0.000000  0.000000  0.000000
 Perturbation : derivative vs k along direction   2
 The set of symmetries contains only one element for this perturbation.
 symkpt : not enough symmetry to change the number of k points.

[...]

 Perturbation wavevector (in red.coord.)   0.000000  0.000000  0.000000
 Perturbation : derivative vs k along direction   3
 The set of symmetries contains only one element for this perturbation.
 symkpt : not enough symmetry to change the number of k points.

-inwffil : will read wavefunctions from disk file /scratch/users/j/a/jabreu/flow_simple_8atoms/flow/w421/t1/indata/in_WFK

 Initialisation of the first-order wave-functions :
  ireadwf=   0

--- !BeginCycle
iteration_state: {dtset: 1, }
solver: {iscf: 7, nstep: 2000, nline: 4, wfoptalg: 0, }
tolerances: {tolwfr: 1.00E-20, }
...

     iter   2DEtotal(Ha)        deltaE(Ha) residm    vres2
-ETOT  1  -4.3053031848019     -4.305E+00 8.706E-03 0.000E+00
 ETOT  2  -4.3268831248010     -2.158E-02 1.288E-03 0.000E+00
 ETOT  3  -4.3277701437598     -8.870E-04 1.148E-04 0.000E+00
 ETOT  4  -4.3278271922775     -5.705E-05 4.244E-05 0.000E+00
 ETOT  5  -4.3278321724480     -4.980E-06 7.737E-06 0.000E+00
 ETOT  6  -4.3278326465102     -4.741E-07 4.447E-06 0.000E+00
 ETOT  7  -4.3278326945484     -4.804E-08 8.650E-07 0.000E+00
 ETOT  8  -4.3278326996652     -5.117E-09 4.542E-07 0.000E+00
 ETOT  9  -4.3278327002519     -5.867E-10 9.749E-08 0.000E+00
 ETOT 10  -4.3278327003212     -6.924E-11 5.226E-08 0.000E+00
 ETOT 11  -4.3278327003295     -8.360E-12 1.136E-08 0.000E+00
 ETOT 12  -4.3278327003305     -1.026E-12 6.163E-09 0.000E+00
 ETOT 13  -4.3278327003307     -1.306E-13 1.337E-09 0.000E+00
 ETOT 14  -4.3278327003307     -1.243E-14 7.286E-10 0.000E+00
 ETOT 15  -4.3278327003307     -2.665E-15 1.580E-10 0.000E+00
 ETOT 16  -4.3278327003307      0.000E+00 8.618E-11 0.000E+00
 ETOT 17  -4.3278327003307     -1.776E-15 1.868E-11 0.000E+00
 ETOT 18  -4.3278327003307     -8.882E-16 1.020E-11 0.000E+00
 ETOT 19  -4.3278327003307      8.882E-16 2.211E-12 0.000E+00
 ETOT 20  -4.3278327003307     -8.882E-16 1.208E-12 0.000E+00
 ETOT 21  -4.3278327003307     -8.882E-16 2.619E-13 0.000E+00
 ETOT 22  -4.3278327003307      0.000E+00 1.432E-13 0.000E+00
 ETOT 23  -4.3278327003307      0.000E+00 3.103E-14 0.000E+00
 ETOT 24  -4.3278327003307     -8.882E-16 1.698E-14 0.000E+00
 ETOT 25  -4.3278327003307      1.776E-15 3.678E-15 0.000E+00
 ETOT 26  -4.3278327003307      0.000E+00 2.014E-15 0.000E+00
 ETOT 27  -4.3278327003307     -2.665E-15 4.361E-16 0.000E+00
 ETOT 28  -4.3278327003307      1.776E-15 2.390E-16 0.000E+00
 ETOT 29  -4.3278327003307      0.000E+00 5.173E-17 0.000E+00
 ETOT 30  -4.3278327003307      0.000E+00 2.838E-17 0.000E+00
 ETOT 31  -4.3278327003307      8.882E-16 6.139E-18 0.000E+00
 ETOT 32  -4.3278327003307     -4.441E-15 3.370E-18 0.000E+00
 ETOT 33  -4.3278327003307      1.776E-15 7.287E-19 0.000E+00
 ETOT 34  -4.3278327003307     -1.776E-15 4.004E-19 0.000E+00
 ETOT 35  -4.3278327003307      0.000E+00 8.653E-20 0.000E+00
 ETOT 36  -4.3278327003307      1.776E-15 4.758E-20 0.000E+00
 ETOT 37  -4.3278327003307      0.000E+00 1.028E-20 0.000E+00
 ETOT 38  -4.3278327003307     -1.776E-15 9.978E-21 0.000E+00

 At SCF step   38   max residual=  9.98E-21 < tolwfr=  1.00E-20 =>converged.

 ----iterations are completed or convergence reached----

 dfpt_looppert: DFPT cycle converged with prtwf=-1. Will skip output of the 1st-order WFK file.
 dfpt_looppert : ek2=    8.8316911882E+00
          f-sum rule ratio=    1.0055848029E+00
 prteigrs : about to open file /scratch/users/j/a/jabreu/flow_simple_8atoms/flow/w421/t1/tmpdata/tmp_1WF1_EIG
 Expectation of eigenvalue derivatives (hartree) for nkpt=   2  k points:
  (in case of degenerate eigenvalues, averaged derivative)
 kpt#   1, nband= 41, wtk=  0.50000, kpt=  0.0000  0.0000  0.0000 (reduced coord)
   0.00000    0.00000   -0.00000    0.00000    0.00000   -0.00000    0.00000    0.00000
   0.00000    0.00000   -0.00000   -0.00000   -0.00000   -0.00000    0.00000    0.00000
   0.00000    0.00000   -0.00000   -0.00000    0.00000   -0.00000   -0.00000   -0.00000
  -0.00000   -0.00000    0.00000    0.00000    0.00000    0.00000    0.00000   -0.00000
  -0.00000   -0.00000   -0.00000   -0.00000    0.00000    0.00000    0.00000   -0.00000
   0.00000
 prteigrs : prtvol=0 or 1, do not print more k-points.

 Eight components of 2nd-order total energy (hartree) are
 1,2,3: 0th-order hamiltonian combined with 1st-order wavefunctions
     kin0=   7.87763258E+00 eigvalue=   6.00603420E-02  local=  -3.87506105E+00
 4,5,6: 1st-order hamiltonian combined with 1st and 0th-order wfs
     kin1=  -8.88101444E+00  Hartree=   0.00000000E+00     xc=   0.00000000E+00
 7,8,9: eventually, occupation + non-local contributions
    edocc=   8.93671987E-01     enl0=  -6.28471156E-01   enl1=   2.25349043E-01
 1-9 gives the relaxation energy (to be shifted if some occ is /=2.0)
   erelax=  -4.32783270E+00
  No Ewald or frozen-wf contrib.: the relaxation energy is the total one
 2DEtotal=   -0.4327832700E+01 Ha. Also 2DEtotal=   -0.117766316891E+03 eV
    (  non-var. 2DEtotal :   -4.3278327002E+00 Ha)

 CALCULATION OF EFFECTIVE MASSES
 NOTE : Additional infos (eff. mass eigenvalues, eigenvectors and, if degenerate, average mass) are available in stdout.

 K-point ( 0.000, 0.000, 0.000) | band =    32
 Effective mass tensor:
            -17.2354008639             -0.0000000145             -0.0000178476
             -0.0000000145            -17.2354006636              0.0000211322
             -0.0000178476              0.0000211322             -0.4926093490
 Effective mass tensor eigenvalues:
            -17.2354008649            -17.2354006626             -0.4926093490
 Angular average effective mass 1/(<1/m>)=  -1.3979194672
 Angular average effective mass for Frohlich model (<m**0.5>)**2=  -3.0773385259
 Effective masses along directions: (cart. coord. / red. coord. -> eff. mass)
    1:   1.000000  0.000000  0.000000 /   0.894427 -0.447214  0.000000 -> -17.2354008632
    2:   0.000000  1.000000  0.000000 /   0.000000  1.000000  0.000000 -> -17.2354006627
    3:   0.000000  0.000000  1.000000 /   0.000000  0.000000  1.000000 ->  -0.4926093490
    4:   0.577350  0.577350  0.577350 /   0.246310  0.090156  0.964989 ->  -1.3979189633
    5:   0.000000  0.707107  0.707107 /   0.000000  0.215839  0.976429 ->  -0.9578400794
    6:   0.707107  0.000000  0.707107 /   0.245447 -0.122724  0.961610 ->  -0.9578442919
    7:   0.707107  0.707107  0.000000 /   0.939071  0.343724  0.000000 -> -17.2354007782

 K-point ( 0.500, 0.000, 0.000) | band =    33
 Effective mass tensor:
              1.0108242097              0.3486514433             -0.0000000001
              0.3486514433              0.6082362004             -0.0000000001
             -0.0000000001             -0.0000000001              0.6996766556
 Effective mass tensor eigenvalues:
              0.4069421957              0.6996766556              1.2121182144
 Angular average effective mass 1/(<1/m>)=   0.6367283879
 Angular average effective mass for Frohlich model (<m**0.5>)**2=   0.6743438758
 Effective masses along directions: (cart. coord. / red. coord. -> eff. mass)
    1:   1.000000  0.000000  0.000000 /   0.894427 -0.447214  0.000000 ->   0.8109712104
    2:   0.000000  1.000000  0.000000 /   0.000000  1.000000  0.000000 ->   0.4879800493
    3:   0.000000  0.000000  1.000000 /   0.000000  0.000000  1.000000 ->   0.6996766556
    4:   0.577350  0.577350  0.577350 /   0.246310  0.090156  0.964989 ->   0.9096617754
    5:   0.000000  0.707107  0.707107 /   0.000000  0.215839  0.976429 ->   0.5749611777
    6:   0.707107  0.000000  0.707107 /   0.245447 -0.122724  0.961610 ->   0.7512242092
    7:   0.707107  0.707107  0.000000 /   0.939071  0.343724  0.000000 ->   1.0702642183

 END OF EFFECTIVE MASSES SECTION

 ---- first-order wavefunction calculations are completed ----

 Total localisation tensor (bohr^2) in cartesian coordinates
  WARNING : still subject to testing - especially symmetries.
      direction              matrix element
   alpha     beta       real part   imaginary part
     1        1       1.3369851507    0.0000000000
     1        2      -0.5158464732    0.0000000000
     1        3       0.0000000000    0.0000000000
     2        1      -0.5158464732    0.0000000000
     2        2       0.8934723005    0.0000000000
     2        3       0.0000000000    0.0000000000
     3        1       0.0000000000    0.0000000000
     3        2       0.0000000000    0.0000000000
     3        3       0.6964486294    0.0000000000

 respfn : d/dk was computed, but no 2DTE, so no DDB output.

== END DATASET(S) ==============================================================

 -outvars: echo values of variables after computation  --------
            acell      1.0000000000E+00  1.0000000000E+00  1.0000000000E+00 Bohr
              amu      8.54678000E+01  4.49559100E+01  1.59994000E+01
             ecut      4.40000000E+01 Hartree
           etotal     -4.3278327003E+00
            fcart      0.0000000000E+00  0.0000000000E+00  0.0000000000E+00
                       0.0000000000E+00  0.0000000000E+00  0.0000000000E+00
                       0.0000000000E+00  0.0000000000E+00  0.0000000000E+00
                       0.0000000000E+00  0.0000000000E+00  0.0000000000E+00
                       0.0000000000E+00  0.0000000000E+00  0.0000000000E+00
                       0.0000000000E+00  0.0000000000E+00  0.0000000000E+00
                       0.0000000000E+00  0.0000000000E+00  0.0000000000E+00
                       0.0000000000E+00  0.0000000000E+00  0.0000000000E+00
-          fftalg         512
           irdden           1
           irdwfk           1
           istwfk        1    1
              ixc     -116133
              kpt      0.00000000E+00  0.00000000E+00  0.00000000E+00
                       5.00000000E-01  0.00000000E+00  0.00000000E+00
           kptopt           0
P           mkmem           2
P          mkqmem           2
P          mk1mem           2
            natom           8
            nband          41
           nbdbuf           4
            ngfft          40      40     144
             nkpt           2
            nstep        2000
             nsym          24
           ntypat           3
              occ      2.000000  2.000000  2.000000  2.000000  2.000000  2.000000
                       2.000000  2.000000  2.000000  2.000000  2.000000  2.000000
                       2.000000  2.000000  2.000000  2.000000  2.000000  2.000000
                       2.000000  2.000000  2.000000  2.000000  2.000000  2.000000
                       2.000000  2.000000  2.000000  2.000000  2.000000  2.000000
                       2.000000  2.000000  0.000000  0.000000  0.000000  0.000000
                       0.000000  0.000000  0.000000  0.000000  0.000000
        optdriver           1
            prtwf          -1
            rfdir           1       1       1
           rfelfd           2
            rprim      6.1055155880E+00  0.0000000000E+00  0.0000000000E+00
                      -3.0527577940E+00  5.2875316024E+00  0.0000000000E+00
                       0.0000000000E+00  0.0000000000E+00  2.3920095857E+01
          spgroup         194
           strten      0.0000000000E+00  0.0000000000E+00  0.0000000000E+00
                       0.0000000000E+00  0.0000000000E+00  0.0000000000E+00
           symrel      1  0  0   0  1  0   0  0  1      -1  0  0   0 -1  0   0  0 -1
                       0  1  0   1  0  0   0  0  1       0 -1  0  -1  0  0   0  0 -1
                       1  1  0  -1  0  0   0  0  1      -1 -1  0   1  0  0   0  0 -1
                      -1  0  0   1  1  0   0  0  1       1  0  0  -1 -1  0   0  0 -1
                       0  1  0  -1 -1  0   0  0  1       0 -1  0   1  1  0   0  0 -1
                      -1 -1  0   0  1  0   0  0  1       1  1  0   0 -1  0   0  0 -1
                      -1  0  0   0 -1  0   0  0  1       1  0  0   0  1  0   0  0 -1
                       0 -1  0  -1  0  0   0  0  1       0  1  0   1  0  0   0  0 -1
                      -1 -1  0   1  0  0   0  0  1       1  1  0  -1  0  0   0  0 -1
                       1  0  0  -1 -1  0   0  0  1      -1  0  0   1  1  0   0  0 -1
                       0 -1  0   1  1  0   0  0  1       0  1  0  -1 -1  0   0  0 -1
                       1  1  0   0 -1  0   0  0  1      -1 -1  0   0  1  0   0  0 -1
            tnons      0.0000000  0.0000000  0.0000000    -0.0000000 -0.0000000  0.0000000
                       0.0000000 -0.0000000  0.5000000    -0.0000000 -0.0000000  0.5000000
                      -0.0000000 -0.0000000  0.5000000     0.0000000 -0.0000000  0.5000000
                       0.0000000  0.0000000  0.0000000    -0.0000000 -0.0000000  0.0000000
                      -0.0000000 -0.0000000  0.0000000     0.0000000  0.0000000  0.0000000
                      -0.0000000  0.0000000  0.5000000     0.0000000 -0.0000000  0.5000000
                      -0.0000000 -0.0000000  0.5000000     0.0000000  0.0000000  0.5000000
                      -0.0000000 -0.0000000  0.0000000     0.0000000 -0.0000000  0.0000000
                       0.0000000 -0.0000000  0.0000000    -0.0000000 -0.0000000  0.0000000
                      -0.0000000 -0.0000000  0.5000000     0.0000000  0.0000000  0.5000000
                       0.0000000  0.0000000  0.5000000    -0.0000000 -0.0000000  0.5000000
                       0.0000000 -0.0000000  0.0000000    -0.0000000  0.0000000  0.0000000
           tolwfr      1.00000000E-20
            typat      1  1  2  2  3  3  3  3
           useylm           1
              wtk        0.50000    0.50000
           xangst      2.3500188843E-16  1.8653608091E+00  3.1644923887E+00
                       1.6154498479E+00  9.3268040456E-01  9.4934771660E+00
                       2.9891826938E-17  5.1774162988E-17  0.0000000000E+00
                       2.9891826938E-17  5.1774162988E-17  6.3289847773E+00
                       2.3500188843E-16  1.8653608091E+00  7.3980642279E+00
                       1.6154498479E+00  9.3268040456E-01  1.0690794506E+00
                       2.3500188843E-16  1.8653608091E+00  1.1588890104E+01
                       1.6154498479E+00  9.3268040456E-01  5.2599053267E+00
            xcart      4.4408920985E-16  3.5250210683E+00  5.9800239642E+00
                       3.0527577940E+00  1.7625105341E+00  1.7940071893E+01
                       5.6487366525E-17  9.7838988807E-17  0.0000000000E+00
                       5.6487366525E-17  9.7838988807E-17  1.1960047928E+01
                       4.4408920985E-16  3.5250210683E+00  1.3980315304E+01
                       3.0527577940E+00  1.7625105341E+00  2.0202673760E+00
                       4.4408920985E-16  3.5250210683E+00  2.1899828481E+01
                       3.0527577940E+00  1.7625105341E+00  9.9397805524E+00
             xred      3.3333333333E-01  6.6666666667E-01  2.5000000000E-01
                       6.6666666667E-01  3.3333333333E-01  7.5000000000E-01
                       1.8503717077E-17  1.8503717077E-17  0.0000000000E+00
                       1.8503717077E-17  1.8503717077E-17  5.0000000000E-01
                       3.3333333333E-01  6.6666666667E-01  5.8445900000E-01
                       6.6666666667E-01  3.3333333333E-01  8.4459000000E-02
                       3.3333333333E-01  6.6666666667E-01  9.1554100000E-01
                       6.6666666667E-01  3.3333333333E-01  4.1554100000E-01
            znucl       37.00000   21.00000    8.00000

- Timing analysis has been suppressed with timopt=0

 Suggested references for the acknowledgment of ABINIT usage.

 Calculation completed.
.Delivered  14 WARNINGs and   9 COMMENTs to log file.