.Version 9.5.2 of ABINIT

 ABINIT is a project of the Universite Catholique de Louvain,
 Corning Inc. and other collaborators, see ~abinit/doc/developers/contributors.txt .
 acknowledgments of the ABINIT effort.

.Starting date : Mon 24 May 2021.
- ( at 11h52 )

- input  file    -> /scratch/users/j/a/jabreu/flow_simple_10atoms/flow/w366/t1/run.abi
- output file    -> /scratch/users/j/a/jabreu/flow_simple_10atoms/flow/w366/t1/run.abo
- root for input  files -> /scratch/users/j/a/jabreu/flow_simple_10atoms/flow/w366/t1/indata/in
- root for output files -> /scratch/users/j/a/jabreu/flow_simple_10atoms/flow/w366/t1/outdata/out

 Symmetries : space group I4_1/a m d (#141); Bravais tI (body-center tetrag.)
     intxc =       0      iscf =       7    lmnmax =      18     lnmax =       6
     mgfft =      75  mpssoang =       3    mqgrid =    3001     natom =      10
  nloc_mem =       1    nspden =       1   nspinor =       1    nsppol =       1
      nsym =      16    n1xccc =    2501    ntypat =       3    occopt =       1
   xclevel =       2
-    mband =          69        mffmem =           1         mkmem =           1
-   mkqmem =           1        mk1mem =           1           mpw =       16297
      nfft =      421875          nkpt =           1
  Rough estimation (10% accuracy) of disk space for files :

------------- Echo of variables that govern the present computation ------------
-
- outvars: echo of selected default values
-   iomode0 =  0 , fftalg0 =512 , wfoptalg0 =  0
-
- outvars: echo of global parameters not present in the input file
-  max_nthreads =    0
-
 -outvars: echo values of preprocessed input variables --------
            acell      1.0000000000E+00  1.0000000000E+00  1.0000000000E+00 Bohr
              amu      1.37327000E+02  6.35460000E+01  1.59994000E+01
             ecut      4.60000000E+01 Hartree
-          fftalg         512
           irdden           1
           irdwfk           1
           istwfk        1
              ixc     -116133
           kptopt           0
P           mkmem           1
P          mkqmem           1
P          mk1mem           1
            natom          10
            nband          69
           nbdbuf           4
            ngfft          75      75      75
             nkpt           1
            nstep        2000
             nsym          16
           ntypat           3
              occ      2.000000  2.000000  2.000000  2.000000  2.000000  2.000000
                       2.000000  2.000000  2.000000  2.000000  2.000000  2.000000
                       2.000000  2.000000  2.000000  2.000000  2.000000  2.000000
                       2.000000  2.000000  2.000000  2.000000  2.000000  2.000000
                       2.000000  2.000000  2.000000  2.000000  2.000000  2.000000
                       2.000000  2.000000  2.000000  2.000000  2.000000  2.000000
                       2.000000  2.000000  2.000000  2.000000  2.000000  2.000000
                       2.000000  2.000000  2.000000  2.000000  2.000000  2.000000
                       2.000000  2.000000  2.000000  2.000000  2.000000  2.000000
                       2.000000  2.000000  2.000000  2.000000  2.000000  2.000000
                       0.000000  0.000000  0.000000  0.000000  0.000000  0.000000
                       0.000000  0.000000  0.000000
        optdriver           1
            prtwf          -1
            rfdir           1       1       1
           rfelfd           2
            rprim      9.6240655558E+00  0.0000000000E+00 -7.3577115555E+00
                      -2.3509850063E+00  9.3324973786E+00 -7.3577115555E+00
                       0.0000000000E+00  0.0000000000E+00  1.2114394626E+01
          spgroup         141
           symrel      1  0  0   0  1  0   0  0  1      -1  0  0   0 -1  0   0  0 -1
                       0  0  1  -1 -1 -1   1  0  0       0  0 -1   1  1  1  -1  0  0
                       0  1  0   1  0  0  -1 -1 -1       0 -1  0  -1  0  0   1  1  1
                      -1 -1 -1   0  0  1   0  1  0       1  1  1   0  0 -1   0 -1  0
                       0  1  0   1  0  0   0  0  1       0 -1  0  -1  0  0   0  0 -1
                       0  0  1  -1 -1 -1   0  1  0       0  0 -1   1  1  1   0 -1  0
                       1  0  0   0  1  0  -1 -1 -1      -1  0  0   0 -1  0   1  1  1
                      -1 -1 -1   0  0  1   1  0  0       1  1  1   0  0 -1  -1  0  0
            tnons      0.0000000  0.0000000  0.0000000    -0.2500000  0.2500000  0.5000000
                      -0.2500000  0.2500000  0.5000000    -0.0000000  0.0000000 -0.0000000
                      -0.0000000  0.0000000 -0.0000000    -0.2500000  0.2500000  0.5000000
                      -0.2500000  0.2500000  0.5000000     0.0000000  0.0000000  0.0000000
                      -0.2500000  0.2500000  0.5000000    -0.0000000 -0.0000000 -0.0000000
                      -0.0000000  0.0000000  0.0000000    -0.2500000  0.2500000  0.5000000
                      -0.2500000  0.2500000  0.5000000    -0.0000000  0.0000000  0.0000000
                      -0.0000000 -0.0000000 -0.0000000    -0.2500000  0.2500000  0.5000000
           tolwfr      1.00000000E-20
            typat      1  1  2  2  2  2  3  3  3  3
           useylm           1
           xangst      3.5086051888E+00  1.2346362280E+00 -6.8820249655E-01
                       0.0000000000E+00  0.0000000000E+00  0.0000000000E+00
                       1.1322587529E+00  3.0865905700E+00  9.1446288645E-01
                       1.1322587529E+00  3.0865905700E+00 -2.2908678796E+00
                       3.6786768259E+00  3.0865905700E+00 -4.2376345108E+00
                       1.7543025944E+00  6.1731811400E-01  2.8612295177E+00
                       1.2587856499E+00  4.8826702148E+00 -2.5468662572E+00
                       2.8430166072E+00  3.6480339869E+00 -5.7521970232E+00
                       1.0057318559E+00  1.2905109251E+00 -2.0348695019E+00
                      -5.7849910142E-01  2.5251471531E+00  1.1704612641E+00
            xcart      6.6303029153E+00  2.3331243446E+00 -1.3005142425E+00
                       0.0000000000E+00  0.0000000000E+00  0.0000000000E+00
                       2.1396589545E+00  5.8328108616E+00  1.7280844141E+00
                       2.1396589545E+00  5.8328108616E+00 -4.3291128990E+00
                       6.9516917324E+00  5.8328108616E+00 -8.0079686767E+00
                       3.3151514576E+00  1.1665621723E+00  5.4069401918E+00
                       2.3787601383E+00  9.2269095033E+00 -4.8128797231E+00
                       5.3725227788E+00  6.8937851586E+00 -1.0870077036E+01
                       1.9005577707E+00  2.4387122200E+00 -3.8453460748E+00
                      -1.0932048698E+00  4.7718365646E+00  2.2118512382E+00
             xred      7.5000000000E-01  2.5000000000E-01  5.0000000000E-01
                       0.0000000000E+00  0.0000000000E+00  0.0000000000E+00
                       3.7500000000E-01  6.2500000000E-01  7.5000000000E-01
                       3.7500000000E-01  6.2500000000E-01  2.5000000000E-01
                       8.7500000000E-01  6.2500000000E-01  2.5000000000E-01
                       3.7500000000E-01  1.2500000000E-01  7.5000000000E-01
                       4.8868600000E-01  9.8868600000E-01  5.0000000000E-01
                       7.3868600000E-01  7.3868600000E-01  5.5511151231E-17
                       2.6131400000E-01  2.6131400000E-01  0.0000000000E+00
                       1.1314000000E-02  5.1131400000E-01  5.0000000000E-01
            znucl       56.00000   29.00000    8.00000

 chkinp: Checking input parameters for consistency.

== DATASET  1 ==================================================================
-   mpi_nproc: 1, omp_nthreads: -1 (-1 if OMP is not activated)

--- !DatasetInfo
iteration_state: {dtset: 1, }
dimensions: {natom: 10, nkpt: 1, mband: 69, nsppol: 1, nspinor: 1, nspden: 1, mpw: 16297, }
cutoff_energies: {ecut:  46.0, pawecutdg:  -1.0, }
electrons: {nelect:   1.20000000E+02, charge:   0.00000000E+00, occopt:   1.00000000E+00, tsmear:   1.00000000E-02, }
meta: {optdriver: 1, rfelfd: 2, }
...

 Real(R)+Recip(G) space primitive vectors, cartesian coordinates (Bohr,Bohr^-1):
 R(1)=  9.6240656  0.0000000 -7.3577116  G(1)=  0.1039062  0.0261754  0.0000000
 R(2)= -2.3509850  9.3324974 -7.3577116  G(2)=  0.0000000  0.1071525  0.0000000
 R(3)=  0.0000000  0.0000000 12.1143946  G(3)=  0.0631077  0.0809770  0.0825464
 Unit cell volume ucvol=  1.0880733E+03 bohr^3
 Angles (23,13,12)=  1.27398339E+02  1.27398339E+02  7.76017433E+01 degrees

 getcut: wavevector=  0.0000  0.0000  0.0000  ngfft=  75  75  75
         ecut(hartree)=     46.000   => boxcut(ratio)=   2.00119

--- Pseudopotential description ------------------------------------------------
- pspini: atom type   1  psp file is /scratch/users/j/a/jabreu/pseudos/PBEsol/Ba.psp8
- pspatm: opening atomic psp file    /scratch/users/j/a/jabreu/pseudos/PBEsol/Ba.psp8
- Ba    ONCVPSP-3.3.0  r_core=   2.15444   1.91218   2.15444
- 56.00000  10.00000    180112                znucl, zion, pspdat
    8 -116133    2    4       600   0.00000   pspcod,pspxc,lmax,lloc,mmax,r2well
    5.99000000000000    5.00000000000000    0.00000000000000   rchrg,fchrg,qchrg
     nproj     2     2     2
     extension_switch     1
  pspatm : epsatm=   26.37418029
         --- l  ekb(1:nproj) -->
             0    6.652372    0.677024
             1    5.027722    0.408462
             2    2.543237    0.416854
 pspatm: atomic psp has been read  and splines computed

- pspini: atom type   2  psp file is /scratch/users/j/a/jabreu/pseudos/PBEsol/Cu.psp8
- pspatm: opening atomic psp file    /scratch/users/j/a/jabreu/pseudos/PBEsol/Cu.psp8
- Cu    ONCVPSP-3.3.0  r_core=   1.26204   1.45626   1.76249
- 29.00000  19.00000    180112                znucl, zion, pspdat
    8 -116133    2    4       600   0.00000   pspcod,pspxc,lmax,lloc,mmax,r2well
    5.99000000000000    3.50000000000000    0.00000000000000   rchrg,fchrg,qchrg
     nproj     2     2     2
     extension_switch     1
  pspatm : epsatm=   21.63488701
         --- l  ekb(1:nproj) -->
             0    5.008230   -0.401634
             1   -3.496700   -0.765945
             2   -6.895851   -2.521180
 pspatm: atomic psp has been read  and splines computed

- pspini: atom type   3  psp file is /scratch/users/j/a/jabreu/pseudos/PBEsol/O.psp8
- pspatm: opening atomic psp file    /scratch/users/j/a/jabreu/pseudos/PBEsol/O.psp8
- O     ONCVPSP-3.3.0  r_core=   1.35509   1.45563   1.26150
-  8.00000   6.00000    180112                znucl, zion, pspdat
    8 -116133    2    4       600   0.00000   pspcod,pspxc,lmax,lloc,mmax,r2well
    5.99000000000000    4.00000000000000    0.00000000000000   rchrg,fchrg,qchrg
     nproj     2     2     1
     extension_switch     1
  pspatm : epsatm=    6.22910522
         --- l  ekb(1:nproj) -->
             0    6.050032    0.820363
             1   -4.739617   -1.153841
             2   -1.335834
 pspatm: atomic psp has been read  and splines computed

   1.97045195E+04                                ecore*ucvol(ha*bohr**3)

 ==>  initialize data related to q vector <==

[...]
          f-sum rule ratio=    1.0962704646E+00
 prteigrs : about to open file /scratch/users/j/a/jabreu/flow_simple_10atoms/flow/w366/t1/tmpdata/tmp_1WF1_EIG
 Expectation of eigenvalue derivatives (hartree) for nkpt=   1  k points:
  (in case of degenerate eigenvalues, averaged derivative)
 kpt#   1, nband= 69, wtk=  1.00000, kpt=  0.0000  0.0000  0.0000 (reduced coord)
   0.00000   -0.00000    0.00000    0.00000    0.00000    0.00000   -0.00000   -0.00000
  -0.00000   -0.00000    0.00000   -0.00000    0.00000   -0.00000    0.00000    0.00000
  -0.00000   -0.00000   -0.00000    0.00000   -0.00000    0.00000    0.00000    0.00000
   0.00000    0.00000    0.00000    0.00000   -0.00000   -0.00000   -0.00000   -0.00000
   0.00000   -0.00000   -0.00000    0.00000    0.00000   -0.00000    0.00000    0.00000
   0.00000    0.00000    0.00000   -0.00000    0.00000    0.00000   -0.00000    0.00000
   0.00000   -0.00000    0.00000   -0.00000   -0.00000   -0.00000   -0.00000    0.00000
   0.00000    0.00000    0.00000    0.00000    0.00000    0.00000   -0.00000   -0.00000
  -0.00000    0.00000    0.00000    0.00000    0.00000

 Eight components of 2nd-order total energy (hartree) are
 1,2,3: 0th-order hamiltonian combined with 1st-order wavefunctions
     kin0=   9.83476439E+01 eigvalue=  -1.68328072E+00  local=  -4.10398112E+01
 4,5,6: 1st-order hamiltonian combined with 1st and 0th-order wfs
     kin1=  -1.19259488E+02  Hartree=   0.00000000E+00     xc=   0.00000000E+00
 7,8,9: eventually, occupation + non-local contributions
    edocc=   1.15475669E+01     enl0=  -1.08062905E+00   enl1=  -1.29234922E+01
 1-9 gives the relaxation energy (to be shifted if some occ is /=2.0)
   erelax=  -6.60914899E+01
  No Ewald or frozen-wf contrib.: the relaxation energy is the total one
 2DEtotal=   -0.6609148986E+02 Ha. Also 2DEtotal=   -0.179844090042E+04 eV
    (  non-var. 2DEtotal :   -6.6091489858E+01 Ha)

 Perturbation wavevector (in red.coord.)   0.000000  0.000000  0.000000
 Perturbation : derivative vs k along direction   2
 The set of symmetries contains only one element for this perturbation.
 symkpt : not enough symmetry to change the number of k points.

[...]

 Perturbation wavevector (in red.coord.)   0.000000  0.000000  0.000000
 Perturbation : derivative vs k along direction   3
 The set of symmetries contains only one element for this perturbation.
 symkpt : not enough symmetry to change the number of k points.

 Initialisation of the first-order wave-functions :
  ireadwf=   0

--- !BeginCycle
iteration_state: {dtset: 1, }
solver: {iscf: 7, nstep: 2000, nline: 4, wfoptalg: 0, }
tolerances: {tolwfr: 1.00E-20, }
...

     iter   2DEtotal(Ha)        deltaE(Ha) residm    vres2
-ETOT  1  -100.72112282314     -1.007E+02 2.137E-01 0.000E+00
 ETOT  2  -101.06713340796     -3.460E-01 4.394E-03 0.000E+00
 ETOT  3  -101.07652193660     -9.389E-03 1.070E-04 0.000E+00
 ETOT  4  -101.07695145157     -4.295E-04 1.211E-05 0.000E+00
 ETOT  5  -101.07697621311     -2.476E-05 4.303E-07 0.000E+00
 ETOT  6  -101.07697782743     -1.614E-06 3.717E-08 0.000E+00
 ETOT  7  -101.07697794075     -1.133E-07 3.010E-09 0.000E+00
 ETOT  8  -101.07697794913     -8.379E-09 2.621E-10 0.000E+00
 ETOT  9  -101.07697794977     -6.433E-10 2.188E-11 0.000E+00
 ETOT 10  -101.07697794982     -5.075E-11 1.901E-12 0.000E+00
 ETOT 11  -101.07697794983     -4.178E-12 1.621E-13 0.000E+00
 ETOT 12  -101.07697794983     -3.126E-13 1.405E-14 0.000E+00
 ETOT 13  -101.07697794983     -1.421E-14 1.216E-15 0.000E+00
 ETOT 14  -101.07697794983      0.000E+00 1.052E-16 0.000E+00
 ETOT 15  -101.07697794983      1.421E-14 9.193E-18 0.000E+00
 ETOT 16  -101.07697794983      1.421E-14 7.946E-19 0.000E+00
 ETOT 17  -101.07697794983      7.105E-14 6.995E-20 0.000E+00
 ETOT 18  -101.07697794983     -9.948E-14 9.643E-21 0.000E+00

 At SCF step   18   max residual=  9.64E-21 < tolwfr=  1.00E-20 =>converged.

 ----iterations are completed or convergence reached----

 dfpt_looppert: DFPT cycle converged with prtwf=-1. Will skip output of the 1st-order WFK file.
 dfpt_looppert : ek2=    1.6442393804E+02
          f-sum rule ratio=    1.1120629417E+00
 prteigrs : about to open file /scratch/users/j/a/jabreu/flow_simple_10atoms/flow/w366/t1/tmpdata/tmp_1WF1_EIG
 Expectation of eigenvalue derivatives (hartree) for nkpt=   1  k points:
  (in case of degenerate eigenvalues, averaged derivative)
 kpt#   1, nband= 69, wtk=  1.00000, kpt=  0.0000  0.0000  0.0000 (reduced coord)
   0.00000   -0.00000    0.00000    0.00000    0.00000   -0.00000    0.00000    0.00000
   0.00000    0.00000    0.00000    0.00000    0.00000   -0.00000   -0.00000   -0.00000
  -0.00000    0.00000    0.00000    0.00000    0.00000    0.00000    0.00000    0.00000
   0.00000    0.00000    0.00000   -0.00000   -0.00000   -0.00000   -0.00000    0.00000
   0.00000   -0.00000   -0.00000   -0.00000   -0.00000   -0.00000    0.00000    0.00000
   0.00000    0.00000    0.00000   -0.00000    0.00000    0.00000    0.00000   -0.00000
  -0.00000   -0.00000   -0.00000   -0.00000   -0.00000   -0.00000    0.00000    0.00000
   0.00000    0.00000    0.00000    0.00000   -0.00000    0.00000   -0.00000   -0.00000
  -0.00000    0.00000    0.00000   -0.00000    0.00000

 Eight components of 2nd-order total energy (hartree) are
 1,2,3: 0th-order hamiltonian combined with 1st-order wavefunctions
     kin0=   1.47035397E+02 eigvalue=  -2.49680151E+00  local=  -6.10592369E+01
 4,5,6: 1st-order hamiltonian combined with 1st and 0th-order wfs
     kin1=  -1.82849768E+02  Hartree=   0.00000000E+00     xc=   0.00000000E+00
 7,8,9: eventually, occupation + non-local contributions
    edocc=   1.89165610E+01     enl0=  -1.31894142E+00   enl1=  -1.93041877E+01
 1-9 gives the relaxation energy (to be shifted if some occ is /=2.0)
   erelax=  -1.01076978E+02
  No Ewald or frozen-wf contrib.: the relaxation energy is the total one
 2DEtotal=   -0.1010769779E+03 Ha. Also 2DEtotal=   -0.275044444640E+04 eV
    (  non-var. 2DEtotal :   -1.0107697795E+02 Ha)

 CALCULATION OF EFFECTIVE MASSES
 NOTE : Additional infos (eff. mass eigenvalues, eigenvectors and, if degenerate, average mass) are available in stdout.

 K-point ( 0.000, 0.000, 0.000) | band =    60
 Effective mass tensor:
             -2.8658348236              0.5662033443             -0.8927858675
              0.5662033443             -2.5805659366             -1.1455835959
             -0.8927858675             -1.1455835959             -1.5007441850
 Effective mass tensor eigenvalues:
             -3.3070931884             -3.3070931869             -0.3329585699
 Angular average effective mass 1/(<1/m>)=  -0.8314539310
 Angular average effective mass for Frohlich model (<m**0.5>)**2=  -1.2194630405
 Effective masses along directions: (cart. coord. / red. coord. -> eff. mass)
    1:   1.000000  0.000000  0.000000 /   0.971435 -0.237304  0.000000 ->  -1.4222435210
    2:   0.000000  1.000000  0.000000 /   0.000000  1.000000  0.000000 ->  -1.0393013255
    3:   0.000000  0.000000  1.000000 /  -0.460730 -0.460730  0.758588 ->  -0.5147109432
    4:   0.577350  0.577350  0.577350 /   0.183804 -0.030510  0.982489 ->  -3.2112816398
    5:   0.000000  0.707107  0.707107 /  -0.514143  0.137994  0.846531 ->  -2.4263843785
    6:   0.707107  0.000000  0.707107 /   0.144452 -0.618811  0.772144 ->  -1.9524310715
    7:   0.707107  0.707107  0.000000 /   0.809448  0.587192  0.000000 ->  -0.7424709301

 K-point ( 0.000, 0.000, 0.000) | band =    61
 Effective mass tensor:
              0.3259824609              0.0990922282             -0.1562480017
              0.0990922282              0.3759078632             -0.2004905702
             -0.1562480017             -0.2004905702              0.5648893388
 Effective mass tensor eigenvalues:
              0.2487570699              0.2487570700              0.7692655229
 Angular average effective mass 1/(<1/m>)=   0.3212021092
 Angular average effective mass for Frohlich model (<m**0.5>)**2=   0.3430133714
 Effective masses along directions: (cart. coord. / red. coord. -> eff. mass)
    1:   1.000000  0.000000  0.000000 /   0.971435 -0.237304  0.000000 ->   0.2765160988
    2:   0.000000  1.000000  0.000000 /   0.000000  1.000000  0.000000 ->   0.2980156484
    3:   0.000000  0.000000  1.000000 /  -0.460730 -0.460730  0.758588 ->   0.4223045556
    4:   0.577350  0.577350  0.577350 /   0.183804 -0.030510  0.982489 ->   0.2493205501
    5:   0.000000  0.707107  0.707107 /  -0.514143  0.137994  0.846531 ->   0.2557900183
    6:   0.707107  0.000000  0.707107 /   0.144452 -0.618811  0.772144 ->   0.2625564328
    7:   0.707107  0.707107  0.000000 /   0.809448  0.587192  0.000000 ->   0.3369106037

 END OF EFFECTIVE MASSES SECTION

 ---- first-order wavefunction calculations are completed ----

 Total localisation tensor (bohr^2) in cartesian coordinates
  WARNING : still subject to testing - especially symmetries.
      direction              matrix element
   alpha     beta       real part   imaginary part
     1        1       1.2040611105    0.0000000000
     1        2      -0.2691577384    0.0000000000
     1        3      -0.6564784180    0.0000000000
     2        1      -0.2691577384    0.0000000000
     2        2       1.0684516836    0.0000000000
     2        3      -0.8423639440    0.0000000000
     3        1      -0.6564784180    0.0000000000
     3        2      -0.8423639440    0.0000000000
     3        3       4.2177466662    0.0000000000

 respfn : d/dk was computed, but no 2DTE, so no DDB output.

== END DATASET(S) ==============================================================

 -outvars: echo values of variables after computation  --------
            acell      1.0000000000E+00  1.0000000000E+00  1.0000000000E+00 Bohr
              amu      1.37327000E+02  6.35460000E+01  1.59994000E+01
             ecut      4.60000000E+01 Hartree
           etotal     -1.0107697795E+02
            fcart      0.0000000000E+00  0.0000000000E+00  0.0000000000E+00
                       0.0000000000E+00  0.0000000000E+00  0.0000000000E+00
                       0.0000000000E+00  0.0000000000E+00  0.0000000000E+00
                       0.0000000000E+00  0.0000000000E+00  0.0000000000E+00
                       0.0000000000E+00  0.0000000000E+00  0.0000000000E+00
                       0.0000000000E+00  0.0000000000E+00  0.0000000000E+00
                       0.0000000000E+00  0.0000000000E+00  0.0000000000E+00
                       0.0000000000E+00  0.0000000000E+00  0.0000000000E+00
                       0.0000000000E+00  0.0000000000E+00  0.0000000000E+00
                       0.0000000000E+00  0.0000000000E+00  0.0000000000E+00
-          fftalg         512
           irdden           1
           irdwfk           1
           istwfk        1
              ixc     -116133
           kptopt           0
P           mkmem           1
P          mkqmem           1
P          mk1mem           1
            natom          10
            nband          69
           nbdbuf           4
            ngfft          75      75      75
             nkpt           1
            nstep        2000
             nsym          16
           ntypat           3
              occ      2.000000  2.000000  2.000000  2.000000  2.000000  2.000000
                       2.000000  2.000000  2.000000  2.000000  2.000000  2.000000
                       2.000000  2.000000  2.000000  2.000000  2.000000  2.000000
                       2.000000  2.000000  2.000000  2.000000  2.000000  2.000000
                       2.000000  2.000000  2.000000  2.000000  2.000000  2.000000
                       2.000000  2.000000  2.000000  2.000000  2.000000  2.000000
                       2.000000  2.000000  2.000000  2.000000  2.000000  2.000000
                       2.000000  2.000000  2.000000  2.000000  2.000000  2.000000
                       2.000000  2.000000  2.000000  2.000000  2.000000  2.000000
                       2.000000  2.000000  2.000000  2.000000  2.000000  2.000000
                       0.000000  0.000000  0.000000  0.000000  0.000000  0.000000
                       0.000000  0.000000  0.000000
        optdriver           1
            prtwf          -1
            rfdir           1       1       1
           rfelfd           2
            rprim      9.6240655558E+00  0.0000000000E+00 -7.3577115555E+00
                      -2.3509850063E+00  9.3324973786E+00 -7.3577115555E+00
                       0.0000000000E+00  0.0000000000E+00  1.2114394626E+01
          spgroup         141
           strten      0.0000000000E+00  0.0000000000E+00  0.0000000000E+00
                       0.0000000000E+00  0.0000000000E+00  0.0000000000E+00
           symrel      1  0  0   0  1  0   0  0  1      -1  0  0   0 -1  0   0  0 -1
                       0  0  1  -1 -1 -1   1  0  0       0  0 -1   1  1  1  -1  0  0
                       0  1  0   1  0  0  -1 -1 -1       0 -1  0  -1  0  0   1  1  1
                      -1 -1 -1   0  0  1   0  1  0       1  1  1   0  0 -1   0 -1  0
                       0  1  0   1  0  0   0  0  1       0 -1  0  -1  0  0   0  0 -1
                       0  0  1  -1 -1 -1   0  1  0       0  0 -1   1  1  1   0 -1  0
                       1  0  0   0  1  0  -1 -1 -1      -1  0  0   0 -1  0   1  1  1
                      -1 -1 -1   0  0  1   1  0  0       1  1  1   0  0 -1  -1  0  0
            tnons      0.0000000  0.0000000  0.0000000    -0.2500000  0.2500000  0.5000000
                      -0.2500000  0.2500000  0.5000000    -0.0000000  0.0000000 -0.0000000
                      -0.0000000  0.0000000 -0.0000000    -0.2500000  0.2500000  0.5000000
                      -0.2500000  0.2500000  0.5000000     0.0000000  0.0000000  0.0000000
                      -0.2500000  0.2500000  0.5000000    -0.0000000 -0.0000000 -0.0000000
                      -0.0000000  0.0000000  0.0000000    -0.2500000  0.2500000  0.5000000
                      -0.2500000  0.2500000  0.5000000    -0.0000000  0.0000000  0.0000000
                      -0.0000000 -0.0000000 -0.0000000    -0.2500000  0.2500000  0.5000000
           tolwfr      1.00000000E-20
            typat      1  1  2  2  2  2  3  3  3  3
           useylm           1
           xangst      3.5086051888E+00  1.2346362280E+00 -6.8820249655E-01
                       0.0000000000E+00  0.0000000000E+00  0.0000000000E+00
                       1.1322587529E+00  3.0865905700E+00  9.1446288645E-01
                       1.1322587529E+00  3.0865905700E+00 -2.2908678796E+00
                       3.6786768259E+00  3.0865905700E+00 -4.2376345108E+00
                       1.7543025944E+00  6.1731811400E-01  2.8612295177E+00
                       1.2587856499E+00  4.8826702148E+00 -2.5468662572E+00
                       2.8430166072E+00  3.6480339869E+00 -5.7521970232E+00
                       1.0057318559E+00  1.2905109251E+00 -2.0348695019E+00
                      -5.7849910142E-01  2.5251471531E+00  1.1704612641E+00
            xcart      6.6303029153E+00  2.3331243446E+00 -1.3005142425E+00
                       0.0000000000E+00  0.0000000000E+00  0.0000000000E+00
                       2.1396589545E+00  5.8328108616E+00  1.7280844141E+00
                       2.1396589545E+00  5.8328108616E+00 -4.3291128990E+00
                       6.9516917324E+00  5.8328108616E+00 -8.0079686767E+00
                       3.3151514576E+00  1.1665621723E+00  5.4069401918E+00
                       2.3787601383E+00  9.2269095033E+00 -4.8128797231E+00
                       5.3725227788E+00  6.8937851586E+00 -1.0870077036E+01
                       1.9005577707E+00  2.4387122200E+00 -3.8453460748E+00
                      -1.0932048698E+00  4.7718365646E+00  2.2118512382E+00
             xred      7.5000000000E-01  2.5000000000E-01  5.0000000000E-01
                       0.0000000000E+00  0.0000000000E+00  0.0000000000E+00
                       3.7500000000E-01  6.2500000000E-01  7.5000000000E-01
                       3.7500000000E-01  6.2500000000E-01  2.5000000000E-01
                       8.7500000000E-01  6.2500000000E-01  2.5000000000E-01
                       3.7500000000E-01  1.2500000000E-01  7.5000000000E-01
                       4.8868600000E-01  9.8868600000E-01  5.0000000000E-01
                       7.3868600000E-01  7.3868600000E-01  5.5511151231E-17
                       2.6131400000E-01  2.6131400000E-01  0.0000000000E+00
                       1.1314000000E-02  5.1131400000E-01  5.0000000000E-01
            znucl       56.00000   29.00000    8.00000

- Timing analysis has been suppressed with timopt=0

 Suggested references for the acknowledgment of ABINIT usage.

 Calculation completed.
.Delivered   2 WARNINGs and   5 COMMENTs to log file.