.Version 9.7.2 of ABINIT

 ABINIT is a project of the Universite Catholique de Louvain,
 Corning Inc. and other collaborators, see ~abinit/doc/developers/contributors.txt .
 acknowledgments of the ABINIT effort.

.Starting date : Thu  2 Dec 2021.
- ( at 14h17 )

- input  file    -> /scratch/users/j/a/jabreu/flow_simple_remain_atoms/flow/w210/t1/run.abi
- output file    -> /scratch/users/j/a/jabreu/flow_simple_remain_atoms/flow/w210/t1/run.abo
- root for input  files -> /scratch/users/j/a/jabreu/flow_simple_remain_atoms/flow/w210/t1/indata/in
- root for output files -> /scratch/users/j/a/jabreu/flow_simple_remain_atoms/flow/w210/t1/outdata/out

 Symmetries : space group R-3 m (#166); Bravais hR (rhombohedral)
     intxc =       0      iscf =       7    lmnmax =      32     lnmax =       8
     mgfft =     108  mpssoang =       4    mqgrid =    3001     natom =       4
  nloc_mem =       1    nspden =       1   nspinor =       1    nsppol =       1
      nsym =      12    n1xccc =    2501    ntypat =       3    occopt =       1
   xclevel =       2
-    mband =          35        mffmem =           1         mkmem =           2
-   mkqmem =           2        mk1mem =           2           mpw =       15961
      nfft =     1259712          nkpt =           2
  Rough estimation (10% accuracy) of disk space for files :

------------- Echo of variables that govern the present computation ------------
-
- outvars: echo of selected default values
-   iomode0 =  0 , fftalg0 =512 , wfoptalg0 =  0
-
- outvars: echo of global parameters not present in the input file
-  max_nthreads =    0
-
 -outvars: echo values of preprocessed input variables --------
            acell      1.0000000000E+00  1.0000000000E+00  1.0000000000E+00 Bohr
              amu      8.54678000E+01  1.38905500E+02  7.89600000E+01
             ecut      5.20000000E+01 Hartree
-          fftalg         512
           irdden           1
           irdwfk           1
           istwfk        1    1
              ixc     -116133
              kpt      0.00000000E+00  0.00000000E+00  0.00000000E+00
                       5.00000000E-01  5.00000000E-01  0.00000000E+00
           kptopt           0
P           mkmem           2
P          mkqmem           2
P          mk1mem           2
            natom           4
            nband          35
           nbdbuf           4
            ngfft         108     108     108
             nkpt           2
            nstep        2000
             nsym          12
           ntypat           3
              occ      2.000000  2.000000  2.000000  2.000000  2.000000  2.000000
                       2.000000  2.000000  2.000000  2.000000  2.000000  2.000000
                       2.000000  2.000000  2.000000  2.000000  2.000000  2.000000
                       2.000000  2.000000  2.000000  2.000000  2.000000  2.000000
                       2.000000  2.000000  0.000000  0.000000  0.000000  0.000000
                       0.000000  0.000000  0.000000  0.000000  0.000000
        optdriver           1
            prtwf          -1
            rfdir           1       1       1
           rfelfd           2
            rprim      8.0289335334E+00  0.0000000000E+00  1.3335012314E+01
                       3.7046313742E+00  7.1231650314E+00  1.3335012314E+01
                       0.0000000000E+00  0.0000000000E+00  1.5565549367E+01
          spgroup         166
           symrel      1  0  0   0  1  0   0  0  1      -1  0  0   0 -1  0   0  0 -1
                       0  1  0   1  0  0   0  0  1       0 -1  0  -1  0  0   0  0 -1
                       0  0  1   1  0  0   0  1  0       0  0 -1  -1  0  0   0 -1  0
                       1  0  0   0  0  1   0  1  0      -1  0  0   0  0 -1   0 -1  0
                       0  1  0   0  0  1   1  0  0       0 -1  0   0  0 -1  -1  0  0
                       0  0  1   0  1  0   1  0  0       0  0 -1   0 -1  0  -1  0  0
           tolwfr      1.00000000E-20
            typat      1  2  3  3
           useylm           1
              wtk        0.50000    0.50000
           xangst      0.0000000000E+00  0.0000000000E+00  0.0000000000E+00
                       3.1045675623E+00  1.8847082938E+00  1.1175051575E+01
                       1.4546078765E+00  8.8305745457E-01  5.2359363146E+00
                       4.7545272481E+00  2.8863591331E+00  1.7114166834E+01
            xcart      0.0000000000E+00  0.0000000000E+00  0.0000000000E+00
                       5.8667824538E+00  3.5615825157E+00  2.1117786997E+01
                       2.7488105173E+00  1.6687367487E+00  9.8944856839E+00
                       8.9847543903E+00  5.4544282827E+00  3.2341088310E+01
             xred      0.0000000000E+00  0.0000000000E+00  0.0000000000E+00
                       5.0000000000E-01  5.0000000000E-01  5.0000000000E-01
                       2.3426900000E-01  2.3426900000E-01  2.3426900000E-01
                       7.6573100000E-01  7.6573100000E-01  7.6573100000E-01
            znucl       37.00000   57.00000   34.00000

 chkinp: Checking input parameters for consistency.

== DATASET  1 ==================================================================
-   mpi_nproc: 1, omp_nthreads: -1 (-1 if OMP is not activated)

--- !DatasetInfo
iteration_state: {dtset: 1, }
dimensions: {natom: 4, nkpt: 2, mband: 35, nsppol: 1, nspinor: 1, nspden: 1, mpw: 15961, }
cutoff_energies: {ecut:  52.0, pawecutdg:  -1.0, }
electrons: {nelect:   5.20000000E+01, charge:   0.00000000E+00, occopt:   1.00000000E+00, tsmear:   1.00000000E-02, }
meta: {optdriver: 1, rfelfd: 2, }
...

 Real(R)+Recip(G) space primitive vectors, cartesian coordinates (Bohr,Bohr^-1):
 R(1)=  8.0289335  0.0000000 13.3350123  G(1)=  0.1245495 -0.0647760  0.0000000
 R(2)=  3.7046314  7.1231650 13.3350123  G(2)=  0.0000000  0.1403870  0.0000000
 R(3)=  0.0000000  0.0000000 15.5655494  G(3)= -0.1067016 -0.0647760  0.0642444
 Unit cell volume ucvol=  8.9021585E+02 bohr^3
 Angles (23,13,12)=  3.10519020E+01  3.10519020E+01  3.10519020E+01 degrees

 getcut: wavevector=  0.0000  0.0000  0.0000  ngfft= 108 108 108
         ecut(hartree)=     52.000   => boxcut(ratio)=   2.13756

--- Pseudopotential description ------------------------------------------------
- pspini: atom type   1  psp file is /scratch/users/j/a/jabreu/pseudos/PBEsol/Rb.psp8
- pspatm: opening atomic psp file    /scratch/users/j/a/jabreu/pseudos/PBEsol/Rb.psp8
- Rb    ONCVPSP-3.3.0  r_core=   1.71227   1.75361   1.90633
- 37.00000   9.00000    180112                znucl, zion, pspdat
    8 -116133    2    4       600   0.00000   pspcod,pspxc,lmax,lloc,mmax,r2well
    5.99000000000000    7.00000000000000    0.00000000000000   rchrg,fchrg,qchrg
     nproj     2     2     2
     extension_switch     1
  pspatm : epsatm=   34.48400912
         --- l  ekb(1:nproj) -->
             0    8.196957   -0.477221
             1    3.231347   -0.378736
             2   -1.047201    0.996637
 pspatm: atomic psp has been read  and splines computed

- pspini: atom type   2  psp file is /scratch/users/j/a/jabreu/pseudos/PBEsol/La.psp8
- pspatm: opening atomic psp file    /scratch/users/j/a/jabreu/pseudos/PBEsol/La.psp8
- La    ONCVPSP-3.3.0  r_core=   2.11664   1.60878   1.85636   1.66739
- 57.00000  11.00000    180112                znucl, zion, pspdat
    8 -116133    3    4       600   0.00000   pspcod,pspxc,lmax,lloc,mmax,r2well
    5.99000000000000    5.00000000000000    0.00000000000000   rchrg,fchrg,qchrg
     nproj     2     2     2     2
     extension_switch     1
  pspatm : epsatm=   29.08531775
         --- l  ekb(1:nproj) -->
             0    6.695600    0.639047
             1    6.383649    1.151322
             2    3.612966    0.847811
             3  -13.718437   -4.858923
 pspatm: atomic psp has been read  and splines computed

- pspini: atom type   3  psp file is /scratch/users/j/a/jabreu/pseudos/PBEsol/Se.psp8
- pspatm: opening atomic psp file    /scratch/users/j/a/jabreu/pseudos/PBEsol/Se.psp8
- Se    ONCVPSP-3.3.0  r_core=   1.81943   1.50330   1.90835
- 34.00000  16.00000    180112                znucl, zion, pspdat
    8 -116133    2    4       600   0.00000   pspcod,pspxc,lmax,lloc,mmax,r2well
    5.99000000000000    5.00000000000000    0.00000000000000   rchrg,fchrg,qchrg
     nproj     2     2     2
     extension_switch     1
  pspatm : epsatm=   29.17862020
         --- l  ekb(1:nproj) -->
             0    8.973804    1.019550
             1    6.849857    1.297308
             2   -9.203962   -3.731027
 pspatm: atomic psp has been read  and splines computed

   6.34018150E+03                                ecore*ucvol(ha*bohr**3)

 ==>  initialize data related to q vector <==

 The list of irreducible perturbations for this q vector is:
    1)    idir= 1    ipert=   5
    2)    idir= 2    ipert=   5
    3)    idir= 3    ipert=   5

 Perturbation wavevector (in red.coord.)   0.000000  0.000000  0.000000
 Perturbation : derivative vs k along direction   1

 dfpt_looppert : COMMENT -
  In a d/dk calculation, iscf is set to -3 automatically.
 The set of symmetries contains only one element for this perturbation.
 symkpt : not enough symmetry to change the number of k points.

 Initialisation of the first-order wave-functions :
  ireadwf=   0

--- !BeginCycle
iteration_state: {dtset: 1, }
solver: {iscf: 7, nstep: 2000, nline: 4, wfoptalg: 0, }
tolerances: {tolwfr: 1.00E-20, }
...

     iter   2DEtotal(Ha)        deltaE(Ha) residm    vres2
-ETOT  1  -84.444478049822     -8.444E+01 1.140E-01 0.000E+00
 ETOT  2  -84.575899123286     -1.314E-01 8.890E-02 0.000E+00
 ETOT  3  -84.581163758205     -5.265E-03 2.203E-02 0.000E+00
 ETOT  4  -84.582384270115     -1.221E-03 2.551E-02 0.000E+00
 ETOT  5  -84.582735307382     -3.510E-04 1.535E-02 0.000E+00
 ETOT  6  -84.582836789741     -1.015E-04 2.385E-02 0.000E+00
 ETOT  7  -84.582872612443     -3.582E-05 1.015E-02 0.000E+00
 ETOT  8  -84.582885521822     -1.291E-05 1.757E-02 0.000E+00
 ETOT  9  -84.582890330326     -4.809E-06 7.701E-03 0.000E+00
 ETOT 10  -84.582892137289     -1.807E-06 1.300E-02 0.000E+00
 ETOT 11  -84.582892827662     -6.904E-07 5.907E-03 0.000E+00
 ETOT 12  -84.582893093488     -2.658E-07 9.929E-03 0.000E+00
 ETOT 13  -84.582893197100     -1.036E-07 4.526E-03 0.000E+00
 ETOT 14  -84.582893237801     -4.070E-08 7.556E-03 0.000E+00
 ETOT 15  -84.582893253950     -1.615E-08 3.464E-03 0.000E+00
 ETOT 16  -84.582893260406     -6.456E-09 5.805E-03 0.000E+00
 ETOT 17  -84.582893263009     -2.603E-09 2.647E-03 0.000E+00
 ETOT 18  -84.582893264066     -1.057E-09 4.535E-03 0.000E+00
 ETOT 19  -84.582893264498     -4.322E-10 2.047E-03 0.000E+00
 ETOT 20  -84.582893264676     -1.779E-10 3.597E-03 0.000E+00
 ETOT 21  -84.582893264750     -7.363E-11 1.690E-03 0.000E+00
 ETOT 22  -84.582893264780     -3.070E-11 2.885E-03 0.000E+00
 ETOT 23  -84.582893264793     -1.282E-11 1.403E-03 0.000E+00
 ETOT 24  -84.582893264798     -5.386E-12 2.328E-03 0.000E+00
 ETOT 25  -84.582893264801     -2.260E-12 1.163E-03 0.000E+00
 ETOT 26  -84.582893264802     -9.663E-13 1.885E-03 0.000E+00
 ETOT 27  -84.582893264802     -4.121E-13 9.602E-04 0.000E+00
 ETOT 28  -84.582893264802     -1.990E-13 1.527E-03 0.000E+00
[...]
 Perturbation : derivative vs k along direction   3
 The set of symmetries contains only one element for this perturbation.
 symkpt : not enough symmetry to change the number of k points.

 Initialisation of the first-order wave-functions :
  ireadwf=   0

--- !BeginCycle
iteration_state: {dtset: 1, }
solver: {iscf: 7, nstep: 2000, nline: 4, wfoptalg: 0, }
tolerances: {tolwfr: 1.00E-20, }
...

     iter   2DEtotal(Ha)        deltaE(Ha) residm    vres2
-ETOT  1  -82.956428058272     -8.296E+01 1.103E-01 0.000E+00
 ETOT  2  -83.070963222882     -1.145E-01 7.717E-02 0.000E+00
 ETOT  3  -83.076037458192     -5.074E-03 2.217E-02 0.000E+00
 ETOT  4  -83.077323481035     -1.286E-03 2.604E-02 0.000E+00
 ETOT  5  -83.077709517999     -3.860E-04 1.532E-02 0.000E+00
 ETOT  6  -83.077828695902     -1.192E-04 2.420E-02 0.000E+00
 ETOT  7  -83.077869778459     -4.108E-05 1.017E-02 0.000E+00
 ETOT  8  -83.077883790762     -1.401E-05 1.639E-02 0.000E+00
 ETOT  9  -83.077888893337     -5.103E-06 7.712E-03 0.000E+00
 ETOT 10  -83.077890751604     -1.858E-06 1.176E-02 0.000E+00
 ETOT 11  -83.077891442278     -6.907E-07 5.913E-03 0.000E+00
 ETOT 12  -83.077891699637     -2.574E-07 9.002E-03 0.000E+00
 ETOT 13  -83.077891796247     -9.661E-08 4.529E-03 0.000E+00
 ETOT 14  -83.077891832597     -3.635E-08 7.008E-03 0.000E+00
 ETOT 15  -83.077891846357     -1.376E-08 3.465E-03 0.000E+00
 ETOT 16  -83.077891851577     -5.220E-09 5.532E-03 0.000E+00
 ETOT 17  -83.077891853568     -1.991E-09 2.647E-03 0.000E+00
 ETOT 18  -83.077891854328     -7.606E-10 4.403E-03 0.000E+00
 ETOT 19  -83.077891854620     -2.920E-10 2.018E-03 0.000E+00
 ETOT 20  -83.077891854732     -1.123E-10 3.515E-03 0.000E+00
 ETOT 21  -83.077891854776     -4.340E-11 1.652E-03 0.000E+00
 ETOT 22  -83.077891854793     -1.675E-11 2.817E-03 0.000E+00
 ETOT 23  -83.077891854799     -6.509E-12 1.362E-03 0.000E+00
 ETOT 24  -83.077891854802     -2.544E-12 2.264E-03 0.000E+00
 ETOT 25  -83.077891854803     -9.663E-13 1.122E-03 0.000E+00
 ETOT 26  -83.077891854803     -3.837E-13 1.824E-03 0.000E+00
 ETOT 27  -83.077891854803     -1.990E-13 9.211E-04 0.000E+00
 ETOT 28  -83.077891854803     -4.263E-14 1.471E-03 0.000E+00
 ETOT 29  -83.077891854803      0.000E+00 7.536E-04 0.000E+00
 ETOT 30  -83.077891854803     -5.684E-14 1.186E-03 0.000E+00
 ETOT 31  -83.077891854803      0.000E+00 6.146E-04 0.000E+00
 ETOT 32  -83.077891854803      7.105E-14 9.559E-04 0.000E+00
 ETOT 33  -83.077891854803     -2.842E-14 4.997E-04 0.000E+00
 ETOT 34  -83.077891854803      0.000E+00 7.701E-04 0.000E+00
 ETOT 35  -83.077891854803      0.000E+00 4.054E-04 0.000E+00
 ETOT 36  -83.077891854803     -2.842E-14 6.201E-04 0.000E+00
 ETOT 37  -83.077891854803      2.842E-14 3.282E-04 0.000E+00
 ETOT 38  -83.077891854803     -4.263E-14 4.990E-04 0.000E+00
 ETOT 39  -83.077891854803      4.263E-14 2.653E-04 0.000E+00
 ETOT 40  -83.077891854803     -4.263E-14 4.014E-04 0.000E+00
 ETOT 41  -83.077891854803      1.421E-14 2.142E-04 0.000E+00
 ETOT 42  -83.077891854803      0.000E+00 3.227E-04 0.000E+00
 ETOT 43  -83.077891854803      0.000E+00 1.727E-04 0.000E+00
 ETOT 44  -83.077891854803      1.421E-14 2.594E-04 0.000E+00
 ETOT 45  -83.077891854803     -2.842E-14 1.391E-04 0.000E+00
 ETOT 46  -83.077891854803      1.421E-14 2.084E-04 0.000E+00
 ETOT 47  -83.077891854803      0.000E+00 1.120E-04 0.000E+00
 ETOT 48  -83.077891854803      0.000E+00 1.674E-04 0.000E+00
 ETOT 49  -83.077891854803      0.000E+00 9.014E-05 0.000E+00
 ETOT 50  -83.077891854803      2.842E-14 1.344E-04 0.000E+00
 ETOT 51  -83.077891854803      0.000E+00 7.250E-05 0.000E+00
 ETOT 52  -83.077891854803     -1.421E-14 1.079E-04 0.000E+00
 ETOT 53  -83.077891854803      4.263E-14 5.829E-05 0.000E+00
 ETOT 54  -83.077891854803     -4.263E-14 8.664E-05 0.000E+00
 ETOT 55  -83.077891854803      0.000E+00 4.685E-05 0.000E+00
 ETOT 56  -83.077891854803      0.000E+00 6.955E-05 0.000E+00
 ETOT 57  -83.077891854803      0.000E+00 3.764E-05 0.000E+00
 ETOT 58  -83.077891854803      0.000E+00 5.582E-05 0.000E+00
 ETOT 59  -83.077891854803      0.000E+00 3.024E-05 0.000E+00
 ETOT 60  -83.077891854803      1.421E-14 4.480E-05 0.000E+00
 ETOT 61  -83.077891854803      0.000E+00 2.429E-05 0.000E+00
[...]
 ETOT  367  -83.077891854803     -4.263E-14 5.308E-20 0.000E+00
 ETOT  368  -83.077891854803      1.421E-14 7.798E-20 0.000E+00
 ETOT  369  -83.077891854803      1.421E-14 4.257E-20 0.000E+00
 ETOT  370  -83.077891854803     -1.421E-14 6.253E-20 0.000E+00
 ETOT  371  -83.077891854803      0.000E+00 3.414E-20 0.000E+00
 ETOT  372  -83.077891854803      0.000E+00 5.014E-20 0.000E+00
 ETOT  373  -83.077891854803      0.000E+00 2.738E-20 0.000E+00
 ETOT  374  -83.077891854803      0.000E+00 4.020E-20 0.000E+00
 ETOT  375  -83.077891854803     -1.421E-14 2.195E-20 0.000E+00
 ETOT  376  -83.077891854803      1.421E-14 3.223E-20 0.000E+00
 ETOT  377  -83.077891854803     -1.421E-14 1.761E-20 0.000E+00
 ETOT  378  -83.077891854803      0.000E+00 2.586E-20 0.000E+00
 ETOT  379  -83.077891854803      2.842E-14 1.412E-20 0.000E+00
 ETOT  380  -83.077891854803     -1.421E-14 2.073E-20 0.000E+00
 ETOT  381  -83.077891854803     -1.421E-14 9.989E-21 0.000E+00

 At SCF step  381   max residual=  9.99E-21 < tolwfr=  1.00E-20 =>converged.

 ----iterations are completed or convergence reached----

 dfpt_looppert: DFPT cycle converged with prtwf=-1. Will skip output of the 1st-order WFK file.
 dfpt_looppert : ek2=    8.0918358359E+01
          f-sum rule ratio=    1.0584859119E+00
 prteigrs : about to open file /scratch/users/j/a/jabreu/flow_simple_remain_atoms/flow/w210/t1/tmpdata/tmp_1WF1_EIG
 Expectation of eigenvalue derivatives (hartree) for nkpt=   2  k points:
  (in case of degenerate eigenvalues, averaged derivative)
 kpt#   1, nband= 35, wtk=  0.50000, kpt=  0.0000  0.0000  0.0000 (reduced coord)
  -0.00000   -0.00000    0.00000    0.00000    0.00000   -0.00000   -0.00000   -0.00000
  -0.00000   -0.00000    0.00000    0.00000    0.00000   -0.00000   -0.00000   -0.00000
   0.00000    0.00000    0.00000    0.00000    0.00000    0.00000    0.00000   -0.00000
   0.00000    0.00000   -0.00000   -0.00000   -0.00000   -0.00000   -0.00000   -0.00000
   0.00000   -0.00000    0.00001
 prteigrs : prtvol=0 or 1, do not print more k-points.

 Eight components of 2nd-order total energy (hartree) are
 1,2,3: 0th-order hamiltonian combined with 1st-order wavefunctions
     kin0=   1.11319509E+02 eigvalue=   1.34846661E+01  local=  -5.51667049E+01
 4,5,6: 1st-order hamiltonian combined with 1st and 0th-order wfs
     kin1=  -8.56509423E+01  Hartree=   0.00000000E+00     xc=   0.00000000E+00
 7,8,9: eventually, occupation + non-local contributions
    edocc=   7.98453080E+00     enl0=   5.45589072E+00   enl1=  -8.05048414E+01
 1-9 gives the relaxation energy (to be shifted if some occ is /=2.0)
   erelax=  -8.30778919E+01
  No Ewald or frozen-wf contrib.: the relaxation energy is the total one
 2DEtotal=   -0.8307789185E+02 Ha. Also 2DEtotal=   -0.226066440554E+04 eV
    (  non-var. 2DEtotal :   -8.3077891855E+01 Ha)

 CALCULATION OF EFFECTIVE MASSES
 NOTE : Additional infos (eff. mass eigenvalues, eigenvectors and, if degenerate, average mass) are available in stdout.

 COMMENTS:
 - At k-point ( 0.000, 0.000, 0.000), bands    25 through    26
   are DEGENERATE (effective mass tensor is therefore not defined).
   See Section IIIB Eqs. (67)-(70) and Appendix E of PRB 93 205147 (2016).
 - Angular average effective mass for Frohlich model is to be averaged over degenerate bands. See later.
 - Associated theta integrals calculated with ntheta=   1000 points.

 K-point ( 0.000, 0.000, 0.000) | band =    25
 Transport equivalent effective mass tensor:
             -0.4201719919             -0.0827161079             -0.4904536751
             -0.0827161079             -0.3341328164             -0.2977419317
             -0.4904536751             -0.2977419317             -2.0493229301
 Transport equivalent effective mass tensor eigenvalues:
             -2.2357928129             -0.2839181000             -0.2839168256
 Angular average effective mass 1/(<1/m>)=  -0.3773307693
 Angular average effective mass for Frohlich model (<m**0.5>)**2=  -0.4457289974
 Effective masses along directions: (cart. coord. / red. coord. -> eff. mass)
    1:   1.000000  0.000000  0.000000 /   0.908004  0.418962  0.000000 ->  -0.2840546336
    2:   0.000000  1.000000  0.000000 /   0.000000  1.000000  0.000000 ->  -0.2694569907
    3:   0.000000  0.000000  1.000000 /   0.545340  0.545340  0.636559 ->  -1.1230170686
    4:   0.577350  0.577350  0.577350 /   0.596547  0.674700  0.434638 ->  -0.6299647824
    5:   0.000000  0.707107  0.707107 /   0.460473  0.706444  0.537496 ->  -0.5418031034
    6:   0.707107  0.000000  0.707107 /   0.679315  0.541814  0.494942 ->  -0.6848579716
    7:   0.707107  0.707107  0.000000 /   0.595627  0.803261  0.000000 ->  -0.2981115765

 K-point ( 0.000, 0.000, 0.000) | band =    26
 Transport equivalent effective mass tensor:
             -1.6761852666             -0.0879155462             -0.5212746564
             -0.0879155462             -1.5847412980             -0.3164541851
             -0.5212746564             -0.3164541851             -3.4077399485
 Transport equivalent effective mass tensor eigenvalues:
             -3.6059262090             -1.5313714755             -1.5313688286
 Angular average effective mass 1/(<1/m>)=  -1.3926330511
 Angular average effective mass for Frohlich model (<m**0.5>)**2=  -1.4605895491
 Effective masses along directions: (cart. coord. / red. coord. -> eff. mass)
    1:   1.000000  0.000000  0.000000 /   0.908004  0.418962  0.000000 ->  -1.2247693228
    2:   0.000000  1.000000  0.000000 /   0.000000  1.000000  0.000000 ->  -1.2693718573
    3:   0.000000  0.000000  1.000000 /   0.545340  0.545340  0.636559 ->  -2.6424969502
    4:   0.577350  0.577350  0.577350 /   0.596547  0.674700  0.434638 ->  -1.4546228594
    5:   0.000000  0.707107  0.707107 /   0.460473  0.706444  0.537496 ->  -2.0941353993
    6:   0.707107  0.000000  0.707107 /   0.679315  0.541814  0.494942 ->  -2.3859096532
    7:   0.707107  0.707107  0.000000 /   0.595627  0.803261  0.000000 ->  -1.1016574636

 Angular average effective mass for Frohlich model, averaged over degenerate bands.
 Value of     (<<m**0.5>>)**2 =     8.800109E-01
 Absolute Value of <<m**0.5>> =     9.380890E-01

 K-point ( 0.500, 0.500, 0.000) | band =    27
 Effective mass tensor:
              0.8605312334              0.2635547253             -0.5749741500
              0.2635547253              0.5863909881             -0.3490529766
             -0.5749741500             -0.3490529766              1.3406922923
 Effective mass tensor eigenvalues:
              0.4263932536              0.4891922385              1.8720290216
 Angular average effective mass 1/(<1/m>)=   0.6093079378
 Angular average effective mass for Frohlich model (<m**0.5>)**2=   0.6709051758
 Effective masses along directions: (cart. coord. / red. coord. -> eff. mass)
    1:   1.000000  0.000000  0.000000 /   0.908004  0.418962  0.000000 ->   0.5877834511
    2:   0.000000  1.000000  0.000000 /   0.000000  1.000000  0.000000 ->   0.4743985560
    3:   0.000000  0.000000  1.000000 /   0.545340  0.545340  0.636559 ->   0.8973601891
    4:   0.577350  0.577350  0.577350 /   0.596547  0.674700  0.434638 ->   0.4870306127
    5:   0.000000  0.707107  0.707107 /   0.460473  0.706444  0.537496 ->   0.5019302090
    6:   0.707107  0.000000  0.707107 /   0.679315  0.541814  0.494942 ->   0.4912330399
    7:   0.707107  0.707107  0.000000 /   0.595627  0.803261  0.000000 ->   0.6606349053

 END OF EFFECTIVE MASSES SECTION

 ---- first-order wavefunction calculations are completed ----

 Total localisation tensor (bohr^2) in cartesian coordinates
  WARNING : still subject to testing - especially symmetries.
      direction              matrix element
   alpha     beta       real part   imaginary part
     1        1       2.0608524551    0.0000000000
     1        2       0.6955448420    0.0000000000
     1        3       4.1241071754    0.0000000000
     2        1       0.6955448420    0.0000000000
     2        2       1.3373748143    0.0000000000
     2        3       2.5036496470    0.0000000000
     3        1       4.1241071754    0.0000000000
     3        2       2.5036496470    0.0000000000
     3        3      14.9704675598    0.0000000000

 respfn : d/dk was computed, but no 2DTE, so no DDB output.

== END DATASET(S) ==============================================================

 -outvars: echo values of variables after computation  --------
            acell      1.0000000000E+00  1.0000000000E+00  1.0000000000E+00 Bohr
              amu      8.54678000E+01  1.38905500E+02  7.89600000E+01
             ecut      5.20000000E+01 Hartree
           etotal     -8.3077891855E+01
            fcart      0.0000000000E+00  0.0000000000E+00  0.0000000000E+00
                       0.0000000000E+00  0.0000000000E+00  0.0000000000E+00
                       0.0000000000E+00  0.0000000000E+00  0.0000000000E+00
                       0.0000000000E+00  0.0000000000E+00  0.0000000000E+00
-          fftalg         512
           irdden           1
           irdwfk           1
           istwfk        1    1
              ixc     -116133
              kpt      0.00000000E+00  0.00000000E+00  0.00000000E+00
                       5.00000000E-01  5.00000000E-01  0.00000000E+00
           kptopt           0
P           mkmem           2
P          mkqmem           2
P          mk1mem           2
            natom           4
            nband          35
           nbdbuf           4
            ngfft         108     108     108
             nkpt           2
            nstep        2000
             nsym          12
           ntypat           3
              occ      2.000000  2.000000  2.000000  2.000000  2.000000  2.000000
                       2.000000  2.000000  2.000000  2.000000  2.000000  2.000000
                       2.000000  2.000000  2.000000  2.000000  2.000000  2.000000
                       2.000000  2.000000  2.000000  2.000000  2.000000  2.000000
                       2.000000  2.000000  0.000000  0.000000  0.000000  0.000000
                       0.000000  0.000000  0.000000  0.000000  0.000000
        optdriver           1
            prtwf          -1
            rfdir           1       1       1
           rfelfd           2
            rprim      8.0289335334E+00  0.0000000000E+00  1.3335012314E+01
                       3.7046313742E+00  7.1231650314E+00  1.3335012314E+01
                       0.0000000000E+00  0.0000000000E+00  1.5565549367E+01
          spgroup         166
           strten      0.0000000000E+00  0.0000000000E+00  0.0000000000E+00
                       0.0000000000E+00  0.0000000000E+00  0.0000000000E+00
           symrel      1  0  0   0  1  0   0  0  1      -1  0  0   0 -1  0   0  0 -1
                       0  1  0   1  0  0   0  0  1       0 -1  0  -1  0  0   0  0 -1
                       0  0  1   1  0  0   0  1  0       0  0 -1  -1  0  0   0 -1  0
                       1  0  0   0  0  1   0  1  0      -1  0  0   0  0 -1   0 -1  0
                       0  1  0   0  0  1   1  0  0       0 -1  0   0  0 -1  -1  0  0
                       0  0  1   0  1  0   1  0  0       0  0 -1   0 -1  0  -1  0  0
           tolwfr      1.00000000E-20
            typat      1  2  3  3
           useylm           1
              wtk        0.50000    0.50000
           xangst      0.0000000000E+00  0.0000000000E+00  0.0000000000E+00
                       3.1045675623E+00  1.8847082938E+00  1.1175051575E+01
                       1.4546078765E+00  8.8305745457E-01  5.2359363146E+00
                       4.7545272481E+00  2.8863591331E+00  1.7114166834E+01
            xcart      0.0000000000E+00  0.0000000000E+00  0.0000000000E+00
                       5.8667824538E+00  3.5615825157E+00  2.1117786997E+01
                       2.7488105173E+00  1.6687367487E+00  9.8944856839E+00
                       8.9847543903E+00  5.4544282827E+00  3.2341088310E+01
             xred      0.0000000000E+00  0.0000000000E+00  0.0000000000E+00
                       5.0000000000E-01  5.0000000000E-01  5.0000000000E-01
                       2.3426900000E-01  2.3426900000E-01  2.3426900000E-01
                       7.6573100000E-01  7.6573100000E-01  7.6573100000E-01
            znucl       37.00000   57.00000   34.00000

- Timing analysis has been suppressed with timopt=0

 Suggested references for the acknowledgment of ABINIT usage.

 Calculation completed.
.Delivered   2 WARNINGs and   7 COMMENTs to log file.