.Version 9.5.2 of ABINIT

 ABINIT is a project of the Universite Catholique de Louvain,
 Corning Inc. and other collaborators, see ~abinit/doc/developers/contributors.txt .
 acknowledgments of the ABINIT effort.

.Starting date : Mon 31 May 2021.
- ( at 22h45 )

- input  file    -> /scratch/users/j/a/jabreu/flow_simple_11atoms/flow/w382/t1/run.abi
- output file    -> /scratch/users/j/a/jabreu/flow_simple_11atoms/flow/w382/t1/run.abo
- root for input  files -> /scratch/users/j/a/jabreu/flow_simple_11atoms/flow/w382/t1/indata/in
- root for output files -> /scratch/users/j/a/jabreu/flow_simple_11atoms/flow/w382/t1/outdata/out

 Symmetries : space group C2/m (# 12); Bravais mC (1-face-center monocl.)
     intxc =       0      iscf =       7    lmnmax =      32     lnmax =       8
     mgfft =      72  mpssoang =       4    mqgrid =    3091     natom =      11
  nloc_mem =       1    nspden =       1   nspinor =       1    nsppol =       1
      nsym =       4    n1xccc =    2501    ntypat =       3    occopt =       1
   xclevel =       2
-    mband =          38        mffmem =           1         mkmem =           2
-   mkqmem =           2        mk1mem =           2           mpw =        9973
      nfft =      259200          nkpt =           2
  Rough estimation (10% accuracy) of disk space for files :

------------- Echo of variables that govern the present computation ------------
-
- outvars: echo of selected default values
-   iomode0 =  0 , fftalg0 =512 , wfoptalg0 =  0
-
- outvars: echo of global parameters not present in the input file
-  max_nthreads =    0
-
 -outvars: echo values of preprocessed input variables --------
            acell      1.0000000000E+00  1.0000000000E+00  1.0000000000E+00 Bohr
              amu      6.94100000E+00  1.80947900E+02  1.59994000E+01
             ecut      4.40000000E+01 Hartree
-          fftalg         512
           irdden           1
           irdwfk           1
           istwfk        0    1
              ixc     -116133
              kpt      2.76767228E-01 -2.76767228E-01  0.00000000E+00
                       0.00000000E+00  0.00000000E+00  0.00000000E+00
           kptopt           0
P           mkmem           2
P          mkqmem           2
P          mk1mem           2
            natom          11
            nband          38
           nbdbuf           4
            ngfft          60      60      72
             nkpt           2
            nstep        2000
             nsym           4
           ntypat           3
              occ      2.000000  2.000000  2.000000  2.000000  2.000000  2.000000
                       2.000000  2.000000  2.000000  2.000000  2.000000  2.000000
                       2.000000  2.000000  2.000000  2.000000  2.000000  2.000000
                       2.000000  2.000000  2.000000  2.000000  2.000000  2.000000
                       2.000000  2.000000  2.000000  2.000000  2.000000  0.000000
                       0.000000  0.000000  0.000000  0.000000  0.000000  0.000000
                       0.000000  0.000000
        optdriver           1
            prtwf          -1
            rfdir           1       1       1
           rfelfd           2
            rprim      9.4495346768E+00  0.0000000000E+00  2.9200875183E+00
                       6.4444038638E+00  6.9111044305E+00  2.9200875183E+00
                       0.0000000000E+00  0.0000000000E+00  1.0920470517E+01
          spgroup          12
           symrel      1  0  0   0  1  0   0  0  1      -1  0  0   0 -1  0   0  0 -1
                       0 -1  0  -1  0  0   0  0 -1       0  1  0   1  0  0   0  0  1
           tolwfr      1.00000000E-20
            typat      1  1  1  1  1  2  3  3  3  3  3
           useylm           1
              wtk        0.50000    0.50000
           xangst      2.4128224400E+00  1.0491589490E+00  2.8826610587E+00
                       2.5942582768E+00  1.1280520448E+00  5.9295586208E+00
                       0.0000000000E+00  0.0000000000E+00  2.8894320524E+00
                       5.8164517537E+00  2.5291469060E+00  2.9397930075E+00
                       5.9978875904E+00  2.6080400018E+00  5.9866905695E+00
                       0.0000000000E+00  0.0000000000E+00  0.0000000000E+00
                       1.2283926107E+00  5.3413756396E-01  1.4541924180E+00
                       1.3190180112E+00  5.7354388266E-01  4.4263742136E+00
                       4.2053550152E+00  1.8285994754E+00  1.5452437618E+00
                       7.0916920192E+00  3.0836550681E+00  4.4429774147E+00
                       7.1823174198E+00  3.1230613868E+00  7.4151592103E+00
            xcart      4.5595736188E+00  1.9826230835E+00  5.4474399349E+00
                       4.9024376610E+00  2.1317094283E+00  1.1205241882E+01
                       0.0000000000E+00  0.0000000000E+00  5.4602352585E+00
                       1.0991500880E+01  4.7793950022E+00  5.5554036716E+00
                       1.1334364922E+01  4.9284813470E+00  1.1313205619E+01
                       0.0000000000E+00  0.0000000000E+00  0.0000000000E+00
                       2.3213256178E+00  1.0093737132E+00  2.7480254145E+00
                       2.4925828056E+00  1.0838408634E+00  8.3646350253E+00
                       7.9469692703E+00  3.4555522153E+00  2.9200875183E+00
                       1.3401355735E+01  5.8272635671E+00  8.3960105284E+00
                       1.3572612923E+01  5.9017307173E+00  1.4012620139E+01
             xred      2.8687500000E-01  2.8687500000E-01  3.4541000000E-01
                       3.0844700000E-01  3.0844700000E-01  8.6112200000E-01
                       0.0000000000E+00  0.0000000000E+00  5.0000000000E-01
                       6.9155300000E-01  6.9155300000E-01  1.3887800000E-01
                       7.1312500000E-01  7.1312500000E-01  6.5459000000E-01
                       0.0000000000E+00  0.0000000000E+00  0.0000000000E+00
                       1.4605100000E-01  1.4605100000E-01  1.7353300000E-01
                       1.5682600000E-01  1.5682600000E-01  6.8209000000E-01
                       5.0000000000E-01  5.0000000000E-01 -2.7755575616E-17
                       8.4317400000E-01  8.4317400000E-01  3.1791000000E-01
                       8.5394900000E-01  8.5394900000E-01  8.2646700000E-01
            znucl        3.00000   73.00000    8.00000

 chkinp: Checking input parameters for consistency.

== DATASET  1 ==================================================================
-   mpi_nproc: 1, omp_nthreads: -1 (-1 if OMP is not activated)

--- !DatasetInfo
iteration_state: {dtset: 1, }
dimensions: {natom: 11, nkpt: 2, mband: 38, nsppol: 1, nspinor: 1, nspden: 1, mpw: 9973, }
cutoff_energies: {ecut:  44.0, pawecutdg:  -1.0, }
electrons: {nelect:   5.80000000E+01, charge:   0.00000000E+00, occopt:   1.00000000E+00, tsmear:   1.00000000E-02, }
meta: {optdriver: 1, rfelfd: 2, }
...

 Real(R)+Recip(G) space primitive vectors, cartesian coordinates (Bohr,Bohr^-1):
 R(1)=  9.4495347  0.0000000  2.9200875  G(1)=  0.1058253 -0.0986790  0.0000000
 R(2)=  6.4444039  6.9111044  2.9200875  G(2)=  0.0000000  0.1446947  0.0000000
 R(3)=  0.0000000  0.0000000 10.9204705  G(3)= -0.0282972 -0.0123044  0.0915711
 Unit cell volume ucvol=  7.1318012E+02 bohr^3
 Angles (23,13,12)=  7.28278475E+01  7.28278475E+01  4.47892910E+01 degrees

 getcut: wavevector=  0.0000  0.0000  0.0000  ngfft=  60  60  72
         ecut(hartree)=     44.000   => boxcut(ratio)=   2.03190

--- Pseudopotential description ------------------------------------------------
- pspini: atom type   1  psp file is /scratch/users/j/a/jabreu/pseudos/PBEsol/Li.psp8
- pspatm: opening atomic psp file    /scratch/users/j/a/jabreu/pseudos/PBEsol/Li.psp8
- Li    ONCVPSP-3.3.0  r_core=   1.40824   1.10935
-  3.00000   3.00000    180112                znucl, zion, pspdat
    8 -116133    1    4       400   0.00000   pspcod,pspxc,lmax,lloc,mmax,r2well
    3.99000000000000    0.00000000000000    0.00000000000000   rchrg,fchrg,qchrg
     nproj     2     2
     extension_switch     1
  pspatm : epsatm=    2.60859637
         --- l  ekb(1:nproj) -->
             0   -4.855856   -1.482423
             1   -2.171544   -0.427615
 pspatm: atomic psp has been read  and splines computed

- pspini: atom type   2  psp file is /scratch/users/j/a/jabreu/pseudos/PBEsol/Ta.psp8
- pspatm: opening atomic psp file    /scratch/users/j/a/jabreu/pseudos/PBEsol/Ta.psp8
- Ta    ONCVPSP-3.3.0  r_core=   1.71294   1.71294   1.71294   2.25368
- 73.00000  13.00000    180112                znucl, zion, pspdat
    8 -116133    3    4       600   0.00000   pspcod,pspxc,lmax,lloc,mmax,r2well
    5.99000000000000    5.00000000000000    0.00000000000000   rchrg,fchrg,qchrg
     nproj     2     2     2     2
     extension_switch     1
  pspatm : epsatm=   21.70781236
         --- l  ekb(1:nproj) -->
             0   11.480337    1.447149
             1    5.630373    0.817168
             2    1.844704    0.232364
             3    4.923559    0.251242
 pspatm: atomic psp has been read  and splines computed

- pspini: atom type   3  psp file is /scratch/users/j/a/jabreu/pseudos/PBEsol/O.psp8
- pspatm: opening atomic psp file    /scratch/users/j/a/jabreu/pseudos/PBEsol/O.psp8
- O     ONCVPSP-3.3.0  r_core=   1.35509   1.45563   1.26150
-  8.00000   6.00000    180112                znucl, zion, pspdat
    8 -116133    2    4       600   0.00000   pspcod,pspxc,lmax,lloc,mmax,r2well
    5.99000000000000    4.00000000000000    0.00000000000000   rchrg,fchrg,qchrg
     nproj     2     2     1
     extension_switch     1
  pspatm : epsatm=    6.22910522
         --- l  ekb(1:nproj) -->
             0    6.050032    0.820363
             1   -4.739617   -1.153841
             2   -1.335834
 pspatm: atomic psp has been read  and splines computed

   3.82198658E+03                                ecore*ucvol(ha*bohr**3)

 ==>  initialize data related to q vector <==

 The list of irreducible perturbations for this q vector is:
    1)    idir= 1    ipert=  12
    2)    idir= 2    ipert=  12
    3)    idir= 3    ipert=  12

 Perturbation wavevector (in red.coord.)   0.000000  0.000000  0.000000
 Perturbation : derivative vs k along direction   1

 dfpt_looppert : COMMENT -
  In a d/dk calculation, iscf is set to -3 automatically.
 The set of symmetries contains only one element for this perturbation.
 symkpt : not enough symmetry to change the number of k points.

 Initialisation of the first-order wave-functions :
  ireadwf=   0

--- !BeginCycle
iteration_state: {dtset: 1, }
solver: {iscf: 7, nstep: 2000, nline: 4, wfoptalg: 0, }
tolerances: {tolwfr: 1.00E-20, }
...

     iter   2DEtotal(Ha)        deltaE(Ha) residm    vres2
-ETOT  1  -52.297662084354     -5.230E+01 1.000E-01 0.000E+00
 ETOT  2  -52.336634330532     -3.897E-02 5.287E-03 0.000E+00
 ETOT  3  -52.336776127677     -1.418E-04 6.723E-04 0.000E+00
 ETOT  4  -52.336777337848     -1.210E-06 7.230E-05 0.000E+00
 ETOT  5  -52.336777351267     -1.342E-08 1.232E-05 0.000E+00
 ETOT  6  -52.336777351434     -1.665E-10 1.337E-06 0.000E+00
 ETOT  7  -52.336777351436     -2.181E-12 2.656E-07 0.000E+00
 ETOT  8  -52.336777351436      2.132E-14 2.847E-08 0.000E+00
 ETOT  9  -52.336777351436     -4.263E-14 6.594E-09 0.000E+00
 ETOT 10  -52.336777351436      4.974E-14 7.231E-10 0.000E+00
 ETOT 11  -52.336777351436      2.842E-14 1.778E-10 0.000E+00
 ETOT 12  -52.336777351436     -1.421E-14 1.985E-11 0.000E+00
 ETOT 13  -52.336777351436     -1.421E-14 4.966E-12 0.000E+00
 ETOT 14  -52.336777351436      1.421E-14 5.622E-13 0.000E+00
 ETOT 15  -52.336777351436      0.000E+00 1.414E-13 0.000E+00
 ETOT 16  -52.336777351436      0.000E+00 1.619E-14 0.000E+00
 ETOT 17  -52.336777351436      0.000E+00 4.077E-15 0.000E+00
 ETOT 18  -52.336777351436     -7.105E-15 4.712E-16 0.000E+00
 ETOT 19  -52.336777351436      1.421E-14 1.185E-16 0.000E+00
 ETOT 20  -52.336777351436     -7.105E-15 1.382E-17 0.000E+00
 ETOT 21  -52.336777351436      7.105E-15 3.469E-18 0.000E+00
 ETOT 22  -52.336777351436     -1.421E-14 4.071E-19 0.000E+00
 ETOT 23  -52.336777351436      1.421E-14 1.020E-19 0.000E+00
 ETOT 24  -52.336777351436      0.000E+00 1.204E-20 0.000E+00
 ETOT 25  -52.336777351436     -1.421E-14 9.963E-21 0.000E+00

 At SCF step   25   max residual=  9.96E-21 < tolwfr=  1.00E-20 =>converged.

 ----iterations are completed or convergence reached----

 dfpt_looppert: DFPT cycle converged with prtwf=-1. Will skip output of the 1st-order WFK file.
 dfpt_looppert : ek2=    9.5878849720E+01
          f-sum rule ratio=    1.0485791589E+00
 prteigrs : about to open file /scratch/users/j/a/jabreu/flow_simple_11atoms/flow/w382/t1/tmpdata/tmp_1WF1_EIG
 Expectation of eigenvalue derivatives (hartree) for nkpt=   2  k points:
  (in case of degenerate eigenvalues, averaged derivative)
 kpt#   1, nband= 38, wtk=  0.50000, kpt=  0.2768 -0.2768  0.0000 (reduced coord)
  -0.00002    0.00001   -0.00281    0.00265   -0.00216    0.00215    0.00367   -0.00010
  -0.00014    0.01192   -0.04682    0.00258   -0.01420   -0.00454    0.11680    0.05966
   0.03096   -0.02852    0.01913    0.03479   -0.03002    0.05102   -0.03025   -0.03045
  -0.00600   -0.03986    0.01439   -0.02917    0.00408   -0.07876    0.01180   -0.09858
  -0.08312   -0.06525   -0.02063    0.23535   -0.00321    0.00663
 prteigrs : prtvol=0 or 1, do not print more k-points.

 Eight components of 2nd-order total energy (hartree) are
 1,2,3: 0th-order hamiltonian combined with 1st-order wavefunctions
     kin0=   6.16336983E+01 eigvalue=   4.12057991E+00  local=  -2.41380703E+01
 4,5,6: 1st-order hamiltonian combined with 1st and 0th-order wfs
     kin1=  -1.00536564E+02  Hartree=   0.00000000E+00     xc=   0.00000000E+00
 7,8,9: eventually, occupation + non-local contributions
    edocc=   1.38388388E+01     enl0=  -3.11826933E+00   enl1=  -4.13699111E+00
 1-9 gives the relaxation energy (to be shifted if some occ is /=2.0)
   erelax=  -5.23367774E+01
  No Ewald or frozen-wf contrib.: the relaxation energy is the total one
 2DEtotal=   -0.5233677735E+02 Ha. Also 2DEtotal=   -0.142415613851E+04 eV
    (  non-var. 2DEtotal :   -5.2336777351E+01 Ha)

 Perturbation wavevector (in red.coord.)   0.000000  0.000000  0.000000
 Perturbation : derivative vs k along direction   2
 The set of symmetries contains only one element for this perturbation.
 symkpt : not enough symmetry to change the number of k points.

[...]

 Perturbation wavevector (in red.coord.)   0.000000  0.000000  0.000000
 Perturbation : derivative vs k along direction   3
 The set of symmetries contains only one element for this perturbation.
 symkpt : not enough symmetry to change the number of k points.

 Initialisation of the first-order wave-functions :
  ireadwf=   0

--- !BeginCycle
iteration_state: {dtset: 1, }
solver: {iscf: 7, nstep: 2000, nline: 4, wfoptalg: 0, }
tolerances: {tolwfr: 1.00E-20, }
...

     iter   2DEtotal(Ha)        deltaE(Ha) residm    vres2
-ETOT  1  -23.506368256807     -2.351E+01 4.453E-02 0.000E+00
 ETOT  2  -23.532320783093     -2.595E-02 7.018E-04 0.000E+00
 ETOT  3  -23.532480154615     -1.594E-04 7.171E-06 0.000E+00
 ETOT  4  -23.532481839617     -1.685E-06 3.802E-07 0.000E+00
 ETOT  5  -23.532481861809     -2.219E-08 1.445E-08 0.000E+00
 ETOT  6  -23.532481862120     -3.113E-10 1.540E-09 0.000E+00
 ETOT  7  -23.532481862125     -4.526E-12 6.948E-11 0.000E+00
 ETOT  8  -23.532481862125     -5.684E-14 1.071E-11 0.000E+00
 ETOT  9  -23.532481862125      0.000E+00 1.510E-12 0.000E+00
 ETOT 10  -23.532481862125     -3.553E-15 2.764E-13 0.000E+00
 ETOT 11  -23.532481862125      0.000E+00 3.842E-14 0.000E+00
 ETOT 12  -23.532481862125      0.000E+00 7.226E-15 0.000E+00
 ETOT 13  -23.532481862125     -3.553E-15 9.953E-16 0.000E+00
 ETOT 14  -23.532481862125      0.000E+00 1.905E-16 0.000E+00
 ETOT 15  -23.532481862125      0.000E+00 2.609E-17 0.000E+00
 ETOT 16  -23.532481862125      0.000E+00 5.057E-18 0.000E+00
 ETOT 17  -23.532481862125      1.066E-14 6.896E-19 0.000E+00
 ETOT 18  -23.532481862125      0.000E+00 1.350E-19 0.000E+00
 ETOT 19  -23.532481862125     -7.105E-15 1.834E-20 0.000E+00
 ETOT 20  -23.532481862125      0.000E+00 9.918E-21 0.000E+00

 At SCF step   20   max residual=  9.92E-21 < tolwfr=  1.00E-20 =>converged.

 ----iterations are completed or convergence reached----

 dfpt_looppert: DFPT cycle converged with prtwf=-1. Will skip output of the 1st-order WFK file.
 dfpt_looppert : ek2=    4.2760620277E+01
          f-sum rule ratio=    1.0588008116E+00
 prteigrs : about to open file /scratch/users/j/a/jabreu/flow_simple_11atoms/flow/w382/t1/tmpdata/tmp_1WF1_EIG
 Expectation of eigenvalue derivatives (hartree) for nkpt=   2  k points:
  (in case of degenerate eigenvalues, averaged derivative)
 kpt#   1, nband= 38, wtk=  0.50000, kpt=  0.2768 -0.2768  0.0000 (reduced coord)
  -0.00000    0.00000    0.00000   -0.00000    0.00000    0.00000    0.00000    0.00000
  -0.00000    0.00000   -0.00000   -0.00000   -0.00000   -0.00000    0.00000    0.00000
   0.00000   -0.00000   -0.00000   -0.00000    0.00000    0.00000   -0.00000    0.00000
   0.00000    0.00000    0.00000   -0.00000   -0.00000   -0.00000    0.00000   -0.00000
   0.00000   -0.00000   -0.00000    0.00000    0.00000   -0.01113
 prteigrs : prtvol=0 or 1, do not print more k-points.

 Eight components of 2nd-order total energy (hartree) are
 1,2,3: 0th-order hamiltonian combined with 1st-order wavefunctions
     kin0=   3.00762112E+01 eigvalue=   1.76176254E+00  local=  -1.29514416E+01
 4,5,6: 1st-order hamiltonian combined with 1st and 0th-order wfs
     kin1=  -4.52749795E+01  Hartree=   0.00000000E+00     xc=   0.00000000E+00
 7,8,9: eventually, occupation + non-local contributions
    edocc=   5.90520066E+00     enl0=  -1.25925101E+00   enl1=  -1.78998427E+00
 1-9 gives the relaxation energy (to be shifted if some occ is /=2.0)
   erelax=  -2.35324819E+01
  No Ewald or frozen-wf contrib.: the relaxation energy is the total one
 2DEtotal=   -0.2353248186E+02 Ha. Also 2DEtotal=   -0.640351397129E+03 eV
    (  non-var. 2DEtotal :   -2.3532481862E+01 Ha)

 CALCULATION OF EFFECTIVE MASSES
 NOTE : Additional infos (eff. mass eigenvalues, eigenvectors and, if degenerate, average mass) are available in stdout.

 K-point ( 0.277,-0.277, 0.000) | band =    29
 Effective mass tensor:
             -5.9412202074             -1.9917172781             -5.6142279199
             -1.9917172781             -2.2291381681             -2.4430923580
             -5.6142279199             -2.4430923580             -7.7680983263
 Effective mass tensor eigenvalues:
            -13.4294414068             -1.3627134792             -1.1463018158
 Angular average effective mass 1/(<1/m>)=  -1.7850089578
 Angular average effective mass for Frohlich model (<m**0.5>)**2=  -2.1883398815
 Effective masses along directions: (cart. coord. / red. coord. -> eff. mass)
    1:   1.000000  0.000000  0.000000 /   0.826165  0.563429  0.000000 ->  -1.8486839017
    2:   0.000000  1.000000  0.000000 /   0.000000  1.000000  0.000000 ->  -1.4336564617
    3:   0.000000  0.000000  1.000000 /   0.250110  0.250110  0.935355 ->  -2.2613112177
    4:   0.577350  0.577350  0.577350 /   0.533709  0.702240  0.471183 ->  -6.4340575632
    5:   0.000000  0.707107  0.707107 /   0.194917  0.656236  0.728946 ->  -2.4331622690
    6:   0.707107  0.000000  0.707107 /   0.651974  0.493581  0.575593 ->  -7.8768745170
    7:   0.707107  0.707107  0.000000 /   0.577585  0.816330  0.000000 ->  -1.8673278859

 K-point ( 0.000, 0.000, 0.000) | band =    30
 Effective mass tensor:
              2.7148775903              0.9603722802              2.0998911337
              0.9603722802              0.9238394704              0.9130883345
              2.0998911337              0.9130883345              3.2317603079
 Effective mass tensor eigenvalues:
              0.5062441776              0.8917590736              5.4724741174
 Angular average effective mass 1/(<1/m>)=   0.9147894431
 Angular average effective mass for Frohlich model (<m**0.5>)**2=   1.1142971422
 Effective masses along directions: (cart. coord. / red. coord. -> eff. mass)
    1:   1.000000  0.000000  0.000000 /   0.826165  0.563429  0.000000 ->   1.1480735955
    2:   0.000000  1.000000  0.000000 /   0.000000  1.000000  0.000000 ->   0.5660797345
    3:   0.000000  0.000000  1.000000 /   0.250110  0.250110  0.935355 ->   1.5579156249
    4:   0.577350  0.577350  0.577350 /   0.533709  0.702240  0.471183 ->   2.7668023044
    5:   0.000000  0.707107  0.707107 /   0.194917  0.656236  0.728946 ->   0.9831816637
    6:   0.707107  0.000000  0.707107 /   0.651974  0.493581  0.575593 ->   3.0659837575
    7:   0.707107  0.707107  0.000000 /   0.577585  0.816330  0.000000 ->   1.1924663799

 END OF EFFECTIVE MASSES SECTION

 ---- first-order wavefunction calculations are completed ----

 Total localisation tensor (bohr^2) in cartesian coordinates
  WARNING : still subject to testing - especially symmetries.
      direction              matrix element
   alpha     beta       real part   imaginary part
     1        1       1.9208699718    0.0000000000
     1        2       0.6539520972    0.0000000000
     1        3       0.6814570278    0.0000000000
     2        1       0.6539520972    0.0000000000
     2        2       0.7013109873    0.0000000000
     2        3       0.2963186971    0.0000000000
     3        1       0.6814570278    0.0000000000
     3        2       0.2963186971    0.0000000000
     3        3       1.0797081632    0.0000000000

 respfn : d/dk was computed, but no 2DTE, so no DDB output.

== END DATASET(S) ==============================================================

 -outvars: echo values of variables after computation  --------
            acell      1.0000000000E+00  1.0000000000E+00  1.0000000000E+00 Bohr
              amu      6.94100000E+00  1.80947900E+02  1.59994000E+01
             ecut      4.40000000E+01 Hartree
           etotal     -2.3532481862E+01
            fcart      0.0000000000E+00  0.0000000000E+00  0.0000000000E+00
                       0.0000000000E+00  0.0000000000E+00  0.0000000000E+00
                       0.0000000000E+00  0.0000000000E+00  0.0000000000E+00
                       0.0000000000E+00  0.0000000000E+00  0.0000000000E+00
                       0.0000000000E+00  0.0000000000E+00  0.0000000000E+00
                       0.0000000000E+00  0.0000000000E+00  0.0000000000E+00
                       0.0000000000E+00  0.0000000000E+00  0.0000000000E+00
                       0.0000000000E+00  0.0000000000E+00  0.0000000000E+00
                       0.0000000000E+00  0.0000000000E+00  0.0000000000E+00
                       0.0000000000E+00  0.0000000000E+00  0.0000000000E+00
                       0.0000000000E+00  0.0000000000E+00  0.0000000000E+00
-          fftalg         512
           irdden           1
           irdwfk           1
           istwfk        0    1
              ixc     -116133
              kpt      2.76767228E-01 -2.76767228E-01  0.00000000E+00
                       0.00000000E+00  0.00000000E+00  0.00000000E+00
           kptopt           0
P           mkmem           2
P          mkqmem           2
P          mk1mem           2
            natom          11
            nband          38
           nbdbuf           4
            ngfft          60      60      72
             nkpt           2
            nstep        2000
             nsym           4
           ntypat           3
              occ      2.000000  2.000000  2.000000  2.000000  2.000000  2.000000
                       2.000000  2.000000  2.000000  2.000000  2.000000  2.000000
                       2.000000  2.000000  2.000000  2.000000  2.000000  2.000000
                       2.000000  2.000000  2.000000  2.000000  2.000000  2.000000
                       2.000000  2.000000  2.000000  2.000000  2.000000  0.000000
                       0.000000  0.000000  0.000000  0.000000  0.000000  0.000000
                       0.000000  0.000000
        optdriver           1
            prtwf          -1
            rfdir           1       1       1
           rfelfd           2
            rprim      9.4495346768E+00  0.0000000000E+00  2.9200875183E+00
                       6.4444038638E+00  6.9111044305E+00  2.9200875183E+00
                       0.0000000000E+00  0.0000000000E+00  1.0920470517E+01
          spgroup          12
           strten      0.0000000000E+00  0.0000000000E+00  0.0000000000E+00
                       0.0000000000E+00  0.0000000000E+00  0.0000000000E+00
           symrel      1  0  0   0  1  0   0  0  1      -1  0  0   0 -1  0   0  0 -1
                       0 -1  0  -1  0  0   0  0 -1       0  1  0   1  0  0   0  0  1
           tolwfr      1.00000000E-20
            typat      1  1  1  1  1  2  3  3  3  3  3
           useylm           1
              wtk        0.50000    0.50000
           xangst      2.4128224400E+00  1.0491589490E+00  2.8826610587E+00
                       2.5942582768E+00  1.1280520448E+00  5.9295586208E+00
                       0.0000000000E+00  0.0000000000E+00  2.8894320524E+00
                       5.8164517537E+00  2.5291469060E+00  2.9397930075E+00
                       5.9978875904E+00  2.6080400018E+00  5.9866905695E+00
                       0.0000000000E+00  0.0000000000E+00  0.0000000000E+00
                       1.2283926107E+00  5.3413756396E-01  1.4541924180E+00
                       1.3190180112E+00  5.7354388266E-01  4.4263742136E+00
                       4.2053550152E+00  1.8285994754E+00  1.5452437618E+00
                       7.0916920192E+00  3.0836550681E+00  4.4429774147E+00
                       7.1823174198E+00  3.1230613868E+00  7.4151592103E+00
            xcart      4.5595736188E+00  1.9826230835E+00  5.4474399349E+00
                       4.9024376610E+00  2.1317094283E+00  1.1205241882E+01
                       0.0000000000E+00  0.0000000000E+00  5.4602352585E+00
                       1.0991500880E+01  4.7793950022E+00  5.5554036716E+00
                       1.1334364922E+01  4.9284813470E+00  1.1313205619E+01
                       0.0000000000E+00  0.0000000000E+00  0.0000000000E+00
                       2.3213256178E+00  1.0093737132E+00  2.7480254145E+00
                       2.4925828056E+00  1.0838408634E+00  8.3646350253E+00
                       7.9469692703E+00  3.4555522153E+00  2.9200875183E+00
                       1.3401355735E+01  5.8272635671E+00  8.3960105284E+00
                       1.3572612923E+01  5.9017307173E+00  1.4012620139E+01
             xred      2.8687500000E-01  2.8687500000E-01  3.4541000000E-01
                       3.0844700000E-01  3.0844700000E-01  8.6112200000E-01
                       0.0000000000E+00  0.0000000000E+00  5.0000000000E-01
                       6.9155300000E-01  6.9155300000E-01  1.3887800000E-01
                       7.1312500000E-01  7.1312500000E-01  6.5459000000E-01
                       0.0000000000E+00  0.0000000000E+00  0.0000000000E+00
                       1.4605100000E-01  1.4605100000E-01  1.7353300000E-01
                       1.5682600000E-01  1.5682600000E-01  6.8209000000E-01
                       5.0000000000E-01  5.0000000000E-01 -2.7755575616E-17
                       8.4317400000E-01  8.4317400000E-01  3.1791000000E-01
                       8.5394900000E-01  8.5394900000E-01  8.2646700000E-01
            znucl        3.00000   73.00000    8.00000

- Timing analysis has been suppressed with timopt=0

 Suggested references for the acknowledgment of ABINIT usage.

 Calculation completed.
.Delivered   2 WARNINGs and   5 COMMENTs to log file.