.Version 9.5.1 of ABINIT

 ABINIT is a project of the Universite Catholique de Louvain,
 Corning Inc. and other collaborators, see ~abinit/doc/developers/contributors.txt .
 acknowledgments of the ABINIT effort.

.Starting date : Tue 11 May 2021.
- ( at 21h37 )

- input  file    -> /scratch/users/j/a/jabreu/flow_simple_8atoms/flow/w331/t1/run.abi
- output file    -> /scratch/users/j/a/jabreu/flow_simple_8atoms/flow/w331/t1/run.abo
- root for input  files -> /scratch/users/j/a/jabreu/flow_simple_8atoms/flow/w331/t1/indata/in
- root for output files -> /scratch/users/j/a/jabreu/flow_simple_8atoms/flow/w331/t1/outdata/out

 Symmetries : space group R-3 (#148); Bravais hR (rhombohedral)
     intxc =       0      iscf =       7    lmnmax =      18     lnmax =       6
     mgfft =      64  mpssoang =       3    mqgrid =    3001     natom =       8
  nloc_mem =       1    nspden =       1   nspinor =       1    nsppol =       1
      nsym =       6    n1xccc =    2501    ntypat =       3    occopt =       1
   xclevel =       2
-    mband =          44        mffmem =           1         mkmem =           1
-   mkqmem =           1        mk1mem =           1           mpw =       10210
      nfft =      262144          nkpt =           1
  Rough estimation (10% accuracy) of disk space for files :

------------- Echo of variables that govern the present computation ------------
-
- outvars: echo of selected default values
-   iomode0 =  0 , fftalg0 =512 , wfoptalg0 =  0
-
- outvars: echo of global parameters not present in the input file
-  max_nthreads =    0
-
 -outvars: echo values of preprocessed input variables --------
            acell      1.0000000000E+00  1.0000000000E+00  1.0000000000E+00 Bohr
              amu      4.00780000E+01  1.06420000E+02  1.89984032E+01
             ecut      4.20000000E+01 Hartree
-          fftalg         512
           irdden           1
           irdwfk           1
           istwfk        1
              ixc     -116133
              kpt      5.00000000E-01  5.00000000E-01  0.00000000E+00
           kptopt           0
P           mkmem           1
P          mkqmem           1
P          mk1mem           1
            natom           8
            nband          44
           nbdbuf           4
            ngfft          64      64      64
             nkpt           1
            nstep        2000
             nsym           6
           ntypat           3
              occ      2.000000  2.000000  2.000000  2.000000  2.000000  2.000000
                       2.000000  2.000000  2.000000  2.000000  2.000000  2.000000
                       2.000000  2.000000  2.000000  2.000000  2.000000  2.000000
                       2.000000  2.000000  2.000000  2.000000  2.000000  2.000000
                       2.000000  2.000000  2.000000  2.000000  2.000000  2.000000
                       2.000000  2.000000  2.000000  2.000000  2.000000  0.000000
                       0.000000  0.000000  0.000000  0.000000  0.000000  0.000000
                       0.000000  0.000000
        optdriver           1
            prtwf          -1
            rfdir           1       1       1
           rfelfd           2
            rprim      8.8519227097E+00  0.0000000000E+00  6.1694639944E+00
                       3.2201728843E+00  8.2454243222E+00  6.1694639944E+00
                       0.0000000000E+00  0.0000000000E+00  1.0789755402E+01
          spgroup         148
           symrel      1  0  0   0  1  0   0  0  1      -1  0  0   0 -1  0   0  0 -1
                       0  0  1   1  0  0   0  1  0       0  0 -1  -1  0  0   0 -1  0
                       0  1  0   0  0  1   1  0  0       0 -1  0   0  0 -1  -1  0  0
           tolwfr      1.00000000E-20
            typat      1  2  3  3  3  3  3  3
           useylm           1
           xangst      3.1941389241E+00  2.1816453132E+00  6.1195860576E+00
                       0.0000000000E+00  0.0000000000E+00  0.0000000000E+00
                       4.2765731541E+00  1.6011749447E+00  4.2261855175E+00
                       1.8632062559E+00  3.6937436798E-01  5.9249901433E+00
                       4.6634739524E+00  9.6221030211E-01  7.3227519417E+00
                       4.5250715924E+00  3.9939162585E+00  6.3141819718E+00
                       2.1117046941E+00  2.7621156817E+00  8.0129865977E+00
                       1.7248038959E+00  3.4010803244E+00  4.9164201735E+00
            xcart      6.0360477970E+00  4.1227121611E+00  1.1564341695E+01
                       0.0000000000E+00  0.0000000000E+00  0.0000000000E+00
                       8.0815520486E+00  3.0257821364E+00  7.9863332148E+00
                       3.5209495527E+00  6.9801639600E-01  1.1196608711E+01
                       8.8126885978E+00  1.8183139532E+00  1.3837995709E+01
                       8.5511460413E+00  7.5474079262E+00  1.1932074680E+01
                       3.9905435454E+00  5.2196421858E+00  1.5142350176E+01
                       3.2594069962E+00  6.4271103690E+00  9.2906876821E+00
             xred      5.0000000000E-01  5.0000000000E-01  5.0000000000E-01
                       0.0000000000E+00  0.0000000000E+00  0.0000000000E+00
                       7.7947600000E-01  3.6696500000E-01  8.4655000000E-02
                       3.6696500000E-01  8.4655000000E-02  7.7947600000E-01
                       9.1534500000E-01  2.2052400000E-01  6.3303500000E-01
                       6.3303500000E-01  9.1534500000E-01  2.2052400000E-01
                       2.2052400000E-01  6.3303500000E-01  9.1534500000E-01
                       8.4655000000E-02  7.7947600000E-01  3.6696500000E-01
            znucl       20.00000   46.00000    9.00000

 chkinp: Checking input parameters for consistency.

== DATASET  1 ==================================================================
-   mpi_nproc: 1, omp_nthreads: -1 (-1 if OMP is not activated)

--- !DatasetInfo
iteration_state: {dtset: 1, }
dimensions: {natom: 8, nkpt: 1, mband: 44, nsppol: 1, nspinor: 1, nspden: 1, mpw: 10210, }
cutoff_energies: {ecut:  42.0, pawecutdg:  -1.0, }
electrons: {nelect:   7.00000000E+01, charge:   0.00000000E+00, occopt:   1.00000000E+00, tsmear:   1.00000000E-02, }
meta: {optdriver: 1, rfelfd: 2, }
...

 Real(R)+Recip(G) space primitive vectors, cartesian coordinates (Bohr,Bohr^-1):
 R(1)=  8.8519227  0.0000000  6.1694640  G(1)=  0.1129698 -0.0441193  0.0000000
 R(2)=  3.2201729  8.2454243  6.1694640  G(2)=  0.0000000  0.1212794  0.0000000
 R(3)=  0.0000000  0.0000000 10.7897554  G(3)= -0.0645949 -0.0441193  0.0926805
 Unit cell volume ucvol=  7.8752114E+02 bohr^3
 Angles (23,13,12)=  5.51249239E+01  5.51249239E+01  5.51249239E+01 degrees

 getcut: wavevector=  0.0000  0.0000  0.0000  ngfft=  64  64  64
         ecut(hartree)=     42.000   => boxcut(ratio)=   2.03338

--- Pseudopotential description ------------------------------------------------
- pspini: atom type   1  psp file is /scratch/users/j/a/jabreu/pseudos/PBEsol/Ca.psp8
- pspatm: opening atomic psp file    /scratch/users/j/a/jabreu/pseudos/PBEsol/Ca.psp8
- Ca    ONCVPSP-3.3.0  r_core=   1.45885   1.45885   1.85192
- 20.00000  10.00000    180112                znucl, zion, pspdat
    8 -116133    2    4       400   0.00000   pspcod,pspxc,lmax,lloc,mmax,r2well
    3.99000000000000    6.00000000000000    0.00000000000000   rchrg,fchrg,qchrg
     nproj     2     2     2
     extension_switch     1
  pspatm : epsatm=   12.46045226
         --- l  ekb(1:nproj) -->
             0   10.054847    0.973777
             1    2.998958    0.458102
             2   -3.447298   -1.091650
 pspatm: atomic psp has been read  and splines computed

- pspini: atom type   2  psp file is /scratch/users/j/a/jabreu/pseudos/PBEsol/Pd.psp8
- pspatm: opening atomic psp file    /scratch/users/j/a/jabreu/pseudos/PBEsol/Pd.psp8
- Pd    ONCVPSP-3.3.0  r_core=   1.41052   1.46191   1.55175
- 46.00000  18.00000    180112                znucl, zion, pspdat
    8 -116133    2    4       600   0.00000   pspcod,pspxc,lmax,lloc,mmax,r2well
    5.99000000000000    7.00000000000000    0.00000000000000   rchrg,fchrg,qchrg
     nproj     2     2     2
     extension_switch     1
  pspatm : epsatm=   26.17262427
         --- l  ekb(1:nproj) -->
             0    7.952303   -2.096627
             1    3.304793   -0.572651
             2   -1.185452   -0.410427
 pspatm: atomic psp has been read  and splines computed

- pspini: atom type   3  psp file is /scratch/users/j/a/jabreu/pseudos/PBEsol/F.psp8
- pspatm: opening atomic psp file    /scratch/users/j/a/jabreu/pseudos/PBEsol/F.psp8
- F     ONCVPSP-3.3.0  r_core=   1.30942   1.45782   1.60379
-  9.00000   7.00000    180112                znucl, zion, pspdat
    8 -116133    2    4       600   0.00000   pspcod,pspxc,lmax,lloc,mmax,r2well
    5.99000000000000    2.50000000000000    0.00000000000000   rchrg,fchrg,qchrg
     nproj     2     2     1
     extension_switch     1
  pspatm : epsatm=    4.89824824
         --- l  ekb(1:nproj) -->
             0    6.506434    1.065875
             1   -3.978753   -1.295852
             2   -2.394754
 pspatm: atomic psp has been read  and splines computed

   4.76157962E+03                                ecore*ucvol(ha*bohr**3)

-inwffil : will read wavefunctions from disk file /scratch/users/j/a/jabreu/flow_simple_8atoms/flow/w331/t1/indata/in_WFK

 ==>  initialize data related to q vector <==

 The list of irreducible perturbations for this q vector is:
    1)    idir= 1    ipert=   9
    2)    idir= 2    ipert=   9
    3)    idir= 3    ipert=   9

 Perturbation wavevector (in red.coord.)   0.000000  0.000000  0.000000
 Perturbation : derivative vs k along direction   1

 dfpt_looppert : COMMENT -
  In a d/dk calculation, iscf is set to -3 automatically.
 The set of symmetries contains only one element for this perturbation.
 symkpt : not enough symmetry to change the number of k points.

[...]

 Initialisation of the first-order wave-functions :
  ireadwf=   0

--- !BeginCycle
iteration_state: {dtset: 1, }
solver: {iscf: 7, nstep: 2000, nline: 4, wfoptalg: 0, }
tolerances: {tolwfr: 1.00E-20, }
...

     iter   2DEtotal(Ha)        deltaE(Ha) residm    vres2
-ETOT  1  -41.593624885660     -4.159E+01 1.922E-02 0.000E+00
 ETOT  2  -41.624953790370     -3.133E-02 2.047E-03 0.000E+00
 ETOT  3  -41.625040040593     -8.625E-05 3.242E-05 0.000E+00
 ETOT  4  -41.625040444986     -4.044E-07 4.510E-06 0.000E+00
 ETOT  5  -41.625040447521     -2.535E-09 1.209E-07 0.000E+00
 ETOT  6  -41.625040447544     -2.218E-11 2.366E-08 0.000E+00
 ETOT  7  -41.625040447544     -2.345E-13 5.153E-10 0.000E+00
 ETOT  8  -41.625040447544      2.132E-14 1.037E-10 0.000E+00
 ETOT  9  -41.625040447544     -7.105E-15 2.791E-12 0.000E+00
 ETOT 10  -41.625040447544      0.000E+00 5.397E-13 0.000E+00
 ETOT 11  -41.625040447544      0.000E+00 1.588E-14 0.000E+00
 ETOT 12  -41.625040447544      0.000E+00 3.084E-15 0.000E+00
 ETOT 13  -41.625040447544      0.000E+00 9.221E-17 0.000E+00
 ETOT 14  -41.625040447544      0.000E+00 1.826E-17 0.000E+00
 ETOT 15  -41.625040447544      7.105E-15 5.444E-19 0.000E+00
 ETOT 16  -41.625040447544      0.000E+00 1.102E-19 0.000E+00
 ETOT 17  -41.625040447544     -7.105E-15 9.880E-21 0.000E+00

 At SCF step   17   max residual=  9.88E-21 < tolwfr=  1.00E-20 =>converged.

 ----iterations are completed or convergence reached----

 dfpt_looppert: DFPT cycle converged with prtwf=-1. Will skip output of the 1st-order WFK file.
 dfpt_looppert : ek2=    8.1294610080E+01
          f-sum rule ratio=    1.0064568874E+00
 prteigrs : about to open file /scratch/users/j/a/jabreu/flow_simple_8atoms/flow/w331/t1/tmpdata/tmp_1WF1_EIG
 Expectation of eigenvalue derivatives (hartree) for nkpt=   1  k points:
  (in case of degenerate eigenvalues, averaged derivative)
 kpt#   1, nband= 44, wtk=  1.00000, kpt=  0.5000  0.5000  0.0000 (reduced coord)
  -0.00000   -0.00000    0.00000    0.00000    0.00000    0.00000    0.00000    0.00000
  -0.00000    0.00000    0.00000    0.00000    0.00000    0.00000   -0.00000    0.00000
  -0.00000    0.00000   -0.00000    0.00000   -0.00000    0.00000   -0.00000    0.00000
   0.00000    0.00000   -0.00000   -0.00000   -0.00000   -0.00000    0.00000    0.00000
  -0.00000    0.00000    0.00000   -0.00000    0.00000   -0.00000    0.00000    0.00000
  -0.00000   -0.00000    0.00000    0.00001

 Eight components of 2nd-order total energy (hartree) are
 1,2,3: 0th-order hamiltonian combined with 1st-order wavefunctions
     kin0=   5.79309341E+01 eigvalue=   2.97200629E+00  local=  -2.64692304E+01
 4,5,6: 1st-order hamiltonian combined with 1st and 0th-order wfs
     kin1=  -8.18195202E+01  Hartree=   0.00000000E+00     xc=   0.00000000E+00
 7,8,9: eventually, occupation + non-local contributions
    edocc=   6.86648089E+00     enl0=   3.24849495E-01   enl1=  -1.43056067E+00
 1-9 gives the relaxation energy (to be shifted if some occ is /=2.0)
   erelax=  -4.16250404E+01
  No Ewald or frozen-wf contrib.: the relaxation energy is the total one
 2DEtotal=   -0.4162504045E+02 Ha. Also 2DEtotal=   -0.113267495381E+04 eV
    (  non-var. 2DEtotal :   -4.1625040447E+01 Ha)

 Perturbation wavevector (in red.coord.)   0.000000  0.000000  0.000000
 Perturbation : derivative vs k along direction   2
 The set of symmetries contains only one element for this perturbation.
 symkpt : not enough symmetry to change the number of k points.

[...]

 Perturbation wavevector (in red.coord.)   0.000000  0.000000  0.000000
 Perturbation : derivative vs k along direction   3
 The set of symmetries contains only one element for this perturbation.
 symkpt : not enough symmetry to change the number of k points.

-inwffil : will read wavefunctions from disk file /scratch/users/j/a/jabreu/flow_simple_8atoms/flow/w331/t1/indata/in_WFK

 Initialisation of the first-order wave-functions :
  ireadwf=   0

--- !BeginCycle
iteration_state: {dtset: 1, }
solver: {iscf: 7, nstep: 2000, nline: 4, wfoptalg: 0, }
tolerances: {tolwfr: 1.00E-20, }
...

     iter   2DEtotal(Ha)        deltaE(Ha) residm    vres2
-ETOT  1  -41.644308539381     -4.164E+01 2.091E-02 0.000E+00
 ETOT  2  -41.673000711735     -2.869E-02 1.003E-03 0.000E+00
 ETOT  3  -41.673068665284     -6.795E-05 2.244E-05 0.000E+00
 ETOT  4  -41.673068953478     -2.882E-07 1.725E-06 0.000E+00
 ETOT  5  -41.673068955201     -1.723E-09 8.032E-08 0.000E+00
 ETOT  6  -41.673068955216     -1.514E-11 7.057E-09 0.000E+00
 ETOT  7  -41.673068955216     -1.563E-13 3.200E-10 0.000E+00
 ETOT  8  -41.673068955216     -2.132E-14 4.078E-11 0.000E+00
 ETOT  9  -41.673068955216      5.684E-14 2.053E-12 0.000E+00
 ETOT 10  -41.673068955216     -4.974E-14 2.806E-13 0.000E+00
 ETOT 11  -41.673068955216      0.000E+00 1.479E-14 0.000E+00
 ETOT 12  -41.673068955216      0.000E+00 2.000E-15 0.000E+00
 ETOT 13  -41.673068955216      7.105E-15 1.091E-16 0.000E+00
 ETOT 14  -41.673068955216     -7.105E-15 1.455E-17 0.000E+00
 ETOT 15  -41.673068955216      7.105E-15 8.130E-19 0.000E+00
 ETOT 16  -41.673068955216      1.421E-14 1.078E-19 0.000E+00
 ETOT 17  -41.673068955216      0.000E+00 9.539E-21 0.000E+00

 At SCF step   17   max residual=  9.54E-21 < tolwfr=  1.00E-20 =>converged.

 ----iterations are completed or convergence reached----

 dfpt_looppert: DFPT cycle converged with prtwf=-1. Will skip output of the 1st-order WFK file.
 dfpt_looppert : ek2=    8.1294610079E+01
          f-sum rule ratio=    1.0080606373E+00
 prteigrs : about to open file /scratch/users/j/a/jabreu/flow_simple_8atoms/flow/w331/t1/tmpdata/tmp_1WF1_EIG
 Expectation of eigenvalue derivatives (hartree) for nkpt=   1  k points:
  (in case of degenerate eigenvalues, averaged derivative)
 kpt#   1, nband= 44, wtk=  1.00000, kpt=  0.5000  0.5000  0.0000 (reduced coord)
   0.00000   -0.00000   -0.00000   -0.00000    0.00000    0.00000   -0.00000   -0.00000
   0.00000   -0.00000   -0.00000    0.00000   -0.00000    0.00000    0.00000    0.00000
   0.00000   -0.00000   -0.00000   -0.00000   -0.00000    0.00000    0.00000   -0.00000
   0.00000    0.00000   -0.00000    0.00000   -0.00000    0.00000   -0.00000   -0.00000
  -0.00000    0.00000   -0.00000    0.00000   -0.00000    0.00000   -0.00000   -0.00000
  -0.00000    0.00000    0.00000   -0.00004

 Eight components of 2nd-order total energy (hartree) are
 1,2,3: 0th-order hamiltonian combined with 1st-order wavefunctions
     kin0=   5.75518817E+01 eigvalue=   2.96017075E+00  local=  -2.62004636E+01
 4,5,6: 1st-order hamiltonian combined with 1st and 0th-order wfs
     kin1=  -8.19498964E+01  Hartree=   0.00000000E+00     xc=   0.00000000E+00
 7,8,9: eventually, occupation + non-local contributions
    edocc=   7.00093877E+00     enl0=   3.60541393E-01   enl1=  -1.39624146E+00
 1-9 gives the relaxation energy (to be shifted if some occ is /=2.0)
   erelax=  -4.16730690E+01
  No Ewald or frozen-wf contrib.: the relaxation energy is the total one
 2DEtotal=   -0.4167306896E+02 Ha. Also 2DEtotal=   -0.113398187596E+04 eV
    (  non-var. 2DEtotal :   -4.1673068955E+01 Ha)

 CALCULATION OF EFFECTIVE MASSES
 NOTE : Additional infos (eff. mass eigenvalues, eigenvectors and, if degenerate, average mass) are available in stdout.

--- !WARNING
src_file: m_efmas.F90
src_line: 0
message: |

    Band(s)    35,
    are not band extrema, but saddle points;
    the transport equivalent formalism breaks down in these conditions.
    The associated tensor(s) will therefore not be printed.
...

 K-point ( 0.500, 0.500, 0.000) | band =    35
 Effective mass tensor:
     *** SADDLE POINT: TRANSPORT EQV. EFF. MASS NOT DEFINED (see WARNING above) ***
 Angular average effective mass 1/(<1/m>)=  -6.5043400256
 Angular average effective mass for Frohlich model (<m**0.5>)**2= -13.0482118860
 Effective masses along directions: (cart. coord. / red. coord. -> eff. mass)
    1:   1.000000  0.000000  0.000000 /   0.939749  0.341864  0.000000 ->  -3.3723085946
    2:   0.000000  1.000000  0.000000 /   0.000000  1.000000  0.000000 -> -23.1283869722
    3:   0.000000  0.000000  1.000000 /   0.444614  0.444614  0.777584 ->  -8.2331074840
    4:   0.577350  0.577350  0.577350 /   0.587807  0.690084  0.422218 ->  -4.4223212386
    5:   0.000000  0.707107  0.707107 /   0.324139  0.757347  0.566885 ->  -6.2893146738
    6:   0.707107  0.000000  0.707107 /   0.724205  0.452689  0.520191 ->  -4.9006215696
    7:   0.707107  0.707107  0.000000 /   0.611108  0.791547  0.000000 ->  -4.8368049584

 K-point ( 0.500, 0.500, 0.000) | band =    36
 Effective mass tensor:
             10.0096982568              5.8295418796              0.5108420298
              5.8295418796              7.3912276328              1.6558807376
              0.5108420298              1.6558807376              3.0853665037
 Effective mass tensor eigenvalues:
              1.8467276409              3.7885248446             14.8510399077
 Angular average effective mass 1/(<1/m>)=   3.4372580745
 Angular average effective mass for Frohlich model (<m**0.5>)**2=   4.0738236516
 Effective masses along directions: (cart. coord. / red. coord. -> eff. mass)
    1:   1.000000  0.000000  0.000000 /   0.939749  0.341864  0.000000 ->   5.1789338499
    2:   0.000000  1.000000  0.000000 /   0.000000  1.000000  0.000000 ->   3.3930276111
    3:   0.000000  0.000000  1.000000 /   0.444614  0.444614  0.777584 ->   2.5975596053
    4:   0.577350  0.577350  0.577350 /   0.587807  0.690084  0.422218 ->   7.6090470588
    5:   0.000000  0.707107  0.707107 /   0.324139  0.757347  0.566885 ->   4.7849518453
    6:   0.707107  0.000000  0.707107 /   0.724205  0.452689  0.520191 ->   2.8935341550
    7:   0.707107  0.707107  0.000000 /   0.611108  0.791547  0.000000 ->  12.6676162946

 END OF EFFECTIVE MASSES SECTION

 ---- first-order wavefunction calculations are completed ----

 Total localisation tensor (bohr^2) in cartesian coordinates
  WARNING : still subject to testing - especially symmetries.
      direction              matrix element
   alpha     beta       real part   imaginary part
     1        1       0.6306500615    0.0000000000
     1        2       0.1896219076    0.0000000000
     1        3       0.5298067885    0.0000000000
     2        1       0.1896219076    0.0000000000
     2        2       0.4855370023    0.0000000000
     2        3       0.3632927714    0.0000000000
     3        1       0.5298067885    0.0000000000
     3        2       0.3632927714    0.0000000000
     3        3       1.3773581689    0.0000000000

 respfn : d/dk was computed, but no 2DTE, so no DDB output.

== END DATASET(S) ==============================================================

 -outvars: echo values of variables after computation  --------
            acell      1.0000000000E+00  1.0000000000E+00  1.0000000000E+00 Bohr
              amu      4.00780000E+01  1.06420000E+02  1.89984032E+01
             ecut      4.20000000E+01 Hartree
           etotal     -4.1673068955E+01
            fcart      0.0000000000E+00  0.0000000000E+00  0.0000000000E+00
                       0.0000000000E+00  0.0000000000E+00  0.0000000000E+00
                       0.0000000000E+00  0.0000000000E+00  0.0000000000E+00
                       0.0000000000E+00  0.0000000000E+00  0.0000000000E+00
                       0.0000000000E+00  0.0000000000E+00  0.0000000000E+00
                       0.0000000000E+00  0.0000000000E+00  0.0000000000E+00
                       0.0000000000E+00  0.0000000000E+00  0.0000000000E+00
                       0.0000000000E+00  0.0000000000E+00  0.0000000000E+00
-          fftalg         512
           irdden           1
           irdwfk           1
           istwfk        1
              ixc     -116133
              kpt      5.00000000E-01  5.00000000E-01  0.00000000E+00
           kptopt           0
P           mkmem           1
P          mkqmem           1
P          mk1mem           1
            natom           8
            nband          44
           nbdbuf           4
            ngfft          64      64      64
             nkpt           1
            nstep        2000
             nsym           6
           ntypat           3
              occ      2.000000  2.000000  2.000000  2.000000  2.000000  2.000000
                       2.000000  2.000000  2.000000  2.000000  2.000000  2.000000
                       2.000000  2.000000  2.000000  2.000000  2.000000  2.000000
                       2.000000  2.000000  2.000000  2.000000  2.000000  2.000000
                       2.000000  2.000000  2.000000  2.000000  2.000000  2.000000
                       2.000000  2.000000  2.000000  2.000000  2.000000  0.000000
                       0.000000  0.000000  0.000000  0.000000  0.000000  0.000000
                       0.000000  0.000000
        optdriver           1
            prtwf          -1
            rfdir           1       1       1
           rfelfd           2
            rprim      8.8519227097E+00  0.0000000000E+00  6.1694639944E+00
                       3.2201728843E+00  8.2454243222E+00  6.1694639944E+00
                       0.0000000000E+00  0.0000000000E+00  1.0789755402E+01
          spgroup         148
           strten      0.0000000000E+00  0.0000000000E+00  0.0000000000E+00
                       0.0000000000E+00  0.0000000000E+00  0.0000000000E+00
           symrel      1  0  0   0  1  0   0  0  1      -1  0  0   0 -1  0   0  0 -1
                       0  0  1   1  0  0   0  1  0       0  0 -1  -1  0  0   0 -1  0
                       0  1  0   0  0  1   1  0  0       0 -1  0   0  0 -1  -1  0  0
           tolwfr      1.00000000E-20
            typat      1  2  3  3  3  3  3  3
           useylm           1
           xangst      3.1941389241E+00  2.1816453132E+00  6.1195860576E+00
                       0.0000000000E+00  0.0000000000E+00  0.0000000000E+00
                       4.2765731541E+00  1.6011749447E+00  4.2261855175E+00
                       1.8632062559E+00  3.6937436798E-01  5.9249901433E+00
                       4.6634739524E+00  9.6221030211E-01  7.3227519417E+00
                       4.5250715924E+00  3.9939162585E+00  6.3141819718E+00
                       2.1117046941E+00  2.7621156817E+00  8.0129865977E+00
                       1.7248038959E+00  3.4010803244E+00  4.9164201735E+00
            xcart      6.0360477970E+00  4.1227121611E+00  1.1564341695E+01
                       0.0000000000E+00  0.0000000000E+00  0.0000000000E+00
                       8.0815520486E+00  3.0257821364E+00  7.9863332148E+00
                       3.5209495527E+00  6.9801639600E-01  1.1196608711E+01
                       8.8126885978E+00  1.8183139532E+00  1.3837995709E+01
                       8.5511460413E+00  7.5474079262E+00  1.1932074680E+01
                       3.9905435454E+00  5.2196421858E+00  1.5142350176E+01
                       3.2594069962E+00  6.4271103690E+00  9.2906876821E+00
             xred      5.0000000000E-01  5.0000000000E-01  5.0000000000E-01
                       0.0000000000E+00  0.0000000000E+00  0.0000000000E+00
                       7.7947600000E-01  3.6696500000E-01  8.4655000000E-02
                       3.6696500000E-01  8.4655000000E-02  7.7947600000E-01
                       9.1534500000E-01  2.2052400000E-01  6.3303500000E-01
                       6.3303500000E-01  9.1534500000E-01  2.2052400000E-01
                       2.2052400000E-01  6.3303500000E-01  9.1534500000E-01
                       8.4655000000E-02  7.7947600000E-01  3.6696500000E-01
            znucl       20.00000   46.00000    9.00000

- Timing analysis has been suppressed with timopt=0

 Suggested references for the acknowledgment of ABINIT usage.

 Calculation completed.
.Delivered   7 WARNINGs and   5 COMMENTs to log file.