.Version 9.5.1 of ABINIT

 ABINIT is a project of the Universite Catholique de Louvain,
 Corning Inc. and other collaborators, see ~abinit/doc/developers/contributors.txt .
 acknowledgments of the ABINIT effort.

.Starting date : Wed 19 May 2021.
- ( at 01h33 )

- input  file    -> /scratch/users/j/a/jabreu/flow_simple_8atoms/flow/w437/t1/run.abi
- output file    -> /scratch/users/j/a/jabreu/flow_simple_8atoms/flow/w437/t1/run.abo
- root for input  files -> /scratch/users/j/a/jabreu/flow_simple_8atoms/flow/w437/t1/indata/in
- root for output files -> /scratch/users/j/a/jabreu/flow_simple_8atoms/flow/w437/t1/outdata/out

 Symmetries : space group Fd -3 m (#227); Bravais cF (face-center cubic)
     intxc =       0      iscf =       7    lmnmax =      32     lnmax =       8
     mgfft =      72  mpssoang =       4    mqgrid =    3001     natom =       8
  nloc_mem =       1    nspden =       1   nspinor =       1    nsppol =       1
      nsym =      48    n1xccc =    2501    ntypat =       3    occopt =       1
   xclevel =       2
-    mband =          41        mffmem =           1         mkmem =           2
-   mkqmem =           2        mk1mem =           2           mpw =       16950
      nfft =      373248          nkpt =           2
  Rough estimation (10% accuracy) of disk space for files :

------------- Echo of variables that govern the present computation ------------
-
- outvars: echo of selected default values
-   iomode0 =  0 , fftalg0 =512 , wfoptalg0 =  0
-
- outvars: echo of global parameters not present in the input file
-  max_nthreads =    0
-
 -outvars: echo values of preprocessed input variables --------
            acell      1.0000000000E+00  1.0000000000E+00  1.0000000000E+00 Bohr
              amu      1.32905430E+02  4.49559100E+01  1.59994000E+01
             ecut      4.40000000E+01 Hartree
-          fftalg         512
           irdden           1
           irdwfk           1
           istwfk        1    1
              ixc     -116133
              kpt      5.00000000E-01  5.00000000E-01  5.00000000E-01
                       0.00000000E+00  0.00000000E+00  0.00000000E+00
           kptopt           0
P           mkmem           2
P          mkqmem           2
P          mk1mem           2
            natom           8
            nband          41
           nbdbuf           4
            ngfft          72      72      72
             nkpt           2
            nstep        2000
             nsym          48
           ntypat           3
              occ      2.000000  2.000000  2.000000  2.000000  2.000000  2.000000
                       2.000000  2.000000  2.000000  2.000000  2.000000  2.000000
                       2.000000  2.000000  2.000000  2.000000  2.000000  2.000000
                       2.000000  2.000000  2.000000  2.000000  2.000000  2.000000
                       2.000000  2.000000  2.000000  2.000000  2.000000  2.000000
                       2.000000  2.000000  0.000000  0.000000  0.000000  0.000000
                       0.000000  0.000000  0.000000  0.000000  0.000000
        optdriver           1
            prtwf          -1
            rfdir           1       1       1
           rfelfd           2
            rprim      1.0376654738E+01  0.0000000000E+00  5.9909644060E+00
                       3.4588849125E+00  9.7832039080E+00  5.9909644060E+00
                       0.0000000000E+00  0.0000000000E+00  1.1981928812E+01
          spgroup         227
           symrel      1  0  0   0  1  0   0  0  1      -1  0  0   0 -1  0   0  0 -1
                       0 -1  1   0 -1  0   1 -1  0       0  1 -1   0  1  0  -1  1  0
                      -1  0  0  -1  0  1  -1  1  0       1  0  0   1  0 -1   1 -1  0
                       0  1 -1   1  0 -1   0  0 -1       0 -1  1  -1  0  1   0  0  1
                      -1  0  0  -1  1  0  -1  0  1       1  0  0   1 -1  0   1  0 -1
                       0 -1  1   1 -1  0   0 -1  0       0  1 -1  -1  1  0   0  1  0
                       1  0  0   0  0  1   0  1  0      -1  0  0   0  0 -1   0 -1  0
                       0  1 -1   0  0 -1   1  0 -1       0 -1  1   0  0  1  -1  0  1
                      -1  0  1  -1  1  0  -1  0  0       1  0 -1   1 -1  0   1  0  0
                       0 -1  0   1 -1  0   0 -1  1       0  1  0  -1  1  0   0  1 -1
                       1  0 -1   0  0 -1   0  1 -1      -1  0  1   0  0  1   0 -1  1
                       0  1  0   0  0  1   1  0  0       0 -1  0   0  0 -1  -1  0  0
                       1  0 -1   0  1 -1   0  0 -1      -1  0  1   0 -1  1   0  0  1
                       0 -1  0   0 -1  1   1 -1  0       0  1  0   0  1 -1  -1  1  0
                      -1  0  1  -1  0  0  -1  1  0       1  0 -1   1  0  0   1 -1  0
                       0  1  0   1  0  0   0  0  1       0 -1  0  -1  0  0   0  0 -1
                       0  0 -1   0  1 -1   1  0 -1       0  0  1   0 -1  1  -1  0  1
                       1 -1  0   0 -1  1   0 -1  0      -1  1  0   0  1 -1   0  1  0
                       0  0  1   1  0  0   0  1  0       0  0 -1  -1  0  0   0 -1  0
                      -1  1  0  -1  0  0  -1  0  1       1 -1  0   1  0  0   1  0 -1
                       0  0  1   0  1  0   1  0  0       0  0 -1   0 -1  0  -1  0  0
                       1 -1  0   0 -1  0   0 -1  1      -1  1  0   0  1  0   0  1 -1
                       0  0 -1   1  0 -1   0  1 -1       0  0  1  -1  0  1   0 -1  1
                      -1  1  0  -1  0  1  -1  0  0       1 -1  0   1  0 -1   1  0  0
            tnons      0.0000000  0.0000000  0.0000000     0.2500000  0.2500000  0.2500000
                       0.0000000 -0.0000000 -0.0000000     0.2500000  0.2500000  0.2500000
                      -0.0000000  0.0000000 -0.0000000     0.2500000  0.2500000  0.2500000
                       0.0000000 -0.0000000 -0.0000000     0.2500000  0.2500000  0.2500000
                      -0.0000000  0.0000000  0.0000000     0.2500000  0.2500000  0.2500000
                       0.0000000 -0.0000000 -0.0000000     0.2500000  0.2500000  0.2500000
                       0.0000000  0.0000000 -0.0000000     0.2500000  0.2500000  0.2500000
                       0.0000000 -0.0000000 -0.0000000     0.2500000  0.2500000  0.2500000
                      -0.0000000  0.0000000 -0.0000000     0.2500000  0.2500000  0.2500000
                       0.0000000 -0.0000000  0.0000000     0.2500000  0.2500000  0.2500000
                       0.0000000  0.0000000 -0.0000000     0.2500000  0.2500000  0.2500000
                       0.0000000 -0.0000000 -0.0000000     0.2500000  0.2500000  0.2500000
                       0.0000000  0.0000000 -0.0000000     0.2500000  0.2500000  0.2500000
                       0.0000000 -0.0000000 -0.0000000     0.2500000  0.2500000  0.2500000
                      -0.0000000  0.0000000 -0.0000000     0.2500000  0.2500000  0.2500000
                       0.0000000 -0.0000000  0.0000000     0.2500000  0.2500000  0.2500000
                       0.0000000  0.0000000 -0.0000000     0.2500000  0.2500000  0.2500000
                       0.0000000 -0.0000000 -0.0000000     0.2500000  0.2500000  0.2500000
                       0.0000000  0.0000000 -0.0000000     0.2500000  0.2500000  0.2500000
                      -0.0000000 -0.0000000  0.0000000     0.2500000  0.2500000  0.2500000
                       0.0000000  0.0000000 -0.0000000     0.2500000  0.2500000  0.2500000
                       0.0000000 -0.0000000  0.0000000     0.2500000  0.2500000  0.2500000
                       0.0000000  0.0000000 -0.0000000     0.2500000  0.2500000  0.2500000
                      -0.0000000 -0.0000000 -0.0000000     0.2500000  0.2500000  0.2500000
           tolwfr      1.00000000E-20
            typat      1  1  2  2  3  3  3  3
           useylm           1
              wtk        0.50000    0.50000
           xangst      1.8303630628E+00  1.2942621338E+00  3.1702818211E+00
                       0.0000000000E+00  0.0000000000E+00  0.0000000000E+00
                       5.4910891885E+00  3.8827864013E+00  9.5108454634E+00
                       3.6607261257E+00  2.5885242676E+00  6.3405636423E+00
                       4.5759076571E+00  3.2356553344E+00  4.7554227317E+00
                       1.8303630628E+00  3.2356553344E+00  6.3405636423E+00
                       3.6607261257E+00  6.4713106689E-01  6.3405636423E+00
                       4.5759076571E+00  3.2356553344E+00  7.9257045529E+00
            xcart      3.4588849125E+00  2.4458009770E+00  5.9909644060E+00
                       0.0000000000E+00  0.0000000000E+00  0.0000000000E+00
                       1.0376654738E+01  7.3374029310E+00  1.7972893218E+01
                       6.9177698250E+00  4.8916019540E+00  1.1981928812E+01
                       8.6472122813E+00  6.1145024425E+00  8.9864466090E+00
                       3.4588849125E+00  6.1145024425E+00  1.1981928812E+01
                       6.9177698251E+00  1.2229004885E+00  1.1981928812E+01
                       8.6472122813E+00  6.1145024425E+00  1.4977411015E+01
             xred      2.5000000000E-01  2.5000000000E-01  2.5000000000E-01
                       0.0000000000E+00  0.0000000000E+00  0.0000000000E+00
                       7.5000000000E-01  7.5000000000E-01  7.5000000000E-01
                       5.0000000000E-01  5.0000000000E-01  5.0000000000E-01
                       6.2500000000E-01  6.2500000000E-01  1.2500000000E-01
                       1.2500000000E-01  6.2500000000E-01  6.2500000000E-01
                       6.2500000000E-01  1.2500000000E-01  6.2500000000E-01
                       6.2500000000E-01  6.2500000000E-01  6.2500000000E-01
            znucl       55.00000   21.00000    8.00000

 chkinp: Checking input parameters for consistency.

== DATASET  1 ==================================================================
-   mpi_nproc: 1, omp_nthreads: -1 (-1 if OMP is not activated)

--- !DatasetInfo
iteration_state: {dtset: 1, }
dimensions: {natom: 8, nkpt: 2, mband: 41, nsppol: 1, nspinor: 1, nspden: 1, mpw: 16950, }
cutoff_energies: {ecut:  44.0, pawecutdg:  -1.0, }
electrons: {nelect:   6.40000000E+01, charge:   0.00000000E+00, occopt:   1.00000000E+00, tsmear:   1.00000000E-02, }
meta: {optdriver: 1, rfelfd: 2, }
...

 Real(R)+Recip(G) space primitive vectors, cartesian coordinates (Bohr,Bohr^-1):
 R(1)= 10.3766547  0.0000000  5.9909644  G(1)=  0.0963702 -0.0340720  0.0000000
 R(2)=  3.4588849  9.7832039  5.9909644  G(2)=  0.0000000  0.1022160  0.0000000
 R(3)=  0.0000000  0.0000000 11.9819288  G(3)= -0.0481851 -0.0340720  0.0834590
 Unit cell volume ucvol=  1.2163686E+03 bohr^3
 Angles (23,13,12)=  6.00000000E+01  6.00000000E+01  6.00000000E+01 degrees

 getcut: wavevector=  0.0000  0.0000  0.0000  ngfft=  72  72  72
         ecut(hartree)=     44.000   => boxcut(ratio)=   2.01240

--- Pseudopotential description ------------------------------------------------
- pspini: atom type   1  psp file is /scratch/users/j/a/jabreu/pseudos/PBEsol/Cs.psp8
- pspatm: opening atomic psp file    /scratch/users/j/a/jabreu/pseudos/PBEsol/Cs.psp8
- Cs    ONCVPSP-3.3.0  r_core=   2.27353   1.85623   2.01788   1.90105
[...]
 ETOT 26  -27.366823797522      1.066E-14 3.559E-10 0.000E+00
 ETOT 27  -27.366823797522      0.000E+00 6.760E-11 0.000E+00
 ETOT 28  -27.366823797522     -1.066E-14 8.160E-11 0.000E+00
 ETOT 29  -27.366823797522      1.066E-14 1.554E-11 0.000E+00
 ETOT 30  -27.366823797522     -7.105E-15 1.872E-11 0.000E+00
 ETOT 31  -27.366823797522      3.553E-15 3.574E-12 0.000E+00
 ETOT 32  -27.366823797522      3.553E-15 4.295E-12 0.000E+00
 ETOT 33  -27.366823797522      0.000E+00 8.228E-13 0.000E+00
 ETOT 34  -27.366823797522      0.000E+00 9.862E-13 0.000E+00
 ETOT 35  -27.366823797522      7.105E-15 1.895E-13 0.000E+00
 ETOT 36  -27.366823797522     -1.066E-14 2.265E-13 0.000E+00
 ETOT 37  -27.366823797522      3.553E-15 4.367E-14 0.000E+00
 ETOT 38  -27.366823797522     -7.105E-15 5.204E-14 0.000E+00
 ETOT 39  -27.366823797522      3.553E-15 1.007E-14 0.000E+00
 ETOT 40  -27.366823797522      0.000E+00 1.196E-14 0.000E+00
 ETOT 41  -27.366823797522      3.553E-15 2.323E-15 0.000E+00
 ETOT 42  -27.366823797522     -7.105E-15 2.749E-15 0.000E+00
 ETOT 43  -27.366823797522      7.105E-15 5.360E-16 0.000E+00
 ETOT 44  -27.366823797522     -7.105E-15 6.322E-16 0.000E+00
 ETOT 45  -27.366823797522     -1.421E-14 1.237E-16 0.000E+00
 ETOT 46  -27.366823797522      3.553E-15 1.454E-16 0.000E+00
 ETOT 47  -27.366823797522     -3.553E-15 2.857E-17 0.000E+00
 ETOT 48  -27.366823797522      3.553E-15 3.346E-17 0.000E+00
 ETOT 49  -27.366823797522      0.000E+00 6.598E-18 0.000E+00
 ETOT 50  -27.366823797522      7.105E-15 7.699E-18 0.000E+00
 ETOT 51  -27.366823797522     -7.105E-15 1.524E-18 0.000E+00
 ETOT 52  -27.366823797522      1.421E-14 1.772E-18 0.000E+00
 ETOT 53  -27.366823797522     -1.066E-14 3.523E-19 0.000E+00
 ETOT 54  -27.366823797522      7.105E-15 4.080E-19 0.000E+00
 ETOT 55  -27.366823797522     -3.553E-15 8.142E-20 0.000E+00
 ETOT 56  -27.366823797522      0.000E+00 9.395E-20 0.000E+00
 ETOT 57  -27.366823797522      3.553E-15 1.882E-20 0.000E+00
 ETOT 58  -27.366823797522     -1.421E-14 2.164E-20 0.000E+00
 ETOT 59  -27.366823797522      1.066E-14 9.943E-21 0.000E+00

 At SCF step   59   max residual=  9.94E-21 < tolwfr=  1.00E-20 =>converged.

 ----iterations are completed or convergence reached----

 dfpt_looppert: DFPT cycle converged with prtwf=-1. Will skip output of the 1st-order WFK file.
 dfpt_looppert : ek2=    5.2796787182E+01
          f-sum rule ratio=    1.0276482800E+00
 prteigrs : about to open file /scratch/users/j/a/jabreu/flow_simple_8atoms/flow/w437/t1/tmpdata/tmp_1WF1_EIG
 Expectation of eigenvalue derivatives (hartree) for nkpt=   2  k points:
  (in case of degenerate eigenvalues, averaged derivative)
 kpt#   1, nband= 41, wtk=  0.50000, kpt=  0.5000  0.5000  0.5000 (reduced coord)
  -0.00000    0.00000   -0.00000   -0.00000    0.00000    0.00000    0.00000    0.00000
   0.00000    0.00000    0.00000    0.00000    0.00000    0.00000   -0.00000   -0.00000
   0.00000    0.00000   -0.00000   -0.00000   -0.00000    0.00000    0.00000    0.00000
  -0.00000   -0.00000   -0.00000   -0.00000   -0.00000   -0.00000   -0.00000    0.00000
   0.00000    0.00000    0.00000    0.00000   -0.00000   -0.00000    0.00000    0.00000
   0.00000
 prteigrs : prtvol=0 or 1, do not print more k-points.

 Eight components of 2nd-order total energy (hartree) are
 1,2,3: 0th-order hamiltonian combined with 1st-order wavefunctions
     kin0=   4.03875561E+01 eigvalue=   2.12190702E+00  local=  -2.21862262E+01
 4,5,6: 1st-order hamiltonian combined with 1st and 0th-order wfs
     kin1=  -5.42565275E+01  Hartree=   0.00000000E+00     xc=   0.00000000E+00
 7,8,9: eventually, occupation + non-local contributions
    edocc=   7.31479860E+00     enl0=  -2.71211766E-01   enl1=  -4.77120056E-01
 1-9 gives the relaxation energy (to be shifted if some occ is /=2.0)
   erelax=  -2.73668238E+01
  No Ewald or frozen-wf contrib.: the relaxation energy is the total one
 2DEtotal=   -0.2736682380E+02 Ha. Also 2DEtotal=   -0.744689147383E+03 eV
    (  non-var. 2DEtotal :   -2.7366823797E+01 Ha)

 CALCULATION OF EFFECTIVE MASSES
 NOTE : Additional infos (eff. mass eigenvalues, eigenvectors and, if degenerate, average mass) are available in stdout.

 K-point ( 0.500, 0.500, 0.500) | band =    32
 Effective mass tensor:
            -18.2736513823            -12.1521745253            -29.7666265120
            -12.1521745253             -9.6807667692            -21.0481837730
            -29.7666265120            -21.0481837730            -52.6451913448
 Effective mass tensor eigenvalues:
            -78.4238462357             -1.0878816400             -1.0878816206
 Angular average effective mass 1/(<1/m>)=  -1.6205822313
 Angular average effective mass for Frohlich model (<m**0.5>)**2=  -2.3282318400
 Effective masses along directions: (cart. coord. / red. coord. -> eff. mass)
    1:   1.000000  0.000000  0.000000 /   0.948683  0.316228  0.000000 ->  -1.3931832317
    2:   0.000000  1.000000  0.000000 /   0.000000  1.000000  0.000000 ->  -1.2217483547
    3:   0.000000  0.000000  1.000000 /   0.408248  0.408248  0.816497 ->  -3.1755437544
    4:   0.577350  0.577350  0.577350 /   0.585539  0.688047  0.428644 ->  -7.9979610795
    5:   0.000000  0.707107  0.707107 /   0.289489  0.762222  0.578977 ->  -3.1250584347
    6:   0.707107  0.000000  0.707107 /   0.731423  0.422287  0.535439 ->  -5.9721246105
    7:   0.707107  0.707107  0.000000 /   0.616798  0.787122  0.000000 ->  -1.5982037429

 K-point ( 0.000, 0.000, 0.000) | band =    33
 Effective mass tensor:
              0.3878869667             -0.0000000000             -0.0000000001
             -0.0000000000              0.3878869668             -0.0000000001
             -0.0000000001             -0.0000000001              0.3878869666
 Effective mass tensor eigenvalues:
              0.3878869665              0.3878869668              0.3878869668
 Angular average effective mass 1/(<1/m>)=   0.3878869667
 Angular average effective mass for Frohlich model (<m**0.5>)**2=   0.3878869667
 Effective masses along directions: (cart. coord. / red. coord. -> eff. mass)
    1:   1.000000  0.000000  0.000000 /   0.948683  0.316228  0.000000 ->   0.3878869667
    2:   0.000000  1.000000  0.000000 /   0.000000  1.000000  0.000000 ->   0.3878869668
    3:   0.000000  0.000000  1.000000 /   0.408248  0.408248  0.816497 ->   0.3878869666
    4:   0.577350  0.577350  0.577350 /   0.585539  0.688047  0.428644 ->   0.3878869665
    5:   0.000000  0.707107  0.707107 /   0.289489  0.762222  0.578977 ->   0.3878869666
    6:   0.707107  0.000000  0.707107 /   0.731423  0.422287  0.535439 ->   0.3878869666
    7:   0.707107  0.707107  0.000000 /   0.616798  0.787122  0.000000 ->   0.3878869667

 END OF EFFECTIVE MASSES SECTION

 ---- first-order wavefunction calculations are completed ----

 Total localisation tensor (bohr^2) in cartesian coordinates
  WARNING : still subject to testing - especially symmetries.
      direction              matrix element
   alpha     beta       real part   imaginary part
     1        1       1.0568136738    0.0000000000
     1        2       0.2989120454    0.0000000000
     1        3       0.7321819906    0.0000000000
     2        1       0.2989120454    0.0000000000
     2        2       0.8454509372    0.0000000000
     2        3       0.5177308497    0.0000000000
     3        1       0.7321819906    0.0000000000
     3        2       0.5177308497    0.0000000000
     3        3       1.9022646154    0.0000000000

 respfn : d/dk was computed, but no 2DTE, so no DDB output.

== END DATASET(S) ==============================================================

 -outvars: echo values of variables after computation  --------
            acell      1.0000000000E+00  1.0000000000E+00  1.0000000000E+00 Bohr
              amu      1.32905430E+02  4.49559100E+01  1.59994000E+01
             ecut      4.40000000E+01 Hartree
           etotal     -2.7366823798E+01
            fcart      0.0000000000E+00  0.0000000000E+00  0.0000000000E+00
                       0.0000000000E+00  0.0000000000E+00  0.0000000000E+00
                       0.0000000000E+00  0.0000000000E+00  0.0000000000E+00
                       0.0000000000E+00  0.0000000000E+00  0.0000000000E+00
                       0.0000000000E+00  0.0000000000E+00  0.0000000000E+00
                       0.0000000000E+00  0.0000000000E+00  0.0000000000E+00
                       0.0000000000E+00  0.0000000000E+00  0.0000000000E+00
                       0.0000000000E+00  0.0000000000E+00  0.0000000000E+00
-          fftalg         512
           irdden           1
           irdwfk           1
           istwfk        1    1
              ixc     -116133
              kpt      5.00000000E-01  5.00000000E-01  5.00000000E-01
                       0.00000000E+00  0.00000000E+00  0.00000000E+00
           kptopt           0
P           mkmem           2
P          mkqmem           2
P          mk1mem           2
            natom           8
            nband          41
           nbdbuf           4
            ngfft          72      72      72
             nkpt           2
            nstep        2000
             nsym          48
           ntypat           3
              occ      2.000000  2.000000  2.000000  2.000000  2.000000  2.000000
                       2.000000  2.000000  2.000000  2.000000  2.000000  2.000000
                       2.000000  2.000000  2.000000  2.000000  2.000000  2.000000
                       2.000000  2.000000  2.000000  2.000000  2.000000  2.000000
                       2.000000  2.000000  2.000000  2.000000  2.000000  2.000000
                       2.000000  2.000000  0.000000  0.000000  0.000000  0.000000
                       0.000000  0.000000  0.000000  0.000000  0.000000
        optdriver           1
            prtwf          -1
            rfdir           1       1       1
           rfelfd           2
            rprim      1.0376654738E+01  0.0000000000E+00  5.9909644060E+00
                       3.4588849125E+00  9.7832039080E+00  5.9909644060E+00
                       0.0000000000E+00  0.0000000000E+00  1.1981928812E+01
          spgroup         227
           strten      0.0000000000E+00  0.0000000000E+00  0.0000000000E+00
                       0.0000000000E+00  0.0000000000E+00  0.0000000000E+00
           symrel      1  0  0   0  1  0   0  0  1      -1  0  0   0 -1  0   0  0 -1
                       0 -1  1   0 -1  0   1 -1  0       0  1 -1   0  1  0  -1  1  0
                      -1  0  0  -1  0  1  -1  1  0       1  0  0   1  0 -1   1 -1  0
                       0  1 -1   1  0 -1   0  0 -1       0 -1  1  -1  0  1   0  0  1
                      -1  0  0  -1  1  0  -1  0  1       1  0  0   1 -1  0   1  0 -1
                       0 -1  1   1 -1  0   0 -1  0       0  1 -1  -1  1  0   0  1  0
                       1  0  0   0  0  1   0  1  0      -1  0  0   0  0 -1   0 -1  0
                       0  1 -1   0  0 -1   1  0 -1       0 -1  1   0  0  1  -1  0  1
                      -1  0  1  -1  1  0  -1  0  0       1  0 -1   1 -1  0   1  0  0
                       0 -1  0   1 -1  0   0 -1  1       0  1  0  -1  1  0   0  1 -1
                       1  0 -1   0  0 -1   0  1 -1      -1  0  1   0  0  1   0 -1  1
                       0  1  0   0  0  1   1  0  0       0 -1  0   0  0 -1  -1  0  0
                       1  0 -1   0  1 -1   0  0 -1      -1  0  1   0 -1  1   0  0  1
                       0 -1  0   0 -1  1   1 -1  0       0  1  0   0  1 -1  -1  1  0
                      -1  0  1  -1  0  0  -1  1  0       1  0 -1   1  0  0   1 -1  0
                       0  1  0   1  0  0   0  0  1       0 -1  0  -1  0  0   0  0 -1
                       0  0 -1   0  1 -1   1  0 -1       0  0  1   0 -1  1  -1  0  1
                       1 -1  0   0 -1  1   0 -1  0      -1  1  0   0  1 -1   0  1  0
                       0  0  1   1  0  0   0  1  0       0  0 -1  -1  0  0   0 -1  0
                      -1  1  0  -1  0  0  -1  0  1       1 -1  0   1  0  0   1  0 -1
                       0  0  1   0  1  0   1  0  0       0  0 -1   0 -1  0  -1  0  0
                       1 -1  0   0 -1  0   0 -1  1      -1  1  0   0  1  0   0  1 -1
                       0  0 -1   1  0 -1   0  1 -1       0  0  1  -1  0  1   0 -1  1
                      -1  1  0  -1  0  1  -1  0  0       1 -1  0   1  0 -1   1  0  0
            tnons      0.0000000  0.0000000  0.0000000     0.2500000  0.2500000  0.2500000
                       0.0000000 -0.0000000 -0.0000000     0.2500000  0.2500000  0.2500000
                      -0.0000000  0.0000000 -0.0000000     0.2500000  0.2500000  0.2500000
                       0.0000000 -0.0000000 -0.0000000     0.2500000  0.2500000  0.2500000
                      -0.0000000  0.0000000  0.0000000     0.2500000  0.2500000  0.2500000
                       0.0000000 -0.0000000 -0.0000000     0.2500000  0.2500000  0.2500000
                       0.0000000  0.0000000 -0.0000000     0.2500000  0.2500000  0.2500000
                       0.0000000 -0.0000000 -0.0000000     0.2500000  0.2500000  0.2500000
                      -0.0000000  0.0000000 -0.0000000     0.2500000  0.2500000  0.2500000
                       0.0000000 -0.0000000  0.0000000     0.2500000  0.2500000  0.2500000
                       0.0000000  0.0000000 -0.0000000     0.2500000  0.2500000  0.2500000
                       0.0000000 -0.0000000 -0.0000000     0.2500000  0.2500000  0.2500000
                       0.0000000  0.0000000 -0.0000000     0.2500000  0.2500000  0.2500000
                       0.0000000 -0.0000000 -0.0000000     0.2500000  0.2500000  0.2500000
                      -0.0000000  0.0000000 -0.0000000     0.2500000  0.2500000  0.2500000
                       0.0000000 -0.0000000  0.0000000     0.2500000  0.2500000  0.2500000
                       0.0000000  0.0000000 -0.0000000     0.2500000  0.2500000  0.2500000
                       0.0000000 -0.0000000 -0.0000000     0.2500000  0.2500000  0.2500000
                       0.0000000  0.0000000 -0.0000000     0.2500000  0.2500000  0.2500000
                      -0.0000000 -0.0000000  0.0000000     0.2500000  0.2500000  0.2500000
                       0.0000000  0.0000000 -0.0000000     0.2500000  0.2500000  0.2500000
                       0.0000000 -0.0000000  0.0000000     0.2500000  0.2500000  0.2500000
                       0.0000000  0.0000000 -0.0000000     0.2500000  0.2500000  0.2500000
                      -0.0000000 -0.0000000 -0.0000000     0.2500000  0.2500000  0.2500000
           tolwfr      1.00000000E-20
            typat      1  1  2  2  3  3  3  3
           useylm           1
              wtk        0.50000    0.50000
           xangst      1.8303630628E+00  1.2942621338E+00  3.1702818211E+00
                       0.0000000000E+00  0.0000000000E+00  0.0000000000E+00
                       5.4910891885E+00  3.8827864013E+00  9.5108454634E+00
                       3.6607261257E+00  2.5885242676E+00  6.3405636423E+00
                       4.5759076571E+00  3.2356553344E+00  4.7554227317E+00
                       1.8303630628E+00  3.2356553344E+00  6.3405636423E+00
                       3.6607261257E+00  6.4713106689E-01  6.3405636423E+00
                       4.5759076571E+00  3.2356553344E+00  7.9257045529E+00
            xcart      3.4588849125E+00  2.4458009770E+00  5.9909644060E+00
                       0.0000000000E+00  0.0000000000E+00  0.0000000000E+00
                       1.0376654738E+01  7.3374029310E+00  1.7972893218E+01
                       6.9177698250E+00  4.8916019540E+00  1.1981928812E+01
                       8.6472122813E+00  6.1145024425E+00  8.9864466090E+00
                       3.4588849125E+00  6.1145024425E+00  1.1981928812E+01
                       6.9177698251E+00  1.2229004885E+00  1.1981928812E+01
                       8.6472122813E+00  6.1145024425E+00  1.4977411015E+01
             xred      2.5000000000E-01  2.5000000000E-01  2.5000000000E-01
                       0.0000000000E+00  0.0000000000E+00  0.0000000000E+00
                       7.5000000000E-01  7.5000000000E-01  7.5000000000E-01
                       5.0000000000E-01  5.0000000000E-01  5.0000000000E-01
                       6.2500000000E-01  6.2500000000E-01  1.2500000000E-01
                       1.2500000000E-01  6.2500000000E-01  6.2500000000E-01
                       6.2500000000E-01  1.2500000000E-01  6.2500000000E-01
                       6.2500000000E-01  6.2500000000E-01  6.2500000000E-01
            znucl       55.00000   21.00000    8.00000

- Timing analysis has been suppressed with timopt=0

 Suggested references for the acknowledgment of ABINIT usage.

 Calculation completed.
.Delivered  14 WARNINGs and   9 COMMENTs to log file.