.Version 9.5.1 of ABINIT

 ABINIT is a project of the Universite Catholique de Louvain,
 Corning Inc. and other collaborators, see ~abinit/doc/developers/contributors.txt .
 acknowledgments of the ABINIT effort.

.Starting date : Tue 27 Apr 2021.
- ( at 18h26 )

- input  file    -> /scratch/users/j/a/jabreu/flow_simple_4atoms/flow/w153/t1/run.abi
- output file    -> /scratch/users/j/a/jabreu/flow_simple_4atoms/flow/w153/t1/run.abo
- root for input  files -> /scratch/users/j/a/jabreu/flow_simple_4atoms/flow/w153/t1/indata/in
- root for output files -> /scratch/users/j/a/jabreu/flow_simple_4atoms/flow/w153/t1/outdata/out

 Symmetries : space group Im m m (# 71); Bravais oI (body-center ortho.)
     intxc =       0      iscf =       7    lmnmax =      18     lnmax =       6
     mgfft =      60  mpssoang =       3    mqgrid =    3001     natom =       4
  nloc_mem =       1    nspden =       1   nspinor =       1    nsppol =       1
      nsym =       8    n1xccc =    2501    ntypat =       2    occopt =       1
   xclevel =       2
-    mband =          24        mffmem =           1         mkmem =           2
-   mkqmem =           2        mk1mem =           2           mpw =        8129
      nfft =      216000          nkpt =           2
  Rough estimation (10% accuracy) of disk space for files :

------------- Echo of variables that govern the present computation ------------
-
- outvars: echo of selected default values
-   iomode0 =  0 , fftalg0 =512 , wfoptalg0 =  0
-
- outvars: echo of global parameters not present in the input file
-  max_nthreads =    0
-
 -outvars: echo values of preprocessed input variables --------
            acell      1.0000000000E+00  1.0000000000E+00  1.0000000000E+00 Bohr
              amu      8.54678000E+01  1.59994000E+01
             ecut      4.40000000E+01 Hartree
-          fftalg         512
           irdden           1
           irdwfk           1
           istwfk        1    0
              ixc     -116133
              kpt      0.00000000E+00  0.00000000E+00  0.00000000E+00
                       1.22485405E-01 -1.22485405E-01  1.22485405E-01
           kptopt           0
P           mkmem           2
P          mkqmem           2
P          mk1mem           2
            natom           4
            nband          24
           nbdbuf           4
            ngfft          60      60      60
             nkpt           2
            nstep         100
             nsym           8
           ntypat           2
              occ      2.000000  2.000000  2.000000  2.000000  2.000000  2.000000
                       2.000000  2.000000  2.000000  2.000000  2.000000  2.000000
                       2.000000  2.000000  2.000000  0.000000  0.000000  0.000000
                       0.000000  0.000000  0.000000  0.000000  0.000000  0.000000
        optdriver           1
            prtwf          -1
            rfdir           1       1       1
           rfelfd           2
            rprim      9.0599505039E+00  0.0000000000E+00 -2.9362372214E+00
                      -2.3587645508E+00  6.7604424158E+00 -6.2798758181E+00
                       0.0000000000E+00  0.0000000000E+00  9.5238748498E+00
          spgroup          71
           symrel      1  0  0   0  1  0   0  0  1      -1  0  0   0 -1  0   0  0 -1
                       0  0  1  -1 -1 -1   1  0  0       0  0 -1   1  1  1  -1  0  0
                      -1 -1 -1   0  0  1   0  1  0       1  1  1   0  0 -1   0 -1  0
                       0  1  0   1  0  0  -1 -1 -1       0 -1  0  -1  0  0   1  1  1
           tolwfr      1.00000000E-20
            typat      1  1  2  2
           useylm           1
              wtk        0.50000    0.50000
           xangst      9.1295436729E-01  9.2102733330E-01 -1.2555823264E+00
                       2.6331605096E+00  2.6564447131E+00 -3.6213746459E+00
                       1.7932000771E+00  0.0000000000E+00  1.3038649933E+00
                       3.0011192405E+00  0.0000000000E+00  2.1821626981E+00
            xcart      1.7252337260E+00  1.7404894208E+00 -2.3727067342E+00
                       4.9759522271E+00  5.0199529950E+00 -6.8434063053E+00
                       3.3886570472E+00  0.0000000000E+00  2.4639477516E+00
                       5.6712934567E+00  0.0000000000E+00  4.1236898768E+00
             xred      2.5745200000E-01  2.5745200000E-01 -2.0816681712E-17
                       7.4254800000E-01  7.4254800000E-01  2.7755575616E-17
                       3.7402600000E-01  0.0000000000E+00  3.7402600000E-01
                       6.2597400000E-01  0.0000000000E+00  6.2597400000E-01
            znucl       37.00000    8.00000

 chkinp: Checking input parameters for consistency.

== DATASET  1 ==================================================================
-   mpi_nproc: 1, omp_nthreads: -1 (-1 if OMP is not activated)

--- !DatasetInfo
iteration_state: {dtset: 1, }
dimensions: {natom: 4, nkpt: 2, mband: 24, nsppol: 1, nspinor: 1, nspden: 1, mpw: 8129, }
cutoff_energies: {ecut:  44.0, pawecutdg:  -1.0, }
electrons: {nelect:   3.00000000E+01, charge:   0.00000000E+00, occopt:   1.00000000E+00, tsmear:   1.00000000E-02, }
meta: {optdriver: 1, rfelfd: 2, }
...

 Real(R)+Recip(G) space primitive vectors, cartesian coordinates (Bohr,Bohr^-1):
 R(1)=  9.0599505  0.0000000 -2.9362372  G(1)=  0.1103759  0.0385109  0.0000000
 R(2)= -2.3587646  6.7604424 -6.2798758  G(2)=  0.0000000  0.1479193  0.0000000
 R(3)=  0.0000000  0.0000000  9.5238748  G(3)=  0.0340292  0.1094084  0.1049993
 Unit cell volume ucvol=  5.8333042E+02 bohr^3
 Angles (23,13,12)=  1.31252791E+02  1.07956979E+02  9.18518222E+01 degrees

 getcut: wavevector=  0.0000  0.0000  0.0000  ngfft=  60  60  60
         ecut(hartree)=     44.000   => boxcut(ratio)=   2.10996

--- Pseudopotential description ------------------------------------------------
- pspini: atom type   1  psp file is /scratch/users/j/a/jabreu/pseudos/PBEsol/Rb.psp8
- pspatm: opening atomic psp file    /scratch/users/j/a/jabreu/pseudos/PBEsol/Rb.psp8
- Rb    ONCVPSP-3.3.0  r_core=   1.71227   1.75361   1.90633
- 37.00000   9.00000    180112                znucl, zion, pspdat
    8 -116133    2    4       600   0.00000   pspcod,pspxc,lmax,lloc,mmax,r2well
    5.99000000000000    7.00000000000000    0.00000000000000   rchrg,fchrg,qchrg
     nproj     2     2     2
     extension_switch     1
  pspatm : epsatm=   34.48400912
         --- l  ekb(1:nproj) -->
             0    8.196957   -0.477221
             1    3.231347   -0.378736
             2   -1.047201    0.996637
 pspatm: atomic psp has been read  and splines computed

- pspini: atom type   2  psp file is /scratch/users/j/a/jabreu/pseudos/PBEsol/O.psp8
- pspatm: opening atomic psp file    /scratch/users/j/a/jabreu/pseudos/PBEsol/O.psp8
- O     ONCVPSP-3.3.0  r_core=   1.35509   1.45563   1.26150
-  8.00000   6.00000    180112                znucl, zion, pspdat
    8 -116133    2    4       600   0.00000   pspcod,pspxc,lmax,lloc,mmax,r2well
    5.99000000000000    4.00000000000000    0.00000000000000   rchrg,fchrg,qchrg
     nproj     2     2     1
     extension_switch     1
  pspatm : epsatm=    6.22910522
         --- l  ekb(1:nproj) -->
             0    6.050032    0.820363
             1   -4.739617   -1.153841
             2   -1.335834
 pspatm: atomic psp has been read  and splines computed

   2.44278686E+03                                ecore*ucvol(ha*bohr**3)

-inwffil : will read wavefunctions from disk file /scratch/users/j/a/jabreu/flow_simple_4atoms/flow/w153/t1/indata/in_WFK

 ==>  initialize data related to q vector <==

 The list of irreducible perturbations for this q vector is:
    1)    idir= 1    ipert=   5
    2)    idir= 2    ipert=   5
    3)    idir= 3    ipert=   5

 Perturbation wavevector (in red.coord.)   0.000000  0.000000  0.000000
 Perturbation : derivative vs k along direction   1

 dfpt_looppert : COMMENT -
  In a d/dk calculation, iscf is set to -3 automatically.
 The set of symmetries contains only one element for this perturbation.
 symkpt : not enough symmetry to change the number of k points.

[...]

 Initialisation of the first-order wave-functions :
  ireadwf=   0

--- !BeginCycle
iteration_state: {dtset: 1, }
solver: {iscf: 7, nstep: 100, nline: 4, wfoptalg: 0, }
tolerances: {tolwfr: 1.00E-20, }
...

     iter   2DEtotal(Ha)        deltaE(Ha) residm    vres2
-ETOT  1  -16.409368747581     -1.641E+01 1.288E-01 0.000E+00
 ETOT  2  -16.415957299569     -6.589E-03 1.931E-03 0.000E+00
 ETOT  3  -16.415974881696     -1.758E-05 3.115E-05 0.000E+00
 ETOT  4  -16.415974964843     -8.315E-08 2.452E-06 0.000E+00
 ETOT  5  -16.415974965327     -4.841E-10 5.079E-08 0.000E+00
 ETOT  6  -16.415974965330     -3.045E-12 5.324E-09 0.000E+00
 ETOT  7  -16.415974965330      3.553E-15 1.443E-10 0.000E+00
 ETOT  8  -16.415974965330      0.000E+00 1.801E-11 0.000E+00
 ETOT  9  -16.415974965330     -7.105E-15 5.585E-13 0.000E+00
 ETOT 10  -16.415974965330      3.553E-15 7.443E-14 0.000E+00
 ETOT 11  -16.415974965330     -3.553E-15 2.495E-15 0.000E+00
 ETOT 12  -16.415974965330      3.553E-15 3.306E-16 0.000E+00
 ETOT 13  -16.415974965330     -7.105E-15 1.167E-17 0.000E+00
 ETOT 14  -16.415974965330      3.553E-15 1.510E-18 0.000E+00
 ETOT 15  -16.415974965330      3.553E-15 5.565E-20 0.000E+00
 ETOT 16  -16.415974965330      0.000E+00 9.751E-21 0.000E+00

 At SCF step   16   max residual=  9.75E-21 < tolwfr=  1.00E-20 =>converged.

 ----iterations are completed or convergence reached----

 dfpt_looppert: DFPT cycle converged with prtwf=-1. Will skip output of the 1st-order WFK file.
 dfpt_looppert : ek2=    3.2370543138E+01
          f-sum rule ratio=    1.0026320206E+00
 prteigrs : about to open file /scratch/users/j/a/jabreu/flow_simple_4atoms/flow/w153/t1/tmpdata/tmp_1WF1_EIG
 Expectation of eigenvalue derivatives (hartree) for nkpt=   2  k points:
  (in case of degenerate eigenvalues, averaged derivative)
 kpt#   1, nband= 24, wtk=  0.50000, kpt=  0.0000  0.0000  0.0000 (reduced coord)
   0.00000   -0.00000    0.00000    0.00000    0.00000   -0.00000   -0.00000   -0.00000
   0.00000    0.00000    0.00000   -0.00000   -0.00000    0.00000    0.00000   -0.00000
  -0.00000    0.00000    0.00000    0.00000    0.00000   -0.00000   -0.00000    0.00002
 prteigrs : prtvol=0 or 1, do not print more k-points.

 Eight components of 2nd-order total energy (hartree) are
 1,2,3: 0th-order hamiltonian combined with 1st-order wavefunctions
     kin0=   1.69799875E+01 eigvalue=   1.22773426E+00  local=  -7.20424547E+00
 4,5,6: 1st-order hamiltonian combined with 1st and 0th-order wfs
     kin1=  -3.24557431E+01  Hartree=   0.00000000E+00     xc=   0.00000000E+00
 7,8,9: eventually, occupation + non-local contributions
    edocc=   6.18290354E+00     enl0=  -7.70404917E-01   enl1=  -3.76206856E-01
 1-9 gives the relaxation energy (to be shifted if some occ is /=2.0)
   erelax=  -1.64159750E+01
  No Ewald or frozen-wf contrib.: the relaxation energy is the total one
 2DEtotal=   -0.1641597497E+02 Ha. Also 2DEtotal=   -0.446701396218E+03 eV
    (  non-var. 2DEtotal :   -1.6415974965E+01 Ha)

 Perturbation wavevector (in red.coord.)   0.000000  0.000000  0.000000
 Perturbation : derivative vs k along direction   2
 The set of symmetries contains only one element for this perturbation.
 symkpt : not enough symmetry to change the number of k points.

[...]

 Perturbation wavevector (in red.coord.)   0.000000  0.000000  0.000000
 Perturbation : derivative vs k along direction   3
 The set of symmetries contains only one element for this perturbation.
 symkpt : not enough symmetry to change the number of k points.

-inwffil : will read wavefunctions from disk file /scratch/users/j/a/jabreu/flow_simple_4atoms/flow/w153/t1/indata/in_WFK

 Initialisation of the first-order wave-functions :
  ireadwf=   0

--- !BeginCycle
iteration_state: {dtset: 1, }
solver: {iscf: 7, nstep: 100, nline: 4, wfoptalg: 0, }
tolerances: {tolwfr: 1.00E-20, }
...

     iter   2DEtotal(Ha)        deltaE(Ha) residm    vres2
-ETOT  1  -29.996391186665     -3.000E+01 8.771E-02 0.000E+00
 ETOT  2  -30.013479725748     -1.709E-02 8.992E-04 0.000E+00
 ETOT  3  -30.013533253417     -5.353E-05 6.136E-06 0.000E+00
 ETOT  4  -30.013533590943     -3.375E-07 1.617E-07 0.000E+00
 ETOT  5  -30.013533593461     -2.518E-09 3.724E-09 0.000E+00
 ETOT  6  -30.013533593481     -2.004E-11 2.228E-10 0.000E+00
 ETOT  7  -30.013533593481     -1.563E-13 7.784E-12 0.000E+00
 ETOT  8  -30.013533593481     -1.066E-14 5.033E-13 0.000E+00
 ETOT  9  -30.013533593481      3.553E-15 1.788E-14 0.000E+00
 ETOT 10  -30.013533593481     -1.421E-14 1.170E-15 0.000E+00
 ETOT 11  -30.013533593481      0.000E+00 4.171E-17 0.000E+00
 ETOT 12  -30.013533593481     -3.553E-15 2.765E-18 0.000E+00
 ETOT 13  -30.013533593481      1.066E-14 9.872E-20 0.000E+00
 ETOT 14  -30.013533593481     -7.105E-15 9.566E-21 0.000E+00

 At SCF step   14   max residual=  9.57E-21 < tolwfr=  1.00E-20 =>converged.

 ----iterations are completed or convergence reached----

 dfpt_looppert: DFPT cycle converged with prtwf=-1. Will skip output of the 1st-order WFK file.
 dfpt_looppert : ek2=    5.7211418315E+01
          f-sum rule ratio=    1.0379335520E+00
 prteigrs : about to open file /scratch/users/j/a/jabreu/flow_simple_4atoms/flow/w153/t1/tmpdata/tmp_1WF1_EIG
 Expectation of eigenvalue derivatives (hartree) for nkpt=   2  k points:
  (in case of degenerate eigenvalues, averaged derivative)
 kpt#   1, nband= 24, wtk=  0.50000, kpt=  0.0000  0.0000  0.0000 (reduced coord)
   0.00000    0.00000    0.00000    0.00000    0.00000    0.00000   -0.00000    0.00000
   0.00000    0.00000    0.00000    0.00000   -0.00000    0.00000   -0.00000    0.00000
  -0.00000    0.00000    0.00000    0.00000    0.00000    0.00000    0.00000   -0.00029
 prteigrs : prtvol=0 or 1, do not print more k-points.

 Eight components of 2nd-order total energy (hartree) are
 1,2,3: 0th-order hamiltonian combined with 1st-order wavefunctions
     kin0=   2.95754771E+01 eigvalue=   1.92362590E+00  local=  -1.23519786E+01
 4,5,6: 1st-order hamiltonian combined with 1st and 0th-order wfs
     kin1=  -5.93816506E+01  Hartree=   0.00000000E+00     xc=   0.00000000E+00
 7,8,9: eventually, occupation + non-local contributions
    edocc=   1.22046808E+01     enl0=  -1.33827158E+00   enl1=  -6.45416558E-01
 1-9 gives the relaxation energy (to be shifted if some occ is /=2.0)
   erelax=  -3.00135336E+01
  No Ewald or frozen-wf contrib.: the relaxation energy is the total one
 2DEtotal=   -0.3001353359E+02 Ha. Also 2DEtotal=   -0.816709783607E+03 eV
    (  non-var. 2DEtotal :   -3.0013533593E+01 Ha)

 CALCULATION OF EFFECTIVE MASSES
 NOTE : Additional infos (eff. mass eigenvalues, eigenvectors and, if degenerate, average mass) are available in stdout.

 K-point ( 0.000, 0.000, 0.000) | band =    15
 Effective mass tensor:
             -2.1827173838              0.2476200704              0.3630410377
              0.2476200704             -3.1419002974             -0.3405498275
              0.3630410377             -0.3405498275             -2.4180354963
 Effective mass tensor eigenvalues:
             -3.3917093472             -2.4321986895             -1.9187451408
 Angular average effective mass 1/(<1/m>)=  -2.4446666744
 Angular average effective mass for Frohlich model (<m**0.5>)**2=  -2.4836512845
 Effective masses along directions: (cart. coord. / red. coord. -> eff. mass)
    1:   1.000000  0.000000  0.000000 /   0.967740 -0.251952  0.000000 ->  -2.1157320864
    2:   0.000000  1.000000  0.000000 /   0.000000  1.000000  0.000000 ->  -3.0757968773
    3:   0.000000  0.000000  1.000000 /  -0.249261 -0.533108  0.808495 ->  -2.3288714455
    4:   0.577350  0.577350  0.577350 /   0.533543 -0.163643  0.829791 ->  -2.2419814020
    5:   0.000000  0.707107  0.707107 /  -0.294277  0.048164  0.954506 ->  -2.9764244824
    6:   0.707107  0.000000  0.707107 /   0.429980 -0.606567  0.668725 ->  -1.9314094031
    7:   0.707107  0.707107  0.000000 /   0.899464  0.436995  0.000000 ->  -2.3315380672

 K-point ( 0.122,-0.122, 0.122) | band =    16
 Effective mass tensor:
              0.8016768479             -0.0049009124              0.1650286782
             -0.0049009124              0.5838157791              0.0067402008
              0.1650286782              0.0067402008              0.6947086442
 Effective mass tensor eigenvalues:
              0.5697693406              0.5887600395              0.9216718912
 Angular average effective mass 1/(<1/m>)=   0.6610017586
 Angular average effective mass for Frohlich model (<m**0.5>)**2=   0.6697737483
 Effective masses along directions: (cart. coord. / red. coord. -> eff. mass)
    1:   1.000000  0.000000  0.000000 /   0.967740 -0.251952  0.000000 ->   0.7624017109
    2:   0.000000  1.000000  0.000000 /   0.000000  1.000000  0.000000 ->   0.5836949376
    3:   0.000000  0.000000  1.000000 /  -0.249261 -0.533108  0.808495 ->   0.6606339106
    4:   0.577350  0.577350  0.577350 /   0.533543 -0.163643  0.829791 ->   0.7684127494
    5:   0.000000  0.707107  0.707107 /  -0.294277  0.048164  0.954506 ->   0.6276013656
    6:   0.707107  0.000000  0.707107 /   0.429980 -0.606567  0.668725 ->   0.9083089638
    7:   0.707107  0.707107  0.000000 /   0.899464  0.436995  0.000000 ->   0.6548600931

 END OF EFFECTIVE MASSES SECTION

 ---- first-order wavefunction calculations are completed ----

 Total localisation tensor (bohr^2) in cartesian coordinates
  WARNING : still subject to testing - especially symmetries.
      direction              matrix element
   alpha     beta       real part   imaginary part
     1        1       0.9217068508    0.0000000000
     1        2      -0.2879390994    0.0000000000
     1        3       0.0013144972    0.0000000000
     2        1      -0.2879390994    0.0000000000
     2        2       0.8252607070    0.0000000000
     2        3      -0.7665969827    0.0000000000
     3        1       0.0013144972    0.0000000000
     3        2      -0.7665969827    0.0000000000
     3        3       2.5757118946    0.0000000000

 respfn : d/dk was computed, but no 2DTE, so no DDB output.

== END DATASET(S) ==============================================================

 -outvars: echo values of variables after computation  --------
            acell      1.0000000000E+00  1.0000000000E+00  1.0000000000E+00 Bohr
              amu      8.54678000E+01  1.59994000E+01
             ecut      4.40000000E+01 Hartree
           etotal     -3.0013533593E+01
            fcart      0.0000000000E+00  0.0000000000E+00  0.0000000000E+00
                       0.0000000000E+00  0.0000000000E+00  0.0000000000E+00
                       0.0000000000E+00  0.0000000000E+00  0.0000000000E+00
                       0.0000000000E+00  0.0000000000E+00  0.0000000000E+00
-          fftalg         512
           irdden           1
           irdwfk           1
           istwfk        1    0
              ixc     -116133
              kpt      0.00000000E+00  0.00000000E+00  0.00000000E+00
                       1.22485405E-01 -1.22485405E-01  1.22485405E-01
           kptopt           0
P           mkmem           2
P          mkqmem           2
P          mk1mem           2
            natom           4
            nband          24
           nbdbuf           4
            ngfft          60      60      60
             nkpt           2
            nstep         100
             nsym           8
           ntypat           2
              occ      2.000000  2.000000  2.000000  2.000000  2.000000  2.000000
                       2.000000  2.000000  2.000000  2.000000  2.000000  2.000000
                       2.000000  2.000000  2.000000  0.000000  0.000000  0.000000
                       0.000000  0.000000  0.000000  0.000000  0.000000  0.000000
        optdriver           1
            prtwf          -1
            rfdir           1       1       1
           rfelfd           2
            rprim      9.0599505039E+00  0.0000000000E+00 -2.9362372214E+00
                      -2.3587645508E+00  6.7604424158E+00 -6.2798758181E+00
                       0.0000000000E+00  0.0000000000E+00  9.5238748498E+00
          spgroup          71
           strten      0.0000000000E+00  0.0000000000E+00  0.0000000000E+00
                       0.0000000000E+00  0.0000000000E+00  0.0000000000E+00
           symrel      1  0  0   0  1  0   0  0  1      -1  0  0   0 -1  0   0  0 -1
                       0  0  1  -1 -1 -1   1  0  0       0  0 -1   1  1  1  -1  0  0
                      -1 -1 -1   0  0  1   0  1  0       1  1  1   0  0 -1   0 -1  0
                       0  1  0   1  0  0  -1 -1 -1       0 -1  0  -1  0  0   1  1  1
           tolwfr      1.00000000E-20
            typat      1  1  2  2
           useylm           1
              wtk        0.50000    0.50000
           xangst      9.1295436729E-01  9.2102733330E-01 -1.2555823264E+00
                       2.6331605096E+00  2.6564447131E+00 -3.6213746459E+00
                       1.7932000771E+00  0.0000000000E+00  1.3038649933E+00
                       3.0011192405E+00  0.0000000000E+00  2.1821626981E+00
            xcart      1.7252337260E+00  1.7404894208E+00 -2.3727067342E+00
                       4.9759522271E+00  5.0199529950E+00 -6.8434063053E+00
                       3.3886570472E+00  0.0000000000E+00  2.4639477516E+00
                       5.6712934567E+00  0.0000000000E+00  4.1236898768E+00
             xred      2.5745200000E-01  2.5745200000E-01 -2.0816681712E-17
                       7.4254800000E-01  7.4254800000E-01  2.7755575616E-17
                       3.7402600000E-01  0.0000000000E+00  3.7402600000E-01
                       6.2597400000E-01  0.0000000000E+00  6.2597400000E-01
            znucl       37.00000    8.00000

- Timing analysis has been suppressed with timopt=0

 Suggested references for the acknowledgment of ABINIT usage.

 Calculation completed.
.Delivered  14 WARNINGs and   9 COMMENTs to log file.