.Version 9.5.1 of ABINIT

 ABINIT is a project of the Universite Catholique de Louvain,
 Corning Inc. and other collaborators, see ~abinit/doc/developers/contributors.txt .
 acknowledgments of the ABINIT effort.

.Starting date : Sat  1 May 2021.
- ( at 04h39 )

- input  file    -> /scratch/users/j/a/jabreu/flow_simple_6atoms/flow/w143/t1/run.abi
- output file    -> /scratch/users/j/a/jabreu/flow_simple_6atoms/flow/w143/t1/run.abo
- root for input  files -> /scratch/users/j/a/jabreu/flow_simple_6atoms/flow/w143/t1/indata/in
- root for output files -> /scratch/users/j/a/jabreu/flow_simple_6atoms/flow/w143/t1/outdata/out

 Symmetries : space group Cm c m (# 63); Bravais oC (1-face-center ortho.)
     intxc =       0      iscf =       7    lmnmax =      25     lnmax =       7
     mgfft =      72  mpssoang =       4    mqgrid =    3435     natom =       6
  nloc_mem =       1    nspden =       1   nspinor =       1    nsppol =       1
      nsym =       8    n1xccc =    2501    ntypat =       3    occopt =       1
   xclevel =       2
-    mband =          43        mffmem =           1         mkmem =           2
-   mkqmem =           2        mk1mem =           2           mpw =       12156
      nfft =      209952          nkpt =           2
  Rough estimation (10% accuracy) of disk space for files :

------------- Echo of variables that govern the present computation ------------
-
- outvars: echo of selected default values
-   iomode0 =  0 , fftalg0 =512 , wfoptalg0 =  0
-
- outvars: echo of global parameters not present in the input file
-  max_nthreads =    0
-
 -outvars: echo values of preprocessed input variables --------
            acell      1.0000000000E+00  1.0000000000E+00  1.0000000000E+00 Bohr
              amu      3.90983000E+01  1.96966540E+02  3.20660000E+01
             ecut      3.80000000E+01 Hartree
-          fftalg         512
           irdden           1
           irdwfk           1
              ixc     -116133
              kpt     -5.00000000E-01  5.00000000E-01  0.00000000E+00
                      -6.25000000E-02  6.25000000E-02  0.00000000E+00
           kptopt           0
P           mkmem           2
P          mkqmem           2
P          mk1mem           2
            natom           6
            nband          43
           nbdbuf           4
            ngfft          54      54      72
             nkpt           2
            nstep        1000
             nsym           8
           ntypat           3
              occ      2.000000  2.000000  2.000000  2.000000  2.000000  2.000000
                       2.000000  2.000000  2.000000  2.000000  2.000000  2.000000
                       2.000000  2.000000  2.000000  2.000000  2.000000  2.000000
                       2.000000  2.000000  2.000000  2.000000  2.000000  2.000000
                       2.000000  2.000000  2.000000  2.000000  2.000000  2.000000
                       2.000000  2.000000  2.000000  2.000000  0.000000  0.000000
                       0.000000  0.000000  0.000000  0.000000  0.000000  0.000000
                       0.000000
        optdriver           1
            prtwf          -1
            rfdir           1       1       1
           rfelfd           2
            rprim      9.4936674454E+00  0.0000000000E+00  0.0000000000E+00
                      -2.1091007674E+00  9.2564256339E+00  0.0000000000E+00
                       0.0000000000E+00  0.0000000000E+00  1.2375770715E+01
          spgroup          63
           symrel      1  0  0   0  1  0   0  0  1      -1  0  0   0 -1  0   0  0 -1
                       0 -1  0  -1  0  0   0  0 -1       0  1  0   1  0  0   0  0  1
                      -1  0  0   0 -1  0   0  0  1       1  0  0   0  1  0   0  0 -1
                       0  1  0   1  0  0   0  0 -1       0 -1  0  -1  0  0   0  0  1
            tnons      0.0000000  0.0000000  0.0000000     0.0000000 -0.0000000  0.0000000
                       0.0000000  0.0000000  0.5000000     0.0000000 -0.0000000  0.5000000
                       0.0000000 -0.0000000  0.5000000     0.0000000  0.0000000  0.5000000
                       0.0000000 -0.0000000  0.0000000     0.0000000  0.0000000  0.0000000
           tolwfr      1.00000000E-20
            typat      1  1  2  2  3  3
           useylm           1
              wtk        0.50000    0.50000
           xangst      2.7415871506E+00  1.8207235889E+00  4.9117318510E+00
                       1.1661572307E+00  3.0775658896E+00  1.6372439503E+00
                       0.0000000000E+00  0.0000000000E+00  0.0000000000E+00
                       0.0000000000E+00  0.0000000000E+00  3.2744879007E+00
                       1.5035650420E-01  3.8879486975E+00  4.9117318510E+00
                       3.7573878771E+00  1.0103407810E+00  1.6372439503E+00
            xcart      5.1808488841E+00  3.4406689467E+00  9.2818280366E+00
                       2.2037177939E+00  5.8157566872E+00  3.0939426789E+00
                       0.0000000000E+00  0.0000000000E+00  0.0000000000E+00
                       0.0000000000E+00  0.0000000000E+00  6.1878853577E+00
                       2.8413261524E-01  7.3471582569E+00  9.2818280366E+00
                       7.1004340628E+00  1.9092673770E+00  3.0939426789E+00
             xred      6.2829400000E-01  3.7170600000E-01  7.5000000000E-01
                       3.7170600000E-01  6.2829400000E-01  2.5000000000E-01
                       0.0000000000E+00  0.0000000000E+00  0.0000000000E+00
                       0.0000000000E+00  0.0000000000E+00  5.0000000000E-01
                       2.0626400000E-01  7.9373600000E-01  7.5000000000E-01
                       7.9373600000E-01  2.0626400000E-01  2.5000000000E-01
            znucl       19.00000   79.00000   16.00000

 chkinp: Checking input parameters for consistency.

== DATASET  1 ==================================================================
-   mpi_nproc: 1, omp_nthreads: -1 (-1 if OMP is not activated)

--- !DatasetInfo
iteration_state: {dtset: 1, }
dimensions: {natom: 6, nkpt: 2, mband: 43, nsppol: 1, nspinor: 1, nspden: 1, mpw: 12156, }
cutoff_energies: {ecut:  38.0, pawecutdg:  -1.0, }
electrons: {nelect:   6.80000000E+01, charge:   0.00000000E+00, occopt:   1.00000000E+00, tsmear:   1.00000000E-02, }
meta: {optdriver: 1, rfelfd: 2, }
...

 Real(R)+Recip(G) space primitive vectors, cartesian coordinates (Bohr,Bohr^-1):
 R(1)=  9.4936674  0.0000000  0.0000000  G(1)=  0.1053334  0.0240005  0.0000000
 R(2)= -2.1091008  9.2564256  0.0000000  G(2)=  0.0000000  0.1080331  0.0000000
 R(3)=  0.0000000  0.0000000 12.3757707  G(3)=  0.0000000  0.0000000  0.0808030
 Unit cell volume ucvol=  1.0875509E+03 bohr^3
 Angles (23,13,12)=  9.00000000E+01  9.00000000E+01  1.02835855E+02 degrees

 getcut: wavevector=  0.0000  0.0000  0.0000  ngfft=  54  54  72
         ecut(hartree)=     38.000   => boxcut(ratio)=   2.04976

--- Pseudopotential description ------------------------------------------------
- pspini: atom type   1  psp file is /scratch/users/j/a/jabreu/pseudos/PBEsol/K.psp8
- pspatm: opening atomic psp file    /scratch/users/j/a/jabreu/pseudos/PBEsol/K.psp8
- K     ONCVPSP-3.3.0  r_core=   1.36296   1.46408   1.61068
- 19.00000   9.00000    180112                znucl, zion, pspdat
    8 -116133    2    4       400   0.00000   pspcod,pspxc,lmax,lloc,mmax,r2well
    3.99000000000000    5.00000000000000    0.00000000000000   rchrg,fchrg,qchrg
     nproj     2     2     2
     extension_switch     1
  pspatm : epsatm=    8.32487830
         --- l  ekb(1:nproj) -->
             0   10.921326    0.816676
             1    4.431000    0.560368
             2   -3.384038   -1.043186
 pspatm: atomic psp has been read  and splines computed

- pspini: atom type   2  psp file is /scratch/users/j/a/jabreu/pseudos/PBEsol/Au.psp8
- pspatm: opening atomic psp file    /scratch/users/j/a/jabreu/pseudos/PBEsol/Au.psp8
- Au    ONCVPSP-3.3.0  r_core=   1.45604   1.56407   1.56407   1.60183
- 79.00000  19.00000    180112                znucl, zion, pspdat
    8 -116133    3    4       500   0.00000   pspcod,pspxc,lmax,lloc,mmax,r2well
    4.99000000000000    5.00000000000000    0.00000000000000   rchrg,fchrg,qchrg
     nproj     2     2     2     1
     extension_switch     1
  pspatm : epsatm=   32.21965837
         --- l  ekb(1:nproj) -->
             0    9.413866   -0.196587
             1    2.474292   -1.517497
             2    1.503483    0.298081
             3    1.177996
 pspatm: atomic psp has been read  and splines computed

- pspini: atom type   3  psp file is /scratch/users/j/a/jabreu/pseudos/PBEsol/S.psp8
- pspatm: opening atomic psp file    /scratch/users/j/a/jabreu/pseudos/PBEsol/S.psp8
- S     ONCVPSP-3.3.0  r_core=   1.45376   1.45376   1.61851
- 16.00000   6.00000    180112                znucl, zion, pspdat
    8 -116133    2    4       600   0.00000   pspcod,pspxc,lmax,lloc,mmax,r2well
    5.99000000000000    6.00000000000000    0.00000000000000   rchrg,fchrg,qchrg
     nproj     2     2     2
     extension_switch     1
  pspatm : epsatm=    8.71840985
         --- l  ekb(1:nproj) -->
             0    6.834532    0.579453
             1    3.282851    0.896984
             2   -3.496974   -0.974265
 pspatm: atomic psp has been read  and splines computed

   6.69976073E+03                                ecore*ucvol(ha*bohr**3)

-inwffil : will read wavefunctions from disk file /scratch/users/j/a/jabreu/flow_simple_6atoms/flow/w143/t1/indata/in_WFK

 ==>  initialize data related to q vector <==

 The list of irreducible perturbations for this q vector is:
    1)    idir= 1    ipert=   7
    2)    idir= 2    ipert=   7
    3)    idir= 3    ipert=   7

 Perturbation wavevector (in red.coord.)   0.000000  0.000000  0.000000
 Perturbation : derivative vs k along direction   1

 dfpt_looppert : COMMENT -
  In a d/dk calculation, iscf is set to -3 automatically.
 The set of symmetries contains only one element for this perturbation.
 symkpt : not enough symmetry to change the number of k points.

[...]

 Initialisation of the first-order wave-functions :
  ireadwf=   0

--- !BeginCycle
iteration_state: {dtset: 1, }
solver: {iscf: 7, nstep: 1000, nline: 4, wfoptalg: 0, }
tolerances: {tolwfr: 1.00E-20, }
...

     iter   2DEtotal(Ha)        deltaE(Ha) residm    vres2
-ETOT  1  -32.207184740580     -3.221E+01 5.216E-02 0.000E+00
 ETOT  2  -32.270645596758     -6.346E-02 4.513E-03 0.000E+00
 ETOT  3  -32.271406028696     -7.604E-04 1.362E-04 0.000E+00
 ETOT  4  -32.271421666542     -1.564E-05 1.641E-05 0.000E+00
 ETOT  5  -32.271422052751     -3.862E-07 8.980E-07 0.000E+00
 ETOT  6  -32.271422063000     -1.025E-08 1.067E-07 0.000E+00
 ETOT  7  -32.271422063284     -2.846E-10 6.286E-09 0.000E+00
 ETOT  8  -32.271422063292     -8.129E-12 7.456E-10 0.000E+00
 ETOT  9  -32.271422063292     -1.492E-13 6.929E-11 0.000E+00
 ETOT 10  -32.271422063293     -7.105E-14 5.512E-12 0.000E+00
 ETOT 11  -32.271422063293      7.105E-15 9.755E-13 0.000E+00
 ETOT 12  -32.271422063293      1.421E-14 7.288E-14 0.000E+00
 ETOT 13  -32.271422063293      7.105E-15 1.391E-14 0.000E+00
 ETOT 14  -32.271422063292      7.105E-15 1.088E-15 0.000E+00
 ETOT 15  -32.271422063293     -7.105E-15 2.029E-16 0.000E+00
 ETOT 16  -32.271422063293     -7.105E-15 1.641E-17 0.000E+00
 ETOT 17  -32.271422063293      0.000E+00 3.307E-18 0.000E+00
 ETOT 18  -32.271422063293      0.000E+00 2.511E-19 0.000E+00
 ETOT 19  -32.271422063292      1.421E-14 5.598E-20 0.000E+00
 ETOT 20  -32.271422063292      0.000E+00 9.792E-21 0.000E+00

 At SCF step   20   max residual=  9.79E-21 < tolwfr=  1.00E-20 =>converged.

 ----iterations are completed or convergence reached----

 dfpt_looppert: DFPT cycle converged with prtwf=-1. Will skip output of the 1st-order WFK file.
 dfpt_looppert : ek2=    6.2663119672E+01
          f-sum rule ratio=    1.0421981693E+00
 prteigrs : about to open file /scratch/users/j/a/jabreu/flow_simple_6atoms/flow/w143/t1/tmpdata/tmp_1WF1_EIG
 Expectation of eigenvalue derivatives (hartree) for nkpt=   2  k points:
  (in case of degenerate eigenvalues, averaged derivative)
 kpt#   1, nband= 43, wtk=  0.50000, kpt= -0.5000  0.5000  0.0000 (reduced coord)
  -0.00000   -0.00000    0.00000   -0.00000    0.00000   -0.00000    0.00000   -0.00000
  -0.00000    0.00000    0.00000   -0.00000   -0.00000   -0.00000   -0.00000    0.00000
  -0.00000   -0.00000    0.00000    0.00000    0.00000   -0.00000   -0.00000   -0.00000
  -0.00000   -0.00000   -0.00000   -0.00000   -0.00000    0.00000   -0.00000    0.00000
   0.00000   -0.00000    0.00000   -0.00000   -0.00000   -0.00000    0.00000    0.00000
   0.00000    0.00000   -0.00024
 prteigrs : prtvol=0 or 1, do not print more k-points.

 Eight components of 2nd-order total energy (hartree) are
 1,2,3: 0th-order hamiltonian combined with 1st-order wavefunctions
     kin0=   4.80303144E+01 eigvalue=   1.35794174E+00  local=  -2.69927003E+01
 4,5,6: 1st-order hamiltonian combined with 1st and 0th-order wfs
     kin1=  -6.53073886E+01  Hartree=   0.00000000E+00     xc=   0.00000000E+00
 7,8,9: eventually, occupation + non-local contributions
    edocc=   7.66165725E+00     enl0=   2.21420895E+00   enl1=   7.64544479E-01
 1-9 gives the relaxation energy (to be shifted if some occ is /=2.0)
   erelax=  -3.22714221E+01
  No Ewald or frozen-wf contrib.: the relaxation energy is the total one
 2DEtotal=   -0.3227142206E+02 Ha. Also 2DEtotal=   -0.878150053472E+03 eV
    (  non-var. 2DEtotal :   -3.2271422063E+01 Ha)

 Perturbation wavevector (in red.coord.)   0.000000  0.000000  0.000000
 Perturbation : derivative vs k along direction   2
 The set of symmetries contains only one element for this perturbation.
 symkpt : not enough symmetry to change the number of k points.

[...]

 Perturbation wavevector (in red.coord.)   0.000000  0.000000  0.000000
 Perturbation : derivative vs k along direction   3
 The set of symmetries contains only one element for this perturbation.
 symkpt : not enough symmetry to change the number of k points.

-inwffil : will read wavefunctions from disk file /scratch/users/j/a/jabreu/flow_simple_6atoms/flow/w143/t1/indata/in_WFK

 Initialisation of the first-order wave-functions :
  ireadwf=   0

--- !BeginCycle
iteration_state: {dtset: 1, }
solver: {iscf: 7, nstep: 1000, nline: 4, wfoptalg: 0, }
tolerances: {tolwfr: 1.00E-20, }
...

     iter   2DEtotal(Ha)        deltaE(Ha) residm    vres2
-ETOT  1  -18.262024822749     -1.826E+01 5.350E-02 0.000E+00
 ETOT  2  -18.289307959151     -2.728E-02 5.709E-03 0.000E+00
 ETOT  3  -18.289523364885     -2.154E-04 3.354E-04 0.000E+00
 ETOT  4  -18.289526676483     -3.312E-06 4.904E-05 0.000E+00
 ETOT  5  -18.289526746041     -6.956E-08 4.395E-06 0.000E+00
 ETOT  6  -18.289526747701     -1.660E-09 6.980E-07 0.000E+00
 ETOT  7  -18.289526747743     -4.255E-11 6.714E-08 0.000E+00
 ETOT  8  -18.289526747744     -1.108E-12 1.207E-08 0.000E+00
 ETOT  9  -18.289526747744     -2.132E-14 1.218E-09 0.000E+00
 ETOT 10  -18.289526747744     -4.974E-14 2.339E-10 0.000E+00
 ETOT 11  -18.289526747744      3.553E-14 2.420E-11 0.000E+00
 ETOT 12  -18.289526747744     -7.105E-15 4.770E-12 0.000E+00
 ETOT 13  -18.289526747744      7.105E-15 4.996E-13 0.000E+00
 ETOT 14  -18.289526747744      0.000E+00 9.946E-14 0.000E+00
 ETOT 15  -18.289526747744      0.000E+00 1.049E-14 0.000E+00
 ETOT 16  -18.289526747744     -3.553E-15 2.097E-15 0.000E+00
 ETOT 17  -18.289526747744     -3.553E-15 2.221E-16 0.000E+00
 ETOT 18  -18.289526747744      0.000E+00 4.449E-17 0.000E+00
 ETOT 19  -18.289526747744      0.000E+00 4.723E-18 0.000E+00
 ETOT 20  -18.289526747744      0.000E+00 9.483E-19 0.000E+00
 ETOT 21  -18.289526747744      0.000E+00 1.007E-19 0.000E+00
 ETOT 22  -18.289526747744      0.000E+00 2.028E-20 0.000E+00
 ETOT 23  -18.289526747744     -3.553E-15 9.941E-21 0.000E+00

 At SCF step   23   max residual=  9.94E-21 < tolwfr=  1.00E-20 =>converged.

 ----iterations are completed or convergence reached----

 dfpt_looppert: DFPT cycle converged with prtwf=-1. Will skip output of the 1st-order WFK file.
 dfpt_looppert : ek2=    3.5055336136E+01
          f-sum rule ratio=    1.0513157864E+00
 prteigrs : about to open file /scratch/users/j/a/jabreu/flow_simple_6atoms/flow/w143/t1/tmpdata/tmp_1WF1_EIG
 Expectation of eigenvalue derivatives (hartree) for nkpt=   2  k points:
  (in case of degenerate eigenvalues, averaged derivative)
 kpt#   1, nband= 43, wtk=  0.50000, kpt= -0.5000  0.5000  0.0000 (reduced coord)
  -0.00000    0.00000    0.00000    0.00000   -0.00000    0.00000    0.00000    0.00000
   0.00000    0.00000    0.00000   -0.00000    0.00000    0.00000    0.00000   -0.00000
  -0.00000   -0.00000   -0.00000   -0.00000    0.00000   -0.00000   -0.00000   -0.00000
  -0.00000   -0.00000   -0.00000    0.00000    0.00000    0.00000   -0.00000   -0.00000
   0.00000   -0.00000    0.00000    0.00000    0.00000    0.00000   -0.00000   -0.00000
  -0.00000    0.00000   -0.00001
 prteigrs : prtvol=0 or 1, do not print more k-points.

 Eight components of 2nd-order total energy (hartree) are
 1,2,3: 0th-order hamiltonian combined with 1st-order wavefunctions
     kin0=   2.46767864E+01 eigvalue=   7.11131425E-01  local=  -1.37311775E+01
 4,5,6: 1st-order hamiltonian combined with 1st and 0th-order wfs
     kin1=  -3.68542283E+01  Hartree=   0.00000000E+00     xc=   0.00000000E+00
 7,8,9: eventually, occupation + non-local contributions
    edocc=   5.57960981E+00     enl0=   1.05317662E+00   enl1=   2.75174782E-01
 1-9 gives the relaxation energy (to be shifted if some occ is /=2.0)
   erelax=  -1.82895267E+01
  No Ewald or frozen-wf contrib.: the relaxation energy is the total one
 2DEtotal=   -0.1828952675E+02 Ha. Also 2DEtotal=   -0.497683332951E+03 eV
    (  non-var. 2DEtotal :   -1.8289526748E+01 Ha)

 CALCULATION OF EFFECTIVE MASSES
 NOTE : Additional infos (eff. mass eigenvalues, eigenvectors and, if degenerate, average mass) are available in stdout.

 K-point (-0.500, 0.500, 0.000) | band =    34
 Effective mass tensor:
             -1.8979999167              0.7182254307              0.0000002566
              0.7182254307             -1.5706655010              0.0000003189
              0.0000002566              0.0000003189             -0.4432234531
 Effective mass tensor eigenvalues:
             -2.4709701530             -0.9976952647             -0.4432234531
 Angular average effective mass 1/(<1/m>)=  -0.8189543825
 Angular average effective mass for Frohlich model (<m**0.5>)**2=  -0.9352630185
 Effective masses along directions: (cart. coord. / red. coord. -> eff. mass)
    1:   1.000000  0.000000  0.000000 /   0.976200 -0.216871  0.000000 ->  -1.5695736738
    2:   0.000000  1.000000  0.000000 /   0.000000  1.000000  0.000000 ->  -1.2988805738
    3:   0.000000  0.000000  1.000000 /   0.000000  0.000000  1.000000 ->  -0.4432234531
    4:   0.577350  0.577350  0.577350 /   0.553330  0.416576  0.721311 ->  -0.7065666532
    5:   0.000000  0.707107  0.707107 /   0.000000  0.598948  0.800788 ->  -0.6609181188
    6:   0.707107  0.000000  0.707107 /   0.603168 -0.133999  0.786278 ->  -0.6912485875
    7:   0.707107  0.707107  0.000000 /   0.798905  0.601457  0.000000 ->  -1.0051852313

 K-point (-0.062, 0.062, 0.000) | band =    35
 Effective mass tensor:
              0.6320211116              0.0518186794             -0.0000001500
              0.0518186794              0.6556332513             -0.0000001042
             -0.0000001500             -0.0000001042              0.2329717596
 Effective mass tensor eigenvalues:
              0.2329717596              0.5906806028              0.6969737601
 Angular average effective mass 1/(<1/m>)=   0.4043070942
 Angular average effective mass for Frohlich model (<m**0.5>)**2=   0.4368198768
 Effective masses along directions: (cart. coord. / red. coord. -> eff. mass)
    1:   1.000000  0.000000  0.000000 /   0.976200 -0.216871  0.000000 ->   0.6279255665
    2:   0.000000  1.000000  0.000000 /   0.000000  1.000000  0.000000 ->   0.6513846978
    3:   0.000000  0.000000  1.000000 /   0.000000  0.000000  1.000000 ->   0.2329717596
    4:   0.577350  0.577350  0.577350 /   0.553330  0.416576  0.721311 ->   0.4185052786
    5:   0.000000  0.707107  0.707107 /   0.000000  0.598948  0.800788 ->   0.3431969234
    6:   0.707107  0.000000  0.707107 /   0.603168 -0.133999  0.786278 ->   0.3398520857
    7:   0.707107  0.707107  0.000000 /   0.798905  0.601457  0.000000 ->   0.6954104195

 END OF EFFECTIVE MASSES SECTION

 ---- first-order wavefunction calculations are completed ----

 Total localisation tensor (bohr^2) in cartesian coordinates
  WARNING : still subject to testing - especially symmetries.
      direction              matrix element
   alpha     beta       real part   imaginary part
     1        1       1.0474797492    0.0000000000
     1        2      -0.2162195449    0.0000000000
     1        3       0.0000000000    0.0000000000
     2        1      -0.2162195449    0.0000000000
     2        2       0.9489447679    0.0000000000
     2        3       0.0000000000    0.0000000000
     3        1       0.0000000000    0.0000000000
     3        2       0.0000000000    0.0000000000
     3        3       1.2127292125    0.0000000000

 respfn : d/dk was computed, but no 2DTE, so no DDB output.

== END DATASET(S) ==============================================================

 -outvars: echo values of variables after computation  --------
            acell      1.0000000000E+00  1.0000000000E+00  1.0000000000E+00 Bohr
              amu      3.90983000E+01  1.96966540E+02  3.20660000E+01
             ecut      3.80000000E+01 Hartree
           etotal     -1.8289526748E+01
            fcart      0.0000000000E+00  0.0000000000E+00  0.0000000000E+00
                       0.0000000000E+00  0.0000000000E+00  0.0000000000E+00
                       0.0000000000E+00  0.0000000000E+00  0.0000000000E+00
                       0.0000000000E+00  0.0000000000E+00  0.0000000000E+00
                       0.0000000000E+00  0.0000000000E+00  0.0000000000E+00
                       0.0000000000E+00  0.0000000000E+00  0.0000000000E+00
-          fftalg         512
           irdden           1
           irdwfk           1
              ixc     -116133
              kpt     -5.00000000E-01  5.00000000E-01  0.00000000E+00
                      -6.25000000E-02  6.25000000E-02  0.00000000E+00
           kptopt           0
P           mkmem           2
P          mkqmem           2
P          mk1mem           2
            natom           6
            nband          43
           nbdbuf           4
            ngfft          54      54      72
             nkpt           2
            nstep        1000
             nsym           8
           ntypat           3
              occ      2.000000  2.000000  2.000000  2.000000  2.000000  2.000000
                       2.000000  2.000000  2.000000  2.000000  2.000000  2.000000
                       2.000000  2.000000  2.000000  2.000000  2.000000  2.000000
                       2.000000  2.000000  2.000000  2.000000  2.000000  2.000000
                       2.000000  2.000000  2.000000  2.000000  2.000000  2.000000
                       2.000000  2.000000  2.000000  2.000000  0.000000  0.000000
                       0.000000  0.000000  0.000000  0.000000  0.000000  0.000000
                       0.000000
        optdriver           1
            prtwf          -1
            rfdir           1       1       1
           rfelfd           2
            rprim      9.4936674454E+00  0.0000000000E+00  0.0000000000E+00
                      -2.1091007674E+00  9.2564256339E+00  0.0000000000E+00
                       0.0000000000E+00  0.0000000000E+00  1.2375770715E+01
          spgroup          63
           strten      0.0000000000E+00  0.0000000000E+00  0.0000000000E+00
                       0.0000000000E+00  0.0000000000E+00  0.0000000000E+00
           symrel      1  0  0   0  1  0   0  0  1      -1  0  0   0 -1  0   0  0 -1
                       0 -1  0  -1  0  0   0  0 -1       0  1  0   1  0  0   0  0  1
                      -1  0  0   0 -1  0   0  0  1       1  0  0   0  1  0   0  0 -1
                       0  1  0   1  0  0   0  0 -1       0 -1  0  -1  0  0   0  0  1
            tnons      0.0000000  0.0000000  0.0000000     0.0000000 -0.0000000  0.0000000
                       0.0000000  0.0000000  0.5000000     0.0000000 -0.0000000  0.5000000
                       0.0000000 -0.0000000  0.5000000     0.0000000  0.0000000  0.5000000
                       0.0000000 -0.0000000  0.0000000     0.0000000  0.0000000  0.0000000
           tolwfr      1.00000000E-20
            typat      1  1  2  2  3  3
           useylm           1
              wtk        0.50000    0.50000
           xangst      2.7415871506E+00  1.8207235889E+00  4.9117318510E+00
                       1.1661572307E+00  3.0775658896E+00  1.6372439503E+00
                       0.0000000000E+00  0.0000000000E+00  0.0000000000E+00
                       0.0000000000E+00  0.0000000000E+00  3.2744879007E+00
                       1.5035650420E-01  3.8879486975E+00  4.9117318510E+00
                       3.7573878771E+00  1.0103407810E+00  1.6372439503E+00
            xcart      5.1808488841E+00  3.4406689467E+00  9.2818280366E+00
                       2.2037177939E+00  5.8157566872E+00  3.0939426789E+00
                       0.0000000000E+00  0.0000000000E+00  0.0000000000E+00
                       0.0000000000E+00  0.0000000000E+00  6.1878853577E+00
                       2.8413261524E-01  7.3471582569E+00  9.2818280366E+00
                       7.1004340628E+00  1.9092673770E+00  3.0939426789E+00
             xred      6.2829400000E-01  3.7170600000E-01  7.5000000000E-01
                       3.7170600000E-01  6.2829400000E-01  2.5000000000E-01
                       0.0000000000E+00  0.0000000000E+00  0.0000000000E+00
                       0.0000000000E+00  0.0000000000E+00  5.0000000000E-01
                       2.0626400000E-01  7.9373600000E-01  7.5000000000E-01
                       7.9373600000E-01  2.0626400000E-01  2.5000000000E-01
            znucl       19.00000   79.00000   16.00000

- Timing analysis has been suppressed with timopt=0

 Suggested references for the acknowledgment of ABINIT usage.

 Calculation completed.
.Delivered  14 WARNINGs and   9 COMMENTs to log file.