.Version 9.5.1 of ABINIT

 ABINIT is a project of the Universite Catholique de Louvain,
 Corning Inc. and other collaborators, see ~abinit/doc/developers/contributors.txt .
 acknowledgments of the ABINIT effort.

.Starting date : Wed 19 May 2021.
- ( at 12h08 )

- input  file    -> /scratch/users/j/a/jabreu/flow_simple_9atoms/flow/w151/t1/run.abi
- output file    -> /scratch/users/j/a/jabreu/flow_simple_9atoms/flow/w151/t1/run.abo
- root for input  files -> /scratch/users/j/a/jabreu/flow_simple_9atoms/flow/w151/t1/indata/in
- root for output files -> /scratch/users/j/a/jabreu/flow_simple_9atoms/flow/w151/t1/outdata/out

 Symmetries : space group P-3 1 m (#162); Bravais hP (primitive hexag.)
     intxc =       0      iscf =       7    lmnmax =      18     lnmax =       6
     mgfft =      60  mpssoang =       3    mqgrid =    3001     natom =       9
  nloc_mem =       1    nspden =       1   nspinor =       1    nsppol =       1
      nsym =      12    n1xccc =    2501    ntypat =       3    occopt =       1
   xclevel =       2
-    mband =          52        mffmem =           1         mkmem =           2
-   mkqmem =           2        mk1mem =           2           mpw =       11730
      nfft =      216000          nkpt =           2
  Rough estimation (10% accuracy) of disk space for files :

------------- Echo of variables that govern the present computation ------------
-
- outvars: echo of selected default values
-   iomode0 =  0 , fftalg0 =512 , wfoptalg0 =  0
-
- outvars: echo of global parameters not present in the input file
-  max_nthreads =    0
-
 -outvars: echo values of preprocessed input variables --------
            acell      1.0000000000E+00  1.0000000000E+00  1.0000000000E+00 Bohr
              amu      1.12411000E+02  7.49215900E+01  1.59994000E+01
             ecut      5.10000000E+01 Hartree
-          fftalg         512
           irdden           1
           irdwfk           1
           istwfk        0    1
              ixc     -116133
              kpt      4.74358974E-01  5.12820513E-02  0.00000000E+00
                       0.00000000E+00  0.00000000E+00  0.00000000E+00
           kptopt           0
P           mkmem           2
P          mkqmem           2
P          mk1mem           2
            natom           9
            nband          52
           nbdbuf           4
            ngfft          60      60      60
             nkpt           2
            nstep        2000
             nsym          12
           ntypat           3
              occ      2.000000  2.000000  2.000000  2.000000  2.000000  2.000000
                       2.000000  2.000000  2.000000  2.000000  2.000000  2.000000
                       2.000000  2.000000  2.000000  2.000000  2.000000  2.000000
                       2.000000  2.000000  2.000000  2.000000  2.000000  2.000000
                       2.000000  2.000000  2.000000  2.000000  2.000000  2.000000
                       2.000000  2.000000  2.000000  2.000000  2.000000  2.000000
                       2.000000  2.000000  2.000000  2.000000  2.000000  2.000000
                       2.000000  0.000000  0.000000  0.000000  0.000000  0.000000
                       0.000000  0.000000  0.000000  0.000000
        optdriver           1
            prtwf          -1
            rfdir           1       1       1
           rfelfd           2
            rprim      9.1866018034E+00  0.0000000000E+00  0.0000000000E+00
                      -4.5933009017E+00  7.9558305362E+00  0.0000000000E+00
                       0.0000000000E+00  0.0000000000E+00  9.2176874958E+00
          spgroup         162
           symrel      1  0  0   0  1  0   0  0  1      -1  0  0   0 -1  0   0  0 -1
                       0  1  0   1  0  0   0  0  1       0 -1  0  -1  0  0   0  0 -1
                       0  1  0  -1 -1  0   0  0  1       0 -1  0   1  1  0   0  0 -1
                      -1 -1  0   0  1  0   0  0  1       1  1  0   0 -1  0   0  0 -1
                      -1 -1  0   1  0  0   0  0  1       1  1  0  -1  0  0   0  0 -1
                       1  0  0  -1 -1  0   0  0  1      -1  0  0   1  1  0   0  0 -1
           tolwfr      1.00000000E-20
            typat      1  2  2  3  3  3  3  3  3
           useylm           1
              wtk        0.50000    0.50000
           xangst      0.0000000000E+00  0.0000000000E+00  0.0000000000E+00
                      -7.0500566530E-16  2.8066961301E+00  2.4388950693E+00
                       2.4306701494E+00  1.4033480651E+00  2.4388950693E+00
                       1.8260312270E+00  0.0000000000E+00  1.4085009249E+00
                       1.5176545359E+00  2.6286547644E+00  1.4085009249E+00
                      -9.1301561352E-01  1.5813894307E+00  1.4085009249E+00
                       9.1301561352E-01  1.5813894307E+00  3.4692892138E+00
                      -1.5176545359E+00  2.6286547644E+00  3.4692892138E+00
                       3.0353090717E+00  0.0000000000E+00  3.4692892138E+00
            xcart      0.0000000000E+00  0.0000000000E+00  0.0000000000E+00
                      -1.3322676296E-15  5.3038870241E+00  4.6088437479E+00
                       4.5933009017E+00  2.6519435121E+00  4.6088437479E+00
                       3.4506989292E+00  0.0000000000E+00  2.6616810059E+00
                       2.8679514371E+00  4.9674376027E+00  2.6616810059E+00
                      -1.7253494646E+00  2.9883929335E+00  2.6616810059E+00
                       1.7253494646E+00  2.9883929335E+00  6.5560064899E+00
                      -2.8679514371E+00  4.9674376027E+00  6.5560064899E+00
                       5.7359028742E+00  0.0000000000E+00  6.5560064899E+00
             xred      0.0000000000E+00  0.0000000000E+00  0.0000000000E+00
                       3.3333333333E-01  6.6666666667E-01  5.0000000000E-01
                       6.6666666667E-01  3.3333333333E-01  5.0000000000E-01
                       3.7562300000E-01  0.0000000000E+00  2.8875800000E-01
                       6.2437700000E-01  6.2437700000E-01  2.8875800000E-01
                       0.0000000000E+00  3.7562300000E-01  2.8875800000E-01
                       3.7562300000E-01  3.7562300000E-01  7.1124200000E-01
                       0.0000000000E+00  6.2437700000E-01  7.1124200000E-01
                       6.2437700000E-01  0.0000000000E+00  7.1124200000E-01
            znucl       48.00000   33.00000    8.00000

 chkinp: Checking input parameters for consistency.

== DATASET  1 ==================================================================
-   mpi_nproc: 1, omp_nthreads: -1 (-1 if OMP is not activated)

--- !DatasetInfo
iteration_state: {dtset: 1, }
dimensions: {natom: 9, nkpt: 2, mband: 52, nsppol: 1, nspinor: 1, nspden: 1, mpw: 11730, }
cutoff_energies: {ecut:  51.0, pawecutdg:  -1.0, }
electrons: {nelect:   8.60000000E+01, charge:   0.00000000E+00, occopt:   1.00000000E+00, tsmear:   1.00000000E-02, }
meta: {optdriver: 1, rfelfd: 2, }
...

 Real(R)+Recip(G) space primitive vectors, cartesian coordinates (Bohr,Bohr^-1):
 R(1)=  9.1866018  0.0000000  0.0000000  G(1)=  0.1088542  0.0628470  0.0000000
 R(2)= -4.5933009  7.9558305  0.0000000  G(2)=  0.0000000  0.1256940  0.0000000
 R(3)=  0.0000000  0.0000000  9.2176875  G(3)=  0.0000000  0.0000000  0.1084871
 Unit cell volume ucvol=  6.7369356E+02 bohr^3
 Angles (23,13,12)=  9.00000000E+01  9.00000000E+01  1.20000000E+02 degrees

 getcut: wavevector=  0.0000  0.0000  0.0000  ngfft=  60  60  60
         ecut(hartree)=     51.000   => boxcut(ratio)=   2.02479

--- Pseudopotential description ------------------------------------------------
- pspini: atom type   1  psp file is /scratch/users/j/a/jabreu/pseudos/PBEsol/Cd.psp8
- pspatm: opening atomic psp file    /scratch/users/j/a/jabreu/pseudos/PBEsol/Cd.psp8
- Cd    ONCVPSP-3.3.0  r_core=   1.25838   1.30423   1.35174
- 48.00000  20.00000    180112                znucl, zion, pspdat
    8 -116133    2    4       600   0.00000   pspcod,pspxc,lmax,lloc,mmax,r2well
    5.99000000000000    6.00000000000000    0.00000000000000   rchrg,fchrg,qchrg
     nproj     2     2     2
     extension_switch     1
  pspatm : epsatm=   23.26728021
         --- l  ekb(1:nproj) -->
             0   63.701523    3.700425
             1    8.703569    1.290373
             2    0.983656   -0.721725
 pspatm: atomic psp has been read  and splines computed

- pspini: atom type   2  psp file is /scratch/users/j/a/jabreu/pseudos/PBEsol/As.psp8
- pspatm: opening atomic psp file    /scratch/users/j/a/jabreu/pseudos/PBEsol/As.psp8
- As    ONCVPSP-3.3.0  r_core=   1.76603   1.70395   1.80867
- 33.00000  15.00000    180112                znucl, zion, pspdat
    8 -116133    2    4       600   0.00000   pspcod,pspxc,lmax,lloc,mmax,r2well
    5.99000000000000    5.00000000000000    0.00000000000000   rchrg,fchrg,qchrg
     nproj     2     2     2
     extension_switch     1
  pspatm : epsatm=   28.79155382
         --- l  ekb(1:nproj) -->
             0    8.270760    0.868950
             1    4.919053    0.756587
             2  -10.048665   -4.076802
 pspatm: atomic psp has been read  and splines computed

- pspini: atom type   3  psp file is /scratch/users/j/a/jabreu/pseudos/PBEsol/O.psp8
- pspatm: opening atomic psp file    /scratch/users/j/a/jabreu/pseudos/PBEsol/O.psp8
- O     ONCVPSP-3.3.0  r_core=   1.35509   1.45563   1.26150
-  8.00000   6.00000    180112                znucl, zion, pspdat
    8 -116133    2    4       600   0.00000   pspcod,pspxc,lmax,lloc,mmax,r2well
    5.99000000000000    4.00000000000000    0.00000000000000   rchrg,fchrg,qchrg
     nproj     2     2     1
     extension_switch     1
  pspatm : epsatm=    6.22910522
         --- l  ekb(1:nproj) -->
             0    6.050032    0.820363
             1   -4.739617   -1.153841
             2   -1.335834
 pspatm: atomic psp has been read  and splines computed

   1.01673516E+04                                ecore*ucvol(ha*bohr**3)

-inwffil : will read wavefunctions from disk file /scratch/users/j/a/jabreu/flow_simple_9atoms/flow/w151/t1/indata/in_WFK

 ==>  initialize data related to q vector <==

 The list of irreducible perturbations for this q vector is:
    1)    idir= 1    ipert=  10
    2)    idir= 2    ipert=  10
    3)    idir= 3    ipert=  10

 Perturbation wavevector (in red.coord.)   0.000000  0.000000  0.000000
 Perturbation : derivative vs k along direction   1

 dfpt_looppert : COMMENT -
  In a d/dk calculation, iscf is set to -3 automatically.
 The set of symmetries contains only one element for this perturbation.
 symkpt : not enough symmetry to change the number of k points.

[...]

 Initialisation of the first-order wave-functions :
  ireadwf=   0

--- !BeginCycle
iteration_state: {dtset: 1, }
solver: {iscf: 7, nstep: 2000, nline: 4, wfoptalg: 0, }
tolerances: {tolwfr: 1.00E-20, }
...

     iter   2DEtotal(Ha)        deltaE(Ha) residm    vres2
-ETOT  1  -85.739667360682     -8.574E+01 2.041E-01 0.000E+00
 ETOT  2  -85.899575730844     -1.599E-01 1.382E-01 0.000E+00
 ETOT  3  -85.901762061895     -2.186E-03 9.193E-03 0.000E+00
 ETOT  4  -85.901828034384     -6.597E-05 7.779E-03 0.000E+00
[...]
 prteigrs : about to open file /scratch/users/j/a/jabreu/flow_simple_9atoms/flow/w151/t1/tmpdata/tmp_1WF1_EIG
 Expectation of eigenvalue derivatives (hartree) for nkpt=   2  k points:
  (in case of degenerate eigenvalues, averaged derivative)
 kpt#   1, nband= 52, wtk=  0.50000, kpt=  0.4744  0.0513  0.0000 (reduced coord)
  -0.00000    0.00000   -0.00000   -0.00000   -0.00000    0.00000   -0.00000    0.00000
   0.00000   -0.00000    0.00000    0.00000   -0.00000    0.00000   -0.00000    0.00000
   0.00000   -0.00000    0.00000    0.00000   -0.00000    0.00000   -0.00000   -0.00000
   0.00000   -0.00000   -0.00000   -0.00000    0.00000   -0.00000    0.00000    0.00000
  -0.00000   -0.00000    0.00000    0.00000    0.00000   -0.00000    0.00000    0.00000
  -0.00000   -0.00000   -0.00000   -0.00000    0.00000    0.00000    0.00000    0.00000
   0.00000    0.00000   -0.00000   -0.00000
 prteigrs : prtvol=0 or 1, do not print more k-points.

 Eight components of 2nd-order total energy (hartree) are
 1,2,3: 0th-order hamiltonian combined with 1st-order wavefunctions
     kin0=   1.09318807E+02 eigvalue=   6.55579547E+00  local=  -4.28354591E+01
 4,5,6: 1st-order hamiltonian combined with 1st and 0th-order wfs
     kin1=  -1.11920125E+02  Hartree=   0.00000000E+00     xc=   0.00000000E+00
 7,8,9: eventually, occupation + non-local contributions
    edocc=   1.16887314E+01     enl0=   1.17395638E+00   enl1=  -5.98835361E+01
 1-9 gives the relaxation energy (to be shifted if some occ is /=2.0)
   erelax=  -8.59018307E+01
  No Ewald or frozen-wf contrib.: the relaxation energy is the total one
 2DEtotal=   -0.8590183075E+02 Ha. Also 2DEtotal=   -0.233750769075E+04 eV
    (  non-var. 2DEtotal :   -8.5901830748E+01 Ha)

 Perturbation wavevector (in red.coord.)   0.000000  0.000000  0.000000
 Perturbation : derivative vs k along direction   2
 The set of symmetries contains only one element for this perturbation.
 symkpt : not enough symmetry to change the number of k points.

[...]

 Perturbation wavevector (in red.coord.)   0.000000  0.000000  0.000000
 Perturbation : derivative vs k along direction   3
 The set of symmetries contains only one element for this perturbation.
 symkpt : not enough symmetry to change the number of k points.

-inwffil : will read wavefunctions from disk file /scratch/users/j/a/jabreu/flow_simple_9atoms/flow/w151/t1/indata/in_WFK

 Initialisation of the first-order wave-functions :
  ireadwf=   0

--- !BeginCycle
iteration_state: {dtset: 1, }
solver: {iscf: 7, nstep: 2000, nline: 4, wfoptalg: 0, }
tolerances: {tolwfr: 1.00E-20, }
...

     iter   2DEtotal(Ha)        deltaE(Ha) residm    vres2
-ETOT  1  -63.176041937186     -6.318E+01 2.216E-01 0.000E+00
 ETOT  2  -63.294849387296     -1.188E-01 1.899E-02 0.000E+00
 ETOT  3  -63.296290158239     -1.441E-03 1.567E-03 0.000E+00
 ETOT  4  -63.296330396365     -4.024E-05 1.969E-04 0.000E+00
 ETOT  5  -63.296331923826     -1.527E-06 2.076E-05 0.000E+00
 ETOT  6  -63.296331992106     -6.828E-08 3.142E-06 0.000E+00
 ETOT  7  -63.296331995497     -3.391E-09 3.156E-07 0.000E+00
 ETOT  8  -63.296331995677     -1.806E-10 6.197E-08 0.000E+00
 ETOT  9  -63.296331995687     -1.011E-11 5.010E-09 0.000E+00
 ETOT 10  -63.296331995688     -6.253E-13 1.441E-09 0.000E+00
 ETOT 11  -63.296331995688     -7.105E-15 1.013E-10 0.000E+00
 ETOT 12  -63.296331995688     -5.684E-14 3.871E-11 0.000E+00
 ETOT 13  -63.296331995688      5.684E-14 3.981E-12 0.000E+00
 ETOT 14  -63.296331995688     -7.105E-15 2.582E-12 0.000E+00
 ETOT 15  -63.296331995688      0.000E+00 9.375E-13 0.000E+00
 ETOT 16  -63.296331995688      1.421E-14 6.096E-13 0.000E+00
 ETOT 17  -63.296331995688     -2.842E-14 2.213E-13 0.000E+00
 ETOT 18  -63.296331995688      0.000E+00 1.441E-13 0.000E+00
 ETOT 19  -63.296331995688     -1.421E-14 5.233E-14 0.000E+00
 ETOT 20  -63.296331995688      0.000E+00 3.412E-14 0.000E+00
 ETOT 21  -63.296331995688      2.842E-14 1.240E-14 0.000E+00
 ETOT 22  -63.296331995688     -1.421E-14 8.086E-15 0.000E+00
 ETOT 23  -63.296331995688      0.000E+00 2.943E-15 0.000E+00
 ETOT 24  -63.296331995688      1.421E-14 1.918E-15 0.000E+00
 ETOT 25  -63.296331995688     -1.421E-14 6.995E-16 0.000E+00
 ETOT 26  -63.296331995688      1.421E-14 4.555E-16 0.000E+00
 ETOT 27  -63.296331995688     -2.132E-14 1.664E-16 0.000E+00
 ETOT 28  -63.296331995688      0.000E+00 1.082E-16 0.000E+00
 ETOT 29  -63.296331995688      7.105E-15 3.963E-17 0.000E+00
 ETOT 30  -63.296331995688     -7.105E-15 2.573E-17 0.000E+00
 ETOT 31  -63.296331995688      7.105E-15 9.441E-18 0.000E+00
 ETOT 32  -63.296331995688      0.000E+00 6.120E-18 0.000E+00
 ETOT 33  -63.296331995688     -1.421E-14 2.250E-18 0.000E+00
 ETOT 34  -63.296331995688      2.842E-14 1.456E-18 0.000E+00
 ETOT 35  -63.296331995688      0.000E+00 5.365E-19 0.000E+00
 ETOT 36  -63.296331995688     -7.105E-15 3.467E-19 0.000E+00
 ETOT 37  -63.296331995688      0.000E+00 1.279E-19 0.000E+00
 ETOT 38  -63.296331995688      7.105E-15 8.256E-20 0.000E+00
 ETOT 39  -63.296331995688      7.105E-15 3.051E-20 0.000E+00
 ETOT 40  -63.296331995688     -2.132E-14 1.967E-20 0.000E+00
 ETOT 41  -63.296331995688      1.421E-14 9.988E-21 0.000E+00

 At SCF step   41   max residual=  9.99E-21 < tolwfr=  1.00E-20 =>converged.

 ----iterations are completed or convergence reached----

 dfpt_looppert: DFPT cycle converged with prtwf=-1. Will skip output of the 1st-order WFK file.
 dfpt_looppert : ek2=    7.9917929370E+01
          f-sum rule ratio=    1.0251920900E+00
 prteigrs : about to open file /scratch/users/j/a/jabreu/flow_simple_9atoms/flow/w151/t1/tmpdata/tmp_1WF1_EIG
 Expectation of eigenvalue derivatives (hartree) for nkpt=   2  k points:
  (in case of degenerate eigenvalues, averaged derivative)
 kpt#   1, nband= 52, wtk=  0.50000, kpt=  0.4744  0.0513  0.0000 (reduced coord)
  -0.00000   -0.00000   -0.00000   -0.00000    0.00000   -0.00000    0.00000   -0.00000
  -0.00000   -0.00000   -0.00000    0.00000    0.00000   -0.00000    0.00013    0.00040
   0.00078   -0.00040    0.00030   -0.00297    0.00133    0.00137    0.03674   -0.02308
   0.02600   -0.01600   -0.00150   -0.00354   -0.00855   -0.01243    0.10146   -0.10060
  -0.01268    0.00897   -0.00478   -0.04808   -0.02374    0.00482    0.06964   -0.00386
   0.00316    0.00388   -0.00152   -0.01141   -0.00582    0.02857    0.07303    0.02501
  -0.06224   -0.04722    0.03109    0.00727
 prteigrs : prtvol=0 or 1, do not print more k-points.

 Eight components of 2nd-order total energy (hartree) are
 1,2,3: 0th-order hamiltonian combined with 1st-order wavefunctions
     kin0=   8.09685105E+01 eigvalue=   5.00449309E+00  local=  -3.15815729E+01
 4,5,6: 1st-order hamiltonian combined with 1st and 0th-order wfs
     kin1=  -8.19312290E+01  Hartree=   0.00000000E+00     xc=   0.00000000E+00
 7,8,9: eventually, occupation + non-local contributions
    edocc=   7.78111722E+00     enl0=   1.12378412E+00   enl1=  -4.46614349E+01
 1-9 gives the relaxation energy (to be shifted if some occ is /=2.0)
   erelax=  -6.32963320E+01
  No Ewald or frozen-wf contrib.: the relaxation energy is the total one
 2DEtotal=   -0.6329633200E+02 Ha. Also 2DEtotal=   -0.172238078686E+04 eV
    (  non-var. 2DEtotal :   -6.3296331995E+01 Ha)

 CALCULATION OF EFFECTIVE MASSES
 NOTE : Additional infos (eff. mass eigenvalues, eigenvectors and, if degenerate, average mass) are available in stdout.

 K-point ( 0.474, 0.051, 0.000) | band =    43
 Effective mass tensor:
             -6.4289268694              9.7230162911             -0.6965441822
              9.7230162911            -17.6560833372              1.2064494167
             -0.6965441822              1.2064494167             -2.6080666838
 Effective mass tensor eigenvalues:
            -23.3631777196             -2.5145622940             -0.8153368768
 Angular average effective mass 1/(<1/m>)=  -1.7996694100
 Angular average effective mass for Frohlich model (<m**0.5>)**2=  -2.5488740572
 Effective masses along directions: (cart. coord. / red. coord. -> eff. mass)
    1:   1.000000  0.000000  0.000000 /   0.894427 -0.447214  0.000000 ->  -1.0741561242
    2:   0.000000  1.000000  0.000000 /   0.000000  1.000000  0.000000 ->  -2.9418899036
    3:   0.000000  0.000000  1.000000 /   0.000000  0.000000  1.000000 ->  -2.5246665447
    4:   0.577350  0.577350  0.577350 /   0.683466  0.250166  0.685778 ->  -1.1078061969
    5:   0.000000  0.707107  0.707107 /   0.000000  0.653389  0.757022 ->  -2.5737328077
    6:   0.707107  0.000000  0.707107 /   0.665665 -0.332832  0.667917 ->  -1.5345160201
    7:   0.707107  0.707107  0.000000 /   0.939071  0.343724  0.000000 ->  -0.8716101861

 K-point ( 0.000, 0.000, 0.000) | band =    44
 Effective mass tensor:
              0.2438092860             -0.0000000007             -0.0000000067
             -0.0000000007              0.2438092848             -0.0000000060
             -0.0000000067             -0.0000000060              0.2997436208
 Effective mass tensor eigenvalues:
              0.2438092845              0.2438092863              0.2997436208
 Angular average effective mass 1/(<1/m>)=   0.2599807149
 Angular average effective mass for Frohlich model (<m**0.5>)**2=   0.2606932225
 Effective masses along directions: (cart. coord. / red. coord. -> eff. mass)
    1:   1.000000  0.000000  0.000000 /   0.894427 -0.447214  0.000000 ->   0.2438092860
    2:   0.000000  1.000000  0.000000 /   0.000000  1.000000  0.000000 ->   0.2438092848
    3:   0.000000  0.000000  1.000000 /   0.000000  0.000000  1.000000 ->   0.2997436208
    4:   0.577350  0.577350  0.577350 /   0.683466  0.250166  0.685778 ->   0.2599807065
    5:   0.000000  0.707107  0.707107 /   0.000000  0.653389  0.757022 ->   0.2688984842
    6:   0.707107  0.000000  0.707107 /   0.665665 -0.332832  0.667917 ->   0.2688984842
    7:   0.707107  0.707107  0.000000 /   0.939071  0.343724  0.000000 ->   0.2438092847

 END OF EFFECTIVE MASSES SECTION

 ---- first-order wavefunction calculations are completed ----

 Total localisation tensor (bohr^2) in cartesian coordinates
  WARNING : still subject to testing - especially symmetries.
      direction              matrix element
   alpha     beta       real part   imaginary part
     1        1       1.1431550805    0.0000000000
     1        2      -0.3983152785    0.0000000000
     1        3       0.0000000000    0.0000000000
     2        1      -0.3983152785    0.0000000000
     2        2       0.6899022998    0.0000000000
     2        3       0.0000000000    0.0000000000
     3        1       0.0000000000    0.0000000000
     3        2       0.0000000000    0.0000000000
     3        3       0.6247013256    0.0000000000

 respfn : d/dk was computed, but no 2DTE, so no DDB output.

== END DATASET(S) ==============================================================

 -outvars: echo values of variables after computation  --------
            acell      1.0000000000E+00  1.0000000000E+00  1.0000000000E+00 Bohr
              amu      1.12411000E+02  7.49215900E+01  1.59994000E+01
             ecut      5.10000000E+01 Hartree
           etotal     -6.3296331996E+01
            fcart      0.0000000000E+00  0.0000000000E+00  0.0000000000E+00
                       0.0000000000E+00  0.0000000000E+00  0.0000000000E+00
                       0.0000000000E+00  0.0000000000E+00  0.0000000000E+00
                       0.0000000000E+00  0.0000000000E+00  0.0000000000E+00
                       0.0000000000E+00  0.0000000000E+00  0.0000000000E+00
                       0.0000000000E+00  0.0000000000E+00  0.0000000000E+00
                       0.0000000000E+00  0.0000000000E+00  0.0000000000E+00
                       0.0000000000E+00  0.0000000000E+00  0.0000000000E+00
                       0.0000000000E+00  0.0000000000E+00  0.0000000000E+00
-          fftalg         512
           irdden           1
           irdwfk           1
           istwfk        0    1
              ixc     -116133
              kpt      4.74358974E-01  5.12820513E-02  0.00000000E+00
                       0.00000000E+00  0.00000000E+00  0.00000000E+00
           kptopt           0
P           mkmem           2
P          mkqmem           2
P          mk1mem           2
            natom           9
            nband          52
           nbdbuf           4
            ngfft          60      60      60
             nkpt           2
            nstep        2000
             nsym          12
           ntypat           3
              occ      2.000000  2.000000  2.000000  2.000000  2.000000  2.000000
                       2.000000  2.000000  2.000000  2.000000  2.000000  2.000000
                       2.000000  2.000000  2.000000  2.000000  2.000000  2.000000
                       2.000000  2.000000  2.000000  2.000000  2.000000  2.000000
                       2.000000  2.000000  2.000000  2.000000  2.000000  2.000000
                       2.000000  2.000000  2.000000  2.000000  2.000000  2.000000
                       2.000000  2.000000  2.000000  2.000000  2.000000  2.000000
                       2.000000  0.000000  0.000000  0.000000  0.000000  0.000000
                       0.000000  0.000000  0.000000  0.000000
        optdriver           1
            prtwf          -1
            rfdir           1       1       1
           rfelfd           2
            rprim      9.1866018034E+00  0.0000000000E+00  0.0000000000E+00
                      -4.5933009017E+00  7.9558305362E+00  0.0000000000E+00
                       0.0000000000E+00  0.0000000000E+00  9.2176874958E+00
          spgroup         162
           strten      0.0000000000E+00  0.0000000000E+00  0.0000000000E+00
                       0.0000000000E+00  0.0000000000E+00  0.0000000000E+00
           symrel      1  0  0   0  1  0   0  0  1      -1  0  0   0 -1  0   0  0 -1
                       0  1  0   1  0  0   0  0  1       0 -1  0  -1  0  0   0  0 -1
                       0  1  0  -1 -1  0   0  0  1       0 -1  0   1  1  0   0  0 -1
                      -1 -1  0   0  1  0   0  0  1       1  1  0   0 -1  0   0  0 -1
                      -1 -1  0   1  0  0   0  0  1       1  1  0  -1  0  0   0  0 -1
                       1  0  0  -1 -1  0   0  0  1      -1  0  0   1  1  0   0  0 -1
           tolwfr      1.00000000E-20
            typat      1  2  2  3  3  3  3  3  3
           useylm           1
              wtk        0.50000    0.50000
           xangst      0.0000000000E+00  0.0000000000E+00  0.0000000000E+00
                      -7.0500566530E-16  2.8066961301E+00  2.4388950693E+00
                       2.4306701494E+00  1.4033480651E+00  2.4388950693E+00
                       1.8260312270E+00  0.0000000000E+00  1.4085009249E+00
                       1.5176545359E+00  2.6286547644E+00  1.4085009249E+00
                      -9.1301561352E-01  1.5813894307E+00  1.4085009249E+00
                       9.1301561352E-01  1.5813894307E+00  3.4692892138E+00
                      -1.5176545359E+00  2.6286547644E+00  3.4692892138E+00
                       3.0353090717E+00  0.0000000000E+00  3.4692892138E+00
            xcart      0.0000000000E+00  0.0000000000E+00  0.0000000000E+00
                      -1.3322676296E-15  5.3038870241E+00  4.6088437479E+00
                       4.5933009017E+00  2.6519435121E+00  4.6088437479E+00
                       3.4506989292E+00  0.0000000000E+00  2.6616810059E+00
                       2.8679514371E+00  4.9674376027E+00  2.6616810059E+00
                      -1.7253494646E+00  2.9883929335E+00  2.6616810059E+00
                       1.7253494646E+00  2.9883929335E+00  6.5560064899E+00
                      -2.8679514371E+00  4.9674376027E+00  6.5560064899E+00
                       5.7359028742E+00  0.0000000000E+00  6.5560064899E+00
             xred      0.0000000000E+00  0.0000000000E+00  0.0000000000E+00
                       3.3333333333E-01  6.6666666667E-01  5.0000000000E-01
                       6.6666666667E-01  3.3333333333E-01  5.0000000000E-01
                       3.7562300000E-01  0.0000000000E+00  2.8875800000E-01
                       6.2437700000E-01  6.2437700000E-01  2.8875800000E-01
                       0.0000000000E+00  3.7562300000E-01  2.8875800000E-01
                       3.7562300000E-01  3.7562300000E-01  7.1124200000E-01
                       0.0000000000E+00  6.2437700000E-01  7.1124200000E-01
                       6.2437700000E-01  0.0000000000E+00  7.1124200000E-01
            znucl       48.00000   33.00000    8.00000

- Timing analysis has been suppressed with timopt=0

 Suggested references for the acknowledgment of ABINIT usage.

 Calculation completed.
.Delivered  14 WARNINGs and   9 COMMENTs to log file.