.Version 9.5.1 of ABINIT

 ABINIT is a project of the Universite Catholique de Louvain,
 Corning Inc. and other collaborators, see ~abinit/doc/developers/contributors.txt .
 acknowledgments of the ABINIT effort.

.Starting date : Tue 18 May 2021.
- ( at 19h40 )

- input  file    -> /scratch/users/j/a/jabreu/flow_simple_8atoms/flow/w403/t1/run.abi
- output file    -> /scratch/users/j/a/jabreu/flow_simple_8atoms/flow/w403/t1/run.abo
- root for input  files -> /scratch/users/j/a/jabreu/flow_simple_8atoms/flow/w403/t1/indata/in
- root for output files -> /scratch/users/j/a/jabreu/flow_simple_8atoms/flow/w403/t1/outdata/out

 Symmetries : space group P6_3/m m c (#194); Bravais hP (primitive hexag.)
     intxc =       0      iscf =       7    lmnmax =      32     lnmax =       8
     mgfft =     150  mpssoang =       4    mqgrid =    7438     natom =       8
  nloc_mem =       1    nspden =       1   nspinor =       1    nsppol =       1
      nsym =      24    n1xccc =    2501    ntypat =       3    occopt =       1
   xclevel =       2
-    mband =          51        mffmem =           1         mkmem =           2
-   mkqmem =           2        mk1mem =           2           mpw =       18256
      nfft =      345600          nkpt =           2
  Rough estimation (10% accuracy) of disk space for files :

------------- Echo of variables that govern the present computation ------------
-
- outvars: echo of selected default values
-   iomode0 =  0 , fftalg0 =512 , wfoptalg0 =  0
-
- outvars: echo of global parameters not present in the input file
-  max_nthreads =    0
-
 -outvars: echo values of preprocessed input variables --------
            acell      1.0000000000E+00  1.0000000000E+00  1.0000000000E+00 Bohr
              amu      1.38905500E+02  1.07868200E+02  1.59994000E+01
             ecut      5.20000000E+01 Hartree
-          fftalg         512
           irdden           1
           irdwfk           1
           istwfk        1    1
              ixc     -116133
              kpt      5.00000000E-01  0.00000000E+00  0.00000000E+00
                       0.00000000E+00  0.00000000E+00  0.00000000E+00
           kptopt           0
P           mkmem           2
P          mkqmem           2
P          mk1mem           2
            natom           8
            nband          51
           nbdbuf           4
            ngfft          48      48     150
             nkpt           2
            nstep        2000
             nsym          24
           ntypat           3
              occ      2.000000  2.000000  2.000000  2.000000  2.000000  2.000000
                       2.000000  2.000000  2.000000  2.000000  2.000000  2.000000
                       2.000000  2.000000  2.000000  2.000000  2.000000  2.000000
                       2.000000  2.000000  2.000000  2.000000  2.000000  2.000000
                       2.000000  2.000000  2.000000  2.000000  2.000000  2.000000
                       2.000000  2.000000  2.000000  2.000000  2.000000  2.000000
                       2.000000  2.000000  2.000000  2.000000  2.000000  2.000000
                       0.000000  0.000000  0.000000  0.000000  0.000000  0.000000
                       0.000000  0.000000  0.000000
        optdriver           1
            prtwf          -1
            rfdir           1       1       1
           rfelfd           2
            rprim      7.1704646040E+00  0.0000000000E+00  0.0000000000E+00
                      -3.5852323020E+00  6.2098045040E+00  0.0000000000E+00
                       0.0000000000E+00  0.0000000000E+00  2.2911299467E+01
          spgroup         194
           symrel      1  0  0   0  1  0   0  0  1      -1  0  0   0 -1  0   0  0 -1
                       0  1  0   1  0  0   0  0  1       0 -1  0  -1  0  0   0  0 -1
                       1  1  0  -1  0  0   0  0  1      -1 -1  0   1  0  0   0  0 -1
                      -1  0  0   1  1  0   0  0  1       1  0  0  -1 -1  0   0  0 -1
                       0  1  0  -1 -1  0   0  0  1       0 -1  0   1  1  0   0  0 -1
                      -1 -1  0   0  1  0   0  0  1       1  1  0   0 -1  0   0  0 -1
                      -1  0  0   0 -1  0   0  0  1       1  0  0   0  1  0   0  0 -1
                       0 -1  0  -1  0  0   0  0  1       0  1  0   1  0  0   0  0 -1
                      -1 -1  0   1  0  0   0  0  1       1  1  0  -1  0  0   0  0 -1
                       1  0  0  -1 -1  0   0  0  1      -1  0  0   1  1  0   0  0 -1
                       0 -1  0   1  1  0   0  0  1       0  1  0  -1 -1  0   0  0 -1
                       1  1  0   0 -1  0   0  0  1      -1 -1  0   0  1  0   0  0 -1
            tnons      0.0000000  0.0000000  0.0000000     0.0000000  0.0000000  0.0000000
                       0.0000000  0.0000000  0.5000000     0.0000000  0.0000000  0.5000000
                       0.0000000  0.0000000  0.5000000     0.0000000  0.0000000  0.5000000
                       0.0000000  0.0000000  0.0000000     0.0000000  0.0000000  0.0000000
                       0.0000000  0.0000000  0.0000000     0.0000000  0.0000000  0.0000000
                       0.0000000  0.0000000  0.5000000     0.0000000  0.0000000  0.5000000
                       0.0000000  0.0000000  0.5000000     0.0000000  0.0000000  0.5000000
                       0.0000000  0.0000000  0.0000000     0.0000000  0.0000000  0.0000000
                       0.0000000  0.0000000  0.0000000     0.0000000  0.0000000  0.0000000
                       0.0000000  0.0000000  0.5000000     0.0000000  0.0000000  0.5000000
                       0.0000000  0.0000000  0.5000000     0.0000000  0.0000000  0.5000000
                       0.0000000  0.0000000  0.0000000     0.0000000  0.0000000  0.0000000
           tolwfr      1.00000000E-20
            typat      1  1  2  2  3  3  3  3
           useylm           1
              wtk        0.50000    0.50000
           xangst      0.0000000000E+00  0.0000000000E+00  0.0000000000E+00
                       0.0000000000E+00  0.0000000000E+00  6.0620687485E+00
                       0.0000000000E+00  2.1907246755E+00  3.0310343743E+00
                       1.8972232217E+00  1.0953623378E+00  9.0931031228E+00
                       0.0000000000E+00  2.1907246755E+00  1.0149964188E+00
                       0.0000000000E+00  2.1907246755E+00  5.0470723297E+00
                       1.8972232217E+00  1.0953623378E+00  7.0770651673E+00
                       1.8972232217E+00  1.0953623378E+00  1.1109141078E+01
            xcart      0.0000000000E+00  0.0000000000E+00  0.0000000000E+00
                       0.0000000000E+00  0.0000000000E+00  1.1455649733E+01
                       0.0000000000E+00  4.1398696693E+00  5.7278248667E+00
                       3.5852323020E+00  2.0699348347E+00  1.7183474600E+01
                       0.0000000000E+00  4.1398696693E+00  1.9180652575E+00
                       0.0000000000E+00  4.1398696693E+00  9.5375844759E+00
                       3.5852323020E+00  2.0699348347E+00  1.3373714991E+01
                       3.5852323020E+00  2.0699348347E+00  2.0993234209E+01
             xred      0.0000000000E+00  0.0000000000E+00  0.0000000000E+00
                       0.0000000000E+00  0.0000000000E+00  5.0000000000E-01
                       3.3333333333E-01  6.6666666667E-01  2.5000000000E-01
                       6.6666666667E-01  3.3333333333E-01  7.5000000000E-01
                       3.3333333333E-01  6.6666666667E-01  8.3717000000E-02
                       3.3333333333E-01  6.6666666667E-01  4.1628300000E-01
                       6.6666666667E-01  3.3333333333E-01  5.8371700000E-01
                       6.6666666667E-01  3.3333333333E-01  9.1628300000E-01
            znucl       57.00000   47.00000    8.00000

 chkinp: Checking input parameters for consistency.

== DATASET  1 ==================================================================
-   mpi_nproc: 1, omp_nthreads: -1 (-1 if OMP is not activated)

--- !DatasetInfo
iteration_state: {dtset: 1, }
dimensions: {natom: 8, nkpt: 2, mband: 51, nsppol: 1, nspinor: 1, nspden: 1, mpw: 18256, }
cutoff_energies: {ecut:  52.0, pawecutdg:  -1.0, }
electrons: {nelect:   8.40000000E+01, charge:   0.00000000E+00, occopt:   1.00000000E+00, tsmear:   1.00000000E-02, }
meta: {optdriver: 1, rfelfd: 2, }
...

 Real(R)+Recip(G) space primitive vectors, cartesian coordinates (Bohr,Bohr^-1):
 R(1)=  7.1704646  0.0000000  0.0000000  G(1)=  0.1394610  0.0805178  0.0000000
 R(2)= -3.5852323  6.2098045  0.0000000  G(2)=  0.0000000  0.1610357  0.0000000
 R(3)=  0.0000000  0.0000000 22.9112995  G(3)=  0.0000000  0.0000000  0.0436466
 Unit cell volume ucvol=  1.0201756E+03 bohr^3
 Angles (23,13,12)=  9.00000000E+01  9.00000000E+01  1.20000000E+02 degrees

 getcut: wavevector=  0.0000  0.0000  0.0000  ngfft=  48  48 150
         ecut(hartree)=     52.000   => boxcut(ratio)=   2.01686

--- Pseudopotential description ------------------------------------------------
- pspini: atom type   1  psp file is /scratch/users/j/a/jabreu/pseudos/PBEsol/La.psp8
- pspatm: opening atomic psp file    /scratch/users/j/a/jabreu/pseudos/PBEsol/La.psp8
- La    ONCVPSP-3.3.0  r_core=   2.11664   1.60878   1.85636   1.66739
- 57.00000  11.00000    180112                znucl, zion, pspdat
    8 -116133    3    4       600   0.00000   pspcod,pspxc,lmax,lloc,mmax,r2well
    5.99000000000000    5.00000000000000    0.00000000000000   rchrg,fchrg,qchrg
     nproj     2     2     2     2
     extension_switch     1
  pspatm : epsatm=   29.08531775
         --- l  ekb(1:nproj) -->
             0    6.695600    0.639047
             1    6.383649    1.151322
             2    3.612966    0.847811
             3  -13.718437   -4.858923
 pspatm: atomic psp has been read  and splines computed

- pspini: atom type   2  psp file is /scratch/users/j/a/jabreu/pseudos/PBEsol/Ag.psp8
- pspatm: opening atomic psp file    /scratch/users/j/a/jabreu/pseudos/PBEsol/Ag.psp8
- Ag    ONCVPSP-3.3.0  r_core=   1.41384   1.46535   1.61207
- 47.00000  19.00000    180112                znucl, zion, pspdat
    8 -116133    2    4       600   0.00000   pspcod,pspxc,lmax,lloc,mmax,r2well
    5.99000000000000    7.00000000000000    0.00000000000000   rchrg,fchrg,qchrg
     nproj     2     2     2
     extension_switch     1
  pspatm : epsatm=   27.64581383
         --- l  ekb(1:nproj) -->
             0    9.559407   -0.398585
             1    3.418858   -0.136622
             2   -1.644397   -0.401551
 pspatm: atomic psp has been read  and splines computed

- pspini: atom type   3  psp file is /scratch/users/j/a/jabreu/pseudos/PBEsol/O.psp8
- pspatm: opening atomic psp file    /scratch/users/j/a/jabreu/pseudos/PBEsol/O.psp8
- O     ONCVPSP-3.3.0  r_core=   1.35509   1.45563   1.26150
-  8.00000   6.00000    180112                znucl, zion, pspdat
    8 -116133    2    4       600   0.00000   pspcod,pspxc,lmax,lloc,mmax,r2well
    5.99000000000000    4.00000000000000    0.00000000000000   rchrg,fchrg,qchrg
     nproj     2     2     1
     extension_switch     1
  pspatm : epsatm=    6.22910522
         --- l  ekb(1:nproj) -->
             0    6.050032    0.820363
[...]
 ETOT 14  -6.7053025781840     -1.470E-09 1.561E-04 0.000E+00
 ETOT 15  -6.7053025787003     -5.163E-10 8.216E-05 0.000E+00
 ETOT 16  -6.7053025788832     -1.828E-10 9.614E-05 0.000E+00
 ETOT 17  -6.7053025789483     -6.519E-11 5.066E-05 0.000E+00
 ETOT 18  -6.7053025789717     -2.338E-11 5.931E-05 0.000E+00
 ETOT 19  -6.7053025789801     -8.422E-12 3.129E-05 0.000E+00
 ETOT 20  -6.7053025789832     -3.046E-12 3.665E-05 0.000E+00
 ETOT 21  -6.7053025789843     -1.109E-12 1.936E-05 0.000E+00
 ETOT 22  -6.7053025789847     -3.997E-13 2.267E-05 0.000E+00
 ETOT 23  -6.7053025789848     -1.457E-13 1.199E-05 0.000E+00
 ETOT 24  -6.7053025789849     -6.217E-14 1.404E-05 0.000E+00
 ETOT 25  -6.7053025789849     -1.243E-14 7.438E-06 0.000E+00
 ETOT 26  -6.7053025789849     -1.510E-14 8.711E-06 0.000E+00
 ETOT 27  -6.7053025789849     -8.882E-16 4.621E-06 0.000E+00
 ETOT 28  -6.7053025789849     -8.882E-16 5.410E-06 0.000E+00
 ETOT 29  -6.7053025789849      6.217E-15 2.876E-06 0.000E+00
 ETOT 30  -6.7053025789849     -2.665E-15 3.366E-06 0.000E+00
 ETOT 31  -6.7053025789849      4.441E-15 1.793E-06 0.000E+00
 ETOT 32  -6.7053025789849     -5.329E-15 2.098E-06 0.000E+00
 ETOT 33  -6.7053025789849     -8.882E-16 1.120E-06 0.000E+00
 ETOT 34  -6.7053025789849      3.553E-15 1.310E-06 0.000E+00
 ETOT 35  -6.7053025789849      0.000E+00 7.011E-07 0.000E+00
 ETOT 36  -6.7053025789849     -2.665E-15 8.201E-07 0.000E+00
 ETOT 37  -6.7053025789849      2.665E-15 4.402E-07 0.000E+00
 ETOT 38  -6.7053025789849      0.000E+00 5.149E-07 0.000E+00
 ETOT 39  -6.7053025789849     -1.776E-15 2.773E-07 0.000E+00
 ETOT 40  -6.7053025789849      5.329E-15 3.243E-07 0.000E+00
 ETOT 41  -6.7053025789849     -3.553E-15 1.753E-07 0.000E+00
 ETOT 42  -6.7053025789849      0.000E+00 2.051E-07 0.000E+00
 ETOT 43  -6.7053025789849     -3.553E-15 1.113E-07 0.000E+00
 ETOT 44  -6.7053025789849     -8.882E-16 1.303E-07 0.000E+00
 ETOT 45  -6.7053025789849      8.882E-16 7.104E-08 0.000E+00
 ETOT 46  -6.7053025789849      0.000E+00 8.324E-08 0.000E+00
 ETOT 47  -6.7053025789849      3.553E-15 4.560E-08 0.000E+00
 ETOT 48  -6.7053025789849     -3.553E-15 5.349E-08 0.000E+00
 ETOT 49  -6.7053025789849      0.000E+00 2.946E-08 0.000E+00
 ETOT 50  -6.7053025789849      0.000E+00 3.461E-08 0.000E+00
 ETOT 51  -6.7053025789849      0.000E+00 1.917E-08 0.000E+00
 ETOT 52  -6.7053025789849      3.553E-15 2.257E-08 0.000E+00
 ETOT 53  -6.7053025789849     -3.553E-15 1.258E-08 0.000E+00
 ETOT 54  -6.7053025789849     -8.882E-16 1.484E-08 0.000E+00
 ETOT 55  -6.7053025789849      1.776E-15 8.327E-09 0.000E+00
 ETOT 56  -6.7053025789849      0.000E+00 9.847E-09 0.000E+00
 ETOT 57  -6.7053025789849     -1.776E-15 5.564E-09 0.000E+00
 ETOT 58  -6.7053025789849      4.441E-15 6.598E-09 0.000E+00
 ETOT 59  -6.7053025789849     -8.882E-16 3.755E-09 0.000E+00
 ETOT 60  -6.7053025789849     -8.882E-16 4.466E-09 0.000E+00
 ETOT 61  -6.7053025789849      8.882E-16 2.560E-09 0.000E+00
[...]
 ETOT  235  -6.7053025789849      0.000E+00 4.452E-20 0.000E+00
 ETOT  236  -6.7053025789849      0.000E+00 5.364E-20 0.000E+00
 ETOT  237  -6.7053025789849     -1.776E-15 3.498E-20 0.000E+00
 ETOT  238  -6.7053025789849      1.776E-15 4.214E-20 0.000E+00
 ETOT  239  -6.7053025789849      0.000E+00 2.758E-20 0.000E+00
 ETOT  240  -6.7053025789849      0.000E+00 3.323E-20 0.000E+00
 ETOT  241  -6.7053025789849      8.882E-16 2.182E-20 0.000E+00
 ETOT  242  -6.7053025789849     -8.882E-16 2.630E-20 0.000E+00
 ETOT  243  -6.7053025789849      0.000E+00 1.733E-20 0.000E+00
 ETOT  244  -6.7053025789849     -8.882E-16 2.089E-20 0.000E+00
 ETOT  245  -6.7053025789849      1.776E-15 1.381E-20 0.000E+00
 ETOT  246  -6.7053025789849     -8.882E-16 1.666E-20 0.000E+00
 ETOT  247  -6.7053025789849      8.882E-16 1.106E-20 0.000E+00
 ETOT  248  -6.7053025789849      8.882E-16 1.333E-20 0.000E+00
 ETOT  249  -6.7053025789849     -8.882E-16 9.929E-21 0.000E+00

 At SCF step  249   max residual=  9.93E-21 < tolwfr=  1.00E-20 =>converged.

 ----iterations are completed or convergence reached----

 dfpt_looppert: DFPT cycle converged with prtwf=-1. Will skip output of the 1st-order WFK file.
 dfpt_looppert : ek2=    1.2634834996E+01
          f-sum rule ratio=    1.0042356172E+00
 prteigrs : about to open file /scratch/users/j/a/jabreu/flow_simple_8atoms/flow/w403/t1/tmpdata/tmp_1WF1_EIG
 Expectation of eigenvalue derivatives (hartree) for nkpt=   2  k points:
  (in case of degenerate eigenvalues, averaged derivative)
 kpt#   1, nband= 51, wtk=  0.50000, kpt=  0.5000  0.0000  0.0000 (reduced coord)
  -0.00000   -0.00000   -0.00000   -0.00000   -0.00000   -0.00000    0.00000    0.00000
  -0.00000    0.00000   -0.00000   -0.00000    0.00000    0.00000    0.00000    0.00000
   0.00000    0.00000    0.00000   -0.00000    0.00000    0.00000    0.00000   -0.00000
  -0.00000    0.00000    0.00000   -0.00000   -0.00000    0.00000   -0.00000   -0.00000
  -0.00000   -0.00000    0.00000   -0.00000    0.00000   -0.00000   -0.00000   -0.00000
   0.00000   -0.00000   -0.00000   -0.00000    0.00000    0.00000    0.00000    0.00000
  -0.00000   -0.00010    0.00000
 prteigrs : prtvol=0 or 1, do not print more k-points.

 Eight components of 2nd-order total energy (hartree) are
 1,2,3: 0th-order hamiltonian combined with 1st-order wavefunctions
     kin0=   1.36487645E+01 eigvalue=   7.26532204E-03  local=  -7.16578758E+00
 4,5,6: 1st-order hamiltonian combined with 1st and 0th-order wfs
     kin1=  -1.26883513E+01  Hartree=   0.00000000E+00     xc=   0.00000000E+00
 7,8,9: eventually, occupation + non-local contributions
    edocc=   7.30702181E-01     enl0=  -5.15641847E-01   enl1=  -7.22253837E-01
 1-9 gives the relaxation energy (to be shifted if some occ is /=2.0)
   erelax=  -6.70530258E+00
  No Ewald or frozen-wf contrib.: the relaxation energy is the total one
 2DEtotal=   -0.6705302579E+01 Ha. Also 2DEtotal=   -0.182460562374E+03 eV
    (  non-var. 2DEtotal :   -6.7053025788E+00 Ha)

 CALCULATION OF EFFECTIVE MASSES
 NOTE : Additional infos (eff. mass eigenvalues, eigenvectors and, if degenerate, average mass) are available in stdout.

 K-point ( 0.500, 0.000, 0.000) | band =    42
 Effective mass tensor:
             -2.9694050711             -0.9580757059              0.0000000000
             -0.9580757059             -1.8631145453              0.0000000003
              0.0000000000              0.0000000003             -1.0495173816
 Effective mass tensor eigenvalues:
             -3.5225503397             -1.3099692766             -1.0495173816
 Angular average effective mass 1/(<1/m>)=  -1.4999393941
 Angular average effective mass for Frohlich model (<m**0.5>)**2=  -1.6029657565
 Effective masses along directions: (cart. coord. / red. coord. -> eff. mass)
    1:   1.000000  0.000000  0.000000 /   0.894427 -0.447214  0.000000 ->  -2.4767305543
    2:   0.000000  1.000000  0.000000 /   0.000000  1.000000  0.000000 ->  -1.5539923352
    3:   0.000000  0.000000  1.000000 /   0.000000  0.000000  1.000000 ->  -1.0495173816
    4:   0.577350  0.577350  0.577350 /   0.296911  0.108677  0.948701 ->  -1.8929486684
    5:   0.000000  0.707107  0.707107 /   0.000000  0.261598  0.965177 ->  -1.2528794924
    6:   0.707107  0.000000  0.707107 /   0.295404 -0.147702  0.943886 ->  -1.4742989226
    7:   0.707107  0.707107  0.000000 /   0.939071  0.343724  0.000000 ->  -3.1645062604

 K-point ( 0.000, 0.000, 0.000) | band =    43
 Effective mass tensor:
              0.8823800905              0.0000000022              0.0000000381
              0.0000000022              0.8823800950             -0.0000000736
              0.0000000381             -0.0000000736              0.6179041980
 Effective mass tensor eigenvalues:
              0.6179041980              0.8823800896              0.8823800959
 Angular average effective mass 1/(<1/m>)=   0.7722065809
 Angular average effective mass for Frohlich model (<m**0.5>)**2=   0.7791411688
 Effective masses along directions: (cart. coord. / red. coord. -> eff. mass)
    1:   1.000000  0.000000  0.000000 /   0.894427 -0.447214  0.000000 ->   0.8823800905
    2:   0.000000  1.000000  0.000000 /   0.000000  1.000000  0.000000 ->   0.8823800950
    3:   0.000000  0.000000  1.000000 /   0.000000  0.000000  1.000000 ->   0.6179041980
    4:   0.577350  0.577350  0.577350 /   0.296911  0.108677  0.948701 ->   0.7722065562
    5:   0.000000  0.707107  0.707107 /   0.000000  0.261598  0.965177 ->   0.7268306600
    6:   0.707107  0.000000  0.707107 /   0.295404 -0.147702  0.943886 ->   0.7268307668
    7:   0.707107  0.707107  0.000000 /   0.939071  0.343724  0.000000 ->   0.8823800949

 END OF EFFECTIVE MASSES SECTION

 ---- first-order wavefunction calculations are completed ----

 Total localisation tensor (bohr^2) in cartesian coordinates
  WARNING : still subject to testing - especially symmetries.
      direction              matrix element
   alpha     beta       real part   imaginary part
     1        1       1.4411317935    0.0000000000
     1        2      -0.4002546499    0.0000000000
     1        3       0.0000000000    0.0000000000
     2        1      -0.4002546499    0.0000000000
     2        2       0.6932613896    0.0000000000
     2        3       0.0000000000    0.0000000000
     3        1       0.0000000000    0.0000000000
     3        2       0.0000000000    0.0000000000
     3        3       0.7092952295    0.0000000000

 respfn : d/dk was computed, but no 2DTE, so no DDB output.

== END DATASET(S) ==============================================================

 -outvars: echo values of variables after computation  --------
            acell      1.0000000000E+00  1.0000000000E+00  1.0000000000E+00 Bohr
              amu      1.38905500E+02  1.07868200E+02  1.59994000E+01
             ecut      5.20000000E+01 Hartree
           etotal     -6.7053025790E+00
            fcart      0.0000000000E+00  0.0000000000E+00  0.0000000000E+00
                       0.0000000000E+00  0.0000000000E+00  0.0000000000E+00
                       0.0000000000E+00  0.0000000000E+00  0.0000000000E+00
                       0.0000000000E+00  0.0000000000E+00  0.0000000000E+00
                       0.0000000000E+00  0.0000000000E+00  0.0000000000E+00
                       0.0000000000E+00  0.0000000000E+00  0.0000000000E+00
                       0.0000000000E+00  0.0000000000E+00  0.0000000000E+00
                       0.0000000000E+00  0.0000000000E+00  0.0000000000E+00
-          fftalg         512
           irdden           1
           irdwfk           1
           istwfk        1    1
              ixc     -116133
              kpt      5.00000000E-01  0.00000000E+00  0.00000000E+00
                       0.00000000E+00  0.00000000E+00  0.00000000E+00
           kptopt           0
P           mkmem           2
P          mkqmem           2
P          mk1mem           2
            natom           8
            nband          51
           nbdbuf           4
            ngfft          48      48     150
             nkpt           2
            nstep        2000
             nsym          24
           ntypat           3
              occ      2.000000  2.000000  2.000000  2.000000  2.000000  2.000000
                       2.000000  2.000000  2.000000  2.000000  2.000000  2.000000
                       2.000000  2.000000  2.000000  2.000000  2.000000  2.000000
                       2.000000  2.000000  2.000000  2.000000  2.000000  2.000000
                       2.000000  2.000000  2.000000  2.000000  2.000000  2.000000
                       2.000000  2.000000  2.000000  2.000000  2.000000  2.000000
                       2.000000  2.000000  2.000000  2.000000  2.000000  2.000000
                       0.000000  0.000000  0.000000  0.000000  0.000000  0.000000
                       0.000000  0.000000  0.000000
        optdriver           1
            prtwf          -1
            rfdir           1       1       1
           rfelfd           2
            rprim      7.1704646040E+00  0.0000000000E+00  0.0000000000E+00
                      -3.5852323020E+00  6.2098045040E+00  0.0000000000E+00
                       0.0000000000E+00  0.0000000000E+00  2.2911299467E+01
          spgroup         194
           strten      0.0000000000E+00  0.0000000000E+00  0.0000000000E+00
                       0.0000000000E+00  0.0000000000E+00  0.0000000000E+00
           symrel      1  0  0   0  1  0   0  0  1      -1  0  0   0 -1  0   0  0 -1
                       0  1  0   1  0  0   0  0  1       0 -1  0  -1  0  0   0  0 -1
                       1  1  0  -1  0  0   0  0  1      -1 -1  0   1  0  0   0  0 -1
                      -1  0  0   1  1  0   0  0  1       1  0  0  -1 -1  0   0  0 -1
                       0  1  0  -1 -1  0   0  0  1       0 -1  0   1  1  0   0  0 -1
                      -1 -1  0   0  1  0   0  0  1       1  1  0   0 -1  0   0  0 -1
                      -1  0  0   0 -1  0   0  0  1       1  0  0   0  1  0   0  0 -1
                       0 -1  0  -1  0  0   0  0  1       0  1  0   1  0  0   0  0 -1
                      -1 -1  0   1  0  0   0  0  1       1  1  0  -1  0  0   0  0 -1
                       1  0  0  -1 -1  0   0  0  1      -1  0  0   1  1  0   0  0 -1
                       0 -1  0   1  1  0   0  0  1       0  1  0  -1 -1  0   0  0 -1
                       1  1  0   0 -1  0   0  0  1      -1 -1  0   0  1  0   0  0 -1
            tnons      0.0000000  0.0000000  0.0000000     0.0000000  0.0000000  0.0000000
                       0.0000000  0.0000000  0.5000000     0.0000000  0.0000000  0.5000000
                       0.0000000  0.0000000  0.5000000     0.0000000  0.0000000  0.5000000
                       0.0000000  0.0000000  0.0000000     0.0000000  0.0000000  0.0000000
                       0.0000000  0.0000000  0.0000000     0.0000000  0.0000000  0.0000000
                       0.0000000  0.0000000  0.5000000     0.0000000  0.0000000  0.5000000
                       0.0000000  0.0000000  0.5000000     0.0000000  0.0000000  0.5000000
                       0.0000000  0.0000000  0.0000000     0.0000000  0.0000000  0.0000000
                       0.0000000  0.0000000  0.0000000     0.0000000  0.0000000  0.0000000
                       0.0000000  0.0000000  0.5000000     0.0000000  0.0000000  0.5000000
                       0.0000000  0.0000000  0.5000000     0.0000000  0.0000000  0.5000000
                       0.0000000  0.0000000  0.0000000     0.0000000  0.0000000  0.0000000
           tolwfr      1.00000000E-20
            typat      1  1  2  2  3  3  3  3
           useylm           1
              wtk        0.50000    0.50000
           xangst      0.0000000000E+00  0.0000000000E+00  0.0000000000E+00
                       0.0000000000E+00  0.0000000000E+00  6.0620687485E+00
                       0.0000000000E+00  2.1907246755E+00  3.0310343743E+00
                       1.8972232217E+00  1.0953623378E+00  9.0931031228E+00
                       0.0000000000E+00  2.1907246755E+00  1.0149964188E+00
                       0.0000000000E+00  2.1907246755E+00  5.0470723297E+00
                       1.8972232217E+00  1.0953623378E+00  7.0770651673E+00
                       1.8972232217E+00  1.0953623378E+00  1.1109141078E+01
            xcart      0.0000000000E+00  0.0000000000E+00  0.0000000000E+00
                       0.0000000000E+00  0.0000000000E+00  1.1455649733E+01
                       0.0000000000E+00  4.1398696693E+00  5.7278248667E+00
                       3.5852323020E+00  2.0699348347E+00  1.7183474600E+01
                       0.0000000000E+00  4.1398696693E+00  1.9180652575E+00
                       0.0000000000E+00  4.1398696693E+00  9.5375844759E+00
                       3.5852323020E+00  2.0699348347E+00  1.3373714991E+01
                       3.5852323020E+00  2.0699348347E+00  2.0993234209E+01
             xred      0.0000000000E+00  0.0000000000E+00  0.0000000000E+00
                       0.0000000000E+00  0.0000000000E+00  5.0000000000E-01
                       3.3333333333E-01  6.6666666667E-01  2.5000000000E-01
                       6.6666666667E-01  3.3333333333E-01  7.5000000000E-01
                       3.3333333333E-01  6.6666666667E-01  8.3717000000E-02
                       3.3333333333E-01  6.6666666667E-01  4.1628300000E-01
                       6.6666666667E-01  3.3333333333E-01  5.8371700000E-01
                       6.6666666667E-01  3.3333333333E-01  9.1628300000E-01
            znucl       57.00000   47.00000    8.00000

- Timing analysis has been suppressed with timopt=0

 Suggested references for the acknowledgment of ABINIT usage.

 Calculation completed.
.Delivered  14 WARNINGs and   9 COMMENTs to log file.