.Version 9.5.1 of ABINIT

 ABINIT is a project of the Universite Catholique de Louvain,
 Corning Inc. and other collaborators, see ~abinit/doc/developers/contributors.txt .
 acknowledgments of the ABINIT effort.

.Starting date : Tue 27 Apr 2021.
- ( at 18h30 )

- input  file    -> /scratch/users/j/a/jabreu/flow_simple_4atoms/flow/w163/t1/run.abi
- output file    -> /scratch/users/j/a/jabreu/flow_simple_4atoms/flow/w163/t1/run.abo
- root for input  files -> /scratch/users/j/a/jabreu/flow_simple_4atoms/flow/w163/t1/indata/in
- root for output files -> /scratch/users/j/a/jabreu/flow_simple_4atoms/flow/w163/t1/outdata/out

 Symmetries : space group R-3 m (#166); Bravais hR (rhombohedral)
     intxc =       0      iscf =       7    lmnmax =      32     lnmax =       8
     mgfft =      90  mpssoang =       4    mqgrid =    3001     natom =       4
  nloc_mem =       1    nspden =       1   nspinor =       1    nsppol =       1
      nsym =      12    n1xccc =    2501    ntypat =       3    occopt =       1
   xclevel =       2
-    mband =          25        mffmem =           1         mkmem =           1
-   mkqmem =           1        mk1mem =           1           mpw =        9302
      nfft =      729000          nkpt =           1
  Rough estimation (10% accuracy) of disk space for files :

------------- Echo of variables that govern the present computation ------------
-
- outvars: echo of selected default values
-   iomode0 =  0 , fftalg0 =512 , wfoptalg0 =  0
-
- outvars: echo of global parameters not present in the input file
-  max_nthreads =    0
-
 -outvars: echo values of preprocessed input variables --------
            acell      1.0000000000E+00  1.0000000000E+00  1.0000000000E+00 Bohr
              amu      8.54678000E+01  1.38905500E+02  1.59994000E+01
             ecut      5.20000000E+01 Hartree
-          fftalg         512
           irdden           1
           irdwfk           1
           istwfk        1
              ixc     -116133
              kpt      5.00000000E-01  5.00000000E-01  0.00000000E+00
           kptopt           0
P           mkmem           1
P          mkqmem           1
P          mk1mem           1
            natom           4
            nband          25
           nbdbuf           4
            ngfft          90      90      90
             nkpt           1
            nstep         100
             nsym          12
           ntypat           3
              occ      2.000000  2.000000  2.000000  2.000000  2.000000  2.000000
                       2.000000  2.000000  2.000000  2.000000  2.000000  2.000000
                       2.000000  2.000000  2.000000  2.000000  0.000000  0.000000
                       0.000000  0.000000  0.000000  0.000000  0.000000  0.000000
                       0.000000
        optdriver           1
            prtwf          -1
            rfdir           1       1       1
           rfelfd           2
            rprim      6.7443335392E+00  0.0000000000E+00  1.0953457266E+01
                       3.1017571210E+00  5.9887509257E+00  1.0953457266E+01
                       0.0000000000E+00  0.0000000000E+00  1.2863291218E+01
          spgroup         166
           symrel      1  0  0   0  1  0   0  0  1      -1  0  0   0 -1  0   0  0 -1
                       0  1  0   1  0  0   0  0  1       0 -1  0  -1  0  0   0  0 -1
                       0  0  1   1  0  0   0  1  0       0  0 -1  -1  0  0   0 -1  0
                       1  0  0   0  0  1   0  1  0      -1  0  0   0  0 -1   0 -1  0
                       0  1  0   0  0  1   1  0  0       0 -1  0   0  0 -1  -1  0  0
                       0  0  1   0  1  0   1  0  0       0  0 -1   0 -1  0  -1  0  0
           tolwfr      1.00000000E-20
            typat      1  2  3  3
           useylm           1
           xangst      0.0000000000E+00  0.0000000000E+00  0.0000000000E+00
                       2.6051633855E+00  1.5845552489E+00  9.1998002107E+00
                       4.0259309205E+00  2.4487178068E+00  1.4217058452E+01
                       1.1843958506E+00  7.2039269103E-01  4.1825419690E+00
            xcart      0.0000000000E+00  0.0000000000E+00  0.0000000000E+00
                       4.9230453301E+00  2.9943754628E+00  1.7385102875E+01
                       7.6079068696E+00  4.6274060315E+00  2.6866346890E+01
                       2.2381837906E+00  1.3613448942E+00  7.9038588607E+00
             xred      0.0000000000E+00  0.0000000000E+00  0.0000000000E+00
                       5.0000000000E-01  5.0000000000E-01  5.0000000000E-01
                       7.7268300000E-01  7.7268300000E-01  7.7268300000E-01
                       2.2731700000E-01  2.2731700000E-01  2.2731700000E-01
            znucl       37.00000   57.00000    8.00000

 chkinp: Checking input parameters for consistency.

== DATASET  1 ==================================================================
-   mpi_nproc: 1, omp_nthreads: -1 (-1 if OMP is not activated)

--- !DatasetInfo
iteration_state: {dtset: 1, }
dimensions: {natom: 4, nkpt: 1, mband: 25, nsppol: 1, nspinor: 1, nspden: 1, mpw: 9302, }
cutoff_energies: {ecut:  52.0, pawecutdg:  -1.0, }
electrons: {nelect:   3.20000000E+01, charge:   0.00000000E+00, occopt:   1.00000000E+00, tsmear:   1.00000000E-02, }
meta: {optdriver: 1, rfelfd: 2, }
...

 Real(R)+Recip(G) space primitive vectors, cartesian coordinates (Bohr,Bohr^-1):
 R(1)=  6.7443335  0.0000000 10.9534573  G(1)=  0.1482726 -0.0767949  0.0000000
 R(2)=  3.1017571  5.9887509 10.9534573  G(2)=  0.0000000  0.1669797  0.0000000
 R(3)=  0.0000000  0.0000000 12.8632912  G(3)= -0.1262583 -0.0767949  0.0777406
 Unit cell volume ucvol=  5.1955005E+02 bohr^3
 Angles (23,13,12)=  3.16217067E+01  3.16217067E+01  3.16217067E+01 degrees

 getcut: wavevector=  0.0000  0.0000  0.0000  ngfft=  90  90  90
         ecut(hartree)=     52.000   => boxcut(ratio)=   2.15565

--- Pseudopotential description ------------------------------------------------
- pspini: atom type   1  psp file is /scratch/users/j/a/jabreu/pseudos/PBEsol/Rb.psp8
- pspatm: opening atomic psp file    /scratch/users/j/a/jabreu/pseudos/PBEsol/Rb.psp8
- Rb    ONCVPSP-3.3.0  r_core=   1.71227   1.75361   1.90633
- 37.00000   9.00000    180112                znucl, zion, pspdat
    8 -116133    2    4       600   0.00000   pspcod,pspxc,lmax,lloc,mmax,r2well
    5.99000000000000    7.00000000000000    0.00000000000000   rchrg,fchrg,qchrg
     nproj     2     2     2
     extension_switch     1
  pspatm : epsatm=   34.48400912
         --- l  ekb(1:nproj) -->
             0    8.196957   -0.477221
             1    3.231347   -0.378736
             2   -1.047201    0.996637
 pspatm: atomic psp has been read  and splines computed

- pspini: atom type   2  psp file is /scratch/users/j/a/jabreu/pseudos/PBEsol/La.psp8
- pspatm: opening atomic psp file    /scratch/users/j/a/jabreu/pseudos/PBEsol/La.psp8
- La    ONCVPSP-3.3.0  r_core=   2.11664   1.60878   1.85636   1.66739
- 57.00000  11.00000    180112                znucl, zion, pspdat
    8 -116133    3    4       600   0.00000   pspcod,pspxc,lmax,lloc,mmax,r2well
    5.99000000000000    5.00000000000000    0.00000000000000   rchrg,fchrg,qchrg
     nproj     2     2     2     2
     extension_switch     1
  pspatm : epsatm=   29.08531775
         --- l  ekb(1:nproj) -->
             0    6.695600    0.639047
             1    6.383649    1.151322
             2    3.612966    0.847811
             3  -13.718437   -4.858923
 pspatm: atomic psp has been read  and splines computed

- pspini: atom type   3  psp file is /scratch/users/j/a/jabreu/pseudos/PBEsol/O.psp8
- pspatm: opening atomic psp file    /scratch/users/j/a/jabreu/pseudos/PBEsol/O.psp8
- O     ONCVPSP-3.3.0  r_core=   1.35509   1.45563   1.26150
-  8.00000   6.00000    180112                znucl, zion, pspdat
    8 -116133    2    4       600   0.00000   pspcod,pspxc,lmax,lloc,mmax,r2well
    5.99000000000000    4.00000000000000    0.00000000000000   rchrg,fchrg,qchrg
     nproj     2     2     1
     extension_switch     1
  pspatm : epsatm=    6.22910522
         --- l  ekb(1:nproj) -->
             0    6.050032    0.820363
             1   -4.739617   -1.153841
             2   -1.335834
 pspatm: atomic psp has been read  and splines computed

   2.43288119E+03                                ecore*ucvol(ha*bohr**3)

-inwffil : will read wavefunctions from disk file /scratch/users/j/a/jabreu/flow_simple_4atoms/flow/w163/t1/indata/in_WFK

 ==>  initialize data related to q vector <==

 The list of irreducible perturbations for this q vector is:
    1)    idir= 1    ipert=   5
    2)    idir= 2    ipert=   5
    3)    idir= 3    ipert=   5

 Perturbation wavevector (in red.coord.)   0.000000  0.000000  0.000000
 Perturbation : derivative vs k along direction   1

 dfpt_looppert : COMMENT -
  In a d/dk calculation, iscf is set to -3 automatically.
 The set of symmetries contains only one element for this perturbation.
 symkpt : not enough symmetry to change the number of k points.

[...]

 Initialisation of the first-order wave-functions :
  ireadwf=   0

--- !BeginCycle
iteration_state: {dtset: 1, }
solver: {iscf: 7, nstep: 100, nline: 4, wfoptalg: 0, }
tolerances: {tolwfr: 1.00E-20, }
...

     iter   2DEtotal(Ha)        deltaE(Ha) residm    vres2
-ETOT  1  -37.814434306610     -3.781E+01 2.684E-01 0.000E+00
 ETOT  2  -37.958734759206     -1.443E-01 4.091E-02 0.000E+00
 ETOT  3  -37.961566470413     -2.832E-03 5.753E-03 0.000E+00
 ETOT  4  -37.961641058832     -7.459E-05 3.198E-03 0.000E+00
 ETOT  5  -37.961643386766     -2.328E-06 1.399E-03 0.000E+00
 ETOT  6  -37.961643464345     -7.758E-08 9.080E-04 0.000E+00
 ETOT  7  -37.961643467039     -2.694E-09 4.563E-04 0.000E+00
 ETOT  8  -37.961643467134     -9.504E-11 3.091E-04 0.000E+00
 ETOT  9  -37.961643467137     -3.453E-12 1.716E-04 0.000E+00
 ETOT 10  -37.961643467137     -1.776E-13 1.152E-04 0.000E+00
 ETOT 11  -37.961643467137     -5.684E-14 6.691E-05 0.000E+00
 ETOT 12  -37.961643467137      7.816E-14 4.445E-05 0.000E+00
 ETOT 13  -37.961643467137     -1.421E-14 2.588E-05 0.000E+00
 ETOT 14  -37.961643467137      0.000E+00 1.737E-05 0.000E+00
 ETOT 15  -37.961643467137      1.421E-14 1.004E-05 0.000E+00
 ETOT 16  -37.961643467137      0.000E+00 6.824E-06 0.000E+00
 ETOT 17  -37.961643467137     -1.421E-14 3.915E-06 0.000E+00
 ETOT 18  -37.961643467137      7.105E-15 2.689E-06 0.000E+00
 ETOT 19  -37.961643467137      0.000E+00 1.530E-06 0.000E+00
 ETOT 20  -37.961643467137      1.421E-14 1.061E-06 0.000E+00
 ETOT 21  -37.961643467137     -7.105E-15 5.993E-07 0.000E+00
 ETOT 22  -37.961643467137      7.105E-15 4.192E-07 0.000E+00
 ETOT 23  -37.961643467137     -7.105E-15 2.351E-07 0.000E+00
 ETOT 24  -37.961643467137      7.105E-15 1.657E-07 0.000E+00
 ETOT 25  -37.961643467137     -7.105E-15 9.233E-08 0.000E+00
 ETOT 26  -37.961643467137      0.000E+00 6.551E-08 0.000E+00
 ETOT 27  -37.961643467137      0.000E+00 3.630E-08 0.000E+00
 ETOT 28  -37.961643467137      1.421E-14 2.591E-08 0.000E+00
 ETOT 29  -37.961643467137     -2.842E-14 1.429E-08 0.000E+00
 ETOT 30  -37.961643467137      2.132E-14 1.025E-08 0.000E+00
[...]
 ETOT 87  -37.961643467137     -1.421E-14 3.073E-20 0.000E+00
 ETOT 88  -37.961643467137      1.421E-14 2.352E-20 0.000E+00
 ETOT 89  -37.961643467137      0.000E+00 1.220E-20 0.000E+00
 ETOT 90  -37.961643467137      0.000E+00 9.297E-21 0.000E+00

 At SCF step   90   max residual=  9.30E-21 < tolwfr=  1.00E-20 =>converged.

 ----iterations are completed or convergence reached----

 dfpt_looppert: DFPT cycle converged with prtwf=-1. Will skip output of the 1st-order WFK file.
 dfpt_looppert : ek2=    7.0447763266E+01
          f-sum rule ratio=    1.0267645264E+00
 prteigrs : about to open file /scratch/users/j/a/jabreu/flow_simple_4atoms/flow/w163/t1/tmpdata/tmp_1WF1_EIG
 Expectation of eigenvalue derivatives (hartree) for nkpt=   1  k points:
  (in case of degenerate eigenvalues, averaged derivative)
 kpt#   1, nband= 25, wtk=  1.00000, kpt=  0.5000  0.5000  0.0000 (reduced coord)
  -0.00000    0.00000   -0.00000    0.00000   -0.00000   -0.00000   -0.00000   -0.00000
  -0.00000    0.00000    0.00000   -0.00000   -0.00000   -0.00000    0.00000    0.00000
  -0.00000   -0.00000    0.00000   -0.00000    0.00000    0.00000    0.00000    0.00000
  -0.00000

 Eight components of 2nd-order total energy (hartree) are
 1,2,3: 0th-order hamiltonian combined with 1st-order wavefunctions
     kin0=   7.10585551E+01 eigvalue=   2.67181123E-01  local=  -4.00706939E+01
 4,5,6: 1st-order hamiltonian combined with 1st and 0th-order wfs
     kin1=  -7.23332643E+01  Hartree=   0.00000000E+00     xc=   0.00000000E+00
 7,8,9: eventually, occupation + non-local contributions
    edocc=   5.23874004E+00     enl0=   1.46786109E+00   enl1=  -3.59002265E+00
 1-9 gives the relaxation energy (to be shifted if some occ is /=2.0)
   erelax=  -3.79616435E+01
  No Ewald or frozen-wf contrib.: the relaxation energy is the total one
 2DEtotal=   -0.3796164347E+02 Ha. Also 2DEtotal=   -0.103298885234E+04 eV
    (  non-var. 2DEtotal :   -3.7961643467E+01 Ha)

 Perturbation wavevector (in red.coord.)   0.000000  0.000000  0.000000
 Perturbation : derivative vs k along direction   2
 The set of symmetries contains only one element for this perturbation.
 symkpt : not enough symmetry to change the number of k points.

[...]

 Perturbation wavevector (in red.coord.)   0.000000  0.000000  0.000000
 Perturbation : derivative vs k along direction   3
 The set of symmetries contains only one element for this perturbation.
 symkpt : not enough symmetry to change the number of k points.

-inwffil : will read wavefunctions from disk file /scratch/users/j/a/jabreu/flow_simple_4atoms/flow/w163/t1/indata/in_WFK

 Initialisation of the first-order wave-functions :
  ireadwf=   0

--- !BeginCycle
iteration_state: {dtset: 1, }
solver: {iscf: 7, nstep: 100, nline: 4, wfoptalg: 0, }
tolerances: {tolwfr: 1.00E-20, }
...

     iter   2DEtotal(Ha)        deltaE(Ha) residm    vres2
-ETOT  1  -36.971242880383     -3.697E+01 2.483E-01 0.000E+00
 ETOT  2  -37.118245169673     -1.470E-01 5.389E-02 0.000E+00
 ETOT  3  -37.121256994287     -3.012E-03 5.743E-03 0.000E+00
 ETOT  4  -37.121342590770     -8.560E-05 1.842E-03 0.000E+00
 ETOT  5  -37.121345277553     -2.687E-06 1.330E-03 0.000E+00
 ETOT  6  -37.121345365155     -8.760E-08 5.537E-04 0.000E+00
 ETOT  7  -37.121345368096     -2.941E-09 4.635E-04 0.000E+00
 ETOT  8  -37.121345368196     -1.001E-10 1.872E-04 0.000E+00
 ETOT  9  -37.121345368200     -3.382E-12 1.615E-04 0.000E+00
 ETOT 10  -37.121345368200     -1.776E-13 6.550E-05 0.000E+00
 ETOT 11  -37.121345368200     -9.237E-14 5.675E-05 0.000E+00
 ETOT 12  -37.121345368200      1.421E-13 2.323E-05 0.000E+00
 ETOT 13  -37.121345368200     -7.105E-15 2.011E-05 0.000E+00
 ETOT 14  -37.121345368200      4.263E-14 8.283E-06 0.000E+00
 ETOT 15  -37.121345368200     -7.105E-15 7.151E-06 0.000E+00
 ETOT 16  -37.121345368200      0.000E+00 2.962E-06 0.000E+00
 ETOT 17  -37.121345368200      1.421E-14 2.549E-06 0.000E+00
 ETOT 18  -37.121345368200     -2.842E-14 1.061E-06 0.000E+00
 ETOT 19  -37.121345368200      7.105E-15 9.102E-07 0.000E+00
 ETOT 20  -37.121345368200      7.105E-15 3.810E-07 0.000E+00
 ETOT 21  -37.121345368200     -1.421E-14 3.254E-07 0.000E+00
 ETOT 22  -37.121345368200      7.105E-15 1.485E-07 0.000E+00
 ETOT 23  -37.121345368200      0.000E+00 1.165E-07 0.000E+00
 ETOT 24  -37.121345368200      0.000E+00 6.322E-08 0.000E+00
 ETOT 25  -37.121345368200      0.000E+00 4.243E-08 0.000E+00
 ETOT 26  -37.121345368200      0.000E+00 2.695E-08 0.000E+00
 ETOT 27  -37.121345368200      0.000E+00 1.810E-08 0.000E+00
 ETOT 28  -37.121345368200     -7.105E-15 1.150E-08 0.000E+00
 ETOT 29  -37.121345368200      7.105E-15 7.725E-09 0.000E+00
 ETOT 30  -37.121345368200      0.000E+00 4.909E-09 0.000E+00
 ETOT 31  -37.121345368200      0.000E+00 3.298E-09 0.000E+00
 ETOT 32  -37.121345368200      0.000E+00 2.097E-09 0.000E+00
 ETOT 33  -37.121345368200      0.000E+00 1.409E-09 0.000E+00
 ETOT 34  -37.121345368200      1.421E-14 8.959E-10 0.000E+00
 ETOT 35  -37.121345368200     -1.421E-14 6.018E-10 0.000E+00
 ETOT 36  -37.121345368200     -7.105E-15 3.828E-10 0.000E+00
 ETOT 37  -37.121345368200      7.105E-15 2.571E-10 0.000E+00
 ETOT 38  -37.121345368200      0.000E+00 1.636E-10 0.000E+00
 ETOT 39  -37.121345368200      7.105E-15 1.098E-10 0.000E+00
 ETOT 40  -37.121345368200     -7.105E-15 6.992E-11 0.000E+00
 ETOT 41  -37.121345368200      0.000E+00 4.693E-11 0.000E+00
 ETOT 42  -37.121345368200      0.000E+00 2.988E-11 0.000E+00
 ETOT 43  -37.121345368200      0.000E+00 2.005E-11 0.000E+00
 ETOT 44  -37.121345368200      2.132E-14 1.277E-11 0.000E+00
 ETOT 45  -37.121345368200     -7.105E-15 8.567E-12 0.000E+00
 ETOT 46  -37.121345368200     -1.421E-14 5.461E-12 0.000E+00
 ETOT 47  -37.121345368200      7.105E-15 3.660E-12 0.000E+00
 ETOT 48  -37.121345368200      0.000E+00 2.335E-12 0.000E+00
 ETOT 49  -37.121345368200      0.000E+00 1.564E-12 0.000E+00
 ETOT 50  -37.121345368200      7.105E-15 9.984E-13 0.000E+00
 ETOT 51  -37.121345368200      0.000E+00 6.682E-13 0.000E+00
 ETOT 52  -37.121345368200      7.105E-15 4.270E-13 0.000E+00
 ETOT 53  -37.121345368200     -7.105E-15 2.855E-13 0.000E+00
 ETOT 54  -37.121345368200      7.105E-15 1.826E-13 0.000E+00
 ETOT 55  -37.121345368200      0.000E+00 1.220E-13 0.000E+00
 ETOT 56  -37.121345368200     -7.105E-15 7.812E-14 0.000E+00
 ETOT 57  -37.121345368200      1.421E-14 5.211E-14 0.000E+00
 ETOT 58  -37.121345368200      0.000E+00 3.342E-14 0.000E+00
 ETOT 59  -37.121345368200      0.000E+00 2.226E-14 0.000E+00
 ETOT 60  -37.121345368200      0.000E+00 1.430E-14 0.000E+00
 ETOT 61  -37.121345368200     -7.105E-15 9.512E-15 0.000E+00
[...]
 ETOT 80  -37.121345368200      0.000E+00 2.970E-18 0.000E+00
 ETOT 81  -37.121345368200     -7.105E-15 1.936E-18 0.000E+00
 ETOT 82  -37.121345368200      7.105E-15 1.273E-18 0.000E+00
 ETOT 83  -37.121345368200      1.421E-14 8.282E-19 0.000E+00
 ETOT 84  -37.121345368200     -2.132E-14 5.457E-19 0.000E+00
 ETOT 85  -37.121345368200      1.421E-14 3.543E-19 0.000E+00
 ETOT 86  -37.121345368200      1.421E-14 2.339E-19 0.000E+00
 ETOT 87  -37.121345368200     -7.105E-15 1.516E-19 0.000E+00
 ETOT 88  -37.121345368200     -1.421E-14 1.003E-19 0.000E+00
 ETOT 89  -37.121345368200      0.000E+00 6.486E-20 0.000E+00
 ETOT 90  -37.121345368200      0.000E+00 4.301E-20 0.000E+00
 ETOT 91  -37.121345368200      0.000E+00 2.776E-20 0.000E+00
 ETOT 92  -37.121345368200      7.105E-15 1.845E-20 0.000E+00
 ETOT 93  -37.121345368200      0.000E+00 1.188E-20 0.000E+00
 ETOT 94  -37.121345368200     -2.132E-14 9.581E-21 0.000E+00

 At SCF step   94   max residual=  9.58E-21 < tolwfr=  1.00E-20 =>converged.

 ----iterations are completed or convergence reached----

 dfpt_looppert: DFPT cycle converged with prtwf=-1. Will skip output of the 1st-order WFK file.
 dfpt_looppert : ek2=    7.0447763266E+01
          f-sum rule ratio=    1.0001150283E+00
 prteigrs : about to open file /scratch/users/j/a/jabreu/flow_simple_4atoms/flow/w163/t1/tmpdata/tmp_1WF1_EIG
 Expectation of eigenvalue derivatives (hartree) for nkpt=   1  k points:
  (in case of degenerate eigenvalues, averaged derivative)
 kpt#   1, nband= 25, wtk=  1.00000, kpt=  0.5000  0.5000  0.0000 (reduced coord)
   0.00000   -0.00000    0.00000   -0.00000    0.00000    0.00000    0.00000   -0.00000
   0.00000    0.00000    0.00000    0.00000    0.00000   -0.00000   -0.00000   -0.00000
   0.00000    0.00000    0.00000    0.00000   -0.00000   -0.00000   -0.00000   -0.00000
  -0.00000

 Eight components of 2nd-order total energy (hartree) are
 1,2,3: 0th-order hamiltonian combined with 1st-order wavefunctions
     kin0=   7.15520734E+01 eigvalue=  -7.01216636E-02  local=  -4.07984930E+01
 4,5,6: 1st-order hamiltonian combined with 1st and 0th-order wfs
     kin1=  -7.04558668E+01  Hartree=   0.00000000E+00     xc=   0.00000000E+00
 7,8,9: eventually, occupation + non-local contributions
    edocc=   3.88404627E+00     enl0=   2.55384035E+00   enl1=  -3.78682398E+00
 1-9 gives the relaxation energy (to be shifted if some occ is /=2.0)
   erelax=  -3.71213454E+01
  No Ewald or frozen-wf contrib.: the relaxation energy is the total one
 2DEtotal=   -0.3712134537E+02 Ha. Also 2DEtotal=   -0.101012317821E+04 eV
    (  non-var. 2DEtotal :   -3.7121345368E+01 Ha)

 CALCULATION OF EFFECTIVE MASSES
 NOTE : Additional infos (eff. mass eigenvalues, eigenvectors and, if degenerate, average mass) are available in stdout.

 K-point ( 0.500, 0.500, 0.000) | band =    16
 Effective mass tensor:
             -2.9256555321              0.3899343135             -1.7105259466
              0.3899343135             -3.3295733286             -1.0404041761
             -1.7105259466             -1.0404041761             -2.3640515520
 Effective mass tensor eigenvalues:
             -4.5349121966             -3.5667455786             -0.5176226374
 Angular average effective mass 1/(<1/m>)=  -1.2331528764
 Angular average effective mass for Frohlich model (<m**0.5>)**2=  -1.6828448801
 Effective masses along directions: (cart. coord. / red. coord. -> eff. mass)
    1:   1.000000  0.000000  0.000000 /   0.908523  0.417835  0.000000 ->  -1.2332711301
    2:   0.000000  1.000000  0.000000 /   0.000000  1.000000  0.000000 ->  -2.0981029706
    3:   0.000000  0.000000  1.000000 /   0.543999  0.543999  0.638850 ->  -0.8731217439
    4:   0.577350  0.577350  0.577350 /   0.596444  0.675514  0.433514 ->  -4.0856859030
    5:   0.000000  0.707107  0.707107 /   0.457795  0.708092  0.537615 ->  -2.7192553518
    6:   0.707107  0.000000  0.707107 /   0.680571  0.540495  0.494660 ->  -4.0098518494
    7:   0.707107  0.707107  0.000000 /   0.595833  0.803108  0.000000 ->  -1.0347723838

 K-point ( 0.500, 0.500, 0.000) | band =    17
 Effective mass tensor:
              0.7538503631              0.0994561620             -0.3151592835
              0.0994561620              0.6508275869             -0.1916913712
             -0.3151592835             -0.1916913712              0.9744884244
 Effective mass tensor eigenvalues:
              0.5169471789              0.5903347283              1.2718844671
 Angular average effective mass 1/(<1/m>)=   0.6795597636
 Angular average effective mass for Frohlich model (<m**0.5>)**2=   0.7072428924
 Effective masses along directions: (cart. coord. / red. coord. -> eff. mass)
    1:   1.000000  0.000000  0.000000 /   0.908523  0.417835  0.000000 ->   0.6496358449
    2:   0.000000  1.000000  0.000000 /   0.000000  1.000000  0.000000 ->   0.6109674061
    3:   0.000000  0.000000  1.000000 /   0.543999  0.543999  0.638850 ->   0.8073955424
    4:   0.577350  0.577350  0.577350 /   0.596444  0.675514  0.433514 ->   0.5200859684
    5:   0.000000  0.707107  0.707107 /   0.457795  0.708092  0.537615 ->   0.5783032657
    6:   0.707107  0.000000  0.707107 /   0.680571  0.540495  0.494660 ->   0.5352548423
    7:   0.707107  0.707107  0.000000 /   0.595833  0.803108  0.000000 ->   0.6693509991

 END OF EFFECTIVE MASSES SECTION

 ---- first-order wavefunction calculations are completed ----

 Total localisation tensor (bohr^2) in cartesian coordinates
  WARNING : still subject to testing - especially symmetries.
      direction              matrix element
   alpha     beta       real part   imaginary part
     1        1       1.3678464472    0.0000000000
     1        2       0.4610787981    0.0000000000
     1        3       2.6769863791    0.0000000000
     2        1       0.4610787981    0.0000000000
     2        2       0.8902328490    0.0000000000
     2        3       1.6282406113    0.0000000000
     3        1       2.6769863791    0.0000000000
     3        2       1.6282406113    0.0000000000
     3        3       9.7698713674    0.0000000000

 respfn : d/dk was computed, but no 2DTE, so no DDB output.

== END DATASET(S) ==============================================================

 -outvars: echo values of variables after computation  --------
            acell      1.0000000000E+00  1.0000000000E+00  1.0000000000E+00 Bohr
              amu      8.54678000E+01  1.38905500E+02  1.59994000E+01
             ecut      5.20000000E+01 Hartree
           etotal     -3.7121345368E+01
            fcart      0.0000000000E+00  0.0000000000E+00  0.0000000000E+00
                       0.0000000000E+00  0.0000000000E+00  0.0000000000E+00
                       0.0000000000E+00  0.0000000000E+00  0.0000000000E+00
                       0.0000000000E+00  0.0000000000E+00  0.0000000000E+00
-          fftalg         512
           irdden           1
           irdwfk           1
           istwfk        1
              ixc     -116133
              kpt      5.00000000E-01  5.00000000E-01  0.00000000E+00
           kptopt           0
P           mkmem           1
P          mkqmem           1
P          mk1mem           1
            natom           4
            nband          25
           nbdbuf           4
            ngfft          90      90      90
             nkpt           1
            nstep         100
             nsym          12
           ntypat           3
              occ      2.000000  2.000000  2.000000  2.000000  2.000000  2.000000
                       2.000000  2.000000  2.000000  2.000000  2.000000  2.000000
                       2.000000  2.000000  2.000000  2.000000  0.000000  0.000000
                       0.000000  0.000000  0.000000  0.000000  0.000000  0.000000
                       0.000000
        optdriver           1
            prtwf          -1
            rfdir           1       1       1
           rfelfd           2
            rprim      6.7443335392E+00  0.0000000000E+00  1.0953457266E+01
                       3.1017571210E+00  5.9887509257E+00  1.0953457266E+01
                       0.0000000000E+00  0.0000000000E+00  1.2863291218E+01
          spgroup         166
           strten      0.0000000000E+00  0.0000000000E+00  0.0000000000E+00
                       0.0000000000E+00  0.0000000000E+00  0.0000000000E+00
           symrel      1  0  0   0  1  0   0  0  1      -1  0  0   0 -1  0   0  0 -1
                       0  1  0   1  0  0   0  0  1       0 -1  0  -1  0  0   0  0 -1
                       0  0  1   1  0  0   0  1  0       0  0 -1  -1  0  0   0 -1  0
                       1  0  0   0  0  1   0  1  0      -1  0  0   0  0 -1   0 -1  0
                       0  1  0   0  0  1   1  0  0       0 -1  0   0  0 -1  -1  0  0
                       0  0  1   0  1  0   1  0  0       0  0 -1   0 -1  0  -1  0  0
           tolwfr      1.00000000E-20
            typat      1  2  3  3
           useylm           1
           xangst      0.0000000000E+00  0.0000000000E+00  0.0000000000E+00
                       2.6051633855E+00  1.5845552489E+00  9.1998002107E+00
                       4.0259309205E+00  2.4487178068E+00  1.4217058452E+01
                       1.1843958506E+00  7.2039269103E-01  4.1825419690E+00
            xcart      0.0000000000E+00  0.0000000000E+00  0.0000000000E+00
                       4.9230453301E+00  2.9943754628E+00  1.7385102875E+01
                       7.6079068696E+00  4.6274060315E+00  2.6866346890E+01
                       2.2381837906E+00  1.3613448942E+00  7.9038588607E+00
             xred      0.0000000000E+00  0.0000000000E+00  0.0000000000E+00
                       5.0000000000E-01  5.0000000000E-01  5.0000000000E-01
                       7.7268300000E-01  7.7268300000E-01  7.7268300000E-01
                       2.2731700000E-01  2.2731700000E-01  2.2731700000E-01
            znucl       37.00000   57.00000    8.00000

- Timing analysis has been suppressed with timopt=0

 Suggested references for the acknowledgment of ABINIT usage.

 Calculation completed.
.Delivered   6 WARNINGs and   5 COMMENTs to log file.