.Version 9.7.2 of ABINIT

 ABINIT is a project of the Universite Catholique de Louvain,
 Corning Inc. and other collaborators, see ~abinit/doc/developers/contributors.txt .
 acknowledgments of the ABINIT effort.

.Starting date : Wed  1 Dec 2021.
- ( at 21h43 )

- input  file    -> /scratch/users/j/a/jabreu/flow_simple_remain_atoms/flow/w228/t1/run.abi
- output file    -> /scratch/users/j/a/jabreu/flow_simple_remain_atoms/flow/w228/t1/run.abo
- root for input  files -> /scratch/users/j/a/jabreu/flow_simple_remain_atoms/flow/w228/t1/indata/in
- root for output files -> /scratch/users/j/a/jabreu/flow_simple_remain_atoms/flow/w228/t1/outdata/out

 Symmetries : space group P-3 m 1 (#164); Bravais hP (primitive hexag.)
     intxc =       0      iscf =       7    lmnmax =      32     lnmax =       8
     mgfft =      90  mpssoang =       4    mqgrid =    4350     natom =       5
  nloc_mem =       1    nspden =       1   nspinor =       1    nsppol =       1
      nsym =      12    n1xccc =    2501    ntypat =       3    occopt =       1
   xclevel =       2
-    mband =          34        mffmem =           1         mkmem =           2
-   mkqmem =           2        mk1mem =           2           mpw =       12164
      nfft =      225000          nkpt =           2
  Rough estimation (10% accuracy) of disk space for files :

------------- Echo of variables that govern the present computation ------------
-
- outvars: echo of selected default values
-   iomode0 =  0 , fftalg0 =512 , wfoptalg0 =  0
-
- outvars: echo of global parameters not present in the input file
-  max_nthreads =    0
-
 -outvars: echo values of preprocessed input variables --------
            acell      1.0000000000E+00  1.0000000000E+00  1.0000000000E+00 Bohr
              amu      1.38905500E+02  7.89600000E+01  1.59994000E+01
             ecut      5.20000000E+01 Hartree
-          fftalg         512
           irdden           1
           irdwfk           1
           istwfk        1    0
              ixc     -116133
              kpt      0.00000000E+00  0.00000000E+00  5.00000000E-01
                       3.33333333E-01  3.33333333E-01  0.00000000E+00
           kptopt           0
P           mkmem           2
P          mkqmem           2
P          mk1mem           2
            natom           5
            nband          34
           nbdbuf           4
            ngfft          50      50      90
             nkpt           2
            nstep        2000
             nsym          12
           ntypat           3
              occ      2.000000  2.000000  2.000000  2.000000  2.000000  2.000000
                       2.000000  2.000000  2.000000  2.000000  2.000000  2.000000
                       2.000000  2.000000  2.000000  2.000000  2.000000  2.000000
                       2.000000  2.000000  2.000000  2.000000  2.000000  2.000000
                       2.000000  0.000000  0.000000  0.000000  0.000000  0.000000
                       0.000000  0.000000  0.000000  0.000000
        optdriver           1
            prtwf          -1
            rfdir           1       1       1
           rfelfd           2
            rprim      7.6416843860E+00  0.0000000000E+00  0.0000000000E+00
                      -3.8208421930E+00  6.6178928060E+00  0.0000000000E+00
                       0.0000000000E+00  0.0000000000E+00  1.3398254146E+01
          spgroup         164
           symrel      1  0  0   0  1  0   0  0  1      -1  0  0   0 -1  0   0  0 -1
                      -1  0  0   1  1  0   0  0  1       1  0  0  -1 -1  0   0  0 -1
                       0  1  0  -1 -1  0   0  0  1       0 -1  0   1  1  0   0  0 -1
                       0 -1  0  -1  0  0   0  0  1       0  1  0   1  0  0   0  0 -1
                      -1 -1  0   1  0  0   0  0  1       1  1  0  -1  0  0   0  0 -1
                       1  1  0   0 -1  0   0  0  1      -1 -1  0   0  1  0   0  0 -1
           tolwfr      1.00000000E-20
            typat      1  1  2  3  3
           useylm           1
              wtk        0.50000    0.50000
           xangst      0.0000000000E+00  2.3346920279E+00  5.0492434371E+00
                       2.0219026062E+00  1.1673460139E+00  2.0408072919E+00
                       0.0000000000E+00  0.0000000000E+00  0.0000000000E+00
                       0.0000000000E+00  2.3346920279E+00  2.6636682484E+00
                       2.0219026062E+00  1.1673460139E+00  4.4263824806E+00
            xcart      0.0000000000E+00  4.4119285373E+00  9.5416872744E+00
                       3.8208421930E+00  2.2059642687E+00  3.8565668717E+00
                       0.0000000000E+00  0.0000000000E+00  0.0000000000E+00
                       0.0000000000E+00  4.4119285373E+00  5.0336034984E+00
                       3.8208421930E+00  2.2059642687E+00  8.3646506477E+00
             xred      3.3333333333E-01  6.6666666667E-01  7.1215900000E-01
                       6.6666666667E-01  3.3333333333E-01  2.8784100000E-01
                       0.0000000000E+00  0.0000000000E+00  0.0000000000E+00
                       3.3333333333E-01  6.6666666667E-01  3.7569100000E-01
                       6.6666666667E-01  3.3333333333E-01  6.2430900000E-01
            znucl       57.00000   34.00000    8.00000

 chkinp: Checking input parameters for consistency.

== DATASET  1 ==================================================================
-   mpi_nproc: 1, omp_nthreads: -1 (-1 if OMP is not activated)

--- !DatasetInfo
iteration_state: {dtset: 1, }
dimensions: {natom: 5, nkpt: 2, mband: 34, nsppol: 1, nspinor: 1, nspden: 1, mpw: 12164, }
cutoff_energies: {ecut:  52.0, pawecutdg:  -1.0, }
electrons: {nelect:   5.00000000E+01, charge:   0.00000000E+00, occopt:   1.00000000E+00, tsmear:   1.00000000E-02, }
meta: {optdriver: 1, rfelfd: 2, }
...

 Real(R)+Recip(G) space primitive vectors, cartesian coordinates (Bohr,Bohr^-1):
 R(1)=  7.6416844  0.0000000  0.0000000  G(1)=  0.1308612  0.0755527  0.0000000
 R(2)= -3.8208422  6.6178928  0.0000000  G(2)=  0.0000000  0.1511055  0.0000000
 R(3)=  0.0000000  0.0000000 13.3982541  G(3)=  0.0000000  0.0000000  0.0746366
 Unit cell volume ucvol=  6.7757447E+02 bohr^3
 Angles (23,13,12)=  9.00000000E+01  9.00000000E+01  1.20000000E+02 degrees

 getcut: wavevector=  0.0000  0.0000  0.0000  ngfft=  50  50  90
         ecut(hartree)=     52.000   => boxcut(ratio)=   2.01618

--- Pseudopotential description ------------------------------------------------
- pspini: atom type   1  psp file is /scratch/users/j/a/jabreu/pseudos/PBEsol/La.psp8
- pspatm: opening atomic psp file    /scratch/users/j/a/jabreu/pseudos/PBEsol/La.psp8
- La    ONCVPSP-3.3.0  r_core=   2.11664   1.60878   1.85636   1.66739
- 57.00000  11.00000    180112                znucl, zion, pspdat
    8 -116133    3    4       600   0.00000   pspcod,pspxc,lmax,lloc,mmax,r2well
    5.99000000000000    5.00000000000000    0.00000000000000   rchrg,fchrg,qchrg
     nproj     2     2     2     2
     extension_switch     1
  pspatm : epsatm=   29.08531775
         --- l  ekb(1:nproj) -->
             0    6.695600    0.639047
             1    6.383649    1.151322
             2    3.612966    0.847811
             3  -13.718437   -4.858923
 pspatm: atomic psp has been read  and splines computed

- pspini: atom type   2  psp file is /scratch/users/j/a/jabreu/pseudos/PBEsol/Se.psp8
- pspatm: opening atomic psp file    /scratch/users/j/a/jabreu/pseudos/PBEsol/Se.psp8
- Se    ONCVPSP-3.3.0  r_core=   1.81943   1.50330   1.90835
- 34.00000  16.00000    180112                znucl, zion, pspdat
    8 -116133    2    4       600   0.00000   pspcod,pspxc,lmax,lloc,mmax,r2well
    5.99000000000000    5.00000000000000    0.00000000000000   rchrg,fchrg,qchrg
     nproj     2     2     2
     extension_switch     1
  pspatm : epsatm=   29.17862020
         --- l  ekb(1:nproj) -->
             0    8.973804    1.019550
             1    6.849857    1.297308
             2   -9.203962   -3.731027
 pspatm: atomic psp has been read  and splines computed

- pspini: atom type   3  psp file is /scratch/users/j/a/jabreu/pseudos/PBEsol/O.psp8
- pspatm: opening atomic psp file    /scratch/users/j/a/jabreu/pseudos/PBEsol/O.psp8
- O     ONCVPSP-3.3.0  r_core=   1.35509   1.45563   1.26150
-  8.00000   6.00000    180112                znucl, zion, pspdat
    8 -116133    2    4       600   0.00000   pspcod,pspxc,lmax,lloc,mmax,r2well
    5.99000000000000    4.00000000000000    0.00000000000000   rchrg,fchrg,qchrg
     nproj     2     2     1
     extension_switch     1
  pspatm : epsatm=    6.22910522
         --- l  ekb(1:nproj) -->
             0    6.050032    0.820363
             1   -4.739617   -1.153841
             2   -1.335834
 pspatm: atomic psp has been read  and splines computed

   4.99037331E+03                                ecore*ucvol(ha*bohr**3)

 ==>  initialize data related to q vector <==

 The list of irreducible perturbations for this q vector is:
    1)    idir= 1    ipert=   6
    2)    idir= 2    ipert=   6
    3)    idir= 3    ipert=   6

 Perturbation wavevector (in red.coord.)   0.000000  0.000000  0.000000
 Perturbation : derivative vs k along direction   1

 dfpt_looppert : COMMENT -
  In a d/dk calculation, iscf is set to -3 automatically.
 The set of symmetries contains only one element for this perturbation.
 symkpt : not enough symmetry to change the number of k points.

 Initialisation of the first-order wave-functions :
  ireadwf=   0

--- !BeginCycle
iteration_state: {dtset: 1, }
solver: {iscf: 7, nstep: 2000, nline: 4, wfoptalg: 0, }
tolerances: {tolwfr: 1.00E-20, }
...

     iter   2DEtotal(Ha)        deltaE(Ha) residm    vres2
-ETOT  1  -70.788673416620     -7.079E+01 2.506E-01 0.000E+00
 ETOT  2  -71.196465118217     -4.078E-01 5.970E-02 0.000E+00
 ETOT  3  -71.251777095523     -5.531E-02 2.105E-02 0.000E+00
 ETOT  4  -71.267569952932     -1.579E-02 1.302E-02 0.000E+00
 ETOT  5  -71.273159042954     -5.589E-03 1.283E-02 0.000E+00
 ETOT  6  -71.275317624689     -2.159E-03 1.118E-02 0.000E+00
 ETOT  7  -71.276181887592     -8.643E-04 9.941E-03 0.000E+00
 ETOT  8  -71.276537373310     -3.555E-04 8.515E-03 0.000E+00
 ETOT  9  -71.276687066565     -1.497E-04 7.640E-03 0.000E+00
 ETOT 10  -71.276751456075     -6.439E-05 7.069E-03 0.000E+00
 ETOT 11  -71.276779831472     -2.838E-05 5.934E-03 0.000E+00
 ETOT 12  -71.276792637352     -1.281E-05 5.906E-03 0.000E+00
 ETOT 13  -71.276798580379     -5.943E-06 4.637E-03 0.000E+00
 ETOT 14  -71.276801416739     -2.836E-06 4.892E-03 0.000E+00
 ETOT 15  -71.276802812575     -1.396E-06 3.632E-03 0.000E+00
 ETOT 16  -71.276803520342     -7.078E-07 4.042E-03 0.000E+00
 ETOT 17  -71.276803890076     -3.697E-07 2.948E-03 0.000E+00
 ETOT 18  -71.276804088589     -1.985E-07 3.338E-03 0.000E+00
 ETOT 19  -71.276804197851     -1.093E-07 2.442E-03 0.000E+00
 ETOT 20  -71.276804259288     -6.144E-08 2.772E-03 0.000E+00
 ETOT 21  -71.276804294457     -3.517E-08 2.035E-03 0.000E+00
 ETOT 22  -71.276804314885     -2.043E-08 2.308E-03 0.000E+00
 ETOT 23  -71.276804326888     -1.200E-08 1.698E-03 0.000E+00
 ETOT 24  -71.276804334005     -7.117E-09 1.925E-03 0.000E+00
[...]
  ireadwf=   0

--- !BeginCycle
iteration_state: {dtset: 1, }
solver: {iscf: 7, nstep: 2000, nline: 4, wfoptalg: 0, }
tolerances: {tolwfr: 1.00E-20, }
...

     iter   2DEtotal(Ha)        deltaE(Ha) residm    vres2
-ETOT  1  -16.815094570583     -1.682E+01 6.061E-02 0.000E+00
 ETOT  2  -16.886721831576     -7.163E-02 2.050E-02 0.000E+00
 ETOT  3  -16.895570809785     -8.849E-03 5.654E-03 0.000E+00
 ETOT  4  -16.897615674162     -2.045E-03 4.964E-03 0.000E+00
 ETOT  5  -16.898272201560     -6.565E-04 2.484E-03 0.000E+00
 ETOT  6  -16.898501737533     -2.295E-04 3.889E-03 0.000E+00
 ETOT  7  -16.898586658500     -8.492E-05 1.926E-03 0.000E+00
 ETOT  8  -16.898618755227     -3.210E-05 3.078E-03 0.000E+00
 ETOT  9  -16.898631000060     -1.224E-05 1.454E-03 0.000E+00
 ETOT 10  -16.898635920057     -4.920E-06 2.383E-03 0.000E+00
 ETOT 11  -16.898637918054     -1.998E-06 1.098E-03 0.000E+00
 ETOT 12  -16.898638734512     -8.165E-07 1.828E-03 0.000E+00
 ETOT 13  -16.898639070297     -3.358E-07 8.316E-04 0.000E+00
 ETOT 14  -16.898639208882     -1.386E-07 1.394E-03 0.000E+00
 ETOT 15  -16.898639266289     -5.741E-08 6.290E-04 0.000E+00
 ETOT 16  -16.898639290126     -2.384E-08 1.058E-03 0.000E+00
 ETOT 17  -16.898639300049     -9.924E-09 4.740E-04 0.000E+00
 ETOT 18  -16.898639304188     -4.139E-09 7.993E-04 0.000E+00
 ETOT 19  -16.898639305918     -1.730E-09 3.557E-04 0.000E+00
 ETOT 20  -16.898639306642     -7.240E-10 6.021E-04 0.000E+00
 ETOT 21  -16.898639306946     -3.036E-10 2.663E-04 0.000E+00
 ETOT 22  -16.898639307073     -1.274E-10 4.627E-04 0.000E+00
 ETOT 23  -16.898639307127     -5.359E-11 1.995E-04 0.000E+00
 ETOT 24  -16.898639307149     -2.255E-11 4.131E-04 0.000E+00
 ETOT 25  -16.898639307159     -9.479E-12 1.742E-04 0.000E+00
 ETOT 26  -16.898639307163     -4.039E-12 3.686E-04 0.000E+00
 ETOT 27  -16.898639307165     -1.695E-12 1.553E-04 0.000E+00
 ETOT 28  -16.898639307165     -7.105E-13 3.289E-04 0.000E+00
 ETOT 29  -16.898639307166     -2.949E-13 1.386E-04 0.000E+00
 ETOT 30  -16.898639307166     -1.386E-13 2.935E-04 0.000E+00
 ETOT 31  -16.898639307166     -4.263E-14 1.236E-04 0.000E+00
 ETOT 32  -16.898639307166     -2.842E-14 2.619E-04 0.000E+00
 ETOT 33  -16.898639307166     -1.776E-14 1.103E-04 0.000E+00
 ETOT 34  -16.898639307166      1.066E-14 2.337E-04 0.000E+00
 ETOT 35  -16.898639307166     -1.066E-14 9.849E-05 0.000E+00
 ETOT 36  -16.898639307166     -1.421E-14 2.085E-04 0.000E+00
 ETOT 37  -16.898639307166      7.105E-15 8.792E-05 0.000E+00
 ETOT 38  -16.898639307166     -3.553E-15 1.861E-04 0.000E+00
 ETOT 39  -16.898639307166      0.000E+00 7.851E-05 0.000E+00
 ETOT 40  -16.898639307166      7.105E-15 1.661E-04 0.000E+00
 ETOT 41  -16.898639307166      1.066E-14 7.012E-05 0.000E+00
 ETOT 42  -16.898639307166     -2.487E-14 1.482E-04 0.000E+00
 ETOT 43  -16.898639307166      1.066E-14 6.264E-05 0.000E+00
 ETOT 44  -16.898639307166     -7.105E-15 1.323E-04 0.000E+00
 ETOT 45  -16.898639307166      1.776E-14 5.597E-05 0.000E+00
 ETOT 46  -16.898639307166     -1.066E-14 1.181E-04 0.000E+00
 ETOT 47  -16.898639307166      1.066E-14 5.003E-05 0.000E+00
 ETOT 48  -16.898639307166     -1.066E-14 1.054E-04 0.000E+00
 ETOT 49  -16.898639307166      7.105E-15 4.473E-05 0.000E+00
 ETOT 50  -16.898639307166     -7.105E-15 9.409E-05 0.000E+00
 ETOT 51  -16.898639307166      0.000E+00 3.999E-05 0.000E+00
 ETOT 52  -16.898639307166     -3.553E-15 8.400E-05 0.000E+00
 ETOT 53  -16.898639307166      0.000E+00 3.577E-05 0.000E+00
 ETOT 54  -16.898639307166     -3.553E-15 7.499E-05 0.000E+00
 ETOT 55  -16.898639307166      3.553E-15 3.200E-05 0.000E+00
 ETOT 56  -16.898639307166      3.553E-15 6.695E-05 0.000E+00
 ETOT 57  -16.898639307166      7.105E-15 2.862E-05 0.000E+00
 ETOT 58  -16.898639307166     -1.066E-14 5.978E-05 0.000E+00
 ETOT 59  -16.898639307166      0.000E+00 2.561E-05 0.000E+00
 ETOT 60  -16.898639307166      3.553E-15 5.338E-05 0.000E+00
 ETOT 61  -16.898639307166      0.000E+00 2.292E-05 0.000E+00
[...]
 ETOT  687  -16.898639307166      0.000E+00 2.085E-20 0.000E+00
 ETOT  688  -16.898639307166     -7.105E-15 3.850E-20 0.000E+00
 ETOT  689  -16.898639307166      7.105E-15 1.867E-20 0.000E+00
 ETOT  690  -16.898639307166      7.105E-15 3.447E-20 0.000E+00
 ETOT  691  -16.898639307166     -7.105E-15 1.671E-20 0.000E+00
 ETOT  692  -16.898639307166     -7.105E-15 3.085E-20 0.000E+00
 ETOT  693  -16.898639307166      1.421E-14 1.496E-20 0.000E+00
 ETOT  694  -16.898639307166     -3.553E-15 2.761E-20 0.000E+00
 ETOT  695  -16.898639307166      0.000E+00 1.339E-20 0.000E+00
 ETOT  696  -16.898639307166      3.553E-15 2.472E-20 0.000E+00
 ETOT  697  -16.898639307166      0.000E+00 1.199E-20 0.000E+00
 ETOT  698  -16.898639307166     -3.553E-15 2.213E-20 0.000E+00
 ETOT  699  -16.898639307166     -7.105E-15 1.073E-20 0.000E+00
 ETOT  700  -16.898639307166      3.553E-15 1.981E-20 0.000E+00
 ETOT  701  -16.898639307166      3.553E-15 9.887E-21 0.000E+00

 At SCF step  701   max residual=  9.89E-21 < tolwfr=  1.00E-20 =>converged.

 ----iterations are completed or convergence reached----

 dfpt_looppert: DFPT cycle converged with prtwf=-1. Will skip output of the 1st-order WFK file.
 dfpt_looppert : ek2=    2.1991928443E+01
          f-sum rule ratio=    9.7624753925E-01
 prteigrs : about to open file /scratch/users/j/a/jabreu/flow_simple_remain_atoms/flow/w228/t1/tmpdata/tmp_1WF1_EIG
 Expectation of eigenvalue derivatives (hartree) for nkpt=   2  k points:
  (in case of degenerate eigenvalues, averaged derivative)
 kpt#   1, nband= 34, wtk=  0.50000, kpt=  0.0000  0.0000  0.5000 (reduced coord)
  -0.00000   -0.00000   -0.00000    0.00000    0.00000    0.00000   -0.00000    0.00000
  -0.00000   -0.00000   -0.00000   -0.00000    0.00000    0.00000   -0.00000   -0.00000
  -0.00000   -0.00000   -0.00000    0.00000    0.00000   -0.00000   -0.00000    0.00000
   0.00000    0.00000   -0.00000    0.00000    0.00000    0.00000    0.00000    0.00000
  -0.00000    0.00000
 prteigrs : prtvol=0 or 1, do not print more k-points.

 Eight components of 2nd-order total energy (hartree) are
 1,2,3: 0th-order hamiltonian combined with 1st-order wavefunctions
     kin0=   3.74457572E+01 eigvalue=   1.08530696E+00  local=  -1.80167793E+01
 4,5,6: 1st-order hamiltonian combined with 1st and 0th-order wfs
     kin1=  -2.14695660E+01  Hartree=   0.00000000E+00     xc=   0.00000000E+00
 7,8,9: eventually, occupation + non-local contributions
    edocc=   1.18591092E+00     enl0=  -4.80155651E+00   enl1=  -1.23277126E+01
 1-9 gives the relaxation energy (to be shifted if some occ is /=2.0)
   erelax=  -1.68986393E+01
  No Ewald or frozen-wf contrib.: the relaxation energy is the total one
 2DEtotal=   -0.1689863931E+02 Ha. Also 2DEtotal=   -0.459835360899E+03 eV
    (  non-var. 2DEtotal :   -1.6898639307E+01 Ha)

 CALCULATION OF EFFECTIVE MASSES
 NOTE : Additional infos (eff. mass eigenvalues, eigenvectors and, if degenerate, average mass) are available in stdout.

 COMMENTS:
 - At k-point ( 0.000, 0.000, 0.500), bands    24 through    25
   are DEGENERATE (effective mass tensor is therefore not defined).
   See Section IIIB Eqs. (67)-(70) and Appendix E of PRB 93 205147 (2016).
 - Angular average effective mass for Frohlich model is to be averaged over degenerate bands. See later.
 - Associated theta integrals calculated with ntheta=   1000 points.

 K-point ( 0.000, 0.000, 0.500) | band =    24
 Transport equivalent effective mass tensor:
             -0.5991855977             -0.0000004787             -0.0000005519
             -0.0000004787             -0.5991876182              0.0000001097
             -0.0000005519              0.0000001097             -2.0012215790
 Transport equivalent effective mass tensor eigenvalues:
             -2.0012215790             -0.5991877258             -0.5991854901
 Angular average effective mass 1/(<1/m>)=  -0.6754785734
 Angular average effective mass for Frohlich model (<m**0.5>)**2=  -0.7255982955
 Effective masses along directions: (cart. coord. / red. coord. -> eff. mass)
    1:   1.000000  0.000000  0.000000 /   0.894427 -0.447214  0.000000 ->  -0.5339937960
    2:   0.000000  1.000000  0.000000 /   0.000000  1.000000  0.000000 ->  -0.5339944798
    3:   0.000000  0.000000  1.000000 /   0.000000  0.000000  1.000000 ->  -2.4233343752
    4:   0.577350  0.577350  0.577350 /   0.487482  0.178431  0.854707 ->  -0.5898323658
    5:   0.000000  0.707107  0.707107 /   0.000000  0.442859  0.896591 ->  -0.9792672999
    6:   0.707107  0.000000  0.707107 /   0.480897 -0.240448  0.843162 ->  -0.7407402320
    7:   0.707107  0.707107  0.000000 /   0.939071  0.343724  0.000000 ->  -0.5339945435

 K-point ( 0.000, 0.000, 0.500) | band =    25
 Transport equivalent effective mass tensor:
             -3.0002612843             -0.0000007994             -0.0000018846
             -0.0000007994             -3.0002594940             -0.0000009279
             -0.0000018846             -0.0000009279             -9.9026706454
 Transport equivalent effective mass tensor eigenvalues:
             -9.9026706454             -3.0002615893             -3.0002591890
 Angular average effective mass 1/(<1/m>)=  -1.6213209044
 Angular average effective mass for Frohlich model (<m**0.5>)**2=  -1.9050790514
 Effective masses along directions: (cart. coord. / red. coord. -> eff. mass)
    1:   1.000000  0.000000  0.000000 /   0.894427 -0.447214  0.000000 ->  -1.1621352367
    2:   0.000000  1.000000  0.000000 /   0.000000  1.000000  0.000000 ->  -1.1621352367
    3:   0.000000  0.000000  1.000000 /   0.000000  0.000000  1.000000 ->  -2.4233343771
    4:   0.577350  0.577350  0.577350 /   0.487482  0.178431  0.854707 ->  -2.4887085151
    5:   0.000000  0.707107  0.707107 /   0.000000  0.442859  0.896591 ->  -1.3191475774
    6:   0.707107  0.000000  0.707107 /   0.480897 -0.240448  0.843162 ->  -2.3297217287
    7:   0.707107  0.707107  0.000000 /   0.939071  0.343724  0.000000 ->  -1.1621352366

 Angular average effective mass for Frohlich model, averaged over degenerate bands.
 Value of     (<<m**0.5>>)**2 =     1.245530E+00
 Absolute Value of <<m**0.5>> =     1.116033E+00

 K-point ( 0.333, 0.333, 0.000) | band =    26
 Effective mass tensor:
              0.8110815616              0.0000000153             -0.0000000508
              0.0000000153              0.8110816114              0.0000000262
             -0.0000000508              0.0000000262              1.0362876642
 Effective mass tensor eigenvalues:
              0.8110815573              0.8110816157              1.0362876642
 Angular average effective mass 1/(<1/m>)=   0.8744249412
 Angular average effective mass for Frohlich model (<m**0.5>)**2=   0.8777739419
 Effective masses along directions: (cart. coord. / red. coord. -> eff. mass)
    1:   1.000000  0.000000  0.000000 /   0.894427 -0.447214  0.000000 ->   0.8110815616
    2:   0.000000  1.000000  0.000000 /   0.000000  1.000000  0.000000 ->   0.8110816114
    3:   0.000000  0.000000  1.000000 /   0.000000  0.000000  1.000000 ->   1.0362876642
    4:   0.577350  0.577350  0.577350 /   0.487482  0.178431  0.854707 ->   0.8744249382
    5:   0.000000  0.707107  0.707107 /   0.000000  0.442859  0.896591 ->   0.9099576393
    6:   0.707107  0.000000  0.707107 /   0.480897 -0.240448  0.843162 ->   0.9099575321
    7:   0.707107  0.707107  0.000000 /   0.939071  0.343724  0.000000 ->   0.8110816018

 END OF EFFECTIVE MASSES SECTION

 ---- first-order wavefunction calculations are completed ----

 Total localisation tensor (bohr^2) in cartesian coordinates
  WARNING : still subject to testing - especially symmetries.
      direction              matrix element
   alpha     beta       real part   imaginary part
     1        1       1.6545340209    0.0000000000
     1        2      -0.5731477014    0.0000000000
     1        3       0.0000000000    0.0000000000
     2        1      -0.5731477014    0.0000000000
     2        2       0.9927209391    0.0000000000
     2        3       0.0000000000    0.0000000000
     3        1       0.0000000000    0.0000000000
     3        2       0.0000000000    0.0000000000
     3        3       0.8835138678    0.0000000000

 respfn : d/dk was computed, but no 2DTE, so no DDB output.

== END DATASET(S) ==============================================================

 -outvars: echo values of variables after computation  --------
            acell      1.0000000000E+00  1.0000000000E+00  1.0000000000E+00 Bohr
              amu      1.38905500E+02  7.89600000E+01  1.59994000E+01
             ecut      5.20000000E+01 Hartree
           etotal     -1.6898639307E+01
            fcart      0.0000000000E+00  0.0000000000E+00  0.0000000000E+00
                       0.0000000000E+00  0.0000000000E+00  0.0000000000E+00
                       0.0000000000E+00  0.0000000000E+00  0.0000000000E+00
                       0.0000000000E+00  0.0000000000E+00  0.0000000000E+00
                       0.0000000000E+00  0.0000000000E+00  0.0000000000E+00
-          fftalg         512
           irdden           1
           irdwfk           1
           istwfk        1    0
              ixc     -116133
              kpt      0.00000000E+00  0.00000000E+00  5.00000000E-01
                       3.33333333E-01  3.33333333E-01  0.00000000E+00
           kptopt           0
P           mkmem           2
P          mkqmem           2
P          mk1mem           2
            natom           5
            nband          34
           nbdbuf           4
            ngfft          50      50      90
             nkpt           2
            nstep        2000
             nsym          12
           ntypat           3
              occ      2.000000  2.000000  2.000000  2.000000  2.000000  2.000000
                       2.000000  2.000000  2.000000  2.000000  2.000000  2.000000
                       2.000000  2.000000  2.000000  2.000000  2.000000  2.000000
                       2.000000  2.000000  2.000000  2.000000  2.000000  2.000000
                       2.000000  0.000000  0.000000  0.000000  0.000000  0.000000
                       0.000000  0.000000  0.000000  0.000000
        optdriver           1
            prtwf          -1
            rfdir           1       1       1
           rfelfd           2
            rprim      7.6416843860E+00  0.0000000000E+00  0.0000000000E+00
                      -3.8208421930E+00  6.6178928060E+00  0.0000000000E+00
                       0.0000000000E+00  0.0000000000E+00  1.3398254146E+01
          spgroup         164
           strten      0.0000000000E+00  0.0000000000E+00  0.0000000000E+00
                       0.0000000000E+00  0.0000000000E+00  0.0000000000E+00
           symrel      1  0  0   0  1  0   0  0  1      -1  0  0   0 -1  0   0  0 -1
                      -1  0  0   1  1  0   0  0  1       1  0  0  -1 -1  0   0  0 -1
                       0  1  0  -1 -1  0   0  0  1       0 -1  0   1  1  0   0  0 -1
                       0 -1  0  -1  0  0   0  0  1       0  1  0   1  0  0   0  0 -1
                      -1 -1  0   1  0  0   0  0  1       1  1  0  -1  0  0   0  0 -1
                       1  1  0   0 -1  0   0  0  1      -1 -1  0   0  1  0   0  0 -1
           tolwfr      1.00000000E-20
            typat      1  1  2  3  3
           useylm           1
              wtk        0.50000    0.50000
           xangst      0.0000000000E+00  2.3346920279E+00  5.0492434371E+00
                       2.0219026062E+00  1.1673460139E+00  2.0408072919E+00
                       0.0000000000E+00  0.0000000000E+00  0.0000000000E+00
                       0.0000000000E+00  2.3346920279E+00  2.6636682484E+00
                       2.0219026062E+00  1.1673460139E+00  4.4263824806E+00
            xcart      0.0000000000E+00  4.4119285373E+00  9.5416872744E+00
                       3.8208421930E+00  2.2059642687E+00  3.8565668717E+00
                       0.0000000000E+00  0.0000000000E+00  0.0000000000E+00
                       0.0000000000E+00  4.4119285373E+00  5.0336034984E+00
                       3.8208421930E+00  2.2059642687E+00  8.3646506477E+00
             xred      3.3333333333E-01  6.6666666667E-01  7.1215900000E-01
                       6.6666666667E-01  3.3333333333E-01  2.8784100000E-01
                       0.0000000000E+00  0.0000000000E+00  0.0000000000E+00
                       3.3333333333E-01  6.6666666667E-01  3.7569100000E-01
                       6.6666666667E-01  3.3333333333E-01  6.2430900000E-01
            znucl       57.00000   34.00000    8.00000

- Timing analysis has been suppressed with timopt=0

 Suggested references for the acknowledgment of ABINIT usage.

 Calculation completed.
.Delivered   2 WARNINGs and   5 COMMENTs to log file.