.Version 9.5.1 of ABINIT

 ABINIT is a project of the Universite Catholique de Louvain,
 Corning Inc. and other collaborators, see ~abinit/doc/developers/contributors.txt .
 acknowledgments of the ABINIT effort.

.Starting date : Wed 19 May 2021.
- ( at 13h49 )

- input  file    -> /scratch/users/j/a/jabreu/flow_simple_9atoms/flow/w196/t1/run.abi
- output file    -> /scratch/users/j/a/jabreu/flow_simple_9atoms/flow/w196/t1/run.abo
- root for input  files -> /scratch/users/j/a/jabreu/flow_simple_9atoms/flow/w196/t1/indata/in
- root for output files -> /scratch/users/j/a/jabreu/flow_simple_9atoms/flow/w196/t1/outdata/out

 Symmetries : space group R3 2 (#155); Bravais hR (rhombohedral)
     intxc =       0      iscf =       7    lmnmax =      18     lnmax =       6
     mgfft =      90  mpssoang =       3    mqgrid =    3001     natom =       9
  nloc_mem =       1    nspden =       1   nspinor =       1    nsppol =       1
      nsym =       6    n1xccc =    2501    ntypat =       5    occopt =       1
   xclevel =       2
-    mband =          35        mffmem =           1         mkmem =           2
-   mkqmem =           2        mk1mem =           2           mpw =       10657
      nfft =      729000          nkpt =           2
  Rough estimation (10% accuracy) of disk space for files :

------------- Echo of variables that govern the present computation ------------
-
- outvars: echo of selected default values
-   iomode0 =  0 , fftalg0 =512 , wfoptalg0 =  0
-
- outvars: echo of global parameters not present in the input file
-  max_nthreads =    0
-
 -outvars: echo values of preprocessed input variables --------
            acell      1.0000000000E+00  1.0000000000E+00  1.0000000000E+00 Bohr
              amu      8.54678000E+01  9.01218200E+00  1.08110000E+01
                       1.59994000E+01  1.89984032E+01
             ecut      4.40000000E+01 Hartree
-          fftalg         512
           irdden           1
           irdwfk           1
           istwfk        0    1
              ixc     -116133
              kpt      3.00000000E-01  3.00000000E-01  3.00000000E-01
                       0.00000000E+00  0.00000000E+00  0.00000000E+00
           kptopt           0
P           mkmem           2
P          mkqmem           2
P          mk1mem           2
            natom           9
            nband          35
           nbdbuf           4
            ngfft          90      90      90
             nkpt           2
            nstep        2000
             nsym           6
           ntypat           5
              occ      2.000000  2.000000  2.000000  2.000000  2.000000  2.000000
                       2.000000  2.000000  2.000000  2.000000  2.000000  2.000000
                       2.000000  2.000000  2.000000  2.000000  2.000000  2.000000
                       2.000000  2.000000  2.000000  2.000000  2.000000  2.000000
                       2.000000  2.000000  0.000000  0.000000  0.000000  0.000000
                       0.000000  0.000000  0.000000  0.000000  0.000000
        optdriver           1
            prtwf          -1
            rfdir           1       1       1
           rfelfd           2
            rprim      7.9722865018E+00  0.0000000000E+00  1.0789289063E+01
                       3.5537002838E+00  7.1364253208E+00  1.0789289063E+01
                       0.0000000000E+00  0.0000000000E+00  1.3415144821E+01
          spgroup         155
           symrel      1  0  0   0  1  0   0  0  1       0 -1  0  -1  0  0   0  0 -1
                       0  0  1   1  0  0   0  1  0      -1  0  0   0  0 -1   0 -1  0
                       0  1  0   0  0  1   1  0  0       0  0 -1   0 -1  0  -1  0  0
           tolwfr      1.00000000E-20
            typat      1  2  2  3  4  4  4  5  5
           useylm           1
              wtk        0.50000    0.50000
           xangst      0.0000000000E+00  0.0000000000E+00  0.0000000000E+00
                       4.9087813919E+00  3.0393191031E+00  1.4903412543E+01
                       1.1905081216E+00  7.3711452748E-01  3.6144680839E+00
                       3.0496447567E+00  1.8882168153E+00  9.2589403136E+00
                       3.7728453407E+00  7.2018099908E-01  9.2589403136E+00
                       1.7448015401E+00  1.8882168153E+00  9.6887204115E+00
                       3.6312873894E+00  3.0562526315E+00  8.8291602158E+00
                       4.4384651775E+00  2.7481183058E+00  1.3475498768E+01
                       1.6608243359E+00  1.0283153247E+00  5.0423818590E+00
            xcart      0.0000000000E+00  0.0000000000E+00  0.0000000000E+00
                       9.2762524769E+00  5.7434807353E+00  2.8163368152E+01
                       2.2497343087E+00  1.3929445855E+00  6.8303547946E+00
                       5.7629933928E+00  3.5682126604E+00  1.7496861474E+01
                       7.1296444357E+00  1.3609448544E+00  1.7496861473E+01
                       3.2971970669E+00  3.5682126604E+00  1.8309028156E+01
                       6.8621386758E+00  5.7754804664E+00  1.6684694791E+01
                       8.3874836359E+00  5.1931909788E+00  2.5465002176E+01
                       3.1385031497E+00  1.9432343420E+00  9.5287207710E+00
             xred      0.0000000000E+00  0.0000000000E+00  0.0000000000E+00
                       8.0481200000E-01  8.0481200000E-01  8.0481200000E-01
                       1.9518800000E-01  1.9518800000E-01  1.9518800000E-01
                       5.0000000000E-01  5.0000000000E-01  5.0000000000E-01
                       8.0929600000E-01  1.9070400000E-01  5.0000000000E-01
                       1.9070400000E-01  5.0000000000E-01  8.0929600000E-01
                       5.0000000000E-01  8.0929600000E-01  1.9070400000E-01
                       7.2770200000E-01  7.2770200000E-01  7.2770200000E-01
                       2.7229800000E-01  2.7229800000E-01  2.7229800000E-01
            znucl       37.00000    4.00000    5.00000    8.00000    9.00000

 chkinp: Checking input parameters for consistency.

== DATASET  1 ==================================================================
-   mpi_nproc: 1, omp_nthreads: -1 (-1 if OMP is not activated)

--- !DatasetInfo
iteration_state: {dtset: 1, }
dimensions: {natom: 9, nkpt: 2, mband: 35, nsppol: 1, nspinor: 1, nspden: 1, mpw: 10657, }
cutoff_energies: {ecut:  44.0, pawecutdg:  -1.0, }
electrons: {nelect:   5.20000000E+01, charge:   0.00000000E+00, occopt:   1.00000000E+00, tsmear:   1.00000000E-02, }
meta: {optdriver: 1, rfelfd: 2, }
...

 Real(R)+Recip(G) space primitive vectors, cartesian coordinates (Bohr,Bohr^-1):
 R(1)=  7.9722865  0.0000000 10.7892891  G(1)=  0.1254345 -0.0624622  0.0000000
 R(2)=  3.5537003  7.1364253 10.7892891  G(2)=  0.0000000  0.1401262  0.0000000
 R(3)=  0.0000000  0.0000000 13.4151448  G(3)= -0.1008822 -0.0624622  0.0745426
 Unit cell volume ucvol=  7.6323625E+02 bohr^3
 Angles (23,13,12)=  3.64609727E+01  3.64609727E+01  3.64609727E+01 degrees

 getcut: wavevector=  0.0000  0.0000  0.0000  ngfft=  90  90  90
         ecut(hartree)=     44.000   => boxcut(ratio)=   2.24683

 getcut : COMMENT -
  Note that boxcut > 2.2 ; recall that boxcut=Gcut(box)/Gcut(sphere) = 2
  is sufficient for exact treatment of convolution.
  Such a large boxcut is a waste : you could raise ecut
  e.g. ecut=   55.530930 Hartrees makes boxcut=2

--- Pseudopotential description ------------------------------------------------
- pspini: atom type   1  psp file is /scratch/users/j/a/jabreu/pseudos/PBEsol/Rb.psp8
- pspatm: opening atomic psp file    /scratch/users/j/a/jabreu/pseudos/PBEsol/Rb.psp8
- Rb    ONCVPSP-3.3.0  r_core=   1.71227   1.75361   1.90633
- 37.00000   9.00000    180112                znucl, zion, pspdat
    8 -116133    2    4       600   0.00000   pspcod,pspxc,lmax,lloc,mmax,r2well
    5.99000000000000    7.00000000000000    0.00000000000000   rchrg,fchrg,qchrg
     nproj     2     2     2
     extension_switch     1
  pspatm : epsatm=   34.48400912
         --- l  ekb(1:nproj) -->
             0    8.196957   -0.477221
             1    3.231347   -0.378736
             2   -1.047201    0.996637
 pspatm: atomic psp has been read  and splines computed

- pspini: atom type   2  psp file is /scratch/users/j/a/jabreu/pseudos/PBEsol/Be.psp8
- pspatm: opening atomic psp file    /scratch/users/j/a/jabreu/pseudos/PBEsol/Be.psp8
- Be    ONCVPSP-3.3.0  r_core=   1.35684   1.10780
-  4.00000   4.00000    180112                znucl, zion, pspdat
    8 -116133    1    4       400   0.00000   pspcod,pspxc,lmax,lloc,mmax,r2well
    3.99000000000000    0.00000000000000    0.00000000000000   rchrg,fchrg,qchrg
     nproj     2     2
     extension_switch     1
  pspatm : epsatm=    3.86293307
         --- l  ekb(1:nproj) -->
             0   -7.966826   -2.672546
             1   -3.431835   -0.651830
 pspatm: atomic psp has been read  and splines computed

[...]

- pspini: atom type   5  psp file is /scratch/users/j/a/jabreu/pseudos/PBEsol/F.psp8
- pspatm: opening atomic psp file    /scratch/users/j/a/jabreu/pseudos/PBEsol/F.psp8
- F     ONCVPSP-3.3.0  r_core=   1.30942   1.45782   1.60379
-  9.00000   7.00000    180112                znucl, zion, pspdat
    8 -116133    2    4       600   0.00000   pspcod,pspxc,lmax,lloc,mmax,r2well
    5.99000000000000    2.50000000000000    0.00000000000000   rchrg,fchrg,qchrg
     nproj     2     2     1
     extension_switch     1
  pspatm : epsatm=    4.89824824
         --- l  ekb(1:nproj) -->
             0    6.506434    1.065875
             1   -3.978753   -1.295852
             2   -2.394754
 pspatm: atomic psp has been read  and splines computed

   3.84255212E+03                                ecore*ucvol(ha*bohr**3)

-inwffil : will read wavefunctions from disk file /scratch/users/j/a/jabreu/flow_simple_9atoms/flow/w196/t1/indata/in_WFK

 ==>  initialize data related to q vector <==

 The list of irreducible perturbations for this q vector is:
    1)    idir= 1    ipert=  10
    2)    idir= 2    ipert=  10
    3)    idir= 3    ipert=  10

 Perturbation wavevector (in red.coord.)   0.000000  0.000000  0.000000
 Perturbation : derivative vs k along direction   1

 dfpt_looppert : COMMENT -
  In a d/dk calculation, iscf is set to -3 automatically.
 The set of symmetries contains only one element for this perturbation.
 symkpt : not enough symmetry to change the number of k points.

[...]

 Initialisation of the first-order wave-functions :
  ireadwf=   0

--- !BeginCycle
iteration_state: {dtset: 1, }
solver: {iscf: 7, nstep: 2000, nline: 4, wfoptalg: 0, }
tolerances: {tolwfr: 1.00E-20, }
...

     iter   2DEtotal(Ha)        deltaE(Ha) residm    vres2
-ETOT  1  -43.329368308457     -4.333E+01 7.757E-02 0.000E+00
 ETOT  2  -43.386166415556     -5.680E-02 2.270E-03 0.000E+00
 ETOT  3  -43.386584130993     -4.177E-04 1.642E-04 0.000E+00
 ETOT  4  -43.386589602468     -5.471E-06 1.724E-05 0.000E+00
 ETOT  5  -43.386589693011     -9.054E-08 1.693E-06 0.000E+00
 ETOT  6  -43.386589694666     -1.655E-09 2.092E-07 0.000E+00
 ETOT  7  -43.386589694698     -3.238E-11 2.135E-08 0.000E+00
 ETOT  8  -43.386589694699     -6.963E-13 2.686E-09 0.000E+00
 ETOT  9  -43.386589694699      0.000E+00 2.828E-10 0.000E+00
 ETOT 10  -43.386589694699     -7.105E-15 3.582E-11 0.000E+00
 ETOT 11  -43.386589694699      0.000E+00 3.879E-12 0.000E+00
 ETOT 12  -43.386589694699      7.105E-15 4.927E-13 0.000E+00
 ETOT 13  -43.386589694699      7.105E-15 5.471E-14 0.000E+00
 ETOT 14  -43.386589694699     -7.105E-15 6.958E-15 0.000E+00
 ETOT 15  -43.386589694699     -7.105E-15 7.891E-16 0.000E+00
 ETOT 16  -43.386589694699      7.105E-15 1.004E-16 0.000E+00
 ETOT 17  -43.386589694699      0.000E+00 1.159E-17 0.000E+00
 ETOT 18  -43.386589694699      7.105E-15 1.477E-18 0.000E+00
 ETOT 19  -43.386589694699     -7.105E-15 1.730E-19 0.000E+00
 ETOT 20  -43.386589694699     -1.421E-14 2.207E-20 0.000E+00
 ETOT 21  -43.386589694699      0.000E+00 9.870E-21 0.000E+00

 At SCF step   21   max residual=  9.87E-21 < tolwfr=  1.00E-20 =>converged.

 ----iterations are completed or convergence reached----

 dfpt_looppert: DFPT cycle converged with prtwf=-1. Will skip output of the 1st-order WFK file.
 dfpt_looppert : ek2=    8.0617926722E+01
          f-sum rule ratio=    1.0367167059E+00
 prteigrs : about to open file /scratch/users/j/a/jabreu/flow_simple_9atoms/flow/w196/t1/tmpdata/tmp_1WF1_EIG
 Expectation of eigenvalue derivatives (hartree) for nkpt=   2  k points:
  (in case of degenerate eigenvalues, averaged derivative)
 kpt#   1, nband= 35, wtk=  0.50000, kpt=  0.3000  0.3000  0.3000 (reduced coord)
   0.00000    0.00000    0.00003   -0.00087    0.00080    0.00004   -0.00000   -0.00000
   0.00090   -0.00017   -0.00018    0.00056    0.00062    0.00052   -0.00188    0.00678
   0.00126   -0.00322   -0.00716   -0.01168    0.01035    0.00452   -0.00229   -0.00349
   0.00057    0.00009    0.04617   -0.00374   -0.05915    0.01079    0.00164   -0.00564
   0.00098   -0.00446    0.00281
 prteigrs : prtvol=0 or 1, do not print more k-points.

 Eight components of 2nd-order total energy (hartree) are
 1,2,3: 0th-order hamiltonian combined with 1st-order wavefunctions
     kin0=   5.69041133E+01 eigvalue=   5.18339449E+00  local=  -2.47885142E+01
 4,5,6: 1st-order hamiltonian combined with 1st and 0th-order wfs
     kin1=  -8.35779514E+01  Hartree=   0.00000000E+00     xc=   0.00000000E+00
 7,8,9: eventually, occupation + non-local contributions
    edocc=   9.64119491E+00     enl0=  -3.55359887E+00   enl1=  -3.19522796E+00
 1-9 gives the relaxation energy (to be shifted if some occ is /=2.0)
   erelax=  -4.33865897E+01
  No Ewald or frozen-wf contrib.: the relaxation energy is the total one
 2DEtotal=   -0.4338658969E+02 Ha. Also 2DEtotal=   -0.118060914656E+04 eV
    (  non-var. 2DEtotal :   -4.3386589695E+01 Ha)

 Perturbation wavevector (in red.coord.)   0.000000  0.000000  0.000000
 Perturbation : derivative vs k along direction   2
 The set of symmetries contains only one element for this perturbation.
 symkpt : not enough symmetry to change the number of k points.

[...]

 Perturbation wavevector (in red.coord.)   0.000000  0.000000  0.000000
 Perturbation : derivative vs k along direction   3
 The set of symmetries contains only one element for this perturbation.
 symkpt : not enough symmetry to change the number of k points.

-inwffil : will read wavefunctions from disk file /scratch/users/j/a/jabreu/flow_simple_9atoms/flow/w196/t1/indata/in_WFK

 Initialisation of the first-order wave-functions :
  ireadwf=   0

--- !BeginCycle
iteration_state: {dtset: 1, }
solver: {iscf: 7, nstep: 2000, nline: 4, wfoptalg: 0, }
tolerances: {tolwfr: 1.00E-20, }
...

     iter   2DEtotal(Ha)        deltaE(Ha) residm    vres2
-ETOT  1  -43.329151974653     -4.333E+01 7.758E-02 0.000E+00
 ETOT  2  -43.385695358537     -5.654E-02 1.917E-03 0.000E+00
 ETOT  3  -43.386113537024     -4.182E-04 1.651E-04 0.000E+00
 ETOT  4  -43.386118987698     -5.451E-06 1.248E-05 0.000E+00
 ETOT  5  -43.386119077509     -8.981E-08 1.531E-06 0.000E+00
 ETOT  6  -43.386119079148     -1.640E-09 1.377E-07 0.000E+00
 ETOT  7  -43.386119079180     -3.207E-11 1.791E-08 0.000E+00
 ETOT  8  -43.386119079181     -6.608E-13 1.625E-09 0.000E+00
 ETOT  9  -43.386119079181      0.000E+00 2.221E-10 0.000E+00
 ETOT 10  -43.386119079181      2.132E-14 2.009E-11 0.000E+00
 ETOT 11  -43.386119079181     -2.842E-14 2.852E-12 0.000E+00
 ETOT 12  -43.386119079181      0.000E+00 2.570E-13 0.000E+00
 ETOT 13  -43.386119079181      1.421E-14 3.755E-14 0.000E+00
 ETOT 14  -43.386119079181     -1.421E-14 3.374E-15 0.000E+00
 ETOT 15  -43.386119079181      7.105E-15 5.036E-16 0.000E+00
 ETOT 16  -43.386119079181     -7.105E-15 4.519E-17 0.000E+00
 ETOT 17  -43.386119079181      2.842E-14 6.855E-18 0.000E+00
 ETOT 18  -43.386119079181     -4.263E-14 6.149E-19 0.000E+00
 ETOT 19  -43.386119079181      0.000E+00 9.441E-20 0.000E+00
 ETOT 20  -43.386119079181      4.263E-14 9.689E-21 0.000E+00

 At SCF step   20   max residual=  9.69E-21 < tolwfr=  1.00E-20 =>converged.

 ----iterations are completed or convergence reached----

 dfpt_looppert: DFPT cycle converged with prtwf=-1. Will skip output of the 1st-order WFK file.
 dfpt_looppert : ek2=    8.0617926722E+01
          f-sum rule ratio=    1.0367028255E+00
 prteigrs : about to open file /scratch/users/j/a/jabreu/flow_simple_9atoms/flow/w196/t1/tmpdata/tmp_1WF1_EIG
 Expectation of eigenvalue derivatives (hartree) for nkpt=   2  k points:
  (in case of degenerate eigenvalues, averaged derivative)
 kpt#   1, nband= 35, wtk=  0.50000, kpt=  0.3000  0.3000  0.3000 (reduced coord)
   0.00000    0.00000    0.00003   -0.00087    0.00080    0.00004   -0.00000   -0.00000
   0.00090   -0.00017   -0.00018    0.00056    0.00062    0.00052   -0.00188    0.00678
   0.00126   -0.00322   -0.00716   -0.01168    0.01035    0.00452   -0.00229   -0.00349
   0.00057    0.00009    0.04617   -0.00374   -0.05915    0.01079    0.00164   -0.00564
   0.00097   -0.00444    0.00274
 prteigrs : prtvol=0 or 1, do not print more k-points.

 Eight components of 2nd-order total energy (hartree) are
 1,2,3: 0th-order hamiltonian combined with 1st-order wavefunctions
     kin0=   5.69207533E+01 eigvalue=   5.18391100E+00  local=  -2.47987478E+01
 4,5,6: 1st-order hamiltonian combined with 1st and 0th-order wfs
     kin1=  -8.35768324E+01  Hartree=   0.00000000E+00     xc=   0.00000000E+00
 7,8,9: eventually, occupation + non-local contributions
    edocc=   9.63582575E+00     enl0=  -3.55562319E+00   enl1=  -3.19540574E+00
 1-9 gives the relaxation energy (to be shifted if some occ is /=2.0)
   erelax=  -4.33861191E+01
  No Ewald or frozen-wf contrib.: the relaxation energy is the total one
 2DEtotal=   -0.4338611908E+02 Ha. Also 2DEtotal=   -0.118059634046E+04 eV
    (  non-var. 2DEtotal :   -4.3386119079E+01 Ha)

 CALCULATION OF EFFECTIVE MASSES
 NOTE : Additional infos (eff. mass eigenvalues, eigenvectors and, if degenerate, average mass) are available in stdout.

 K-point ( 0.300, 0.300, 0.300) | band =    26
 Effective mass tensor:
             -3.0204987772             -0.7956389737             -3.9014470267
             -0.7956389737             -2.2280862174             -2.4156086731
             -3.9014470267             -2.4156086731            -13.5804887166
 Effective mass tensor eigenvalues:
            -15.3581506897             -1.7354625319             -1.7354604897
 Angular average effective mass 1/(<1/m>)=  -2.4639782581
 Angular average effective mass for Frohlich model (<m**0.5>)**2=  -2.9502847660
 Effective masses along directions: (cart. coord. / red. coord. -> eff. mass)
    1:   1.000000  0.000000  0.000000 /   0.913366  0.407139  0.000000 ->  -1.8939300723
    2:   0.000000  1.000000  0.000000 /   0.000000  1.000000  0.000000 ->  -1.7929716403
    3:   0.000000  0.000000  1.000000 /   0.531045  0.531045  0.660289 ->  -7.5868328290
    4:   0.577350  0.577350  0.577350 /   0.595282  0.681516  0.425646 ->  -4.3870724551
    5:   0.000000  0.707107  0.707107 /   0.434112  0.721250  0.539765 ->  -3.9348378449
    6:   0.707107  0.000000  0.707107 /   0.690771  0.528086  0.493924 ->  -5.4487488201
    7:   0.707107  0.707107  0.000000 /   0.597823  0.801628  0.000000 ->  -1.9492538474

 K-point ( 0.000, 0.000, 0.000) | band =    27
 Effective mass tensor:
              0.5798106341             -0.0066107079             -0.0324158510
             -0.0066107079              0.5863944516             -0.0200705797
             -0.0324158510             -0.0200705797              0.4920707092
 Effective mass tensor eigenvalues:
              0.4773007195              0.5904875339              0.5904875414
 Angular average effective mass 1/(<1/m>)=   0.5472308667
 Angular average effective mass for Frohlich model (<m**0.5>)**2=   0.5489437342
 Effective masses along directions: (cart. coord. / red. coord. -> eff. mass)
    1:   1.000000  0.000000  0.000000 /   0.913366  0.407139  0.000000 ->   0.5775677262
    2:   0.000000  1.000000  0.000000 /   0.000000  1.000000  0.000000 ->   0.5854668750
    3:   0.000000  0.000000  1.000000 /   0.531045  0.531045  0.660289 ->   0.4895458330
    4:   0.577350  0.577350  0.577350 /   0.595282  0.681516  0.425646 ->   0.5083441908
    5:   0.000000  0.707107  0.707107 /   0.434112  0.721250  0.539765 ->   0.5137197197
    6:   0.707107  0.000000  0.707107 /   0.690771  0.528086  0.493924 ->   0.4994832347
    7:   0.707107  0.707107  0.000000 /   0.597823  0.801628  0.000000 ->   0.5736661490

 END OF EFFECTIVE MASSES SECTION

 ---- first-order wavefunction calculations are completed ----

 Total localisation tensor (bohr^2) in cartesian coordinates
  WARNING : still subject to testing - especially symmetries.
      direction              matrix element
   alpha     beta       real part   imaginary part
     1        1       0.8690491622    0.0000000000
     1        2       0.2892804155    0.0000000000
     1        3       1.4185265699    0.0000000000
     2        1       0.2892804155    0.0000000000
     2        2       0.5809235212    0.0000000000
     2        3       0.8782760993    0.0000000000
     3        1       1.4185265699    0.0000000000
     3        2       0.8782760993    0.0000000000
     3        3       4.7084984214    0.0000000000

 respfn : d/dk was computed, but no 2DTE, so no DDB output.

== END DATASET(S) ==============================================================

 -outvars: echo values of variables after computation  --------
            acell      1.0000000000E+00  1.0000000000E+00  1.0000000000E+00 Bohr
              amu      8.54678000E+01  9.01218200E+00  1.08110000E+01
                       1.59994000E+01  1.89984032E+01
             ecut      4.40000000E+01 Hartree
           etotal     -4.3386119079E+01
            fcart      0.0000000000E+00  0.0000000000E+00  0.0000000000E+00
                       0.0000000000E+00  0.0000000000E+00  0.0000000000E+00
                       0.0000000000E+00  0.0000000000E+00  0.0000000000E+00
                       0.0000000000E+00  0.0000000000E+00  0.0000000000E+00
                       0.0000000000E+00  0.0000000000E+00  0.0000000000E+00
                       0.0000000000E+00  0.0000000000E+00  0.0000000000E+00
                       0.0000000000E+00  0.0000000000E+00  0.0000000000E+00
                       0.0000000000E+00  0.0000000000E+00  0.0000000000E+00
                       0.0000000000E+00  0.0000000000E+00  0.0000000000E+00
-          fftalg         512
           irdden           1
           irdwfk           1
           istwfk        0    1
              ixc     -116133
              kpt      3.00000000E-01  3.00000000E-01  3.00000000E-01
                       0.00000000E+00  0.00000000E+00  0.00000000E+00
           kptopt           0
P           mkmem           2
P          mkqmem           2
P          mk1mem           2
            natom           9
            nband          35
           nbdbuf           4
            ngfft          90      90      90
             nkpt           2
            nstep        2000
             nsym           6
           ntypat           5
              occ      2.000000  2.000000  2.000000  2.000000  2.000000  2.000000
                       2.000000  2.000000  2.000000  2.000000  2.000000  2.000000
                       2.000000  2.000000  2.000000  2.000000  2.000000  2.000000
                       2.000000  2.000000  2.000000  2.000000  2.000000  2.000000
                       2.000000  2.000000  0.000000  0.000000  0.000000  0.000000
                       0.000000  0.000000  0.000000  0.000000  0.000000
        optdriver           1
            prtwf          -1
            rfdir           1       1       1
           rfelfd           2
            rprim      7.9722865018E+00  0.0000000000E+00  1.0789289063E+01
                       3.5537002838E+00  7.1364253208E+00  1.0789289063E+01
                       0.0000000000E+00  0.0000000000E+00  1.3415144821E+01
          spgroup         155
           strten      0.0000000000E+00  0.0000000000E+00  0.0000000000E+00
                       0.0000000000E+00  0.0000000000E+00  0.0000000000E+00
           symrel      1  0  0   0  1  0   0  0  1       0 -1  0  -1  0  0   0  0 -1
                       0  0  1   1  0  0   0  1  0      -1  0  0   0  0 -1   0 -1  0
                       0  1  0   0  0  1   1  0  0       0  0 -1   0 -1  0  -1  0  0
           tolwfr      1.00000000E-20
            typat      1  2  2  3  4  4  4  5  5
           useylm           1
              wtk        0.50000    0.50000
           xangst      0.0000000000E+00  0.0000000000E+00  0.0000000000E+00
                       4.9087813919E+00  3.0393191031E+00  1.4903412543E+01
                       1.1905081216E+00  7.3711452748E-01  3.6144680839E+00
                       3.0496447567E+00  1.8882168153E+00  9.2589403136E+00
                       3.7728453407E+00  7.2018099908E-01  9.2589403136E+00
                       1.7448015401E+00  1.8882168153E+00  9.6887204115E+00
                       3.6312873894E+00  3.0562526315E+00  8.8291602158E+00
                       4.4384651775E+00  2.7481183058E+00  1.3475498768E+01
                       1.6608243359E+00  1.0283153247E+00  5.0423818590E+00
            xcart      0.0000000000E+00  0.0000000000E+00  0.0000000000E+00
                       9.2762524769E+00  5.7434807353E+00  2.8163368152E+01
                       2.2497343087E+00  1.3929445855E+00  6.8303547946E+00
                       5.7629933928E+00  3.5682126604E+00  1.7496861474E+01
                       7.1296444357E+00  1.3609448544E+00  1.7496861473E+01
                       3.2971970669E+00  3.5682126604E+00  1.8309028156E+01
                       6.8621386758E+00  5.7754804664E+00  1.6684694791E+01
                       8.3874836359E+00  5.1931909788E+00  2.5465002176E+01
                       3.1385031497E+00  1.9432343420E+00  9.5287207710E+00
             xred      0.0000000000E+00  0.0000000000E+00  0.0000000000E+00
                       8.0481200000E-01  8.0481200000E-01  8.0481200000E-01
                       1.9518800000E-01  1.9518800000E-01  1.9518800000E-01
                       5.0000000000E-01  5.0000000000E-01  5.0000000000E-01
                       8.0929600000E-01  1.9070400000E-01  5.0000000000E-01
                       1.9070400000E-01  5.0000000000E-01  8.0929600000E-01
                       5.0000000000E-01  8.0929600000E-01  1.9070400000E-01
                       7.2770200000E-01  7.2770200000E-01  7.2770200000E-01
                       2.7229800000E-01  2.7229800000E-01  2.7229800000E-01
            znucl       37.00000    4.00000    5.00000    8.00000    9.00000

- Timing analysis has been suppressed with timopt=0

 Suggested references for the acknowledgment of ABINIT usage.

 Calculation completed.
.Delivered  14 WARNINGs and  15 COMMENTs to log file.