.Version 9.5.2 of ABINIT

 ABINIT is a project of the Universite Catholique de Louvain,
 Corning Inc. and other collaborators, see ~abinit/doc/developers/contributors.txt .
 acknowledgments of the ABINIT effort.

.Starting date : Wed 26 May 2021.
- ( at 02h22 )

- input  file    -> /scratch/users/j/a/jabreu/flow_simple_11atoms/flow/w230/t1/run.abi
- output file    -> /scratch/users/j/a/jabreu/flow_simple_11atoms/flow/w230/t1/run.abo
- root for input  files -> /scratch/users/j/a/jabreu/flow_simple_11atoms/flow/w230/t1/indata/in
- root for output files -> /scratch/users/j/a/jabreu/flow_simple_11atoms/flow/w230/t1/outdata/out

 Symmetries : space group P4_1 2_1 2 (# 92); Bravais tP (primitive tetrag.)
     intxc =       0      iscf =       7    lmnmax =      18     lnmax =       6
     mgfft =      96  mpssoang =       3    mqgrid =    4514     natom =      12
  nloc_mem =       1    nspden =       1   nspinor =       1    nsppol =       1
      nsym =       8    n1xccc =    2501    ntypat =       2    occopt =       1
   xclevel =       2
-    mband =          65        mffmem =           1         mkmem =           2
-   mkqmem =           2        mk1mem =           2           mpw =       18533
      nfft =      345600          nkpt =           2
  Rough estimation (10% accuracy) of disk space for files :

------------- Echo of variables that govern the present computation ------------
-
- outvars: echo of selected default values
-   iomode0 =  0 , fftalg0 =512 , wfoptalg0 =  0
-
- outvars: echo of global parameters not present in the input file
-  max_nthreads =    0
-
 -outvars: echo values of preprocessed input variables --------
            acell      1.0000000000E+00  1.0000000000E+00  1.0000000000E+00 Bohr
              amu      1.18710000E+02  1.89984032E+01
             ecut      4.20000000E+01 Hartree
-          fftalg         512
           irdden           1
           irdwfk           1
           istwfk        1    1
              ixc     -116133
              kpt      0.00000000E+00  0.00000000E+00  0.00000000E+00
                       5.00000000E-01  5.00000000E-01  0.00000000E+00
           kptopt           0
P           mkmem           2
P          mkqmem           2
P          mk1mem           2
            natom          12
            nband          65
           nbdbuf           4
            ngfft          60      60      96
             nkpt           2
            nstep        2000
             nsym           8
           ntypat           2
              occ      2.000000  2.000000  2.000000  2.000000  2.000000  2.000000
                       2.000000  2.000000  2.000000  2.000000  2.000000  2.000000
                       2.000000  2.000000  2.000000  2.000000  2.000000  2.000000
                       2.000000  2.000000  2.000000  2.000000  2.000000  2.000000
                       2.000000  2.000000  2.000000  2.000000  2.000000  2.000000
                       2.000000  2.000000  2.000000  2.000000  2.000000  2.000000
                       2.000000  2.000000  2.000000  2.000000  2.000000  2.000000
                       2.000000  2.000000  2.000000  2.000000  2.000000  2.000000
                       2.000000  2.000000  2.000000  2.000000  2.000000  2.000000
                       2.000000  2.000000  0.000000  0.000000  0.000000  0.000000
                       0.000000  0.000000  0.000000  0.000000  0.000000
        optdriver           1
            prtwf          -1
            rfdir           1       1       1
           rfelfd           2
            rprim      9.5898100588E+00  0.0000000000E+00  0.0000000000E+00
                       0.0000000000E+00  9.5898100588E+00  0.0000000000E+00
                       0.0000000000E+00  0.0000000000E+00  1.5472086687E+01
          spgroup          92
           symrel      1  0  0   0  1  0   0  0  1      -1  0  0   0  1  0   0  0 -1
                      -1  0  0   0 -1  0   0  0  1       1  0  0   0 -1  0   0  0 -1
                       0 -1  0  -1  0  0   0  0 -1       0  1  0  -1  0  0   0  0  1
                       0  1  0   1  0  0   0  0 -1       0 -1  0   1  0  0   0  0  1
            tnons      0.0000000  0.0000000  0.0000000     0.5000000  0.5000000  0.2500000
                       0.0000000  0.0000000  0.5000000     0.5000000  0.5000000 -0.2500000
                       0.0000000  0.0000000  0.5000000     0.5000000  0.5000000  0.2500000
                       0.0000000  0.0000000  0.0000000     0.5000000  0.5000000 -0.2500000
           tolwfr      1.00000000E-20
            typat      1  1  1  1  2  2  2  2  2  2  2  2
           useylm           1
              wtk        0.50000    0.50000
           xangst      2.6202346050E+00  2.6202346050E+00  4.0937378221E+00
                       4.9918287718E+00  8.2880146046E-02  6.1406067331E+00
                       8.2880146046E-02  4.9918287718E+00  2.0468689110E+00
                       2.4544743129E+00  2.4544743129E+00  0.0000000000E+00
                       1.2695602288E+00  1.8247181603E+00  2.6517923615E+00
                       3.8051486890E+00  3.2499907575E+00  6.7455301836E+00
                       1.8247181603E+00  1.2695602288E+00  5.5356832827E+00
                       4.3620726192E+00  1.2677942301E+00  6.0492345050E-01
                       3.2499907575E+00  3.8051486890E+00  1.4419454606E+00
                       3.8069146877E+00  7.1263629862E-01  3.4888143716E+00
                       1.2677942301E+00  4.3620726192E+00  7.5825521937E+00
                       7.1263629862E-01  3.8069146877E+00  4.6986612726E+00
            xcart      4.9515258073E+00  4.9515258073E+00  7.7360433436E+00
                       9.4331892809E+00  1.5662077788E-01  1.1604065015E+01
                       1.5662077788E-01  9.4331892809E+00  3.8680216718E+00
                       4.6382842515E+00  4.6382842515E+00  0.0000000000E+00
                       2.3991211417E+00  3.4482175927E+00  5.0111613246E+00
                       7.1906889171E+00  6.1415924661E+00  1.2747204668E+01
                       3.4482175927E+00  2.3991211417E+00  1.0460925363E+01
                       8.2431226221E+00  2.3957838877E+00  1.1431396528E+00
                       6.1415924661E+00  7.1906889171E+00  2.7248820190E+00
                       7.1940261711E+00  1.3466874367E+00  6.5929036908E+00
                       2.3957838877E+00  8.2431226221E+00  1.4328947034E+01
                       1.3466874367E+00  7.1940261711E+00  8.8791829964E+00
             xred      5.1633200000E-01  5.1633200000E-01  5.0000000000E-01
                       9.8366800000E-01  1.6332000000E-02  7.5000000000E-01
                       1.6332000000E-02  9.8366800000E-01  2.5000000000E-01
                       4.8366800000E-01  4.8366800000E-01  0.0000000000E+00
                       2.5017400000E-01  3.5957100000E-01  3.2388400000E-01
                       7.4982600000E-01  6.4042900000E-01  8.2388400000E-01
                       3.5957100000E-01  2.5017400000E-01  6.7611600000E-01
                       8.5957100000E-01  2.4982600000E-01  7.3884000000E-02
                       6.4042900000E-01  7.4982600000E-01  1.7611600000E-01
                       7.5017400000E-01  1.4042900000E-01  4.2611600000E-01
                       2.4982600000E-01  8.5957100000E-01  9.2611600000E-01
                       1.4042900000E-01  7.5017400000E-01  5.7388400000E-01
            znucl       50.00000    9.00000

 chkinp: Checking input parameters for consistency.

== DATASET  1 ==================================================================
-   mpi_nproc: 1, omp_nthreads: -1 (-1 if OMP is not activated)

--- !DatasetInfo
iteration_state: {dtset: 1, }
dimensions: {natom: 12, nkpt: 2, mband: 65, nsppol: 1, nspinor: 1, nspden: 1, mpw: 18533, }
cutoff_energies: {ecut:  42.0, pawecutdg:  -1.0, }
electrons: {nelect:   1.12000000E+02, charge:   0.00000000E+00, occopt:   1.00000000E+00, tsmear:   1.00000000E-02, }
meta: {optdriver: 1, rfelfd: 2, }
...

 Real(R)+Recip(G) space primitive vectors, cartesian coordinates (Bohr,Bohr^-1):
 R(1)=  9.5898101  0.0000000  0.0000000  G(1)=  0.1042774  0.0000000  0.0000000
 R(2)=  0.0000000  9.5898101  0.0000000  G(2)=  0.0000000  0.1042774  0.0000000
 R(3)=  0.0000000  0.0000000 15.4720867  G(3)=  0.0000000  0.0000000  0.0646325
 Unit cell volume ucvol=  1.4228821E+03 bohr^3
 Angles (23,13,12)=  9.00000000E+01  9.00000000E+01  9.00000000E+01 degrees

 getcut: wavevector=  0.0000  0.0000  0.0000  ngfft=  60  60  96
         ecut(hartree)=     42.000   => boxcut(ratio)=   2.12683

--- Pseudopotential description ------------------------------------------------
- pspini: atom type   1  psp file is /scratch/users/j/a/jabreu/pseudos/PBEsol/Sn.psp8
- pspatm: opening atomic psp file    /scratch/users/j/a/jabreu/pseudos/PBEsol/Sn.psp8
- Sn    ONCVPSP-3.3.0  r_core=   2.27326   2.62311   1.85601
- 50.00000  14.00000    180112                znucl, zion, pspdat
    8 -116133    2    4       600   0.00000   pspcod,pspxc,lmax,lloc,mmax,r2well
    5.99000000000000    6.50000000000000    0.00000000000000   rchrg,fchrg,qchrg
     nproj     2     2     2
     extension_switch     1
  pspatm : epsatm=   32.44586081
         --- l  ekb(1:nproj) -->
             0    5.587869    0.749373
             1    4.197111    0.728791
             2   -5.271877   -1.523486
 pspatm: atomic psp has been read  and splines computed

- pspini: atom type   2  psp file is /scratch/users/j/a/jabreu/pseudos/PBEsol/F.psp8
- pspatm: opening atomic psp file    /scratch/users/j/a/jabreu/pseudos/PBEsol/F.psp8
- F     ONCVPSP-3.3.0  r_core=   1.30942   1.45782   1.60379
-  9.00000   7.00000    180112                znucl, zion, pspdat
    8 -116133    2    4       600   0.00000   pspcod,pspxc,lmax,lloc,mmax,r2well
    5.99000000000000    2.50000000000000    0.00000000000000   rchrg,fchrg,qchrg
     nproj     2     2     1
     extension_switch     1
  pspatm : epsatm=    4.89824824
         --- l  ekb(1:nproj) -->
             0    6.506434    1.065875
             1   -3.978753   -1.295852
             2   -2.394754
 pspatm: atomic psp has been read  and splines computed

   1.89245761E+04                                ecore*ucvol(ha*bohr**3)

 ==>  initialize data related to q vector <==

 The list of irreducible perturbations for this q vector is:
    1)    idir= 1    ipert=  13
    2)    idir= 2    ipert=  13
    3)    idir= 3    ipert=  13

 Perturbation wavevector (in red.coord.)   0.000000  0.000000  0.000000
 Perturbation : derivative vs k along direction   1

 dfpt_looppert : COMMENT -
  In a d/dk calculation, iscf is set to -3 automatically.
 The set of symmetries contains only one element for this perturbation.
 symkpt : not enough symmetry to change the number of k points.

 Initialisation of the first-order wave-functions :
  ireadwf=   0

--- !BeginCycle
iteration_state: {dtset: 1, }
solver: {iscf: 7, nstep: 2000, nline: 4, wfoptalg: 0, }
tolerances: {tolwfr: 1.00E-20, }
...

     iter   2DEtotal(Ha)        deltaE(Ha) residm    vres2
-ETOT  1  -82.122403372844     -8.212E+01 8.095E-02 0.000E+00
 ETOT  2  -82.194963963140     -7.256E-02 5.896E-03 0.000E+00
[...]
 Perturbation : derivative vs k along direction   3
 The set of symmetries contains only one element for this perturbation.
 symkpt : not enough symmetry to change the number of k points.

 Initialisation of the first-order wave-functions :
  ireadwf=   0

--- !BeginCycle
iteration_state: {dtset: 1, }
solver: {iscf: 7, nstep: 2000, nline: 4, wfoptalg: 0, }
tolerances: {tolwfr: 1.00E-20, }
...

     iter   2DEtotal(Ha)        deltaE(Ha) residm    vres2
-ETOT  1  -31.396035328924     -3.140E+01 9.203E-03 0.000E+00
 ETOT  2  -31.423970747165     -2.794E-02 4.698E-04 0.000E+00
 ETOT  3  -31.424084603522     -1.139E-04 8.543E-06 0.000E+00
 ETOT  4  -31.424085554853     -9.513E-07 1.866E-06 0.000E+00
 ETOT  5  -31.424085564766     -9.913E-09 3.778E-08 0.000E+00
 ETOT  6  -31.424085564884     -1.176E-10 9.931E-09 0.000E+00
 ETOT  7  -31.424085564885     -1.538E-12 1.896E-10 0.000E+00
 ETOT  8  -31.424085564885     -2.487E-14 5.796E-11 0.000E+00
 ETOT  9  -31.424085564885      1.066E-14 1.091E-12 0.000E+00
 ETOT 10  -31.424085564885     -7.105E-15 3.587E-13 0.000E+00
 ETOT 11  -31.424085564885     -1.776E-14 6.763E-15 0.000E+00
 ETOT 12  -31.424085564885      0.000E+00 2.353E-15 0.000E+00
 ETOT 13  -31.424085564885      1.066E-14 7.643E-17 0.000E+00
 ETOT 14  -31.424085564885      0.000E+00 5.461E-17 0.000E+00
 ETOT 15  -31.424085564885     -3.553E-15 1.786E-18 0.000E+00
 ETOT 16  -31.424085564885      1.421E-14 1.278E-18 0.000E+00
 ETOT 17  -31.424085564885     -3.553E-15 4.193E-20 0.000E+00
 ETOT 18  -31.424085564885      3.553E-15 2.997E-20 0.000E+00
 ETOT 19  -31.424085564885      0.000E+00 9.885E-21 0.000E+00

 At SCF step   19   max residual=  9.89E-21 < tolwfr=  1.00E-20 =>converged.

 ----iterations are completed or convergence reached----

 dfpt_looppert: DFPT cycle converged with prtwf=-1. Will skip output of the 1st-order WFK file.
 dfpt_looppert : ek2=    3.6941112902E+01
          f-sum rule ratio=    9.9918179896E-01
 prteigrs : about to open file /scratch/users/j/a/jabreu/flow_simple_11atoms/flow/w230/t1/tmpdata/tmp_1WF1_EIG
 Expectation of eigenvalue derivatives (hartree) for nkpt=   2  k points:
  (in case of degenerate eigenvalues, averaged derivative)
 kpt#   1, nband= 65, wtk=  0.50000, kpt=  0.0000  0.0000  0.0000 (reduced coord)
   0.00000   -0.00000   -0.00000    0.00000    0.00000   -0.00000   -0.00000   -0.00000
  -0.00000   -0.00000   -0.00000   -0.00000    0.00000   -0.00000   -0.00000   -0.00000
  -0.00000    0.00000   -0.00000   -0.00000    0.00000   -0.00000   -0.00000    0.00000
   0.00000   -0.00000   -0.00000    0.00000    0.00000    0.00000    0.00000   -0.00000
  -0.00000    0.00000    0.00000    0.00000   -0.00000    0.00000    0.00000    0.00000
   0.00000    0.00000    0.00000    0.00000   -0.00000   -0.00000   -0.00000   -0.00000
  -0.00000    0.00000    0.00000   -0.00000   -0.00000    0.00000    0.00000   -0.00000
   0.00000    0.00000    0.00000   -0.00000   -0.00000   -0.00000   -0.00000   -0.00616
  -0.00109
 prteigrs : prtvol=0 or 1, do not print more k-points.

 Eight components of 2nd-order total energy (hartree) are
 1,2,3: 0th-order hamiltonian combined with 1st-order wavefunctions
     kin0=   3.91102166E+01 eigvalue=   4.39422758E+00  local=  -1.89170681E+01
 4,5,6: 1st-order hamiltonian combined with 1st and 0th-order wfs
     kin1=  -3.69108876E+01  Hartree=   0.00000000E+00     xc=   0.00000000E+00
 7,8,9: eventually, occupation + non-local contributions
    edocc=   2.83166116E+00     enl0=   4.00504832E+00   enl1=  -2.59372835E+01
 1-9 gives the relaxation energy (to be shifted if some occ is /=2.0)
   erelax=  -3.14240856E+01
  No Ewald or frozen-wf contrib.: the relaxation energy is the total one
 2DEtotal=   -0.3142408556E+02 Ha. Also 2DEtotal=   -0.855092854756E+03 eV
    (  non-var. 2DEtotal :   -3.1424085565E+01 Ha)

 CALCULATION OF EFFECTIVE MASSES
 NOTE : Additional infos (eff. mass eigenvalues, eigenvectors and, if degenerate, average mass) are available in stdout.

--- !WARNING
src_file: m_efmas.F90
src_line: 0
message: |
    Effective masses calculations require given k-point(s) to be band extrema for given bands, but max abs gradient of band(s) was found to be greater than 1e-5. Abinit will continue anyway.
...

 K-point ( 0.000, 0.000, 0.000) | band =    56
 Effective mass tensor:
             -1.5341369277             -0.0000269084              0.0000044291
             -0.0000269084             -1.5341650957             -0.0000045821
              0.0000044291             -0.0000045821             -2.0887018571
 Effective mass tensor eigenvalues:
             -2.0887018571             -1.5341813830             -1.5341206403
 Angular average effective mass 1/(<1/m>)=  -1.6831060298
 Angular average effective mass for Frohlich model (<m**0.5>)**2=  -1.6932078822
 Effective masses along directions: (cart. coord. / red. coord. -> eff. mass)
    1:   1.000000  0.000000  0.000000 /   1.000000  0.000000  0.000000 ->  -1.5341369272
    2:   0.000000  1.000000  0.000000 /   0.000000  1.000000  0.000000 ->  -1.5341650952
    3:   0.000000  0.000000  1.000000 /   0.000000  0.000000  1.000000 ->  -2.0887018570
    4:   0.577350  0.577350  0.577350 /   0.466099  0.466099  0.751999 ->  -1.6831277118
    5:   0.000000  0.707107  0.707107 /   0.000000  0.526825  0.849974 ->  -1.7689976648
    6:   0.707107  0.000000  0.707107 /   0.526825  0.000000  0.849974 ->  -1.7689701390
    7:   0.707107  0.707107  0.000000 /   0.707107  0.707107  0.000000 ->  -1.5341779199

 COMMENTS:
 - At k-point ( 0.500, 0.500, 0.000), bands    57 through    58
   are DEGENERATE (effective mass tensor is therefore not defined).
   See Section IIIB Eqs. (67)-(70) and Appendix E of PRB 93 205147 (2016).
 - Angular average effective mass for Frohlich model is to be averaged over degenerate bands. See later.
 - Associated theta integrals calculated with ntheta=   1000 points.

 K-point ( 0.500, 0.500, 0.000) | band =    57
 Transport equivalent effective mass tensor:
              3.6128525960             -0.0000005843              0.0000022666
             -0.0000005843              3.6128650085              0.0000012775
              0.0000022666              0.0000012775              3.7976777789
 Transport equivalent effective mass tensor eigenvalues:
              3.7976777790              3.6128650359              3.6128525685
 Angular average effective mass 1/(<1/m>)=   1.0521154323
 Angular average effective mass for Frohlich model (<m**0.5>)**2=   1.1784791196
 Effective masses along directions: (cart. coord. / red. coord. -> eff. mass)
    1:   1.000000  0.000000  0.000000 /   1.000000  0.000000  0.000000 ->   0.6115501705
    2:   0.000000  1.000000  0.000000 /   0.000000  1.000000  0.000000 ->   0.6115518004
    3:   0.000000  0.000000  1.000000 /   0.000000  0.000000  1.000000 ->   0.7936996478
    4:   0.577350  0.577350  0.577350 /   0.466099  0.466099  0.751999 ->   1.5847212992
    5:   0.000000  0.707107  0.707107 /   0.000000  0.526825  0.849974 ->   0.6908208762
    6:   0.707107  0.000000  0.707107 /   0.526825  0.000000  0.849974 ->   0.6908199724
    7:   0.707107  0.707107  0.000000 /   0.707107  0.707107  0.000000 ->   3.1587846498

 K-point ( 0.500, 0.500, 0.000) | band =    58
 Transport equivalent effective mass tensor:
              0.4976104577              0.0000005738              0.0000003125
              0.0000005738              0.4976112539              0.0000003995
              0.0000003125              0.0000003995              1.1325544796
 Transport equivalent effective mass tensor eigenvalues:
              1.1325544796              0.4976115542              0.4976101575
 Angular average effective mass 1/(<1/m>)=   0.4831516612
 Angular average effective mass for Frohlich model (<m**0.5>)**2=   0.5027005730
 Effective masses along directions: (cart. coord. / red. coord. -> eff. mass)
    1:   1.000000  0.000000  0.000000 /   1.000000  0.000000  0.000000 ->   0.6115437572
    2:   0.000000  1.000000  0.000000 /   0.000000  1.000000  0.000000 ->   0.6115443207
    3:   0.000000  0.000000  1.000000 /   0.000000  0.000000  1.000000 ->   0.7936996478
    4:   0.577350  0.577350  0.577350 /   0.466099  0.466099  0.751999 ->   0.4185535310
    5:   0.000000  0.707107  0.707107 /   0.000000  0.526825  0.849974 ->   0.6908164394
    6:   0.707107  0.000000  0.707107 /   0.526825  0.000000  0.849974 ->   0.6908161644
    7:   0.707107  0.707107  0.000000 /   0.707107  0.707107  0.000000 ->   0.3385455280

 Angular average effective mass for Frohlich model, averaged over degenerate bands.
 Value of     (<<m**0.5>>)**2 =     8.051397E-01
 Absolute Value of <<m**0.5>> =     8.972958E-01

 END OF EFFECTIVE MASSES SECTION

 ---- first-order wavefunction calculations are completed ----

 Total localisation tensor (bohr^2) in cartesian coordinates
  WARNING : still subject to testing - especially symmetries.
      direction              matrix element
   alpha     beta       real part   imaginary part
     1        1       0.6868350209    0.0000000000
     1        2       0.0000000000    0.0000000000
     1        3       0.0000000000    0.0000000000
     2        1       0.0000000000    0.0000000000
     2        2       0.6868322277    0.0000000000
     2        3       0.0000000000    0.0000000000
     3        1       0.0000000000    0.0000000000
     3        2       0.0000000000    0.0000000000
     3        3       0.6485331983    0.0000000000

 respfn : d/dk was computed, but no 2DTE, so no DDB output.

== END DATASET(S) ==============================================================

 -outvars: echo values of variables after computation  --------
            acell      1.0000000000E+00  1.0000000000E+00  1.0000000000E+00 Bohr
              amu      1.18710000E+02  1.89984032E+01
             ecut      4.20000000E+01 Hartree
           etotal     -3.1424085565E+01
            fcart      0.0000000000E+00  0.0000000000E+00  0.0000000000E+00
                       0.0000000000E+00  0.0000000000E+00  0.0000000000E+00
                       0.0000000000E+00  0.0000000000E+00  0.0000000000E+00
                       0.0000000000E+00  0.0000000000E+00  0.0000000000E+00
                       0.0000000000E+00  0.0000000000E+00  0.0000000000E+00
                       0.0000000000E+00  0.0000000000E+00  0.0000000000E+00
                       0.0000000000E+00  0.0000000000E+00  0.0000000000E+00
                       0.0000000000E+00  0.0000000000E+00  0.0000000000E+00
                       0.0000000000E+00  0.0000000000E+00  0.0000000000E+00
                       0.0000000000E+00  0.0000000000E+00  0.0000000000E+00
                       0.0000000000E+00  0.0000000000E+00  0.0000000000E+00
                       0.0000000000E+00  0.0000000000E+00  0.0000000000E+00
-          fftalg         512
           irdden           1
           irdwfk           1
           istwfk        1    1
              ixc     -116133
              kpt      0.00000000E+00  0.00000000E+00  0.00000000E+00
                       5.00000000E-01  5.00000000E-01  0.00000000E+00
           kptopt           0
P           mkmem           2
P          mkqmem           2
P          mk1mem           2
            natom          12
            nband          65
           nbdbuf           4
            ngfft          60      60      96
             nkpt           2
            nstep        2000
             nsym           8
           ntypat           2
              occ      2.000000  2.000000  2.000000  2.000000  2.000000  2.000000
                       2.000000  2.000000  2.000000  2.000000  2.000000  2.000000
                       2.000000  2.000000  2.000000  2.000000  2.000000  2.000000
                       2.000000  2.000000  2.000000  2.000000  2.000000  2.000000
                       2.000000  2.000000  2.000000  2.000000  2.000000  2.000000
                       2.000000  2.000000  2.000000  2.000000  2.000000  2.000000
                       2.000000  2.000000  2.000000  2.000000  2.000000  2.000000
                       2.000000  2.000000  2.000000  2.000000  2.000000  2.000000
                       2.000000  2.000000  2.000000  2.000000  2.000000  2.000000
                       2.000000  2.000000  0.000000  0.000000  0.000000  0.000000
                       0.000000  0.000000  0.000000  0.000000  0.000000
        optdriver           1
            prtwf          -1
            rfdir           1       1       1
           rfelfd           2
            rprim      9.5898100588E+00  0.0000000000E+00  0.0000000000E+00
                       0.0000000000E+00  9.5898100588E+00  0.0000000000E+00
                       0.0000000000E+00  0.0000000000E+00  1.5472086687E+01
          spgroup          92
           strten      0.0000000000E+00  0.0000000000E+00  0.0000000000E+00
                       0.0000000000E+00  0.0000000000E+00  0.0000000000E+00
           symrel      1  0  0   0  1  0   0  0  1      -1  0  0   0  1  0   0  0 -1
                      -1  0  0   0 -1  0   0  0  1       1  0  0   0 -1  0   0  0 -1
                       0 -1  0  -1  0  0   0  0 -1       0  1  0  -1  0  0   0  0  1
                       0  1  0   1  0  0   0  0 -1       0 -1  0   1  0  0   0  0  1
            tnons      0.0000000  0.0000000  0.0000000     0.5000000  0.5000000  0.2500000
                       0.0000000  0.0000000  0.5000000     0.5000000  0.5000000 -0.2500000
                       0.0000000  0.0000000  0.5000000     0.5000000  0.5000000  0.2500000
                       0.0000000  0.0000000  0.0000000     0.5000000  0.5000000 -0.2500000
           tolwfr      1.00000000E-20
            typat      1  1  1  1  2  2  2  2  2  2  2  2
           useylm           1
              wtk        0.50000    0.50000
           xangst      2.6202346050E+00  2.6202346050E+00  4.0937378221E+00
                       4.9918287718E+00  8.2880146046E-02  6.1406067331E+00
                       8.2880146046E-02  4.9918287718E+00  2.0468689110E+00
                       2.4544743129E+00  2.4544743129E+00  0.0000000000E+00
                       1.2695602288E+00  1.8247181603E+00  2.6517923615E+00
                       3.8051486890E+00  3.2499907575E+00  6.7455301836E+00
                       1.8247181603E+00  1.2695602288E+00  5.5356832827E+00
                       4.3620726192E+00  1.2677942301E+00  6.0492345050E-01
                       3.2499907575E+00  3.8051486890E+00  1.4419454606E+00
                       3.8069146877E+00  7.1263629862E-01  3.4888143716E+00
                       1.2677942301E+00  4.3620726192E+00  7.5825521937E+00
                       7.1263629862E-01  3.8069146877E+00  4.6986612726E+00
            xcart      4.9515258073E+00  4.9515258073E+00  7.7360433436E+00
                       9.4331892809E+00  1.5662077788E-01  1.1604065015E+01
                       1.5662077788E-01  9.4331892809E+00  3.8680216718E+00
                       4.6382842515E+00  4.6382842515E+00  0.0000000000E+00
                       2.3991211417E+00  3.4482175927E+00  5.0111613246E+00
                       7.1906889171E+00  6.1415924661E+00  1.2747204668E+01
                       3.4482175927E+00  2.3991211417E+00  1.0460925363E+01
                       8.2431226221E+00  2.3957838877E+00  1.1431396528E+00
                       6.1415924661E+00  7.1906889171E+00  2.7248820190E+00
                       7.1940261711E+00  1.3466874367E+00  6.5929036908E+00
                       2.3957838877E+00  8.2431226221E+00  1.4328947034E+01
                       1.3466874367E+00  7.1940261711E+00  8.8791829964E+00
             xred      5.1633200000E-01  5.1633200000E-01  5.0000000000E-01
                       9.8366800000E-01  1.6332000000E-02  7.5000000000E-01
                       1.6332000000E-02  9.8366800000E-01  2.5000000000E-01
                       4.8366800000E-01  4.8366800000E-01  0.0000000000E+00
                       2.5017400000E-01  3.5957100000E-01  3.2388400000E-01
                       7.4982600000E-01  6.4042900000E-01  8.2388400000E-01
                       3.5957100000E-01  2.5017400000E-01  6.7611600000E-01
                       8.5957100000E-01  2.4982600000E-01  7.3884000000E-02
                       6.4042900000E-01  7.4982600000E-01  1.7611600000E-01
                       7.5017400000E-01  1.4042900000E-01  4.2611600000E-01
                       2.4982600000E-01  8.5957100000E-01  9.2611600000E-01
                       1.4042900000E-01  7.5017400000E-01  5.7388400000E-01
            znucl       50.00000    9.00000

- Timing analysis has been suppressed with timopt=0

 Suggested references for the acknowledgment of ABINIT usage.

 Calculation completed.
.Delivered   4 WARNINGs and   5 COMMENTs to log file.