.Version 9.5.1 of ABINIT

 ABINIT is a project of the Universite Catholique de Louvain,
 Corning Inc. and other collaborators, see ~abinit/doc/developers/contributors.txt .
 acknowledgments of the ABINIT effort.

.Starting date : Wed 19 May 2021.
- ( at 01h36 )

- input  file    -> /scratch/users/j/a/jabreu/flow_simple_8atoms/flow/w455/t1/run.abi
- output file    -> /scratch/users/j/a/jabreu/flow_simple_8atoms/flow/w455/t1/run.abo
- root for input  files -> /scratch/users/j/a/jabreu/flow_simple_8atoms/flow/w455/t1/indata/in
- root for output files -> /scratch/users/j/a/jabreu/flow_simple_8atoms/flow/w455/t1/outdata/out

 Symmetries : space group Cm c m (# 63); Bravais oC (1-face-center ortho.)
     intxc =       0      iscf =       7    lmnmax =      25     lnmax =       7
     mgfft =      75  mpssoang =       4    mqgrid =    3398     natom =       8
  nloc_mem =       1    nspden =       1   nspinor =       1    nsppol =       1
      nsym =       8    n1xccc =    2501    ntypat =       3    occopt =       1
   xclevel =       2
-    mband =          49        mffmem =           1         mkmem =           2
-   mkqmem =           2        mk1mem =           2           mpw =       16158
      nfft =      405000          nkpt =           2
  Rough estimation (10% accuracy) of disk space for files :

------------- Echo of variables that govern the present computation ------------
-
- outvars: echo of selected default values
-   iomode0 =  0 , fftalg0 =512 , wfoptalg0 =  0
-
- outvars: echo of global parameters not present in the input file
-  max_nthreads =    0
-
 -outvars: echo values of preprocessed input variables --------
            acell      1.0000000000E+00  1.0000000000E+00  1.0000000000E+00 Bohr
              amu      8.54678000E+01  1.96966540E+02  1.59994000E+01
             ecut      4.40000000E+01 Hartree
-          fftalg         512
           irdden           1
           irdwfk           1
              ixc     -116133
              kpt      1.88081215E-01  1.88081215E-01  0.00000000E+00
                      -5.00000000E-01  5.00000000E-01  4.37500000E-01
           kptopt           0
P           mkmem           2
P          mkqmem           2
P          mk1mem           2
            natom           8
            nband          49
           nbdbuf           4
            ngfft          75      75      72
             nkpt           2
            nstep        2000
             nsym           8
           ntypat           3
              occ      2.000000  2.000000  2.000000  2.000000  2.000000  2.000000
                       2.000000  2.000000  2.000000  2.000000  2.000000  2.000000
                       2.000000  2.000000  2.000000  2.000000  2.000000  2.000000
                       2.000000  2.000000  2.000000  2.000000  2.000000  2.000000
                       2.000000  2.000000  2.000000  2.000000  2.000000  2.000000
                       2.000000  2.000000  2.000000  2.000000  2.000000  2.000000
                       2.000000  2.000000  2.000000  2.000000  0.000000  0.000000
                       0.000000  0.000000  0.000000  0.000000  0.000000  0.000000
                       0.000000
        optdriver           1
            prtwf          -1
            rfdir           1       1       1
           rfelfd           2
            rprim      1.2259333048E+01  0.0000000000E+00  0.0000000000E+00
                      -8.9953605911E+00  8.3291496940E+00  0.0000000000E+00
                       0.0000000000E+00  0.0000000000E+00  1.1377343366E+01
          spgroup          63
           symrel      1  0  0   0  1  0   0  0  1      -1  0  0   0 -1  0   0  0 -1
                       0  1  0   1  0  0   0  0 -1       0 -1  0  -1  0  0   0  0  1
                      -1  0  0   0 -1  0   0  0  1       1  0  0   0  1  0   0  0 -1
                       0 -1  0  -1  0  0   0  0 -1       0  1  0   1  0  0   0  0  1
            tnons      0.0000000  0.0000000  0.0000000    -0.0000000  0.0000000 -0.0000000
                      -0.0000000  0.0000000 -0.0000000     0.0000000  0.0000000  0.0000000
                      -0.0000000  0.0000000  0.5000000     0.0000000  0.0000000  0.5000000
                       0.0000000  0.0000000  0.5000000    -0.0000000  0.0000000  0.5000000
           tolwfr      1.00000000E-20
            typat      1  1  2  2  3  3  3  3
           useylm           1
              wtk        0.50000    0.50000
           xangst      4.2558107608E+00  8.7448471349E-01  1.5051577009E+00
                      -2.5285909271E+00  3.5331114715E+00  4.5154731028E+00
                       8.3579485074E-01  2.2146980779E+00  4.5154731028E+00
                       8.9142498302E-01  2.1928981071E+00  1.5051577009E+00
                      -3.6292989808E-01  2.6844464565E+00  2.8411356763E-02
                       2.0901497318E+00  1.7231497285E+00  5.9922194469E+00
                      -3.6292989808E-01  2.6844464565E+00  2.9819040451E+00
                       2.0901497318E+00  1.7231497285E+00  3.0387267586E+00
            xcart      8.0423168114E+00  1.6525366159E+00  2.8443358415E+00
                      -4.7783443543E+00  6.6766130781E+00  8.5330075246E+00
                       1.5794233712E+00  4.1851728342E+00  8.5330075246E+00
                       1.6845490859E+00  4.1439768598E+00  2.8443358415E+00
                      -6.8583811282E-01  5.0728686211E+00  5.3689683345E-02
                       3.9498105699E+00  3.2562810729E+00  1.1323653683E+01
                      -6.8583811282E-01  5.0728686211E+00  5.6349819998E+00
                       3.9498105699E+00  3.2562810729E+00  5.7423613664E+00
             xred      8.0159600000E-01  1.9840400000E-01  2.5000000000E-01
                       1.9840400000E-01  8.0159600000E-01  7.5000000000E-01
                       4.9752700000E-01  5.0247300000E-01  7.5000000000E-01
                       5.0247300000E-01  4.9752700000E-01  2.5000000000E-01
                       3.9095000000E-01  6.0905000000E-01  4.7190000000E-03
                       6.0905000000E-01  3.9095000000E-01  9.9528100000E-01
                       3.9095000000E-01  6.0905000000E-01  4.9528100000E-01
                       6.0905000000E-01  3.9095000000E-01  5.0471900000E-01
            znucl       37.00000   79.00000    8.00000

 chkinp: Checking input parameters for consistency.

== DATASET  1 ==================================================================
-   mpi_nproc: 1, omp_nthreads: -1 (-1 if OMP is not activated)

--- !DatasetInfo
iteration_state: {dtset: 1, }
dimensions: {natom: 8, nkpt: 2, mband: 49, nsppol: 1, nspinor: 1, nspden: 1, mpw: 16158, }
cutoff_energies: {ecut:  44.0, pawecutdg:  -1.0, }
electrons: {nelect:   8.00000000E+01, charge:   0.00000000E+00, occopt:   1.00000000E+00, tsmear:   1.00000000E-02, }
meta: {optdriver: 1, rfelfd: 2, }
...

 Real(R)+Recip(G) space primitive vectors, cartesian coordinates (Bohr,Bohr^-1):
 R(1)= 12.2593330  0.0000000  0.0000000  G(1)=  0.0815705  0.0880950  0.0000000
 R(2)= -8.9953606  8.3291497  0.0000000  G(2)=  0.0000000  0.1200603  0.0000000
 R(3)=  0.0000000  0.0000000 11.3773434  G(3)=  0.0000000  0.0000000  0.0878940
 Unit cell volume ucvol=  1.1617385E+03 bohr^3
 Angles (23,13,12)=  9.00000000E+01  9.00000000E+01  1.37202214E+02 degrees

 getcut: wavevector=  0.0000  0.0000  0.0000  ngfft=  75  75  72
         ecut(hartree)=     44.000   => boxcut(ratio)=   2.02153

--- Pseudopotential description ------------------------------------------------
- pspini: atom type   1  psp file is /scratch/users/j/a/jabreu/pseudos/PBEsol/Rb.psp8
- pspatm: opening atomic psp file    /scratch/users/j/a/jabreu/pseudos/PBEsol/Rb.psp8
- Rb    ONCVPSP-3.3.0  r_core=   1.71227   1.75361   1.90633
- 37.00000   9.00000    180112                znucl, zion, pspdat
    8 -116133    2    4       600   0.00000   pspcod,pspxc,lmax,lloc,mmax,r2well
    5.99000000000000    7.00000000000000    0.00000000000000   rchrg,fchrg,qchrg
     nproj     2     2     2
     extension_switch     1
  pspatm : epsatm=   34.48400912
         --- l  ekb(1:nproj) -->
             0    8.196957   -0.477221
             1    3.231347   -0.378736
             2   -1.047201    0.996637
 pspatm: atomic psp has been read  and splines computed

- pspini: atom type   2  psp file is /scratch/users/j/a/jabreu/pseudos/PBEsol/Au.psp8
- pspatm: opening atomic psp file    /scratch/users/j/a/jabreu/pseudos/PBEsol/Au.psp8
- Au    ONCVPSP-3.3.0  r_core=   1.45604   1.56407   1.56407   1.60183
- 79.00000  19.00000    180112                znucl, zion, pspdat
    8 -116133    3    4       500   0.00000   pspcod,pspxc,lmax,lloc,mmax,r2well
    4.99000000000000    5.00000000000000    0.00000000000000   rchrg,fchrg,qchrg
     nproj     2     2     2     1
     extension_switch     1
  pspatm : epsatm=   32.21965837
         --- l  ekb(1:nproj) -->
             0    9.413866   -0.196587
             1    2.474292   -1.517497
             2    1.503483    0.298081
             3    1.177996
 pspatm: atomic psp has been read  and splines computed

- pspini: atom type   3  psp file is /scratch/users/j/a/jabreu/pseudos/PBEsol/O.psp8
- pspatm: opening atomic psp file    /scratch/users/j/a/jabreu/pseudos/PBEsol/O.psp8
- O     ONCVPSP-3.3.0  r_core=   1.35509   1.45563   1.26150
-  8.00000   6.00000    180112                znucl, zion, pspdat
    8 -116133    2    4       600   0.00000   pspcod,pspxc,lmax,lloc,mmax,r2well
    5.99000000000000    4.00000000000000    0.00000000000000   rchrg,fchrg,qchrg
     nproj     2     2     1
     extension_switch     1
  pspatm : epsatm=    6.22910522
         --- l  ekb(1:nproj) -->
             0    6.050032    0.820363
             1   -4.739617   -1.153841
             2   -1.335834
 pspatm: atomic psp has been read  and splines computed

   1.26659005E+04                                ecore*ucvol(ha*bohr**3)

-inwffil : will read wavefunctions from disk file /scratch/users/j/a/jabreu/flow_simple_8atoms/flow/w455/t1/indata/in_WFK

 ==>  initialize data related to q vector <==

 The list of irreducible perturbations for this q vector is:
    1)    idir= 1    ipert=   9
    2)    idir= 2    ipert=   9
    3)    idir= 3    ipert=   9

 Perturbation wavevector (in red.coord.)   0.000000  0.000000  0.000000
 Perturbation : derivative vs k along direction   1

 dfpt_looppert : COMMENT -
  In a d/dk calculation, iscf is set to -3 automatically.
 The set of symmetries contains only one element for this perturbation.
 symkpt : not enough symmetry to change the number of k points.

[...]

 Initialisation of the first-order wave-functions :
  ireadwf=   0

--- !BeginCycle
iteration_state: {dtset: 1, }
solver: {iscf: 7, nstep: 2000, nline: 4, wfoptalg: 0, }
tolerances: {tolwfr: 1.00E-20, }
...

     iter   2DEtotal(Ha)        deltaE(Ha) residm    vres2
-ETOT  1  -47.299210361962     -4.730E+01 6.843E-02 0.000E+00
 ETOT  2  -47.375644859032     -7.643E-02 1.824E-03 0.000E+00
 ETOT  3  -47.376290277223     -6.454E-04 1.930E-04 0.000E+00
 ETOT  4  -47.376302388324     -1.211E-05 1.651E-05 0.000E+00
 ETOT  5  -47.376302694453     -3.061E-07 3.275E-06 0.000E+00
 ETOT  6  -47.376302703600     -9.147E-09 2.997E-07 0.000E+00
 ETOT  7  -47.376302703912     -3.115E-10 6.283E-08 0.000E+00
 ETOT  8  -47.376302703924     -1.177E-11 5.921E-09 0.000E+00
 ETOT  9  -47.376302703924     -4.690E-13 1.259E-09 0.000E+00
 ETOT 10  -47.376302703924      7.105E-15 1.211E-10 0.000E+00
 ETOT 11  -47.376302703924     -7.105E-15 2.588E-11 0.000E+00
 ETOT 12  -47.376302703924      0.000E+00 2.523E-12 0.000E+00
 ETOT 13  -47.376302703924      7.105E-15 5.408E-13 0.000E+00
 ETOT 14  -47.376302703924      0.000E+00 5.319E-14 0.000E+00
 ETOT 15  -47.376302703924      7.105E-15 1.142E-14 0.000E+00
 ETOT 16  -47.376302703924      7.105E-15 1.131E-15 0.000E+00
 ETOT 17  -47.376302703924      0.000E+00 2.430E-16 0.000E+00
 ETOT 18  -47.376302703924     -1.421E-14 2.419E-17 0.000E+00
 ETOT 19  -47.376302703924      7.105E-15 5.197E-18 0.000E+00
 ETOT 20  -47.376302703924     -1.421E-14 5.204E-19 0.000E+00
 ETOT 21  -47.376302703924      7.105E-15 1.116E-19 0.000E+00
 ETOT 22  -47.376302703924     -1.421E-14 1.124E-20 0.000E+00
 ETOT 23  -47.376302703924      2.132E-14 9.960E-21 0.000E+00

 At SCF step   23   max residual=  9.96E-21 < tolwfr=  1.00E-20 =>converged.

 ----iterations are completed or convergence reached----

 dfpt_looppert: DFPT cycle converged with prtwf=-1. Will skip output of the 1st-order WFK file.
 dfpt_looppert : ek2=    9.1049671771E+01
          f-sum rule ratio=    1.0042960174E+00
 prteigrs : about to open file /scratch/users/j/a/jabreu/flow_simple_8atoms/flow/w455/t1/tmpdata/tmp_1WF1_EIG
 Expectation of eigenvalue derivatives (hartree) for nkpt=   2  k points:
  (in case of degenerate eigenvalues, averaged derivative)
 kpt#   1, nband= 49, wtk=  0.50000, kpt=  0.1881  0.1881  0.0000 (reduced coord)
   0.00000    0.00000    0.00000    0.00000    0.00000    0.00000   -0.00000   -0.00000
   0.00387   -0.00272   -0.00371   -0.00084    0.00243    0.00102   -0.00124    0.00629
   0.01425   -0.01125   -0.01463   -0.02284    0.00082    0.01627    0.01856   -0.00188
   0.00262   -0.01350   -0.00145    0.00029    0.01560   -0.00670    0.01037   -0.00089
  -0.01679   -0.00212    0.01449    0.00403    0.01304    0.01350   -0.01336   -0.00048
  -0.00502    0.00058    0.08301   -0.03065   -0.07156   -0.07291   -0.04546    0.12237
   0.02061
 prteigrs : prtvol=0 or 1, do not print more k-points.

 Eight components of 2nd-order total energy (hartree) are
 1,2,3: 0th-order hamiltonian combined with 1st-order wavefunctions
     kin0=   7.37475508E+01 eigvalue=   4.51805143E+00  local=  -3.74693667E+01
 4,5,6: 1st-order hamiltonian combined with 1st and 0th-order wfs
     kin1=  -9.14408227E+01  Hartree=   0.00000000E+00     xc=   0.00000000E+00
 7,8,9: eventually, occupation + non-local contributions
    edocc=   6.84125722E+00     enl0=  -2.61190097E-01   enl1=  -3.31178266E+00
 1-9 gives the relaxation energy (to be shifted if some occ is /=2.0)
   erelax=  -4.73763027E+01
  No Ewald or frozen-wf contrib.: the relaxation energy is the total one
 2DEtotal=   -0.4737630270E+02 Ha. Also 2DEtotal=   -0.128917475874E+04 eV
    (  non-var. 2DEtotal :   -4.7376302704E+01 Ha)

 Perturbation wavevector (in red.coord.)   0.000000  0.000000  0.000000
 Perturbation : derivative vs k along direction   2
 The set of symmetries contains only one element for this perturbation.
 symkpt : not enough symmetry to change the number of k points.

[...]

 Perturbation wavevector (in red.coord.)   0.000000  0.000000  0.000000
 Perturbation : derivative vs k along direction   3
 The set of symmetries contains only one element for this perturbation.
 symkpt : not enough symmetry to change the number of k points.

-inwffil : will read wavefunctions from disk file /scratch/users/j/a/jabreu/flow_simple_8atoms/flow/w455/t1/indata/in_WFK

 Initialisation of the first-order wave-functions :
  ireadwf=   0

--- !BeginCycle
iteration_state: {dtset: 1, }
solver: {iscf: 7, nstep: 2000, nline: 4, wfoptalg: 0, }
tolerances: {tolwfr: 1.00E-20, }
...

     iter   2DEtotal(Ha)        deltaE(Ha) residm    vres2
-ETOT  1  -25.535406818514     -2.554E+01 1.318E-01 0.000E+00
 ETOT  2  -25.569931997890     -3.453E-02 1.381E-02 0.000E+00
 ETOT  3  -25.570334954605     -4.030E-04 4.423E-04 0.000E+00
 ETOT  4  -25.570345149469     -1.019E-05 4.747E-05 0.000E+00
 ETOT  5  -25.570345530043     -3.806E-07 3.581E-06 0.000E+00
 ETOT  6  -25.570345547200     -1.716E-08 6.176E-07 0.000E+00
 ETOT  7  -25.570345548039     -8.391E-10 7.201E-08 0.000E+00
 ETOT  8  -25.570345548082     -4.259E-11 1.273E-08 0.000E+00
 ETOT  9  -25.570345548084     -2.146E-12 1.518E-09 0.000E+00
 ETOT 10  -25.570345548084     -1.563E-13 2.683E-10 0.000E+00
 ETOT 11  -25.570345548084      0.000E+00 3.238E-11 0.000E+00
 ETOT 12  -25.570345548084      0.000E+00 5.710E-12 0.000E+00
 ETOT 13  -25.570345548084     -7.105E-15 6.937E-13 0.000E+00
 ETOT 14  -25.570345548084      0.000E+00 1.224E-13 0.000E+00
 ETOT 15  -25.570345548084     -7.105E-15 1.493E-14 0.000E+00
 ETOT 16  -25.570345548084      3.553E-15 2.637E-15 0.000E+00
 ETOT 17  -25.570345548084      3.553E-15 3.228E-16 0.000E+00
 ETOT 18  -25.570345548084      3.553E-15 5.711E-17 0.000E+00
 ETOT 19  -25.570345548084     -7.105E-15 7.014E-18 0.000E+00
 ETOT 20  -25.570345548084      3.553E-15 1.242E-18 0.000E+00
 ETOT 21  -25.570345548084      0.000E+00 1.531E-19 0.000E+00
 ETOT 22  -25.570345548084     -3.553E-15 2.711E-20 0.000E+00
 ETOT 23  -25.570345548084      3.553E-15 9.908E-21 0.000E+00

 At SCF step   23   max residual=  9.91E-21 < tolwfr=  1.00E-20 =>converged.

 ----iterations are completed or convergence reached----

 dfpt_looppert: DFPT cycle converged with prtwf=-1. Will skip output of the 1st-order WFK file.
 dfpt_looppert : ek2=    4.8797546765E+01
          f-sum rule ratio=    1.0160693710E+00
 prteigrs : about to open file /scratch/users/j/a/jabreu/flow_simple_8atoms/flow/w455/t1/tmpdata/tmp_1WF1_EIG
 Expectation of eigenvalue derivatives (hartree) for nkpt=   2  k points:
  (in case of degenerate eigenvalues, averaged derivative)
 kpt#   1, nband= 49, wtk=  0.50000, kpt=  0.1881  0.1881  0.0000 (reduced coord)
  -0.00000   -0.00000   -0.00000    0.00000   -0.00000   -0.00000   -0.00000    0.00000
   0.00000    0.00000    0.00000   -0.00000   -0.00000   -0.00000    0.00000   -0.00000
   0.00000   -0.00000   -0.00000    0.00000    0.00000   -0.00000   -0.00000    0.00000
   0.00000    0.00000    0.00000   -0.00000   -0.00000    0.00000   -0.00000    0.00000
   0.00000    0.00000   -0.00000   -0.00000    0.00000   -0.00000   -0.00000    0.00000
   0.00000    0.00000    0.00000    0.00000   -0.00000   -0.00000   -0.00000   -0.00009
   0.00844
 prteigrs : prtvol=0 or 1, do not print more k-points.

 Eight components of 2nd-order total energy (hartree) are
 1,2,3: 0th-order hamiltonian combined with 1st-order wavefunctions
     kin0=   3.83482314E+01 eigvalue=   2.04160114E+00  local=  -2.01581743E+01
 4,5,6: 1st-order hamiltonian combined with 1st and 0th-order wfs
     kin1=  -4.95816926E+01  Hartree=   0.00000000E+00     xc=   0.00000000E+00
 7,8,9: eventually, occupation + non-local contributions
    edocc=   5.75287776E+00     enl0=  -4.14190417E-01   enl1=  -1.55899845E+00
 1-9 gives the relaxation energy (to be shifted if some occ is /=2.0)
   erelax=  -2.55703455E+01
  No Ewald or frozen-wf contrib.: the relaxation energy is the total one
 2DEtotal=   -0.2557034555E+02 Ha. Also 2DEtotal=   -0.695804488142E+03 eV
    (  non-var. 2DEtotal :   -2.5570345548E+01 Ha)

 CALCULATION OF EFFECTIVE MASSES
 NOTE : Additional infos (eff. mass eigenvalues, eigenvectors and, if degenerate, average mass) are available in stdout.

 K-point ( 0.188, 0.188, 0.000) | band =    40
 Effective mass tensor:
             -8.9116612300             -0.2246239591             -0.0000723406
             -0.2246239591             -9.4201354875              0.0000631611
             -0.0000723406              0.0000631611             -0.8037200836
 Effective mass tensor eigenvalues:
             -9.5051511270             -8.8266455917             -0.8037200825
 Angular average effective mass 1/(<1/m>)=  -2.0509823487
 Angular average effective mass for Frohlich model (<m**0.5>)**2=  -3.1370235121
 Effective masses along directions: (cart. coord. / red. coord. -> eff. mass)
    1:   1.000000  0.000000  0.000000 /   0.806242 -0.591585  0.000000 ->  -8.9063050452
    2:   0.000000  1.000000  0.000000 /   0.000000  1.000000  0.000000 ->  -9.4144736958
    3:   0.000000  0.000000  1.000000 /   0.000000  0.000000  1.000000 ->  -0.8037200826
    4:   0.577350  0.577350  0.577350 /   0.732401 -0.039801  0.679709 ->  -2.0585229848
    5:   0.000000  0.707107  0.707107 /   0.000000  0.590707  0.806886 ->  -1.4809868553
    6:   0.707107  0.000000  0.707107 /   0.645540 -0.473669  0.599097 ->  -1.4744112426
    7:   0.707107  0.707107  0.000000 /   0.998527 -0.054263  0.000000 ->  -9.3832933128

 K-point (-0.500, 0.500, 0.438) | band =    41
 Effective mass tensor:
              2.2969538653              0.3701190331             -0.0000000972
              0.3701190331              3.0964036920             -0.0000001371
             -0.0000000972             -0.0000001371              0.6249740004
 Effective mass tensor eigenvalues:
              0.6249740004              2.1519145131              3.2414430442
 Angular average effective mass 1/(<1/m>)=   1.2640767540
 Angular average effective mass for Frohlich model (<m**0.5>)**2=   1.4814060971
 Effective masses along directions: (cart. coord. / red. coord. -> eff. mass)
    1:   1.000000  0.000000  0.000000 /   0.806242 -0.591585  0.000000 ->   2.2527128320
    2:   0.000000  1.000000  0.000000 /   0.000000  1.000000  0.000000 ->   3.0367646628
    3:   0.000000  0.000000  1.000000 /   0.000000  0.000000  1.000000 ->   0.6249740004
    4:   0.577350  0.577350  0.577350 /   0.732401 -0.039801  0.679709 ->   1.3232465358
    5:   0.000000  0.707107  0.707107 /   0.000000  0.590707  0.806886 ->   1.0366107515
    6:   0.707107  0.000000  0.707107 /   0.645540 -0.473669  0.599097 ->   0.9784851190
    7:   0.707107  0.707107  0.000000 /   0.998527 -0.054263  0.000000 ->   2.9981213006

 END OF EFFECTIVE MASSES SECTION

 ---- first-order wavefunction calculations are completed ----

 Total localisation tensor (bohr^2) in cartesian coordinates
  WARNING : still subject to testing - especially symmetries.
      direction              matrix element
   alpha     beta       real part   imaginary part
     1        1       2.0729101430    0.0000000000
     1        2      -0.6717602734    0.0000000000
     1        3       0.0000000000    0.0000000000
     2        1      -0.6717602734    0.0000000000
     2        2       0.6220086253    0.0000000000
     2        3       0.0000000000    0.0000000000
     3        1       0.0000000000    0.0000000000
     3        2       0.0000000000    0.0000000000
     3        3       0.8428906406    0.0000000000

 respfn : d/dk was computed, but no 2DTE, so no DDB output.

== END DATASET(S) ==============================================================

 -outvars: echo values of variables after computation  --------
            acell      1.0000000000E+00  1.0000000000E+00  1.0000000000E+00 Bohr
              amu      8.54678000E+01  1.96966540E+02  1.59994000E+01
             ecut      4.40000000E+01 Hartree
           etotal     -2.5570345548E+01
            fcart      0.0000000000E+00  0.0000000000E+00  0.0000000000E+00
                       0.0000000000E+00  0.0000000000E+00  0.0000000000E+00
                       0.0000000000E+00  0.0000000000E+00  0.0000000000E+00
                       0.0000000000E+00  0.0000000000E+00  0.0000000000E+00
                       0.0000000000E+00  0.0000000000E+00  0.0000000000E+00
                       0.0000000000E+00  0.0000000000E+00  0.0000000000E+00
                       0.0000000000E+00  0.0000000000E+00  0.0000000000E+00
                       0.0000000000E+00  0.0000000000E+00  0.0000000000E+00
-          fftalg         512
           irdden           1
           irdwfk           1
              ixc     -116133
              kpt      1.88081215E-01  1.88081215E-01  0.00000000E+00
                      -5.00000000E-01  5.00000000E-01  4.37500000E-01
           kptopt           0
P           mkmem           2
P          mkqmem           2
P          mk1mem           2
            natom           8
            nband          49
           nbdbuf           4
            ngfft          75      75      72
             nkpt           2
            nstep        2000
             nsym           8
           ntypat           3
              occ      2.000000  2.000000  2.000000  2.000000  2.000000  2.000000
                       2.000000  2.000000  2.000000  2.000000  2.000000  2.000000
                       2.000000  2.000000  2.000000  2.000000  2.000000  2.000000
                       2.000000  2.000000  2.000000  2.000000  2.000000  2.000000
                       2.000000  2.000000  2.000000  2.000000  2.000000  2.000000
                       2.000000  2.000000  2.000000  2.000000  2.000000  2.000000
                       2.000000  2.000000  2.000000  2.000000  0.000000  0.000000
                       0.000000  0.000000  0.000000  0.000000  0.000000  0.000000
                       0.000000
        optdriver           1
            prtwf          -1
            rfdir           1       1       1
           rfelfd           2
            rprim      1.2259333048E+01  0.0000000000E+00  0.0000000000E+00
                      -8.9953605911E+00  8.3291496940E+00  0.0000000000E+00
                       0.0000000000E+00  0.0000000000E+00  1.1377343366E+01
          spgroup          63
           strten      0.0000000000E+00  0.0000000000E+00  0.0000000000E+00
                       0.0000000000E+00  0.0000000000E+00  0.0000000000E+00
           symrel      1  0  0   0  1  0   0  0  1      -1  0  0   0 -1  0   0  0 -1
                       0  1  0   1  0  0   0  0 -1       0 -1  0  -1  0  0   0  0  1
                      -1  0  0   0 -1  0   0  0  1       1  0  0   0  1  0   0  0 -1
                       0 -1  0  -1  0  0   0  0 -1       0  1  0   1  0  0   0  0  1
            tnons      0.0000000  0.0000000  0.0000000    -0.0000000  0.0000000 -0.0000000
                      -0.0000000  0.0000000 -0.0000000     0.0000000  0.0000000  0.0000000
                      -0.0000000  0.0000000  0.5000000     0.0000000  0.0000000  0.5000000
                       0.0000000  0.0000000  0.5000000    -0.0000000  0.0000000  0.5000000
           tolwfr      1.00000000E-20
            typat      1  1  2  2  3  3  3  3
           useylm           1
              wtk        0.50000    0.50000
           xangst      4.2558107608E+00  8.7448471349E-01  1.5051577009E+00
                      -2.5285909271E+00  3.5331114715E+00  4.5154731028E+00
                       8.3579485074E-01  2.2146980779E+00  4.5154731028E+00
                       8.9142498302E-01  2.1928981071E+00  1.5051577009E+00
                      -3.6292989808E-01  2.6844464565E+00  2.8411356763E-02
                       2.0901497318E+00  1.7231497285E+00  5.9922194469E+00
                      -3.6292989808E-01  2.6844464565E+00  2.9819040451E+00
                       2.0901497318E+00  1.7231497285E+00  3.0387267586E+00
            xcart      8.0423168114E+00  1.6525366159E+00  2.8443358415E+00
                      -4.7783443543E+00  6.6766130781E+00  8.5330075246E+00
                       1.5794233712E+00  4.1851728342E+00  8.5330075246E+00
                       1.6845490859E+00  4.1439768598E+00  2.8443358415E+00
                      -6.8583811282E-01  5.0728686211E+00  5.3689683345E-02
                       3.9498105699E+00  3.2562810729E+00  1.1323653683E+01
                      -6.8583811282E-01  5.0728686211E+00  5.6349819998E+00
                       3.9498105699E+00  3.2562810729E+00  5.7423613664E+00
             xred      8.0159600000E-01  1.9840400000E-01  2.5000000000E-01
                       1.9840400000E-01  8.0159600000E-01  7.5000000000E-01
                       4.9752700000E-01  5.0247300000E-01  7.5000000000E-01
                       5.0247300000E-01  4.9752700000E-01  2.5000000000E-01
                       3.9095000000E-01  6.0905000000E-01  4.7190000000E-03
                       6.0905000000E-01  3.9095000000E-01  9.9528100000E-01
                       3.9095000000E-01  6.0905000000E-01  4.9528100000E-01
                       6.0905000000E-01  3.9095000000E-01  5.0471900000E-01
            znucl       37.00000   79.00000    8.00000

- Timing analysis has been suppressed with timopt=0

 Suggested references for the acknowledgment of ABINIT usage.

 Calculation completed.
.Delivered  14 WARNINGs and   9 COMMENTs to log file.