.Version 9.5.1 of ABINIT

 ABINIT is a project of the Universite Catholique de Louvain,
 Corning Inc. and other collaborators, see ~abinit/doc/developers/contributors.txt .
 acknowledgments of the ABINIT effort.

.Starting date : Tue 18 May 2021.
- ( at 13h19 )

- input  file    -> /scratch/users/j/a/jabreu/flow_simple_8atoms/flow/w287/t1/run.abi
- output file    -> /scratch/users/j/a/jabreu/flow_simple_8atoms/flow/w287/t1/run.abo
- root for input  files -> /scratch/users/j/a/jabreu/flow_simple_8atoms/flow/w287/t1/indata/in
- root for output files -> /scratch/users/j/a/jabreu/flow_simple_8atoms/flow/w287/t1/outdata/out

 Symmetries : space group Cm c m (# 63); Bravais oC (1-face-center ortho.)
     intxc =       0      iscf =       7    lmnmax =      18     lnmax =       6
     mgfft =      80  mpssoang =       3    mqgrid =    3601     natom =       8
  nloc_mem =       1    nspden =       1   nspinor =       1    nsppol =       1
      nsym =       8    n1xccc =    2501    ntypat =       3    occopt =       1
   xclevel =       2
-    mband =          61        mffmem =           1         mkmem =           2
-   mkqmem =           2        mk1mem =           2           mpw =       24045
      nfft =      460800          nkpt =           2
  Rough estimation (10% accuracy) of disk space for files :

------------- Echo of variables that govern the present computation ------------
-
- outvars: echo of selected default values
-   iomode0 =  0 , fftalg0 =512 , wfoptalg0 =  0
-
- outvars: echo of global parameters not present in the input file
-  max_nthreads =    0
-
 -outvars: echo values of preprocessed input variables --------
            acell      1.0000000000E+00  1.0000000000E+00  1.0000000000E+00 Bohr
              amu      3.90983000E+01  1.07868200E+02  1.21753000E+02
             ecut      4.30000000E+01 Hartree
-          fftalg         512
           irdden           1
           irdwfk           1
           istwfk        0    1
              ixc     -116133
              kpt     -5.00000000E-01  5.00000000E-01  0.00000000E+00
                       0.00000000E+00  0.00000000E+00  0.00000000E+00
           kptopt           0
P           mkmem           2
P          mkqmem           2
P          mk1mem           2
            natom           8
            nband          61
           nbdbuf           4
            ngfft          80      80      72
             nkpt           2
            nstep        2000
             nsym           8
           ntypat           3
              occ      2.000000  2.000000  2.000000  2.000000  2.000000  2.000000
                       2.000000  2.000000  2.000000  2.000000  2.000000  2.000000
                       2.000000  2.000000  2.000000  2.000000  2.000000  2.000000
                       2.000000  2.000000  2.000000  2.000000  2.000000  2.000000
                       2.000000  2.000000  2.000000  2.000000  2.000000  2.000000
                       2.000000  2.000000  2.000000  2.000000  2.000000  2.000000
                       2.000000  2.000000  2.000000  2.000000  2.000000  2.000000
                       2.000000  2.000000  2.000000  2.000000  2.000000  2.000000
                       2.000000  2.000000  2.000000  2.000000  0.000000  0.000000
                       0.000000  0.000000  0.000000  0.000000  0.000000  0.000000
                       0.000000
        optdriver           1
            prtwf          -1
            rfdir           1       1       1
           rfelfd           2
            rprim      1.2541021690E+01  0.0000000000E+00  0.0000000000E+00
                      -2.9182626630E+00  1.2196760556E+01  0.0000000000E+00
                       0.0000000000E+00  0.0000000000E+00  1.1673642029E+01
          spgroup          63
           symrel      1  0  0   0  1  0   0  0  1      -1  0  0   0 -1  0   0  0 -1
                       0 -1  0  -1  0  0   0  0 -1       0  1  0   1  0  0   0  0  1
                      -1  0  0   0 -1  0   0  0  1       1  0  0   0  1  0   0  0 -1
                       0  1  0   1  0  0   0  0 -1       0 -1  0  -1  0  0   0  0  1
            tnons      0.0000000  0.0000000  0.0000000     0.0000000 -0.0000000  0.0000000
                       0.0000000  0.0000000  0.0000000     0.0000000 -0.0000000  0.0000000
                       0.0000000 -0.0000000  0.5000000     0.0000000  0.0000000  0.5000000
                       0.0000000 -0.0000000  0.5000000     0.0000000  0.0000000  0.5000000
           tolwfr      1.00000000E-20
            typat      1  1  1  1  2  2  3  3
           useylm           1
              wtk        0.50000    0.50000
           xangst      5.9847748300E+00  2.0747760130E+00  4.6330689772E+00
                      -8.9263006894E-01  4.3794716921E+00  1.5443563257E+00
                       6.2518042784E-01  6.3032828513E+00  4.6330689772E+00
                       4.4669643332E+00  1.5096485382E-01  1.5443563257E+00
                       2.5460723805E+00  3.2271238525E+00  0.0000000000E+00
                       2.5460723805E+00  3.2271238525E+00  3.0887126515E+00
                       3.9028183385E+00  4.9467871568E+00  4.6330689772E+00
                       1.1893264225E+00  1.5074605482E+00  1.5443563257E+00
            xcart      1.1309585396E+01  3.9207584517E+00  8.7552315217E+00
                      -1.6868263683E+00  8.2760021047E+00  2.9184105072E+00
                       1.1814197923E+00  1.1911478327E+01  8.7552315217E+00
                       8.4413392351E+00  2.8528222941E-01  2.9184105072E+00
                       4.8113795137E+00  6.0983802782E+00  0.0000000000E+00
                       4.8113795137E+00  6.0983802782E+00  5.8368210145E+00
                       7.3752578062E+00  9.3480729641E+00  8.7552315217E+00
                       2.2475012212E+00  2.8486875923E+00  2.9184105072E+00
             xred      9.7661000000E-01  3.2145900000E-01  7.5000000000E-01
                       2.3390000000E-02  6.7854100000E-01  2.5000000000E-01
                       3.2145900000E-01  9.7661000000E-01  7.5000000000E-01
                       6.7854100000E-01  2.3390000000E-02  2.5000000000E-01
                       5.0000000000E-01  5.0000000000E-01  0.0000000000E+00
                       5.0000000000E-01  5.0000000000E-01  5.0000000000E-01
                       7.6643900000E-01  7.6643900000E-01  7.5000000000E-01
                       2.3356100000E-01  2.3356100000E-01  2.5000000000E-01
            znucl       19.00000   47.00000   51.00000

 chkinp: Checking input parameters for consistency.

== DATASET  1 ==================================================================
-   mpi_nproc: 1, omp_nthreads: -1 (-1 if OMP is not activated)

--- !DatasetInfo
iteration_state: {dtset: 1, }
dimensions: {natom: 8, nkpt: 2, mband: 61, nsppol: 1, nspinor: 1, nspden: 1, mpw: 24045, }
cutoff_energies: {ecut:  43.0, pawecutdg:  -1.0, }
electrons: {nelect:   1.04000000E+02, charge:   0.00000000E+00, occopt:   1.00000000E+00, tsmear:   1.00000000E-02, }
meta: {optdriver: 1, rfelfd: 2, }
...

 Real(R)+Recip(G) space primitive vectors, cartesian coordinates (Bohr,Bohr^-1):
 R(1)= 12.5410217  0.0000000  0.0000000  G(1)=  0.0797383  0.0190786  0.0000000
 R(2)= -2.9182627 12.1967606  0.0000000  G(2)=  0.0000000  0.0819890  0.0000000
 R(3)=  0.0000000  0.0000000 11.6736420  G(3)=  0.0000000  0.0000000  0.0856631
 Unit cell volume ucvol=  1.7855984E+03 bohr^3
 Angles (23,13,12)=  9.00000000E+01  9.00000000E+01  1.03455929E+02 degrees

 getcut: wavevector=  0.0000  0.0000  0.0000  ngfft=  80  80  72
         ecut(hartree)=     43.000   => boxcut(ratio)=   2.08942

--- Pseudopotential description ------------------------------------------------
- pspini: atom type   1  psp file is /scratch/users/j/a/jabreu/pseudos/PBEsol/K.psp8
- pspatm: opening atomic psp file    /scratch/users/j/a/jabreu/pseudos/PBEsol/K.psp8
- K     ONCVPSP-3.3.0  r_core=   1.36296   1.46408   1.61068
- 19.00000   9.00000    180112                znucl, zion, pspdat
    8 -116133    2    4       400   0.00000   pspcod,pspxc,lmax,lloc,mmax,r2well
    3.99000000000000    5.00000000000000    0.00000000000000   rchrg,fchrg,qchrg
     nproj     2     2     2
     extension_switch     1
  pspatm : epsatm=    8.32487830
         --- l  ekb(1:nproj) -->
             0   10.921326    0.816676
             1    4.431000    0.560368
             2   -3.384038   -1.043186
 pspatm: atomic psp has been read  and splines computed

- pspini: atom type   2  psp file is /scratch/users/j/a/jabreu/pseudos/PBEsol/Ag.psp8
- pspatm: opening atomic psp file    /scratch/users/j/a/jabreu/pseudos/PBEsol/Ag.psp8
- Ag    ONCVPSP-3.3.0  r_core=   1.41384   1.46535   1.61207
- 47.00000  19.00000    180112                znucl, zion, pspdat
    8 -116133    2    4       600   0.00000   pspcod,pspxc,lmax,lloc,mmax,r2well
    5.99000000000000    7.00000000000000    0.00000000000000   rchrg,fchrg,qchrg
     nproj     2     2     2
     extension_switch     1
  pspatm : epsatm=   27.64581383
         --- l  ekb(1:nproj) -->
             0    9.559407   -0.398585
             1    3.418858   -0.136622
             2   -1.644397   -0.401551
 pspatm: atomic psp has been read  and splines computed

- pspini: atom type   3  psp file is /scratch/users/j/a/jabreu/pseudos/PBEsol/Sb.psp8
- pspatm: opening atomic psp file    /scratch/users/j/a/jabreu/pseudos/PBEsol/Sb.psp8
- Sb    ONCVPSP-3.3.0  r_core=   1.81962   2.12485   1.81962
- 51.00000  15.00000    180112                znucl, zion, pspdat
    8 -116133    2    4       600   0.00000   pspcod,pspxc,lmax,lloc,mmax,r2well
    5.99000000000000    5.00000000000000    0.00000000000000   rchrg,fchrg,qchrg
     nproj     2     2     2
     extension_switch     1
  pspatm : epsatm=   26.35641246
         --- l  ekb(1:nproj) -->
             0    9.727814    1.485032
             1    5.505335    0.704623
             2   -4.710637   -1.436443
 pspatm: atomic psp has been read  and splines computed

   1.46956124E+04                                ecore*ucvol(ha*bohr**3)

-inwffil : will read wavefunctions from disk file /scratch/users/j/a/jabreu/flow_simple_8atoms/flow/w287/t1/indata/in_WFK

 ==>  initialize data related to q vector <==

 The list of irreducible perturbations for this q vector is:
    1)    idir= 1    ipert=   9
    2)    idir= 2    ipert=   9
    3)    idir= 3    ipert=   9

 Perturbation wavevector (in red.coord.)   0.000000  0.000000  0.000000
 Perturbation : derivative vs k along direction   1

 dfpt_looppert : COMMENT -
  In a d/dk calculation, iscf is set to -3 automatically.
 The set of symmetries contains only one element for this perturbation.
 symkpt : not enough symmetry to change the number of k points.

[...]

 Initialisation of the first-order wave-functions :
  ireadwf=   0

--- !BeginCycle
iteration_state: {dtset: 1, }
solver: {iscf: 7, nstep: 2000, nline: 4, wfoptalg: 0, }
tolerances: {tolwfr: 1.00E-20, }
...

     iter   2DEtotal(Ha)        deltaE(Ha) residm    vres2
-ETOT  1  -38.014536207795     -3.801E+01 5.208E-02 0.000E+00
 ETOT  2  -38.123635553927     -1.091E-01 2.900E-03 0.000E+00
 ETOT  3  -38.125742481191     -2.107E-03 2.098E-04 0.000E+00
[...]
 ETOT 19  -38.125825954302      7.105E-15 1.970E-16 0.000E+00
 ETOT 20  -38.125825954302      0.000E+00 4.829E-17 0.000E+00
 ETOT 21  -38.125825954302      0.000E+00 6.834E-18 0.000E+00
 ETOT 22  -38.125825954302     -7.105E-15 1.673E-18 0.000E+00
 ETOT 23  -38.125825954302      0.000E+00 2.373E-19 0.000E+00
 ETOT 24  -38.125825954302      0.000E+00 5.800E-20 0.000E+00
 ETOT 25  -38.125825954302      0.000E+00 9.857E-21 0.000E+00

 At SCF step   25   max residual=  9.86E-21 < tolwfr=  1.00E-20 =>converged.

 ----iterations are completed or convergence reached----

 dfpt_looppert: DFPT cycle converged with prtwf=-1. Will skip output of the 1st-order WFK file.
 dfpt_looppert : ek2=    5.5199364244E+01
          f-sum rule ratio=    1.0601868693E+00
 prteigrs : about to open file /scratch/users/j/a/jabreu/flow_simple_8atoms/flow/w287/t1/tmpdata/tmp_1WF1_EIG
 Expectation of eigenvalue derivatives (hartree) for nkpt=   2  k points:
  (in case of degenerate eigenvalues, averaged derivative)
 kpt#   1, nband= 61, wtk=  0.50000, kpt= -0.5000  0.5000  0.0000 (reduced coord)
  -0.00000    0.00000    0.00000    0.00000   -0.00000   -0.00000    0.00000    0.00000
  -0.00000    0.00000   -0.00000   -0.00000    0.00000   -0.00000    0.00000   -0.00000
  -0.00000    0.00000    0.00000    0.00000   -0.00000    0.00000   -0.00000    0.00000
   0.00000    0.00000    0.00000    0.00000    0.00000   -0.00000   -0.00000   -0.00000
   0.00000    0.00000   -0.00000    0.00000    0.00000    0.00000    0.00000   -0.00000
   0.00000   -0.00000    0.00000    0.00000   -0.00000   -0.00000   -0.00000    0.00000
  -0.00000   -0.00000    0.00000    0.00000   -0.00000    0.00000   -0.00000   -0.00000
  -0.00000    0.00000    0.00000    0.00000   -0.00000
 prteigrs : prtvol=0 or 1, do not print more k-points.

 Eight components of 2nd-order total energy (hartree) are
 1,2,3: 0th-order hamiltonian combined with 1st-order wavefunctions
     kin0=   5.33642715E+01 eigvalue=   5.36866630E+00  local=  -3.17937201E+01
 4,5,6: 1st-order hamiltonian combined with 1st and 0th-order wfs
     kin1=  -5.85216412E+01  Hartree=   0.00000000E+00     xc=   0.00000000E+00
 7,8,9: eventually, occupation + non-local contributions
    edocc=   6.07959057E+00     enl0=   5.10701763E+00   enl1=  -1.77300107E+01
 1-9 gives the relaxation energy (to be shifted if some occ is /=2.0)
   erelax=  -3.81258260E+01
  No Ewald or frozen-wf contrib.: the relaxation energy is the total one
 2DEtotal=   -0.3812582595E+02 Ha. Also 2DEtotal=   -0.103745648502E+04 eV
    (  non-var. 2DEtotal :   -3.8125825954E+01 Ha)

 Perturbation wavevector (in red.coord.)   0.000000  0.000000  0.000000
 Perturbation : derivative vs k along direction   2
 The set of symmetries contains only one element for this perturbation.
 symkpt : not enough symmetry to change the number of k points.

[...]

 Perturbation wavevector (in red.coord.)   0.000000  0.000000  0.000000
 Perturbation : derivative vs k along direction   3
 The set of symmetries contains only one element for this perturbation.
 symkpt : not enough symmetry to change the number of k points.

-inwffil : will read wavefunctions from disk file /scratch/users/j/a/jabreu/flow_simple_8atoms/flow/w287/t1/indata/in_WFK

 Initialisation of the first-order wave-functions :
  ireadwf=   0

--- !BeginCycle
iteration_state: {dtset: 1, }
solver: {iscf: 7, nstep: 2000, nline: 4, wfoptalg: 0, }
tolerances: {tolwfr: 1.00E-20, }
...

     iter   2DEtotal(Ha)        deltaE(Ha) residm    vres2
-ETOT  1  -43.693130463418     -4.369E+01 4.913E-02 0.000E+00
 ETOT  2  -43.793625719801     -1.005E-01 1.395E-02 0.000E+00
 ETOT  3  -43.795504390730     -1.879E-03 5.972E-04 0.000E+00
 ETOT  4  -43.795572799356     -6.841E-05 1.934E-04 0.000E+00
 ETOT  5  -43.795575952981     -3.154E-06 1.328E-05 0.000E+00
 ETOT  6  -43.795576111628     -1.586E-07 4.560E-06 0.000E+00
 ETOT  7  -43.795576120138     -8.510E-09 2.915E-07 0.000E+00
 ETOT  8  -43.795576120616     -4.775E-10 1.145E-07 0.000E+00
 ETOT  9  -43.795576120644     -2.791E-11 6.901E-09 0.000E+00
 ETOT 10  -43.795576120645     -1.535E-12 3.044E-09 0.000E+00
 ETOT 11  -43.795576120645     -1.990E-13 1.808E-10 0.000E+00
 ETOT 12  -43.795576120645     -1.421E-14 8.345E-11 0.000E+00
 ETOT 13  -43.795576120645     -7.105E-15 4.952E-12 0.000E+00
 ETOT 14  -43.795576120645      4.974E-14 2.307E-12 0.000E+00
 ETOT 15  -43.795576120645      2.842E-14 1.374E-13 0.000E+00
 ETOT 16  -43.795576120645     -1.421E-14 6.397E-14 0.000E+00
 ETOT 17  -43.795576120645      0.000E+00 3.828E-15 0.000E+00
 ETOT 18  -43.795576120645      1.421E-14 1.775E-15 0.000E+00
 ETOT 19  -43.795576120645      0.000E+00 1.068E-16 0.000E+00
 ETOT 20  -43.795576120645      0.000E+00 4.929E-17 0.000E+00
 ETOT 21  -43.795576120645     -1.421E-14 2.984E-18 0.000E+00
 ETOT 22  -43.795576120645      0.000E+00 1.370E-18 0.000E+00
 ETOT 23  -43.795576120645     -7.105E-15 8.338E-20 0.000E+00
 ETOT 24  -43.795576120645      2.132E-14 3.807E-20 0.000E+00
 ETOT 25  -43.795576120645      0.000E+00 9.870E-21 0.000E+00

 At SCF step   25   max residual=  9.87E-21 < tolwfr=  1.00E-20 =>converged.

 ----iterations are completed or convergence reached----

 dfpt_looppert: DFPT cycle converged with prtwf=-1. Will skip output of the 1st-order WFK file.
 dfpt_looppert : ek2=    6.0257391648E+01
          f-sum rule ratio=    1.1319492895E+00
 prteigrs : about to open file /scratch/users/j/a/jabreu/flow_simple_8atoms/flow/w287/t1/tmpdata/tmp_1WF1_EIG
 Expectation of eigenvalue derivatives (hartree) for nkpt=   2  k points:
  (in case of degenerate eigenvalues, averaged derivative)
 kpt#   1, nband= 61, wtk=  0.50000, kpt= -0.5000  0.5000  0.0000 (reduced coord)
   0.00000   -0.00000   -0.00000    0.00000    0.00000    0.00000    0.00000   -0.00000
   0.00000    0.00000    0.00000   -0.00000   -0.00000   -0.00000   -0.00000   -0.00000
   0.00000   -0.00000   -0.00000   -0.00000    0.00000    0.00000   -0.00000    0.00000
   0.00000    0.00000   -0.00000    0.00000   -0.00000    0.00000   -0.00000   -0.00000
  -0.00000    0.00000   -0.00000    0.00000    0.00000   -0.00000   -0.00000    0.00000
   0.00000    0.00000   -0.00000    0.00000    0.00000   -0.00000   -0.00000    0.00000
  -0.00000    0.00000    0.00000   -0.00000   -0.00000   -0.00000   -0.00000    0.00000
   0.00000   -0.00000   -0.00000   -0.00000   -0.00000
 prteigrs : prtvol=0 or 1, do not print more k-points.

 Eight components of 2nd-order total energy (hartree) are
 1,2,3: 0th-order hamiltonian combined with 1st-order wavefunctions
     kin0=   5.74563621E+01 eigvalue=   6.01817708E+00  local=  -3.40409394E+01
 4,5,6: 1st-order hamiltonian combined with 1st and 0th-order wfs
     kin1=  -6.82083117E+01  Hartree=   0.00000000E+00     xc=   0.00000000E+00
 7,8,9: eventually, occupation + non-local contributions
    edocc=   8.92356724E+00     enl0=   5.43840908E+00   enl1=  -1.93828406E+01
 1-9 gives the relaxation energy (to be shifted if some occ is /=2.0)
   erelax=  -4.37955761E+01
  No Ewald or frozen-wf contrib.: the relaxation energy is the total one
 2DEtotal=   -0.4379557612E+02 Ha. Also 2DEtotal=   -0.119173823319E+04 eV
    (  non-var. 2DEtotal :   -4.3795576120E+01 Ha)

 CALCULATION OF EFFECTIVE MASSES
 NOTE : Additional infos (eff. mass eigenvalues, eigenvectors and, if degenerate, average mass) are available in stdout.

 K-point (-0.500, 0.500, 0.000) | band =    52
 Effective mass tensor:
             -1.3433954806             -0.5310480822             -0.0000000416
             -0.5310480822             -1.5975182100             -0.0000000532
             -0.0000000416             -0.0000000532             -1.5737031060
 Effective mass tensor eigenvalues:
             -2.0164940748             -1.5737031060             -0.9244196158
 Angular average effective mass 1/(<1/m>)=  -1.3555560737
 Angular average effective mass for Frohlich model (<m**0.5>)**2=  -1.4014578041
 Effective masses along directions: (cart. coord. / red. coord. -> eff. mass)
    1:   1.000000  0.000000  0.000000 /   0.973978 -0.226642  0.000000 ->  -1.1668641185
    2:   0.000000  1.000000  0.000000 /   0.000000  1.000000  0.000000 ->  -1.3875933817
    3:   0.000000  0.000000  1.000000 /   0.000000  0.000000  1.000000 ->  -1.5737031060
    4:   0.577350  0.577350  0.577350 /   0.643644  0.476201  0.599128 ->  -1.8255434454
    5:   0.000000  0.707107  0.707107 /   0.000000  0.722430  0.691445 ->  -1.4748000263
    6:   0.707107  0.000000  0.707107 /   0.721574 -0.167908  0.671668 ->  -1.3400858794
    7:   0.707107  0.707107  0.000000 /   0.803899  0.594766  0.000000 ->  -1.9843190218

 K-point ( 0.000, 0.000, 0.000) | band =    53
 Effective mass tensor:
              0.7667792664              0.1821533287              0.0000018201
              0.1821533287              0.8539463218              0.0000011848
              0.0000018201              0.0000011848              0.1733997309
 Effective mass tensor eigenvalues:
              0.1733997309              0.6230679489              0.9976576393
 Angular average effective mass 1/(<1/m>)=   0.3582375764
 Angular average effective mass for Frohlich model (<m**0.5>)**2=   0.4267868637
 Effective masses along directions: (cart. coord. / red. coord. -> eff. mass)
    1:   1.000000  0.000000  0.000000 /   0.973978 -0.226642  0.000000 ->   0.7279245582
    2:   0.000000  1.000000  0.000000 /   0.000000  1.000000  0.000000 ->   0.8106746312
    3:   0.000000  0.000000  1.000000 /   0.000000  0.000000  1.000000 ->   0.1733997309
    4:   0.577350  0.577350  0.577350 /   0.643644  0.476201  0.599128 ->   0.3851969116
    5:   0.000000  0.707107  0.707107 /   0.000000  0.722430  0.691445 ->   0.2856917796
    6:   0.707107  0.000000  0.707107 /   0.721574 -0.167908  0.671668 ->   0.2800820150
    7:   0.707107  0.707107  0.000000 /   0.803899  0.594766  0.000000 ->   0.9894924118

 END OF EFFECTIVE MASSES SECTION

 ---- first-order wavefunction calculations are completed ----

 Total localisation tensor (bohr^2) in cartesian coordinates
  WARNING : still subject to testing - especially symmetries.
      direction              matrix element
   alpha     beta       real part   imaginary part
     1        1       1.5329108267    0.0000000000
     1        2      -0.3290929179    0.0000000000
     1        3       0.0000000000    0.0000000000
     2        1      -0.3290929179    0.0000000000
     2        2       1.3754305161    0.0000000000
     2        3       0.0000000000    0.0000000000
     3        1       0.0000000000    0.0000000000
     3        2       0.0000000000    0.0000000000
     3        3       1.9459551838    0.0000000000

 respfn : d/dk was computed, but no 2DTE, so no DDB output.

== END DATASET(S) ==============================================================

 -outvars: echo values of variables after computation  --------
            acell      1.0000000000E+00  1.0000000000E+00  1.0000000000E+00 Bohr
              amu      3.90983000E+01  1.07868200E+02  1.21753000E+02
             ecut      4.30000000E+01 Hartree
           etotal     -4.3795576121E+01
            fcart      0.0000000000E+00  0.0000000000E+00  0.0000000000E+00
                       0.0000000000E+00  0.0000000000E+00  0.0000000000E+00
                       0.0000000000E+00  0.0000000000E+00  0.0000000000E+00
                       0.0000000000E+00  0.0000000000E+00  0.0000000000E+00
                       0.0000000000E+00  0.0000000000E+00  0.0000000000E+00
                       0.0000000000E+00  0.0000000000E+00  0.0000000000E+00
                       0.0000000000E+00  0.0000000000E+00  0.0000000000E+00
                       0.0000000000E+00  0.0000000000E+00  0.0000000000E+00
-          fftalg         512
           irdden           1
           irdwfk           1
           istwfk        0    1
              ixc     -116133
              kpt     -5.00000000E-01  5.00000000E-01  0.00000000E+00
                       0.00000000E+00  0.00000000E+00  0.00000000E+00
           kptopt           0
P           mkmem           2
P          mkqmem           2
P          mk1mem           2
            natom           8
            nband          61
           nbdbuf           4
            ngfft          80      80      72
             nkpt           2
            nstep        2000
             nsym           8
           ntypat           3
              occ      2.000000  2.000000  2.000000  2.000000  2.000000  2.000000
                       2.000000  2.000000  2.000000  2.000000  2.000000  2.000000
                       2.000000  2.000000  2.000000  2.000000  2.000000  2.000000
                       2.000000  2.000000  2.000000  2.000000  2.000000  2.000000
                       2.000000  2.000000  2.000000  2.000000  2.000000  2.000000
                       2.000000  2.000000  2.000000  2.000000  2.000000  2.000000
                       2.000000  2.000000  2.000000  2.000000  2.000000  2.000000
                       2.000000  2.000000  2.000000  2.000000  2.000000  2.000000
                       2.000000  2.000000  2.000000  2.000000  0.000000  0.000000
                       0.000000  0.000000  0.000000  0.000000  0.000000  0.000000
                       0.000000
        optdriver           1
            prtwf          -1
            rfdir           1       1       1
           rfelfd           2
            rprim      1.2541021690E+01  0.0000000000E+00  0.0000000000E+00
                      -2.9182626630E+00  1.2196760556E+01  0.0000000000E+00
                       0.0000000000E+00  0.0000000000E+00  1.1673642029E+01
          spgroup          63
           strten      0.0000000000E+00  0.0000000000E+00  0.0000000000E+00
                       0.0000000000E+00  0.0000000000E+00  0.0000000000E+00
           symrel      1  0  0   0  1  0   0  0  1      -1  0  0   0 -1  0   0  0 -1
                       0 -1  0  -1  0  0   0  0 -1       0  1  0   1  0  0   0  0  1
                      -1  0  0   0 -1  0   0  0  1       1  0  0   0  1  0   0  0 -1
                       0  1  0   1  0  0   0  0 -1       0 -1  0  -1  0  0   0  0  1
            tnons      0.0000000  0.0000000  0.0000000     0.0000000 -0.0000000  0.0000000
                       0.0000000  0.0000000  0.0000000     0.0000000 -0.0000000  0.0000000
                       0.0000000 -0.0000000  0.5000000     0.0000000  0.0000000  0.5000000
                       0.0000000 -0.0000000  0.5000000     0.0000000  0.0000000  0.5000000
           tolwfr      1.00000000E-20
            typat      1  1  1  1  2  2  3  3
           useylm           1
              wtk        0.50000    0.50000
           xangst      5.9847748300E+00  2.0747760130E+00  4.6330689772E+00
                      -8.9263006894E-01  4.3794716921E+00  1.5443563257E+00
                       6.2518042784E-01  6.3032828513E+00  4.6330689772E+00
                       4.4669643332E+00  1.5096485382E-01  1.5443563257E+00
                       2.5460723805E+00  3.2271238525E+00  0.0000000000E+00
                       2.5460723805E+00  3.2271238525E+00  3.0887126515E+00
                       3.9028183385E+00  4.9467871568E+00  4.6330689772E+00
                       1.1893264225E+00  1.5074605482E+00  1.5443563257E+00
            xcart      1.1309585396E+01  3.9207584517E+00  8.7552315217E+00
                      -1.6868263683E+00  8.2760021047E+00  2.9184105072E+00
                       1.1814197923E+00  1.1911478327E+01  8.7552315217E+00
                       8.4413392351E+00  2.8528222941E-01  2.9184105072E+00
                       4.8113795137E+00  6.0983802782E+00  0.0000000000E+00
                       4.8113795137E+00  6.0983802782E+00  5.8368210145E+00
                       7.3752578062E+00  9.3480729641E+00  8.7552315217E+00
                       2.2475012212E+00  2.8486875923E+00  2.9184105072E+00
             xred      9.7661000000E-01  3.2145900000E-01  7.5000000000E-01
                       2.3390000000E-02  6.7854100000E-01  2.5000000000E-01
                       3.2145900000E-01  9.7661000000E-01  7.5000000000E-01
                       6.7854100000E-01  2.3390000000E-02  2.5000000000E-01
                       5.0000000000E-01  5.0000000000E-01  0.0000000000E+00
                       5.0000000000E-01  5.0000000000E-01  5.0000000000E-01
                       7.6643900000E-01  7.6643900000E-01  7.5000000000E-01
                       2.3356100000E-01  2.3356100000E-01  2.5000000000E-01
            znucl       19.00000   47.00000   51.00000

- Timing analysis has been suppressed with timopt=0

 Suggested references for the acknowledgment of ABINIT usage.

 Calculation completed.
.Delivered  14 WARNINGs and  11 COMMENTs to log file.