.Version 9.7.2 of ABINIT

 ABINIT is a project of the Universite Catholique de Louvain,
 Corning Inc. and other collaborators, see ~abinit/doc/developers/contributors.txt .
 acknowledgments of the ABINIT effort.

.Starting date : Wed  1 Dec 2021.
- ( at 21h47 )

- input  file    -> /scratch/users/j/a/jabreu/flow_simple_remain_atoms/flow/w247/t1/run.abi
- output file    -> /scratch/users/j/a/jabreu/flow_simple_remain_atoms/flow/w247/t1/run.abo
- root for input  files -> /scratch/users/j/a/jabreu/flow_simple_remain_atoms/flow/w247/t1/indata/in
- root for output files -> /scratch/users/j/a/jabreu/flow_simple_remain_atoms/flow/w247/t1/outdata/out

 Symmetries : space group Cm c m (# 63); Bravais oC (1-face-center ortho.)
     intxc =       0      iscf =       7    lmnmax =      25     lnmax =       7
     mgfft =      64  mpssoang =       4    mqgrid =    3186     natom =       8
  nloc_mem =       1    nspden =       1   nspinor =       1    nsppol =       1
      nsym =       8    n1xccc =    2501    ntypat =       3    occopt =       1
   xclevel =       2
-    mband =          61        mffmem =           1         mkmem =           2
-   mkqmem =           2        mk1mem =           2           mpw =       16592
      nfft =      262144          nkpt =           2
  Rough estimation (10% accuracy) of disk space for files :

------------- Echo of variables that govern the present computation ------------
-
- outvars: echo of selected default values
-   iomode0 =  0 , fftalg0 =512 , wfoptalg0 =  0
-
- outvars: echo of global parameters not present in the input file
-  max_nthreads =    0
-
 -outvars: echo values of preprocessed input variables --------
            acell      1.0000000000E+00  1.0000000000E+00  1.0000000000E+00 Bohr
              amu      2.29897680E+01  7.49215900E+01  1.96966540E+02
             ecut      4.40000000E+01 Hartree
-          fftalg         512
           irdden           1
           irdwfk           1
              ixc     -116133
              kpt      2.80608283E-01  2.80608283E-01  0.00000000E+00
                      -5.00000000E-01  5.00000000E-01  0.00000000E+00
           kptopt           0
P           mkmem           2
P          mkqmem           2
P          mk1mem           2
            natom           8
            nband          61
           nbdbuf           4
            ngfft          64      64      64
             nkpt           2
            nstep        2000
             nsym           8
           ntypat           3
              occ      2.000000  2.000000  2.000000  2.000000  2.000000  2.000000
                       2.000000  2.000000  2.000000  2.000000  2.000000  2.000000
                       2.000000  2.000000  2.000000  2.000000  2.000000  2.000000
                       2.000000  2.000000  2.000000  2.000000  2.000000  2.000000
                       2.000000  2.000000  2.000000  2.000000  2.000000  2.000000
                       2.000000  2.000000  2.000000  2.000000  2.000000  2.000000
                       2.000000  2.000000  2.000000  2.000000  2.000000  2.000000
                       2.000000  2.000000  2.000000  2.000000  2.000000  2.000000
                       2.000000  2.000000  2.000000  2.000000  0.000000  0.000000
                       0.000000  0.000000  0.000000  0.000000  0.000000  0.000000
                       0.000000
        optdriver           1
            prtwf          -1
            rfdir           1       1       1
           rfelfd           2
            rprim      1.0692796106E+01  0.0000000000E+00  0.0000000000E+00
                      -2.2978090006E+00  1.0442986276E+01  0.0000000000E+00
                       0.0000000000E+00  0.0000000000E+00  1.0667744025E+01
          spgroup          63
           symrel      1  0  0   0  1  0   0  0  1      -1  0  0   0 -1  0   0  0 -1
                       0 -1  0  -1  0  0   0  0 -1       0  1  0   1  0  0   0  0  1
                      -1  0  0   0 -1  0   0  0  1       1  0  0   0  1  0   0  0 -1
                       0  1  0   1  0  0   0  0 -1       0 -1  0  -1  0  0   0  0  1
            tnons      0.0000000  0.0000000  0.0000000     0.0000000  0.0000000  0.0000000
                       0.0000000  0.0000000  0.0000000     0.0000000  0.0000000  0.0000000
                       0.0000000  0.0000000  0.5000000     0.0000000  0.0000000  0.5000000
                       0.0000000  0.0000000  0.5000000     0.0000000  0.0000000  0.5000000
           tolwfr      1.00000000E-20
            typat      1  1  1  1  2  2  3  3
           useylm           1
              wtk        0.50000    0.50000
           xangst      3.7430255210E+00  1.4805216504E-01  1.4112817513E+00
                       6.9941032151E-01  5.3781381617E+00  4.2338452540E+00
                      -6.5975736693E-01  3.6873947051E+00  1.4112817513E+00
                       5.1021932094E+00  1.8387956217E+00  4.2338452540E+00
                       3.5161346601E+00  4.3739133294E+00  4.2338452540E+00
                       9.2630118239E-01  1.1522769974E+00  1.4112817513E+00
                       2.2212179212E+00  2.7630951634E+00  2.8225635027E+00
                       2.2212179212E+00  2.7630951634E+00  0.0000000000E+00
            xcart      7.0732931430E+00  2.7977804531E-01  2.6669360063E+00
                       1.3216939622E+00  1.0163208230E+01  8.0008080190E+00
                      -1.2467607377E+00  6.9681661364E+00  2.6669360063E+00
                       9.6417478429E+00  3.4748201394E+00  8.0008080190E+00
                       6.6445315539E+00  8.2654983215E+00  8.0008080190E+00
                       1.7504555513E+00  2.1774879543E+00  2.6669360063E+00
                       4.1974935526E+00  5.2214931379E+00  5.3338720127E+00
                       4.1974935526E+00  5.2214931379E+00  0.0000000000E+00
             xred      6.6725800000E-01  2.6791000000E-02  2.5000000000E-01
                       3.3274200000E-01  9.7320900000E-01  7.5000000000E-01
                       2.6791000000E-02  6.6725800000E-01  2.5000000000E-01
                       9.7320900000E-01  3.3274200000E-01  7.5000000000E-01
                       7.9148800000E-01  7.9148800000E-01  7.5000000000E-01
                       2.0851200000E-01  2.0851200000E-01  2.5000000000E-01
                       5.0000000000E-01  5.0000000000E-01  5.0000000000E-01
                       5.0000000000E-01  5.0000000000E-01  0.0000000000E+00
            znucl       11.00000   33.00000   79.00000

 chkinp: Checking input parameters for consistency.

== DATASET  1 ==================================================================
-   mpi_nproc: 1, omp_nthreads: -1 (-1 if OMP is not activated)

--- !DatasetInfo
iteration_state: {dtset: 1, }
dimensions: {natom: 8, nkpt: 2, mband: 61, nsppol: 1, nspinor: 1, nspden: 1, mpw: 16592, }
cutoff_energies: {ecut:  44.0, pawecutdg:  -1.0, }
electrons: {nelect:   1.04000000E+02, charge:   0.00000000E+00, occopt:   1.00000000E+00, tsmear:   1.00000000E-02, }
meta: {optdriver: 1, rfelfd: 2, }
...

 Real(R)+Recip(G) space primitive vectors, cartesian coordinates (Bohr,Bohr^-1):
 R(1)= 10.6927961  0.0000000  0.0000000  G(1)=  0.0935209  0.0205778  0.0000000
 R(2)= -2.2978090 10.4429863  0.0000000  G(2)=  0.0000000  0.0957580  0.0000000
 R(3)=  0.0000000  0.0000000 10.6677440  G(3)=  0.0000000  0.0000000  0.0937405
 Unit cell volume ucvol=  1.1912107E+03 bohr^3
 Angles (23,13,12)=  9.00000000E+01  9.00000000E+01  1.02409261E+02 degrees

 getcut: wavevector=  0.0000  0.0000  0.0000  ngfft=  64  64  64
         ecut(hartree)=     44.000   => boxcut(ratio)=   2.00447

--- Pseudopotential description ------------------------------------------------
- pspini: atom type   1  psp file is /scratch/users/j/a/jabreu/pseudos/PBEsol/Na.psp8
- pspatm: opening atomic psp file    /scratch/users/j/a/jabreu/pseudos/PBEsol/Na.psp8
- Na    ONCVPSP-3.3.0  r_core=   1.20708   1.55069
- 11.00000   9.00000    180112                znucl, zion, pspdat
    8 -116133    1    4       400   0.00000   pspcod,pspxc,lmax,lloc,mmax,r2well
    3.99000000000000    0.00000000000000    0.00000000000000   rchrg,fchrg,qchrg
     nproj     2     2
     extension_switch     1
  pspatm : epsatm=    9.32878306
         --- l  ekb(1:nproj) -->
             0    2.657905   -0.678300
             1   -6.761319   -2.404728
 pspatm: atomic psp has been read  and splines computed

- pspini: atom type   2  psp file is /scratch/users/j/a/jabreu/pseudos/PBEsol/As.psp8
- pspatm: opening atomic psp file    /scratch/users/j/a/jabreu/pseudos/PBEsol/As.psp8
- As    ONCVPSP-3.3.0  r_core=   1.76603   1.70395   1.80867
- 33.00000  15.00000    180112                znucl, zion, pspdat
    8 -116133    2    4       600   0.00000   pspcod,pspxc,lmax,lloc,mmax,r2well
    5.99000000000000    5.00000000000000    0.00000000000000   rchrg,fchrg,qchrg
     nproj     2     2     2
     extension_switch     1
  pspatm : epsatm=   28.79155382
         --- l  ekb(1:nproj) -->
             0    8.270760    0.868950
             1    4.919053    0.756587
             2  -10.048665   -4.076802
 pspatm: atomic psp has been read  and splines computed

- pspini: atom type   3  psp file is /scratch/users/j/a/jabreu/pseudos/PBEsol/Au.psp8
- pspatm: opening atomic psp file    /scratch/users/j/a/jabreu/pseudos/PBEsol/Au.psp8
- Au    ONCVPSP-3.3.0  r_core=   1.45604   1.56407   1.56407   1.60183
- 79.00000  19.00000    180112                znucl, zion, pspdat
    8 -116133    3    4       500   0.00000   pspcod,pspxc,lmax,lloc,mmax,r2well
    4.99000000000000    5.00000000000000    0.00000000000000   rchrg,fchrg,qchrg
     nproj     2     2     2     1
     extension_switch     1
  pspatm : epsatm=   32.21965837
         --- l  ekb(1:nproj) -->
             0    9.413866   -0.196587
             1    2.474292   -1.517497
             2    1.503483    0.298081
             3    1.177996
 pspatm: atomic psp has been read  and splines computed

   1.65711059E+04                                ecore*ucvol(ha*bohr**3)

 ==>  initialize data related to q vector <==

 The list of irreducible perturbations for this q vector is:
    1)    idir= 1    ipert=   9
    2)    idir= 2    ipert=   9
    3)    idir= 3    ipert=   9

 Perturbation wavevector (in red.coord.)   0.000000  0.000000  0.000000
 Perturbation : derivative vs k along direction   1

 dfpt_looppert : COMMENT -
  In a d/dk calculation, iscf is set to -3 automatically.
 The set of symmetries contains only one element for this perturbation.
 symkpt : not enough symmetry to change the number of k points.

 Initialisation of the first-order wave-functions :
  ireadwf=   0

--- !BeginCycle
iteration_state: {dtset: 1, }
solver: {iscf: 7, nstep: 2000, nline: 4, wfoptalg: 0, }
tolerances: {tolwfr: 1.00E-20, }
...

     iter   2DEtotal(Ha)        deltaE(Ha) residm    vres2
-ETOT  1  -58.733221456602     -5.873E+01 3.050E-02 0.000E+00
 ETOT  2  -58.779906996476     -4.669E-02 4.157E-04 0.000E+00
 ETOT  3  -58.779982746533     -7.575E-05 3.360E-06 0.000E+00
 ETOT  4  -58.779983531717     -7.852E-07 2.104E-07 0.000E+00
 ETOT  5  -58.779983547949     -1.623E-08 4.555E-09 0.000E+00
 ETOT  6  -58.779983548361     -4.117E-10 3.718E-10 0.000E+00
 ETOT  7  -58.779983548372     -1.107E-11 1.506E-11 0.000E+00
 ETOT  8  -58.779983548372     -2.700E-13 1.262E-12 0.000E+00
 ETOT  9  -58.779983548372      2.842E-14 5.149E-14 0.000E+00
 ETOT 10  -58.779983548372     -7.105E-15 4.413E-15 0.000E+00
 ETOT 11  -58.779983548372      0.000E+00 1.791E-16 0.000E+00
 ETOT 12  -58.779983548372      1.421E-14 1.568E-17 0.000E+00
 ETOT 13  -58.779983548372      0.000E+00 6.292E-19 0.000E+00
 ETOT 14  -58.779983548372     -2.132E-14 5.621E-20 0.000E+00
 ETOT 15  -58.779983548372      1.421E-14 9.712E-21 0.000E+00

 At SCF step   15   max residual=  9.71E-21 < tolwfr=  1.00E-20 =>converged.

 ----iterations are completed or convergence reached----

 dfpt_looppert: DFPT cycle converged with prtwf=-1. Will skip output of the 1st-order WFK file.
 dfpt_looppert : ek2=    7.5296303698E+01
          f-sum rule ratio=    1.0219223804E+00
 prteigrs : about to open file /scratch/users/j/a/jabreu/flow_simple_remain_atoms/flow/w247/t1/tmpdata/tmp_1WF1_EIG
 Expectation of eigenvalue derivatives (hartree) for nkpt=   2  k points:
  (in case of degenerate eigenvalues, averaged derivative)
 kpt#   1, nband= 61, wtk=  0.50000, kpt=  0.2806  0.2806  0.0000 (reduced coord)
   0.00000   -0.00000   -0.00000   -0.00000   -0.00000   -0.00000   -0.00000   -0.00000
   0.00011   -0.00009   -0.00004    0.00003   -0.00004    0.00004    0.00001   -0.00001
   0.00000   -0.00000    0.00000   -0.00000   -0.00001    0.00001    0.00119   -0.00096
  -0.00014    0.00001   -0.00075    0.00081   -0.00126   -0.00095    0.00094    0.00075
  -0.00015    0.00036    0.00239    0.00845   -0.00864    0.00020   -0.00207   -0.00091
   0.00920    0.01234    0.00298   -0.04347    0.00887    0.00040    0.00004   -0.11720
   0.05509    0.01338    0.05997   -0.00254   -0.03764    0.11693   -0.10053    0.13437
  -0.08127   -0.20994   -0.10878    0.18184   -0.02438
 prteigrs : prtvol=0 or 1, do not print more k-points.

 Eight components of 2nd-order total energy (hartree) are
 1,2,3: 0th-order hamiltonian combined with 1st-order wavefunctions
     kin0=   7.10143175E+01 eigvalue=   7.35341464E+00  local=  -3.02208055E+01
 4,5,6: 1st-order hamiltonian combined with 1st and 0th-order wfs
     kin1=  -7.69469779E+01  Hartree=   0.00000000E+00     xc=   0.00000000E+00
 7,8,9: eventually, occupation + non-local contributions
    edocc=   7.22944302E+00     enl0=   3.40361398E+00   enl1=  -4.06129892E+01
 1-9 gives the relaxation energy (to be shifted if some occ is /=2.0)
   erelax=  -5.87799835E+01
  No Ewald or frozen-wf contrib.: the relaxation energy is the total one
 2DEtotal=   -0.5877998355E+02 Ha. Also 2DEtotal=   -0.159948469562E+04 eV
    (  non-var. 2DEtotal :   -5.8779983548E+01 Ha)

 Perturbation wavevector (in red.coord.)   0.000000  0.000000  0.000000
 Perturbation : derivative vs k along direction   2
 The set of symmetries contains only one element for this perturbation.
 symkpt : not enough symmetry to change the number of k points.

[...]

 Perturbation wavevector (in red.coord.)   0.000000  0.000000  0.000000
 Perturbation : derivative vs k along direction   3
 The set of symmetries contains only one element for this perturbation.
 symkpt : not enough symmetry to change the number of k points.

 Initialisation of the first-order wave-functions :
  ireadwf=   0

--- !BeginCycle
iteration_state: {dtset: 1, }
solver: {iscf: 7, nstep: 2000, nline: 4, wfoptalg: 0, }
tolerances: {tolwfr: 1.00E-20, }
...

     iter   2DEtotal(Ha)        deltaE(Ha) residm    vres2
-ETOT  1  -71.294372843355     -7.129E+01 6.677E-02 0.000E+00
 ETOT  2  -71.335704571318     -4.133E-02 4.381E-04 0.000E+00
 ETOT  3  -71.335829609357     -1.250E-04 1.539E-05 0.000E+00
 ETOT  4  -71.335830780181     -1.171E-06 2.879E-07 0.000E+00
 ETOT  5  -71.335830795819     -1.564E-08 3.026E-08 0.000E+00
 ETOT  6  -71.335830796065     -2.459E-10 8.266E-10 0.000E+00
 ETOT  7  -71.335830796069     -4.363E-12 9.846E-11 0.000E+00
 ETOT  8  -71.335830796070     -1.279E-13 2.641E-12 0.000E+00
 ETOT  9  -71.335830796070      0.000E+00 3.331E-13 0.000E+00
 ETOT 10  -71.335830796070     -7.105E-14 8.794E-15 0.000E+00
 ETOT 11  -71.335830796070      8.527E-14 1.146E-15 0.000E+00
 ETOT 12  -71.335830796070     -7.105E-14 2.989E-17 0.000E+00
 ETOT 13  -71.335830796070      1.421E-14 3.986E-18 0.000E+00
 ETOT 14  -71.335830796070      1.421E-14 1.028E-19 0.000E+00
 ETOT 15  -71.335830796070     -1.421E-14 1.395E-20 0.000E+00
 ETOT 16  -71.335830796070     -1.421E-14 9.726E-21 0.000E+00

 At SCF step   16   max residual=  9.73E-21 < tolwfr=  1.00E-20 =>converged.

 ----iterations are completed or convergence reached----

 dfpt_looppert: DFPT cycle converged with prtwf=-1. Will skip output of the 1st-order WFK file.
 dfpt_looppert : ek2=    7.2156905408E+01
          f-sum rule ratio=    1.4285248139E+00
 prteigrs : about to open file /scratch/users/j/a/jabreu/flow_simple_remain_atoms/flow/w247/t1/tmpdata/tmp_1WF1_EIG
 Expectation of eigenvalue derivatives (hartree) for nkpt=   2  k points:
  (in case of degenerate eigenvalues, averaged derivative)
 kpt#   1, nband= 61, wtk=  0.50000, kpt=  0.2806  0.2806  0.0000 (reduced coord)
   0.00000   -0.00000   -0.00000    0.00000    0.00000   -0.00000    0.00000    0.00000
  -0.00000    0.00000    0.00000   -0.00000    0.00000   -0.00000    0.00000    0.00000
   0.00000    0.00000   -0.00000    0.00000    0.00000   -0.00000   -0.00000   -0.00000
  -0.00000   -0.00000   -0.00000   -0.00000    0.00000   -0.00000    0.00000    0.00000
  -0.00000   -0.00000    0.00000    0.00000    0.00000    0.00000   -0.00000   -0.00000
   0.00000   -0.00000   -0.00000   -0.00000   -0.00000    0.00000   -0.00000    0.00000
  -0.00000   -0.00000    0.00000    0.00000   -0.00000   -0.00000    0.00000    0.00000
   0.00000    0.00000    0.00000    0.00167    0.00010
 prteigrs : prtvol=0 or 1, do not print more k-points.

 Eight components of 2nd-order total energy (hartree) are
 1,2,3: 0th-order hamiltonian combined with 1st-order wavefunctions
     kin0=   6.81478671E+01 eigvalue=   6.82332561E+00  local=  -2.87728775E+01
 4,5,6: 1st-order hamiltonian combined with 1st and 0th-order wfs
     kin1=  -1.03077930E+02  Hartree=   0.00000000E+00     xc=   0.00000000E+00
 7,8,9: eventually, occupation + non-local contributions
    edocc=   2.18585462E+01     enl0=   3.27896932E+00   enl1=  -3.95937317E+01
 1-9 gives the relaxation energy (to be shifted if some occ is /=2.0)
   erelax=  -7.13358308E+01
  No Ewald or frozen-wf contrib.: the relaxation energy is the total one
 2DEtotal=   -0.7133583080E+02 Ha. Also 2DEtotal=   -0.194114667476E+04 eV
    (  non-var. 2DEtotal :   -7.1335830796E+01 Ha)

 CALCULATION OF EFFECTIVE MASSES
 NOTE : Additional infos (eff. mass eigenvalues, eigenvectors and, if degenerate, average mass) are available in stdout.

 K-point ( 0.281, 0.281, 0.000) | band =    52
 Effective mass tensor:
             -3.3577858586              1.8119928005             -0.0000014472
              1.8119928005             -2.5602989847             -0.0000021424
             -0.0000014472             -0.0000021424             -0.0584118236
 Effective mass tensor eigenvalues:
             -4.8143898925             -1.1036949508             -0.0584118236
 Angular average effective mass 1/(<1/m>)=  -0.1645315977
 Angular average effective mass for Frohlich model (<m**0.5>)**2=  -0.3637622242
 Effective masses along directions: (cart. coord. / red. coord. -> eff. mass)
    1:   1.000000  0.000000  0.000000 /   0.977681 -0.210097  0.000000 ->  -2.0753895724
    2:   0.000000  1.000000  0.000000 /   0.000000  1.000000  0.000000 ->  -1.5824766792
    3:   0.000000  0.000000  1.000000 /   0.000000  0.000000  1.000000 ->  -0.0584118236
    4:   0.577350  0.577350  0.577350 /   0.623107  0.474649  0.621648 ->  -0.1586002068
    5:   0.000000  0.707107  0.707107 /   0.000000  0.699539  0.714595 ->  -0.1126653979
    6:   0.707107  0.000000  0.707107 /   0.699883 -0.150400  0.698243 ->  -0.1136259697
    7:   0.707107  0.707107  0.000000 /   0.795493  0.605962  0.000000 ->  -1.1137242899

 K-point (-0.500, 0.500, 0.000) | band =    53
 Effective mass tensor:
              0.4132739803              0.3400429319             -0.0000000000
              0.3400429319              0.5629157467              0.0000000000
             -0.0000000000              0.0000000000              0.0454823878
 Effective mass tensor eigenvalues:
              0.0454823878              0.1399176671              0.8362720599
 Angular average effective mass 1/(<1/m>)=   0.0989140036
 Angular average effective mass for Frohlich model (<m**0.5>)**2=   0.1334448478
 Effective masses along directions: (cart. coord. / red. coord. -> eff. mass)
    1:   1.000000  0.000000  0.000000 /   0.977681 -0.210097  0.000000 ->   0.2078627866
    2:   0.000000  1.000000  0.000000 /   0.000000  1.000000  0.000000 ->   0.2831275166
    3:   0.000000  0.000000  1.000000 /   0.000000  0.000000  1.000000 ->   0.0454823878
    4:   0.577350  0.577350  0.577350 /   0.623107  0.474649  0.621648 ->   0.1223634000
    5:   0.000000  0.707107  0.707107 /   0.000000  0.699539  0.714595 ->   0.0783744820
    6:   0.707107  0.000000  0.707107 /   0.699883 -0.150400  0.698243 ->   0.0746341105
    7:   0.707107  0.707107  0.000000 /   0.795493  0.605962  0.000000 ->   0.7903256271

 END OF EFFECTIVE MASSES SECTION

 ---- first-order wavefunction calculations are completed ----

 Total localisation tensor (bohr^2) in cartesian coordinates
  WARNING : still subject to testing - especially symmetries.
      direction              matrix element
   alpha     beta       real part   imaginary part
     1        1       2.0080816851    0.0000000000
     1        2      -0.4028394571    0.0000000000
     1        3       0.0000000000    0.0000000000
     2        1      -0.4028394571    0.0000000000
     2        2       1.8308079223    0.0000000000
     2        3       0.0000000000    0.0000000000
     3        1       0.0000000000    0.0000000000
     3        2       0.0000000000    0.0000000000
     3        3       9.6427095939    0.0000000000

 respfn : d/dk was computed, but no 2DTE, so no DDB output.

== END DATASET(S) ==============================================================

 -outvars: echo values of variables after computation  --------
            acell      1.0000000000E+00  1.0000000000E+00  1.0000000000E+00 Bohr
              amu      2.29897680E+01  7.49215900E+01  1.96966540E+02
             ecut      4.40000000E+01 Hartree
           etotal     -7.1335830796E+01
            fcart      0.0000000000E+00  0.0000000000E+00  0.0000000000E+00
                       0.0000000000E+00  0.0000000000E+00  0.0000000000E+00
                       0.0000000000E+00  0.0000000000E+00  0.0000000000E+00
                       0.0000000000E+00  0.0000000000E+00  0.0000000000E+00
                       0.0000000000E+00  0.0000000000E+00  0.0000000000E+00
                       0.0000000000E+00  0.0000000000E+00  0.0000000000E+00
                       0.0000000000E+00  0.0000000000E+00  0.0000000000E+00
                       0.0000000000E+00  0.0000000000E+00  0.0000000000E+00
-          fftalg         512
           irdden           1
           irdwfk           1
              ixc     -116133
              kpt      2.80608283E-01  2.80608283E-01  0.00000000E+00
                      -5.00000000E-01  5.00000000E-01  0.00000000E+00
           kptopt           0
P           mkmem           2
P          mkqmem           2
P          mk1mem           2
            natom           8
            nband          61
           nbdbuf           4
            ngfft          64      64      64
             nkpt           2
            nstep        2000
             nsym           8
           ntypat           3
              occ      2.000000  2.000000  2.000000  2.000000  2.000000  2.000000
                       2.000000  2.000000  2.000000  2.000000  2.000000  2.000000
                       2.000000  2.000000  2.000000  2.000000  2.000000  2.000000
                       2.000000  2.000000  2.000000  2.000000  2.000000  2.000000
                       2.000000  2.000000  2.000000  2.000000  2.000000  2.000000
                       2.000000  2.000000  2.000000  2.000000  2.000000  2.000000
                       2.000000  2.000000  2.000000  2.000000  2.000000  2.000000
                       2.000000  2.000000  2.000000  2.000000  2.000000  2.000000
                       2.000000  2.000000  2.000000  2.000000  0.000000  0.000000
                       0.000000  0.000000  0.000000  0.000000  0.000000  0.000000
                       0.000000
        optdriver           1
            prtwf          -1
            rfdir           1       1       1
           rfelfd           2
            rprim      1.0692796106E+01  0.0000000000E+00  0.0000000000E+00
                      -2.2978090006E+00  1.0442986276E+01  0.0000000000E+00
                       0.0000000000E+00  0.0000000000E+00  1.0667744025E+01
          spgroup          63
           strten      0.0000000000E+00  0.0000000000E+00  0.0000000000E+00
                       0.0000000000E+00  0.0000000000E+00  0.0000000000E+00
           symrel      1  0  0   0  1  0   0  0  1      -1  0  0   0 -1  0   0  0 -1
                       0 -1  0  -1  0  0   0  0 -1       0  1  0   1  0  0   0  0  1
                      -1  0  0   0 -1  0   0  0  1       1  0  0   0  1  0   0  0 -1
                       0  1  0   1  0  0   0  0 -1       0 -1  0  -1  0  0   0  0  1
            tnons      0.0000000  0.0000000  0.0000000     0.0000000  0.0000000  0.0000000
                       0.0000000  0.0000000  0.0000000     0.0000000  0.0000000  0.0000000
                       0.0000000  0.0000000  0.5000000     0.0000000  0.0000000  0.5000000
                       0.0000000  0.0000000  0.5000000     0.0000000  0.0000000  0.5000000
           tolwfr      1.00000000E-20
            typat      1  1  1  1  2  2  3  3
           useylm           1
              wtk        0.50000    0.50000
           xangst      3.7430255210E+00  1.4805216504E-01  1.4112817513E+00
                       6.9941032151E-01  5.3781381617E+00  4.2338452540E+00
                      -6.5975736693E-01  3.6873947051E+00  1.4112817513E+00
                       5.1021932094E+00  1.8387956217E+00  4.2338452540E+00
                       3.5161346601E+00  4.3739133294E+00  4.2338452540E+00
                       9.2630118239E-01  1.1522769974E+00  1.4112817513E+00
                       2.2212179212E+00  2.7630951634E+00  2.8225635027E+00
                       2.2212179212E+00  2.7630951634E+00  0.0000000000E+00
            xcart      7.0732931430E+00  2.7977804531E-01  2.6669360063E+00
                       1.3216939622E+00  1.0163208230E+01  8.0008080190E+00
                      -1.2467607377E+00  6.9681661364E+00  2.6669360063E+00
                       9.6417478429E+00  3.4748201394E+00  8.0008080190E+00
                       6.6445315539E+00  8.2654983215E+00  8.0008080190E+00
                       1.7504555513E+00  2.1774879543E+00  2.6669360063E+00
                       4.1974935526E+00  5.2214931379E+00  5.3338720127E+00
                       4.1974935526E+00  5.2214931379E+00  0.0000000000E+00
             xred      6.6725800000E-01  2.6791000000E-02  2.5000000000E-01
                       3.3274200000E-01  9.7320900000E-01  7.5000000000E-01
                       2.6791000000E-02  6.6725800000E-01  2.5000000000E-01
                       9.7320900000E-01  3.3274200000E-01  7.5000000000E-01
                       7.9148800000E-01  7.9148800000E-01  7.5000000000E-01
                       2.0851200000E-01  2.0851200000E-01  2.5000000000E-01
                       5.0000000000E-01  5.0000000000E-01  5.0000000000E-01
                       5.0000000000E-01  5.0000000000E-01  0.0000000000E+00
            znucl       11.00000   33.00000   79.00000

- Timing analysis has been suppressed with timopt=0

 Suggested references for the acknowledgment of ABINIT usage.

 Calculation completed.
.Delivered   2 WARNINGs and   5 COMMENTs to log file.