.Version 9.5.1 of ABINIT

 ABINIT is a project of the Universite Catholique de Louvain,
 Corning Inc. and other collaborators, see ~abinit/doc/developers/contributors.txt .
 acknowledgments of the ABINIT effort.

.Starting date : Tue 27 Apr 2021.
- ( at 18h33 )

- input  file    -> /scratch/users/j/a/jabreu/flow_simple_4atoms/flow/w187/t1/run.abi
- output file    -> /scratch/users/j/a/jabreu/flow_simple_4atoms/flow/w187/t1/run.abo
- root for input  files -> /scratch/users/j/a/jabreu/flow_simple_4atoms/flow/w187/t1/indata/in
- root for output files -> /scratch/users/j/a/jabreu/flow_simple_4atoms/flow/w187/t1/outdata/out

 Symmetries : space group R-3 m (#166); Bravais hR (rhombohedral)
     intxc =       0      iscf =       7    lmnmax =      32     lnmax =       8
     mgfft =      90  mpssoang =       4    mqgrid =    3001     natom =       4
  nloc_mem =       1    nspden =       1   nspinor =       1    nsppol =       1
      nsym =      12    n1xccc =    2501    ntypat =       3    occopt =       1
   xclevel =       2
-    mband =          25        mffmem =           1         mkmem =           1
-   mkqmem =           1        mk1mem =           1           mpw =        8770
      nfft =      729000          nkpt =           1
  Rough estimation (10% accuracy) of disk space for files :

------------- Echo of variables that govern the present computation ------------
-
- outvars: echo of selected default values
-   iomode0 =  0 , fftalg0 =512 , wfoptalg0 =  0
-
- outvars: echo of global parameters not present in the input file
-  max_nthreads =    0
-
 -outvars: echo values of preprocessed input variables --------
            acell      1.0000000000E+00  1.0000000000E+00  1.0000000000E+00 Bohr
              amu      3.90983000E+01  1.38905500E+02  1.59994000E+01
             ecut      5.20000000E+01 Hartree
-          fftalg         512
           irdden           1
           irdwfk           1
           istwfk        1
              ixc     -116133
              kpt      5.00000000E-01  5.00000000E-01  0.00000000E+00
           kptopt           0
P           mkmem           1
P          mkqmem           1
P          mk1mem           1
            natom           4
            nband          25
           nbdbuf           4
            ngfft          90      90      90
             nkpt           1
            nstep         100
             nsym          12
           ntypat           3
              occ      2.000000  2.000000  2.000000  2.000000  2.000000  2.000000
                       2.000000  2.000000  2.000000  2.000000  2.000000  2.000000
                       2.000000  2.000000  2.000000  2.000000  0.000000  0.000000
                       0.000000  0.000000  0.000000  0.000000  0.000000  0.000000
                       0.000000
        optdriver           1
            prtwf          -1
            rfdir           1       1       1
           rfelfd           2
            rprim      6.6844644956E+00  0.0000000000E+00  1.0355838008E+01
                       3.0519497306E+00  5.9470722574E+00  1.0355838008E+01
                       0.0000000000E+00  0.0000000000E+00  1.2325804089E+01
          spgroup         166
           symrel      1  0  0   0  1  0   0  0  1      -1  0  0   0 -1  0   0  0 -1
                       0  1  0   1  0  0   0  0  1       0 -1  0  -1  0  0   0  0 -1
                       0  0  1   1  0  0   0  1  0       0  0 -1  -1  0  0   0 -1  0
                       1  0  0   0  0  1   0  1  0      -1  0  0   0  0 -1   0 -1  0
                       0  1  0   0  0  1   1  0  0       0 -1  0   0  0 -1  -1  0  0
                       0  0  1   0  1  0   1  0  0       0  0 -1   0 -1  0  -1  0  0
           tolwfr      1.00000000E-20
            typat      1  2  3  3
           useylm           1
           xangst      0.0000000000E+00  0.0000000000E+00  0.0000000000E+00
                       2.5761442509E+00  1.5735275482E+00  8.7413407505E+00
                       3.9633876255E+00  2.4208658388E+00  1.3448517779E+01
                       1.1889008764E+00  7.2618925762E-01  4.0341637217E+00
            xcart      0.0000000000E+00  0.0000000000E+00  0.0000000000E+00
                       4.8682071131E+00  2.9735361287E+00  1.6518740053E+01
                       7.4897171707E+00  4.5747734399E+00  2.5414015496E+01
                       2.2466970555E+00  1.3722988175E+00  7.6234646093E+00
             xred      0.0000000000E+00  0.0000000000E+00  0.0000000000E+00
                       5.0000000000E-01  5.0000000000E-01  5.0000000000E-01
                       7.6924800000E-01  7.6924800000E-01  7.6924800000E-01
                       2.3075200000E-01  2.3075200000E-01  2.3075200000E-01
            znucl       19.00000   57.00000    8.00000

 chkinp: Checking input parameters for consistency.

== DATASET  1 ==================================================================
-   mpi_nproc: 1, omp_nthreads: -1 (-1 if OMP is not activated)

--- !DatasetInfo
iteration_state: {dtset: 1, }
dimensions: {natom: 4, nkpt: 1, mband: 25, nsppol: 1, nspinor: 1, nspden: 1, mpw: 8770, }
cutoff_energies: {ecut:  52.0, pawecutdg:  -1.0, }
electrons: {nelect:   3.20000000E+01, charge:   0.00000000E+00, occopt:   1.00000000E+00, tsmear:   1.00000000E-02, }
meta: {optdriver: 1, rfelfd: 2, }
...

 Real(R)+Recip(G) space primitive vectors, cartesian coordinates (Bohr,Bohr^-1):
 R(1)=  6.6844645  0.0000000 10.3558380  G(1)=  0.1496006 -0.0767728  0.0000000
 R(2)=  3.0519497  5.9470723 10.3558380  G(2)=  0.0000000  0.1681500  0.0000000
 R(3)=  0.0000000  0.0000000 12.3258041  G(3)= -0.1256908 -0.0767728  0.0811306
 Unit cell volume ucvol=  4.8998761E+02 bohr^3
 Angles (23,13,12)=  3.28413486E+01  3.28413486E+01  3.28413486E+01 degrees

 getcut: wavevector=  0.0000  0.0000  0.0000  ngfft=  90  90  90
         ecut(hartree)=     52.000   => boxcut(ratio)=   2.24946

 getcut : COMMENT -
  Note that boxcut > 2.2 ; recall that boxcut=Gcut(box)/Gcut(sphere) = 2
  is sufficient for exact treatment of convolution.
  Such a large boxcut is a waste : you could raise ecut
  e.g. ecut=   65.781111 Hartrees makes boxcut=2

--- Pseudopotential description ------------------------------------------------
- pspini: atom type   1  psp file is /scratch/users/j/a/jabreu/pseudos/PBEsol/K.psp8
- pspatm: opening atomic psp file    /scratch/users/j/a/jabreu/pseudos/PBEsol/K.psp8
- K     ONCVPSP-3.3.0  r_core=   1.36296   1.46408   1.61068
- 19.00000   9.00000    180112                znucl, zion, pspdat
    8 -116133    2    4       400   0.00000   pspcod,pspxc,lmax,lloc,mmax,r2well
    3.99000000000000    5.00000000000000    0.00000000000000   rchrg,fchrg,qchrg
     nproj     2     2     2
     extension_switch     1
  pspatm : epsatm=    8.32487830
         --- l  ekb(1:nproj) -->
             0   10.921326    0.816676
             1    4.431000    0.560368
             2   -3.384038   -1.043186
 pspatm: atomic psp has been read  and splines computed

- pspini: atom type   2  psp file is /scratch/users/j/a/jabreu/pseudos/PBEsol/La.psp8
- pspatm: opening atomic psp file    /scratch/users/j/a/jabreu/pseudos/PBEsol/La.psp8
- La    ONCVPSP-3.3.0  r_core=   2.11664   1.60878   1.85636   1.66739
- 57.00000  11.00000    180112                znucl, zion, pspdat
    8 -116133    3    4       600   0.00000   pspcod,pspxc,lmax,lloc,mmax,r2well
    5.99000000000000    5.00000000000000    0.00000000000000   rchrg,fchrg,qchrg
     nproj     2     2     2     2
     extension_switch     1
  pspatm : epsatm=   29.08531775
         --- l  ekb(1:nproj) -->
             0    6.695600    0.639047
             1    6.383649    1.151322
             2    3.612966    0.847811
             3  -13.718437   -4.858923
 pspatm: atomic psp has been read  and splines computed

- pspini: atom type   3  psp file is /scratch/users/j/a/jabreu/pseudos/PBEsol/O.psp8
- pspatm: opening atomic psp file    /scratch/users/j/a/jabreu/pseudos/PBEsol/O.psp8
- O     ONCVPSP-3.3.0  r_core=   1.35509   1.45563   1.26150
-  8.00000   6.00000    180112                znucl, zion, pspdat
    8 -116133    2    4       600   0.00000   pspcod,pspxc,lmax,lloc,mmax,r2well
    5.99000000000000    4.00000000000000    0.00000000000000   rchrg,fchrg,qchrg
     nproj     2     2     1
     extension_switch     1
  pspatm : epsatm=    6.22910522
         --- l  ekb(1:nproj) -->
             0    6.050032    0.820363
             1   -4.739617   -1.153841
             2   -1.335834
 pspatm: atomic psp has been read  and splines computed

   1.59578901E+03                                ecore*ucvol(ha*bohr**3)

-inwffil : will read wavefunctions from disk file /scratch/users/j/a/jabreu/flow_simple_4atoms/flow/w187/t1/indata/in_WFK

 ==>  initialize data related to q vector <==

 The list of irreducible perturbations for this q vector is:
    1)    idir= 1    ipert=   5
    2)    idir= 2    ipert=   5
    3)    idir= 3    ipert=   5

 Perturbation wavevector (in red.coord.)   0.000000  0.000000  0.000000
 Perturbation : derivative vs k along direction   1

 dfpt_looppert : COMMENT -
  In a d/dk calculation, iscf is set to -3 automatically.
 The set of symmetries contains only one element for this perturbation.
 symkpt : not enough symmetry to change the number of k points.

[...]

 Initialisation of the first-order wave-functions :
  ireadwf=   0

--- !BeginCycle
iteration_state: {dtset: 1, }
solver: {iscf: 7, nstep: 100, nline: 4, wfoptalg: 0, }
tolerances: {tolwfr: 1.00E-20, }
...

     iter   2DEtotal(Ha)        deltaE(Ha) residm    vres2
-ETOT  1  -36.890740416440     -3.689E+01 1.315E-01 0.000E+00
 ETOT  2  -36.992332896781     -1.016E-01 4.151E-02 0.000E+00
 ETOT  3  -36.993563797325     -1.231E-03 4.557E-03 0.000E+00
 ETOT  4  -36.993586942000     -2.314E-05 3.252E-03 0.000E+00
 ETOT  5  -36.993587453126     -5.111E-07 5.731E-04 0.000E+00
 ETOT  6  -36.993587465284     -1.216E-08 4.207E-04 0.000E+00
 ETOT  7  -36.993587465584     -3.002E-10 7.664E-05 0.000E+00
 ETOT  8  -36.993587465592     -7.596E-12 5.558E-05 0.000E+00
 ETOT  9  -36.993587465592     -2.487E-13 1.050E-05 0.000E+00
 ETOT 10  -36.993587465592     -3.553E-14 7.518E-06 0.000E+00
 ETOT 11  -36.993587465592     -4.974E-14 1.718E-06 0.000E+00
 ETOT 12  -36.993587465592      4.974E-14 1.043E-06 0.000E+00
 ETOT 13  -36.993587465592      0.000E+00 3.351E-07 0.000E+00
 ETOT 14  -36.993587465592     -7.105E-15 2.020E-07 0.000E+00
 ETOT 15  -36.993587465592     -2.842E-14 6.766E-08 0.000E+00
 ETOT 16  -36.993587465592      1.421E-14 4.123E-08 0.000E+00
 ETOT 17  -36.993587465592     -1.421E-14 1.405E-08 0.000E+00
 ETOT 18  -36.993587465592      3.553E-14 8.683E-09 0.000E+00
 ETOT 19  -36.993587465592     -7.105E-15 3.104E-09 0.000E+00
 ETOT 20  -36.993587465592     -7.105E-15 2.239E-09 0.000E+00
 ETOT 21  -36.993587465592      7.105E-15 8.089E-10 0.000E+00
 ETOT 22  -36.993587465592      1.421E-14 5.880E-10 0.000E+00
 ETOT 23  -36.993587465592     -1.421E-14 2.142E-10 0.000E+00
 ETOT 24  -36.993587465592      0.000E+00 1.567E-10 0.000E+00
 ETOT 25  -36.993587465592      0.000E+00 5.745E-11 0.000E+00
 ETOT 26  -36.993587465592      0.000E+00 4.223E-11 0.000E+00
[...]
 ETOT 43  -36.993587465592      0.000E+00 5.229E-16 0.000E+00
 ETOT 44  -36.993587465592     -7.105E-15 3.896E-16 0.000E+00
 ETOT 45  -36.993587465592      0.000E+00 1.453E-16 0.000E+00
 ETOT 46  -36.993587465592      1.421E-14 1.083E-16 0.000E+00
 ETOT 47  -36.993587465592     -7.105E-15 4.042E-17 0.000E+00
 ETOT 48  -36.993587465592      7.105E-15 3.013E-17 0.000E+00
 ETOT 49  -36.993587465592      0.000E+00 1.124E-17 0.000E+00
 ETOT 50  -36.993587465592      0.000E+00 8.383E-18 0.000E+00
 ETOT 51  -36.993587465592     -1.421E-14 3.129E-18 0.000E+00
 ETOT 52  -36.993587465592      7.105E-15 2.333E-18 0.000E+00
 ETOT 53  -36.993587465592      0.000E+00 8.710E-19 0.000E+00
 ETOT 54  -36.993587465592      0.000E+00 6.495E-19 0.000E+00
 ETOT 55  -36.993587465592     -7.105E-15 2.425E-19 0.000E+00
 ETOT 56  -36.993587465592     -7.105E-15 1.809E-19 0.000E+00
 ETOT 57  -36.993587465592      1.421E-14 6.753E-20 0.000E+00
 ETOT 58  -36.993587465592     -7.105E-15 5.037E-20 0.000E+00
 ETOT 59  -36.993587465592      7.105E-15 1.881E-20 0.000E+00
 ETOT 60  -36.993587465592     -7.105E-15 1.403E-20 0.000E+00
 ETOT 61  -36.993587465592      7.105E-15 9.916E-21 0.000E+00

 At SCF step   61   max residual=  9.92E-21 < tolwfr=  1.00E-20 =>converged.

 ----iterations are completed or convergence reached----

 dfpt_looppert: DFPT cycle converged with prtwf=-1. Will skip output of the 1st-order WFK file.
 dfpt_looppert : ek2=    7.1438656787E+01
          f-sum rule ratio=    1.0197352792E+00
 prteigrs : about to open file /scratch/users/j/a/jabreu/flow_simple_4atoms/flow/w187/t1/tmpdata/tmp_1WF1_EIG
 Expectation of eigenvalue derivatives (hartree) for nkpt=   1  k points:
  (in case of degenerate eigenvalues, averaged derivative)
 kpt#   1, nband= 25, wtk=  1.00000, kpt=  0.5000  0.5000  0.0000 (reduced coord)
  -0.00000    0.00000   -0.00000   -0.00000    0.00000   -0.00000    0.00000    0.00000
  -0.00000    0.00000    0.00000   -0.00000    0.00000   -0.00000    0.00000   -0.00000
   0.00000    0.00000    0.00000   -0.00000    0.00000    0.00000    0.00000    0.00000
   0.00000

 Eight components of 2nd-order total energy (hartree) are
 1,2,3: 0th-order hamiltonian combined with 1st-order wavefunctions
     kin0=   7.21377318E+01 eigvalue=  -6.28507758E-01  local=  -4.12482884E+01
 4,5,6: 1st-order hamiltonian combined with 1st and 0th-order wfs
     kin1=  -7.28485186E+01  Hartree=   0.00000000E+00     xc=   0.00000000E+00
 7,8,9: eventually, occupation + non-local contributions
    edocc=   4.62066206E+00     enl0=   2.11198975E+00   enl1=  -1.13865631E+00
 1-9 gives the relaxation energy (to be shifted if some occ is /=2.0)
   erelax=  -3.69935875E+01
  No Ewald or frozen-wf contrib.: the relaxation energy is the total one
 2DEtotal=   -0.3699358747E+02 Ha. Also 2DEtotal=   -0.100664670888E+04 eV
    (  non-var. 2DEtotal :   -3.6993587465E+01 Ha)

 Perturbation wavevector (in red.coord.)   0.000000  0.000000  0.000000
 Perturbation : derivative vs k along direction   2
 The set of symmetries contains only one element for this perturbation.
 symkpt : not enough symmetry to change the number of k points.

[...]

 Perturbation wavevector (in red.coord.)   0.000000  0.000000  0.000000
 Perturbation : derivative vs k along direction   3
 The set of symmetries contains only one element for this perturbation.
 symkpt : not enough symmetry to change the number of k points.

-inwffil : will read wavefunctions from disk file /scratch/users/j/a/jabreu/flow_simple_4atoms/flow/w187/t1/indata/in_WFK

 Initialisation of the first-order wave-functions :
  ireadwf=   0

--- !BeginCycle
iteration_state: {dtset: 1, }
solver: {iscf: 7, nstep: 100, nline: 4, wfoptalg: 0, }
tolerances: {tolwfr: 1.00E-20, }
...

     iter   2DEtotal(Ha)        deltaE(Ha) residm    vres2
-ETOT  1  -36.783042064496     -3.678E+01 1.240E-01 0.000E+00
 ETOT  2  -36.884222904599     -1.012E-01 5.499E-02 0.000E+00
 ETOT  3  -36.885485663687     -1.263E-03 2.830E-03 0.000E+00
 ETOT  4  -36.885509433116     -2.377E-05 1.032E-03 0.000E+00
 ETOT  5  -36.885509962080     -5.290E-07 4.157E-04 0.000E+00
 ETOT  6  -36.885509974660     -1.258E-08 1.577E-04 0.000E+00
 ETOT  7  -36.885509974969     -3.092E-10 7.685E-05 0.000E+00
 ETOT  8  -36.885509974977     -7.603E-12 3.270E-05 0.000E+00
 ETOT  9  -36.885509974977     -2.132E-13 1.522E-05 0.000E+00
 ETOT 10  -36.885509974977      6.395E-14 8.383E-06 0.000E+00
 ETOT 11  -36.885509974977     -5.684E-14 3.118E-06 0.000E+00
 ETOT 12  -36.885509974977      7.105E-14 2.201E-06 0.000E+00
 ETOT 13  -36.885509974977      2.842E-14 6.866E-07 0.000E+00
 ETOT 14  -36.885509974977     -2.842E-14 5.807E-07 0.000E+00
 ETOT 15  -36.885509974977      0.000E+00 1.796E-07 0.000E+00
 ETOT 16  -36.885509974977      0.000E+00 1.531E-07 0.000E+00
 ETOT 17  -36.885509974977      7.105E-15 4.715E-08 0.000E+00
 ETOT 18  -36.885509974977      7.105E-15 4.031E-08 0.000E+00
 ETOT 19  -36.885509974977     -1.421E-14 1.240E-08 0.000E+00
 ETOT 20  -36.885509974977     -7.105E-15 1.061E-08 0.000E+00
 ETOT 21  -36.885509974977      7.105E-15 3.263E-09 0.000E+00
 ETOT 22  -36.885509974977      0.000E+00 2.793E-09 0.000E+00
 ETOT 23  -36.885509974977      1.421E-14 8.598E-10 0.000E+00
 ETOT 24  -36.885509974977      0.000E+00 7.355E-10 0.000E+00
 ETOT 25  -36.885509974977     -1.421E-14 2.267E-10 0.000E+00
 ETOT 26  -36.885509974977      7.105E-15 1.937E-10 0.000E+00
 ETOT 27  -36.885509974977      0.000E+00 5.979E-11 0.000E+00
 ETOT 28  -36.885509974977      7.105E-15 5.105E-11 0.000E+00
 ETOT 29  -36.885509974977     -1.421E-14 1.578E-11 0.000E+00
 ETOT 30  -36.885509974977     -7.105E-15 1.345E-11 0.000E+00
 ETOT 31  -36.885509974977      0.000E+00 4.165E-12 0.000E+00
 ETOT 32  -36.885509974977      7.105E-15 3.548E-12 0.000E+00
 ETOT 33  -36.885509974977      0.000E+00 1.100E-12 0.000E+00
 ETOT 34  -36.885509974977     -2.132E-14 9.357E-13 0.000E+00
 ETOT 35  -36.885509974977      1.421E-14 2.906E-13 0.000E+00
 ETOT 36  -36.885509974977     -7.105E-15 2.469E-13 0.000E+00
 ETOT 37  -36.885509974977      7.105E-15 7.679E-14 0.000E+00
 ETOT 38  -36.885509974977      0.000E+00 6.514E-14 0.000E+00
 ETOT 39  -36.885509974977      1.421E-14 2.030E-14 0.000E+00
 ETOT 40  -36.885509974977     -7.105E-15 1.720E-14 0.000E+00
 ETOT 41  -36.885509974977      0.000E+00 5.366E-15 0.000E+00
 ETOT 42  -36.885509974977      0.000E+00 4.540E-15 0.000E+00
 ETOT 43  -36.885509974977      1.421E-14 1.419E-15 0.000E+00
 ETOT 44  -36.885509974977      7.105E-15 1.199E-15 0.000E+00
 ETOT 45  -36.885509974977     -7.105E-15 3.753E-16 0.000E+00
 ETOT 46  -36.885509974977      7.105E-15 3.167E-16 0.000E+00
 ETOT 47  -36.885509974977     -1.421E-14 9.927E-17 0.000E+00
 ETOT 48  -36.885509974977      0.000E+00 8.367E-17 0.000E+00
 ETOT 49  -36.885509974977      7.105E-15 2.626E-17 0.000E+00
 ETOT 50  -36.885509974977      0.000E+00 2.211E-17 0.000E+00
 ETOT 51  -36.885509974977      0.000E+00 6.950E-18 0.000E+00
 ETOT 52  -36.885509974977     -7.105E-15 5.843E-18 0.000E+00
 ETOT 53  -36.885509974977     -7.105E-15 1.839E-18 0.000E+00
 ETOT 54  -36.885509974977      1.421E-14 1.544E-18 0.000E+00
 ETOT 55  -36.885509974977      0.000E+00 4.868E-19 0.000E+00
 ETOT 56  -36.885509974977     -7.105E-15 4.083E-19 0.000E+00
 ETOT 57  -36.885509974977      0.000E+00 1.289E-19 0.000E+00
 ETOT 58  -36.885509974977      0.000E+00 1.080E-19 0.000E+00
 ETOT 59  -36.885509974977      0.000E+00 3.411E-20 0.000E+00
 ETOT 60  -36.885509974977     -1.421E-14 2.855E-20 0.000E+00
 ETOT 61  -36.885509974977      7.105E-15 9.815E-21 0.000E+00

 At SCF step   61   max residual=  9.81E-21 < tolwfr=  1.00E-20 =>converged.

 ----iterations are completed or convergence reached----

 dfpt_looppert: DFPT cycle converged with prtwf=-1. Will skip output of the 1st-order WFK file.
 dfpt_looppert : ek2=    7.1438656787E+01
          f-sum rule ratio=    1.0110307843E+00
 prteigrs : about to open file /scratch/users/j/a/jabreu/flow_simple_4atoms/flow/w187/t1/tmpdata/tmp_1WF1_EIG
 Expectation of eigenvalue derivatives (hartree) for nkpt=   1  k points:
  (in case of degenerate eigenvalues, averaged derivative)
 kpt#   1, nband= 25, wtk=  1.00000, kpt=  0.5000  0.5000  0.0000 (reduced coord)
   0.00000   -0.00000    0.00000    0.00000   -0.00000   -0.00000   -0.00000   -0.00000
   0.00000   -0.00000   -0.00000   -0.00000    0.00000    0.00000   -0.00000    0.00000
   0.00000   -0.00000    0.00000    0.00000   -0.00000    0.00000   -0.00000   -0.00000
   0.00000

 Eight components of 2nd-order total energy (hartree) are
 1,2,3: 0th-order hamiltonian combined with 1st-order wavefunctions
     kin0=   7.25163911E+01 eigvalue=  -7.89891446E-01  local=  -4.18272326E+01
 4,5,6: 1st-order hamiltonian combined with 1st and 0th-order wfs
     kin1=  -7.22266812E+01  Hartree=   0.00000000E+00     xc=   0.00000000E+00
 7,8,9: eventually, occupation + non-local contributions
    edocc=   4.00699119E+00     enl0=   2.97925178E+00   enl1=  -1.54433875E+00
 1-9 gives the relaxation energy (to be shifted if some occ is /=2.0)
   erelax=  -3.68855100E+01
  No Ewald or frozen-wf contrib.: the relaxation energy is the total one
 2DEtotal=   -0.3688550997E+02 Ha. Also 2DEtotal=   -0.100370577080E+04 eV
    (  non-var. 2DEtotal :   -3.6885509975E+01 Ha)

 CALCULATION OF EFFECTIVE MASSES
 NOTE : Additional infos (eff. mass eigenvalues, eigenvectors and, if degenerate, average mass) are available in stdout.

 K-point ( 0.500, 0.500, 0.000) | band =    16
 Effective mass tensor:
             -3.1810526301              0.4933148663             -1.9824140539
              0.4933148663             -3.6873766460             -1.2108727517
             -1.9824140539             -1.2108727517             -3.2505024342
 Effective mass tensor eigenvalues:
             -5.3954705861             -3.9886968826             -0.7347642415
 Angular average effective mass 1/(<1/m>)=  -1.6694213438
 Angular average effective mass for Frohlich model (<m**0.5>)**2=  -2.1526982939
 Effective masses along directions: (cart. coord. / red. coord. -> eff. mass)
    1:   1.000000  0.000000  0.000000 /   0.909670  0.415331  0.000000 ->  -1.5031716403
    2:   0.000000  1.000000  0.000000 /   0.000000  1.000000  0.000000 ->  -2.4668724709
    3:   0.000000  0.000000  1.000000 /   0.541004  0.541004  0.643918 ->  -1.3766552968
    4:   0.577350  0.577350  0.577350 /   0.596198  0.677179  0.431250 ->  -4.3323151056
    5:   0.000000  0.707107  0.707107 /   0.451986  0.711549  0.537966 ->  -3.8395341715
    6:   0.707107  0.000000  0.707107 /   0.683218  0.537575  0.494193 ->  -5.1079046208
    7:   0.707107  0.707107  0.000000 /   0.596294  0.802766  0.000000 ->  -1.2681875924

 K-point ( 0.500, 0.500, 0.000) | band =    17
 Effective mass tensor:
              0.9347528496              0.0604356627             -0.4116550778
              0.0604356627              0.8727234697             -0.2514419005
             -0.4116550778             -0.2514419005              1.1194689632
 Effective mass tensor eigenvalues:
              0.5575679115              0.8358089294              1.5335684415
 Angular average effective mass 1/(<1/m>)=   0.8237179979
 Angular average effective mass for Frohlich model (<m**0.5>)**2=   0.8640202576
 Effective masses along directions: (cart. coord. / red. coord. -> eff. mass)
    1:   1.000000  0.000000  0.000000 /   0.909670  0.415331  0.000000 ->   0.7821210748
    2:   0.000000  1.000000  0.000000 /   0.000000  1.000000  0.000000 ->   0.8149383194
    3:   0.000000  0.000000  1.000000 /   0.541004  0.541004  0.643918 ->   0.8800012864
    4:   0.577350  0.577350  0.577350 /   0.596198  0.677179  0.431250 ->   0.5667507245
    5:   0.000000  0.707107  0.707107 /   0.451986  0.711549  0.537966 ->   0.6776055371
    6:   0.707107  0.000000  0.707107 /   0.683218  0.537575  0.494193 ->   0.5921022356
    7:   0.707107  0.707107  0.000000 /   0.596294  0.802766  0.000000 ->   0.7674624218

 END OF EFFECTIVE MASSES SECTION

 ---- first-order wavefunction calculations are completed ----

 Total localisation tensor (bohr^2) in cartesian coordinates
  WARNING : still subject to testing - especially symmetries.
      direction              matrix element
   alpha     beta       real part   imaginary part
     1        1       1.2472740111    0.0000000000
     1        2       0.4192539412    0.0000000000
     1        3       2.3290609464    0.0000000000
     2        1       0.4192539412    0.0000000000
     2        2       0.8169641385    0.0000000000
     2        3       1.4226072780    0.0000000000
     3        1       2.3290609464    0.0000000000
     3        2       1.4226072780    0.0000000000
     3        3       8.2832582207    0.0000000000

 respfn : d/dk was computed, but no 2DTE, so no DDB output.

== END DATASET(S) ==============================================================

 -outvars: echo values of variables after computation  --------
            acell      1.0000000000E+00  1.0000000000E+00  1.0000000000E+00 Bohr
              amu      3.90983000E+01  1.38905500E+02  1.59994000E+01
             ecut      5.20000000E+01 Hartree
           etotal     -3.6885509975E+01
            fcart      0.0000000000E+00  0.0000000000E+00  0.0000000000E+00
                       0.0000000000E+00  0.0000000000E+00  0.0000000000E+00
                       0.0000000000E+00  0.0000000000E+00  0.0000000000E+00
                       0.0000000000E+00  0.0000000000E+00  0.0000000000E+00
-          fftalg         512
           irdden           1
           irdwfk           1
           istwfk        1
              ixc     -116133
              kpt      5.00000000E-01  5.00000000E-01  0.00000000E+00
           kptopt           0
P           mkmem           1
P          mkqmem           1
P          mk1mem           1
            natom           4
            nband          25
           nbdbuf           4
            ngfft          90      90      90
             nkpt           1
            nstep         100
             nsym          12
           ntypat           3
              occ      2.000000  2.000000  2.000000  2.000000  2.000000  2.000000
                       2.000000  2.000000  2.000000  2.000000  2.000000  2.000000
                       2.000000  2.000000  2.000000  2.000000  0.000000  0.000000
                       0.000000  0.000000  0.000000  0.000000  0.000000  0.000000
                       0.000000
        optdriver           1
            prtwf          -1
            rfdir           1       1       1
           rfelfd           2
            rprim      6.6844644956E+00  0.0000000000E+00  1.0355838008E+01
                       3.0519497306E+00  5.9470722574E+00  1.0355838008E+01
                       0.0000000000E+00  0.0000000000E+00  1.2325804089E+01
          spgroup         166
           strten      0.0000000000E+00  0.0000000000E+00  0.0000000000E+00
                       0.0000000000E+00  0.0000000000E+00  0.0000000000E+00
           symrel      1  0  0   0  1  0   0  0  1      -1  0  0   0 -1  0   0  0 -1
                       0  1  0   1  0  0   0  0  1       0 -1  0  -1  0  0   0  0 -1
                       0  0  1   1  0  0   0  1  0       0  0 -1  -1  0  0   0 -1  0
                       1  0  0   0  0  1   0  1  0      -1  0  0   0  0 -1   0 -1  0
                       0  1  0   0  0  1   1  0  0       0 -1  0   0  0 -1  -1  0  0
                       0  0  1   0  1  0   1  0  0       0  0 -1   0 -1  0  -1  0  0
           tolwfr      1.00000000E-20
            typat      1  2  3  3
           useylm           1
           xangst      0.0000000000E+00  0.0000000000E+00  0.0000000000E+00
                       2.5761442509E+00  1.5735275482E+00  8.7413407505E+00
                       3.9633876255E+00  2.4208658388E+00  1.3448517779E+01
                       1.1889008764E+00  7.2618925762E-01  4.0341637217E+00
            xcart      0.0000000000E+00  0.0000000000E+00  0.0000000000E+00
                       4.8682071131E+00  2.9735361287E+00  1.6518740053E+01
                       7.4897171707E+00  4.5747734399E+00  2.5414015496E+01
                       2.2466970555E+00  1.3722988175E+00  7.6234646093E+00
             xred      0.0000000000E+00  0.0000000000E+00  0.0000000000E+00
                       5.0000000000E-01  5.0000000000E-01  5.0000000000E-01
                       7.6924800000E-01  7.6924800000E-01  7.6924800000E-01
                       2.3075200000E-01  2.3075200000E-01  2.3075200000E-01
            znucl       19.00000   57.00000    8.00000

- Timing analysis has been suppressed with timopt=0

 Suggested references for the acknowledgment of ABINIT usage.

 Calculation completed.
.Delivered   6 WARNINGs and  11 COMMENTs to log file.