.Version 9.5.1 of ABINIT

 ABINIT is a project of the Universite Catholique de Louvain,
 Corning Inc. and other collaborators, see ~abinit/doc/developers/contributors.txt .
 acknowledgments of the ABINIT effort.

.Starting date : Tue  4 May 2021.
- ( at 19h17 )

- input  file    -> /scratch/users/j/a/jabreu/flow_simple_6atoms/flow/w180/t1/run.abi
- output file    -> /scratch/users/j/a/jabreu/flow_simple_6atoms/flow/w180/t1/run.abo
- root for input  files -> /scratch/users/j/a/jabreu/flow_simple_6atoms/flow/w180/t1/indata/in
- root for output files -> /scratch/users/j/a/jabreu/flow_simple_6atoms/flow/w180/t1/outdata/out

 Symmetries : space group P4/n m m (#129); Bravais tP (primitive tetrag.)
     intxc =       0      iscf =       7    lmnmax =      18     lnmax =       6
     mgfft =      90  mpssoang =       3    mqgrid =    4309     natom =       6
  nloc_mem =       1    nspden =       1   nspinor =       1    nsppol =       1
      nsym =      16    n1xccc =    2501    ntypat =       3    occopt =       1
   xclevel =       2
-    mband =          43        mffmem =           1         mkmem =           2
-   mkqmem =           2        mk1mem =           2           mpw =       15294
      nfft =      262440          nkpt =           2
  Rough estimation (10% accuracy) of disk space for files :

------------- Echo of variables that govern the present computation ------------
-
- outvars: echo of selected default values
-   iomode0 =  0 , fftalg0 =512 , wfoptalg0 =  0
-
- outvars: echo of global parameters not present in the input file
-  max_nthreads =    0
-
 -outvars: echo values of preprocessed input variables --------
            acell      1.0000000000E+00  1.0000000000E+00  1.0000000000E+00 Bohr
              amu      2.29897680E+01  2.43050000E+01  1.21753000E+02
             ecut      4.40000000E+01 Hartree
-          fftalg         512
           irdden           1
           irdwfk           1
              ixc     -116133
              kpt      0.00000000E+00  1.90476191E-01  0.00000000E+00
                       4.31034483E-01  4.31034483E-01  0.00000000E+00
           kptopt           0
P           mkmem           2
P          mkqmem           2
P          mk1mem           2
            natom           6
            nband          43
           nbdbuf           4
            ngfft          54      54      90
             nkpt           2
            nstep        1000
             nsym          16
           ntypat           3
              occ      2.000000  2.000000  2.000000  2.000000  2.000000  2.000000
                       2.000000  2.000000  2.000000  2.000000  2.000000  2.000000
                       2.000000  2.000000  2.000000  2.000000  2.000000  2.000000
                       2.000000  2.000000  2.000000  2.000000  2.000000  2.000000
                       2.000000  2.000000  2.000000  2.000000  2.000000  2.000000
                       2.000000  2.000000  2.000000  2.000000  0.000000  0.000000
                       0.000000  0.000000  0.000000  0.000000  0.000000  0.000000
                       0.000000
        optdriver           1
            prtwf          -1
            rfdir           1       1       1
           rfelfd           2
            rprim      8.7071492405E+00  0.0000000000E+00  0.0000000000E+00
                       0.0000000000E+00  8.7071492405E+00  0.0000000000E+00
                       0.0000000000E+00  0.0000000000E+00  1.4429026671E+01
          spgroup         129
           symrel      1  0  0   0  1  0   0  0  1      -1  0  0   0 -1  0   0  0 -1
                      -1  0  0   0  1  0   0  0 -1       1  0  0   0 -1  0   0  0  1
                      -1  0  0   0 -1  0   0  0  1       1  0  0   0  1  0   0  0 -1
                       1  0  0   0 -1  0   0  0 -1      -1  0  0   0  1  0   0  0  1
                       0  1  0   1  0  0   0  0  1       0 -1  0  -1  0  0   0  0 -1
                       0 -1  0   1  0  0   0  0 -1       0  1  0  -1  0  0   0  0  1
                       0 -1  0  -1  0  0   0  0  1       0  1  0   1  0  0   0  0 -1
                       0  1  0  -1  0  0   0  0 -1       0 -1  0   1  0  0   0  0  1
            tnons      0.0000000  0.0000000  0.0000000     0.5000000  0.5000000  0.0000000
                       0.5000000  0.5000000  0.0000000     0.0000000  0.0000000  0.0000000
                       0.0000000  0.0000000  0.0000000     0.5000000  0.5000000  0.0000000
                       0.5000000  0.5000000  0.0000000     0.0000000  0.0000000  0.0000000
                       0.5000000  0.5000000  0.0000000     0.0000000  0.0000000  0.0000000
                       0.0000000  0.0000000  0.0000000     0.5000000  0.5000000  0.0000000
                       0.5000000  0.5000000  0.0000000     0.0000000  0.0000000  0.0000000
                       0.0000000  0.0000000  0.0000000     0.5000000  0.5000000  0.0000000
           tolwfr      1.00000000E-20
            typat      1  1  2  2  3  3
           useylm           1
              wtk        0.50000    0.50000
           xangst      2.3038124649E+00  0.0000000000E+00  2.7261297761E+00
                       0.0000000000E+00  2.3038124649E+00  4.9093822805E+00
                       2.3038124649E+00  2.3038124649E+00  0.0000000000E+00
                       0.0000000000E+00  0.0000000000E+00  0.0000000000E+00
                       2.3038124649E+00  0.0000000000E+00  5.8954399430E+00
                       0.0000000000E+00  2.3038124649E+00  1.7400721136E+00
            xcart      4.3535746202E+00  0.0000000000E+00  5.1516386796E+00
                       0.0000000000E+00  4.3535746202E+00  9.2773879918E+00
                       4.3535746202E+00  4.3535746202E+00  0.0000000000E+00
                       0.0000000000E+00  0.0000000000E+00  0.0000000000E+00
                       4.3535746202E+00  0.0000000000E+00  1.1140766925E+01
                       0.0000000000E+00  4.3535746202E+00  3.2882597462E+00
             xred      5.0000000000E-01  0.0000000000E+00  3.5703300000E-01
                       0.0000000000E+00  5.0000000000E-01  6.4296700000E-01
                       5.0000000000E-01  5.0000000000E-01  0.0000000000E+00
                       0.0000000000E+00  0.0000000000E+00  0.0000000000E+00
                       5.0000000000E-01  0.0000000000E+00  7.7210800000E-01
                       0.0000000000E+00  5.0000000000E-01  2.2789200000E-01
            znucl       11.00000   12.00000   51.00000

 chkinp: Checking input parameters for consistency.

== DATASET  1 ==================================================================
-   mpi_nproc: 1, omp_nthreads: -1 (-1 if OMP is not activated)

--- !DatasetInfo
iteration_state: {dtset: 1, }
dimensions: {natom: 6, nkpt: 2, mband: 43, nsppol: 1, nspinor: 1, nspden: 1, mpw: 15294, }
cutoff_energies: {ecut:  44.0, pawecutdg:  -1.0, }
electrons: {nelect:   6.80000000E+01, charge:   0.00000000E+00, occopt:   1.00000000E+00, tsmear:   1.00000000E-02, }
meta: {optdriver: 1, rfelfd: 2, }
...

 Real(R)+Recip(G) space primitive vectors, cartesian coordinates (Bohr,Bohr^-1):
 R(1)=  8.7071492  0.0000000  0.0000000  G(1)=  0.1148482  0.0000000  0.0000000
 R(2)=  0.0000000  8.7071492  0.0000000  G(2)=  0.0000000  0.1148482  0.0000000
 R(3)=  0.0000000  0.0000000 14.4290267  G(3)=  0.0000000  0.0000000  0.0693047
 Unit cell volume ucvol=  1.0939287E+03 bohr^3
 Angles (23,13,12)=  9.00000000E+01  9.00000000E+01  9.00000000E+01 degrees

 getcut: wavevector=  0.0000  0.0000  0.0000  ngfft=  54  54  90
         ecut(hartree)=     44.000   => boxcut(ratio)=   2.07695

--- Pseudopotential description ------------------------------------------------
- pspini: atom type   1  psp file is /scratch/users/j/a/jabreu/pseudos/PBEsol/Na.psp8
- pspatm: opening atomic psp file    /scratch/users/j/a/jabreu/pseudos/PBEsol/Na.psp8
- Na    ONCVPSP-3.3.0  r_core=   1.20708   1.55069
- 11.00000   9.00000    180112                znucl, zion, pspdat
    8 -116133    1    4       400   0.00000   pspcod,pspxc,lmax,lloc,mmax,r2well
    3.99000000000000    0.00000000000000    0.00000000000000   rchrg,fchrg,qchrg
     nproj     2     2
     extension_switch     1
  pspatm : epsatm=    9.32878306
         --- l  ekb(1:nproj) -->
             0    2.657905   -0.678300
             1   -6.761319   -2.404728
 pspatm: atomic psp has been read  and splines computed

- pspini: atom type   2  psp file is /scratch/users/j/a/jabreu/pseudos/PBEsol/Mg.psp8
- pspatm: opening atomic psp file    /scratch/users/j/a/jabreu/pseudos/PBEsol/Mg.psp8
- Mg    ONCVPSP-3.3.0  r_core=   1.16056   1.56380
- 12.00000  10.00000    180112                znucl, zion, pspdat
    8 -116133    1    4       400   0.00000   pspcod,pspxc,lmax,lloc,mmax,r2well
    3.99000000000000    0.00000000000000    0.00000000000000   rchrg,fchrg,qchrg
     nproj     2     2
     extension_switch     1
  pspatm : epsatm=    9.18164846
         --- l  ekb(1:nproj) -->
             0    2.230603   -0.826587
             1   -6.503151   -2.501445
 pspatm: atomic psp has been read  and splines computed

- pspini: atom type   3  psp file is /scratch/users/j/a/jabreu/pseudos/PBEsol/Sb.psp8
- pspatm: opening atomic psp file    /scratch/users/j/a/jabreu/pseudos/PBEsol/Sb.psp8
- Sb    ONCVPSP-3.3.0  r_core=   1.81962   2.12485   1.81962
- 51.00000  15.00000    180112                znucl, zion, pspdat
    8 -116133    2    4       600   0.00000   pspcod,pspxc,lmax,lloc,mmax,r2well
    5.99000000000000    5.00000000000000    0.00000000000000   rchrg,fchrg,qchrg
     nproj     2     2     2
     extension_switch     1
  pspatm : epsatm=   26.35641246
         --- l  ekb(1:nproj) -->
             0    9.727814    1.485032
             1    5.505335    0.704623
             2   -4.710637   -1.436443
 pspatm: atomic psp has been read  and splines computed

   6.10189078E+03                                ecore*ucvol(ha*bohr**3)

-inwffil : will read wavefunctions from disk file /scratch/users/j/a/jabreu/flow_simple_6atoms/flow/w180/t1/indata/in_WFK

 ==>  initialize data related to q vector <==

 The list of irreducible perturbations for this q vector is:
    1)    idir= 1    ipert=   7
    2)    idir= 2    ipert=   7
    3)    idir= 3    ipert=   7

 Perturbation wavevector (in red.coord.)   0.000000  0.000000  0.000000
 Perturbation : derivative vs k along direction   1

 dfpt_looppert : COMMENT -
  In a d/dk calculation, iscf is set to -3 automatically.
 The set of symmetries contains only one element for this perturbation.
 symkpt : not enough symmetry to change the number of k points.

[...]

 Initialisation of the first-order wave-functions :
  ireadwf=   0

--- !BeginCycle
iteration_state: {dtset: 1, }
solver: {iscf: 7, nstep: 1000, nline: 4, wfoptalg: 0, }
tolerances: {tolwfr: 1.00E-20, }
...

     iter   2DEtotal(Ha)        deltaE(Ha) residm    vres2
-ETOT  1  -63.482170203927     -6.348E+01 2.167E-01 0.000E+00
 ETOT  2  -63.510220725669     -2.805E-02 3.786E-03 0.000E+00
 ETOT  3  -63.510236026197     -1.530E-05 1.264E-04 0.000E+00
 ETOT  4  -63.510236047876     -2.168E-08 5.619E-06 0.000E+00
 ETOT  5  -63.510236047921     -4.523E-11 6.003E-07 0.000E+00
 ETOT  6  -63.510236047921     -1.350E-13 2.056E-08 0.000E+00
 ETOT  7  -63.510236047921     -3.553E-14 3.917E-09 0.000E+00
 ETOT  8  -63.510236047921      6.395E-14 1.355E-10 0.000E+00
 ETOT  9  -63.510236047921     -1.421E-14 2.607E-11 0.000E+00
 ETOT 10  -63.510236047921     -2.132E-14 9.256E-13 0.000E+00
 ETOT 11  -63.510236047921      7.105E-15 1.761E-13 0.000E+00
 ETOT 12  -63.510236047921      0.000E+00 6.450E-15 0.000E+00
 ETOT 13  -63.510236047921      1.421E-14 1.205E-15 0.000E+00
 ETOT 14  -63.510236047921      0.000E+00 4.542E-17 0.000E+00
 ETOT 15  -63.510236047921     -7.105E-15 8.319E-18 0.000E+00
 ETOT 16  -63.510236047921     -1.421E-14 3.216E-19 0.000E+00
 ETOT 17  -63.510236047921      0.000E+00 5.784E-20 0.000E+00
 ETOT 18  -63.510236047921      7.105E-15 1.000E-20 0.000E+00

 At SCF step   18   max residual=  1.00E-20 < tolwfr=  1.00E-20 =>converged.

 ----iterations are completed or convergence reached----

 dfpt_looppert: DFPT cycle converged with prtwf=-1. Will skip output of the 1st-order WFK file.
 dfpt_looppert : ek2=    7.0818490976E+01
          f-sum rule ratio=    1.1535711534E+00
 prteigrs : about to open file /scratch/users/j/a/jabreu/flow_simple_6atoms/flow/w180/t1/tmpdata/tmp_1WF1_EIG
 Expectation of eigenvalue derivatives (hartree) for nkpt=   2  k points:
  (in case of degenerate eigenvalues, averaged derivative)
 kpt#   1, nband= 43, wtk=  0.50000, kpt=  0.0000  0.1905  0.0000 (reduced coord)
   0.00000    0.00000   -0.00000    0.00000   -0.00000   -0.00000    0.00000   -0.00000
   0.00000   -0.00000    0.00000    0.00000    0.00000    0.00000   -0.00000    0.00000
  -0.00000    0.00000   -0.00000    0.00000    0.00000   -0.00000    0.00000   -0.00000
   0.00000   -0.00000   -0.00000    0.00000    0.00000   -0.00000    0.00000    0.00000
  -0.00000   -0.00000    0.00000    0.00000   -0.00000    0.00000    0.00000   -0.00000
   0.00000    0.00000    0.00023
 prteigrs : prtvol=0 or 1, do not print more k-points.

 Eight components of 2nd-order total energy (hartree) are
 1,2,3: 0th-order hamiltonian combined with 1st-order wavefunctions
     kin0=   6.30433987E+01 eigvalue=   1.22039676E+01  local=  -3.28129137E+01
 4,5,6: 1st-order hamiltonian combined with 1st and 0th-order wfs
     kin1=  -8.16941683E+01  Hartree=   0.00000000E+00     xc=   0.00000000E+00
 7,8,9: eventually, occupation + non-local contributions
    edocc=   1.39283410E+01     enl0=   7.14744243E+00   enl1=  -4.53263038E+01
 1-9 gives the relaxation energy (to be shifted if some occ is /=2.0)
   erelax=  -6.35102360E+01
  No Ewald or frozen-wf contrib.: the relaxation energy is the total one
 2DEtotal=   -0.6351023605E+02 Ha. Also 2DEtotal=   -0.172820141214E+04 eV
    (  non-var. 2DEtotal :   -6.3510236048E+01 Ha)

 Perturbation wavevector (in red.coord.)   0.000000  0.000000  0.000000
 Perturbation : derivative vs k along direction   2
 The set of symmetries contains only one element for this perturbation.
 symkpt : not enough symmetry to change the number of k points.

[...]

 Perturbation wavevector (in red.coord.)   0.000000  0.000000  0.000000
 Perturbation : derivative vs k along direction   3
 The set of symmetries contains only one element for this perturbation.
 symkpt : not enough symmetry to change the number of k points.

-inwffil : will read wavefunctions from disk file /scratch/users/j/a/jabreu/flow_simple_6atoms/flow/w180/t1/indata/in_WFK

 Initialisation of the first-order wave-functions :
  ireadwf=   0

--- !BeginCycle
iteration_state: {dtset: 1, }
solver: {iscf: 7, nstep: 1000, nline: 4, wfoptalg: 0, }
tolerances: {tolwfr: 1.00E-20, }
...

     iter   2DEtotal(Ha)        deltaE(Ha) residm    vres2
-ETOT  1  -21.701116417656     -2.170E+01 8.470E-02 0.000E+00
 ETOT  2  -21.710333049439     -9.217E-03 1.219E-04 0.000E+00
 ETOT  3  -21.710339006253     -5.957E-06 1.744E-05 0.000E+00
 ETOT  4  -21.710339015092     -8.838E-09 1.056E-07 0.000E+00
 ETOT  5  -21.710339015113     -2.093E-11 1.024E-08 0.000E+00
 ETOT  6  -21.710339015113     -7.461E-14 1.169E-10 0.000E+00
 ETOT  7  -21.710339015113      3.553E-15 1.242E-11 0.000E+00
 ETOT  8  -21.710339015113      1.066E-14 1.699E-13 0.000E+00
 ETOT  9  -21.710339015113     -3.553E-15 1.830E-14 0.000E+00
 ETOT 10  -21.710339015113     -3.553E-15 2.653E-16 0.000E+00
 ETOT 11  -21.710339015113      0.000E+00 2.761E-17 0.000E+00
 ETOT 12  -21.710339015113      0.000E+00 4.279E-19 0.000E+00
 ETOT 13  -21.710339015113      3.553E-15 4.244E-20 0.000E+00
 ETOT 14  -21.710339015113     -3.553E-15 9.824E-21 0.000E+00

 At SCF step   14   max residual=  9.82E-21 < tolwfr=  1.00E-20 =>converged.

 ----iterations are completed or convergence reached----

 dfpt_looppert: DFPT cycle converged with prtwf=-1. Will skip output of the 1st-order WFK file.
 dfpt_looppert : ek2=    2.5788410382E+01
          f-sum rule ratio=    1.0478246951E+00
 prteigrs : about to open file /scratch/users/j/a/jabreu/flow_simple_6atoms/flow/w180/t1/tmpdata/tmp_1WF1_EIG
 Expectation of eigenvalue derivatives (hartree) for nkpt=   2  k points:
  (in case of degenerate eigenvalues, averaged derivative)
 kpt#   1, nband= 43, wtk=  0.50000, kpt=  0.0000  0.1905  0.0000 (reduced coord)
   0.00000    0.00000    0.00000    0.00000    0.00000   -0.00000    0.00000    0.00000
   0.00000    0.00000   -0.00000    0.00000   -0.00000    0.00000    0.00000    0.00000
   0.00000   -0.00000   -0.00000   -0.00000   -0.00000    0.00000   -0.00000   -0.00000
  -0.00000   -0.00000   -0.00000   -0.00000    0.00000   -0.00000   -0.00000   -0.00000
   0.00000    0.00000   -0.00000    0.00000   -0.00000   -0.00000    0.00000    0.00000
   0.00000   -0.00000   -0.09394
 prteigrs : prtvol=0 or 1, do not print more k-points.

 Eight components of 2nd-order total energy (hartree) are
 1,2,3: 0th-order hamiltonian combined with 1st-order wavefunctions
     kin0=   2.32132962E+01 eigvalue=   4.44465923E+00  local=  -1.21343419E+01
 4,5,6: 1st-order hamiltonian combined with 1st and 0th-order wfs
     kin1=  -2.70217332E+01  Hartree=   0.00000000E+00     xc=   0.00000000E+00
 7,8,9: eventually, occupation + non-local contributions
    edocc=   3.56221244E+00     enl0=   2.62451304E+00   enl1=  -1.63989448E+01
 1-9 gives the relaxation energy (to be shifted if some occ is /=2.0)
   erelax=  -2.17103390E+01
  No Ewald or frozen-wf contrib.: the relaxation energy is the total one
 2DEtotal=   -0.2171033902E+02 Ha. Also 2DEtotal=   -0.590768368671E+03 eV
    (  non-var. 2DEtotal :   -2.1710339015E+01 Ha)

 CALCULATION OF EFFECTIVE MASSES
 NOTE : Additional infos (eff. mass eigenvalues, eigenvectors and, if degenerate, average mass) are available in stdout.

 K-point ( 0.000, 0.190, 0.000) | band =    34
 Effective mass tensor:
             -0.1469025882              0.0000063926              0.0000006679
              0.0000063926             -3.7295828937             -0.0000000109
              0.0000006679             -0.0000000109             -1.4898917893
 Effective mass tensor eigenvalues:
             -3.7295828937             -1.4898917893             -0.1469025882
 Angular average effective mass 1/(<1/m>)=  -0.3872692621
 Angular average effective mass for Frohlich model (<m**0.5>)**2=  -0.6538128371
 Effective masses along directions: (cart. coord. / red. coord. -> eff. mass)
    1:   1.000000  0.000000  0.000000 /   1.000000  0.000000  0.000000 ->  -0.1469025882
    2:   0.000000  1.000000  0.000000 /   0.000000  1.000000  0.000000 ->  -3.7295828934
    3:   0.000000  0.000000  1.000000 /   0.000000  0.000000  1.000000 ->  -1.4898917893
    4:   0.577350  0.577350  0.577350 /   0.459018  0.459018  0.760661 ->  -0.3872677906
    5:   0.000000  0.707107  0.707107 /   0.000000  0.516664  0.856188 ->  -2.1292085090
    6:   0.707107  0.000000  0.707107 /   0.516664  0.000000  0.856188 ->  -0.2674358910
    7:   0.707107  0.707107  0.000000 /   0.707107  0.707107  0.000000 ->  -0.2826702567

 K-point ( 0.431, 0.431, 0.000) | band =    35
 Effective mass tensor:
              0.3718289166              0.0711311862              0.0000001781
              0.0711311862              0.3718289168             -0.0000001970
              0.0000001781             -0.0000001970              0.4853333468
 Effective mass tensor eigenvalues:
              0.3006977305              0.4429601029              0.4853333468
 Angular average effective mass 1/(<1/m>)=   0.3924863499
 Angular average effective mass for Frohlich model (<m**0.5>)**2=   0.3978826414
 Effective masses along directions: (cart. coord. / red. coord. -> eff. mass)
    1:   1.000000  0.000000  0.000000 /   1.000000  0.000000  0.000000 ->   0.3582214606
    2:   0.000000  1.000000  0.000000 /   0.000000  1.000000  0.000000 ->   0.3582214607
    3:   0.000000  0.000000  1.000000 /   0.000000  0.000000  1.000000 ->   0.4853333468
    4:   0.577350  0.577350  0.577350 /   0.459018  0.459018  0.760661 ->   0.4562377511
    5:   0.000000  0.707107  0.707107 /   0.000000  0.516664  0.856188 ->   0.4122001881
    6:   0.707107  0.000000  0.707107 /   0.516664  0.000000  0.856188 ->   0.4122006248
    7:   0.707107  0.707107  0.000000 /   0.707107  0.707107  0.000000 ->   0.4429601029

 END OF EFFECTIVE MASSES SECTION

 ---- first-order wavefunction calculations are completed ----

 Total localisation tensor (bohr^2) in cartesian coordinates
  WARNING : still subject to testing - especially symmetries.
      direction              matrix element
   alpha     beta       real part   imaginary part
     1        1       1.9588618569    0.0000000000
     1        2       0.0000000000    0.0000000000
     1        3       0.0000000000    0.0000000000
     2        1       0.0000000000    0.0000000000
     2        2       0.8598990310    0.0000000000
     2        3       0.0000000000    0.0000000000
     3        1       0.0000000000    0.0000000000
     3        2       0.0000000000    0.0000000000
     3        3       1.2280950938    0.0000000000

 respfn : d/dk was computed, but no 2DTE, so no DDB output.

== END DATASET(S) ==============================================================

 -outvars: echo values of variables after computation  --------
            acell      1.0000000000E+00  1.0000000000E+00  1.0000000000E+00 Bohr
              amu      2.29897680E+01  2.43050000E+01  1.21753000E+02
             ecut      4.40000000E+01 Hartree
           etotal     -2.1710339015E+01
            fcart      0.0000000000E+00  0.0000000000E+00  0.0000000000E+00
                       0.0000000000E+00  0.0000000000E+00  0.0000000000E+00
                       0.0000000000E+00  0.0000000000E+00  0.0000000000E+00
                       0.0000000000E+00  0.0000000000E+00  0.0000000000E+00
                       0.0000000000E+00  0.0000000000E+00  0.0000000000E+00
                       0.0000000000E+00  0.0000000000E+00  0.0000000000E+00
-          fftalg         512
           irdden           1
           irdwfk           1
              ixc     -116133
              kpt      0.00000000E+00  1.90476191E-01  0.00000000E+00
                       4.31034483E-01  4.31034483E-01  0.00000000E+00
           kptopt           0
P           mkmem           2
P          mkqmem           2
P          mk1mem           2
            natom           6
            nband          43
           nbdbuf           4
            ngfft          54      54      90
             nkpt           2
            nstep        1000
             nsym          16
           ntypat           3
              occ      2.000000  2.000000  2.000000  2.000000  2.000000  2.000000
                       2.000000  2.000000  2.000000  2.000000  2.000000  2.000000
                       2.000000  2.000000  2.000000  2.000000  2.000000  2.000000
                       2.000000  2.000000  2.000000  2.000000  2.000000  2.000000
                       2.000000  2.000000  2.000000  2.000000  2.000000  2.000000
                       2.000000  2.000000  2.000000  2.000000  0.000000  0.000000
                       0.000000  0.000000  0.000000  0.000000  0.000000  0.000000
                       0.000000
        optdriver           1
            prtwf          -1
            rfdir           1       1       1
           rfelfd           2
            rprim      8.7071492405E+00  0.0000000000E+00  0.0000000000E+00
                       0.0000000000E+00  8.7071492405E+00  0.0000000000E+00
                       0.0000000000E+00  0.0000000000E+00  1.4429026671E+01
          spgroup         129
           strten      0.0000000000E+00  0.0000000000E+00  0.0000000000E+00
                       0.0000000000E+00  0.0000000000E+00  0.0000000000E+00
           symrel      1  0  0   0  1  0   0  0  1      -1  0  0   0 -1  0   0  0 -1
                      -1  0  0   0  1  0   0  0 -1       1  0  0   0 -1  0   0  0  1
                      -1  0  0   0 -1  0   0  0  1       1  0  0   0  1  0   0  0 -1
                       1  0  0   0 -1  0   0  0 -1      -1  0  0   0  1  0   0  0  1
                       0  1  0   1  0  0   0  0  1       0 -1  0  -1  0  0   0  0 -1
                       0 -1  0   1  0  0   0  0 -1       0  1  0  -1  0  0   0  0  1
                       0 -1  0  -1  0  0   0  0  1       0  1  0   1  0  0   0  0 -1
                       0  1  0  -1  0  0   0  0 -1       0 -1  0   1  0  0   0  0  1
            tnons      0.0000000  0.0000000  0.0000000     0.5000000  0.5000000  0.0000000
                       0.5000000  0.5000000  0.0000000     0.0000000  0.0000000  0.0000000
                       0.0000000  0.0000000  0.0000000     0.5000000  0.5000000  0.0000000
                       0.5000000  0.5000000  0.0000000     0.0000000  0.0000000  0.0000000
                       0.5000000  0.5000000  0.0000000     0.0000000  0.0000000  0.0000000
                       0.0000000  0.0000000  0.0000000     0.5000000  0.5000000  0.0000000
                       0.5000000  0.5000000  0.0000000     0.0000000  0.0000000  0.0000000
                       0.0000000  0.0000000  0.0000000     0.5000000  0.5000000  0.0000000
           tolwfr      1.00000000E-20
            typat      1  1  2  2  3  3
           useylm           1
              wtk        0.50000    0.50000
           xangst      2.3038124649E+00  0.0000000000E+00  2.7261297761E+00
                       0.0000000000E+00  2.3038124649E+00  4.9093822805E+00
                       2.3038124649E+00  2.3038124649E+00  0.0000000000E+00
                       0.0000000000E+00  0.0000000000E+00  0.0000000000E+00
                       2.3038124649E+00  0.0000000000E+00  5.8954399430E+00
                       0.0000000000E+00  2.3038124649E+00  1.7400721136E+00
            xcart      4.3535746202E+00  0.0000000000E+00  5.1516386796E+00
                       0.0000000000E+00  4.3535746202E+00  9.2773879918E+00
                       4.3535746202E+00  4.3535746202E+00  0.0000000000E+00
                       0.0000000000E+00  0.0000000000E+00  0.0000000000E+00
                       4.3535746202E+00  0.0000000000E+00  1.1140766925E+01
                       0.0000000000E+00  4.3535746202E+00  3.2882597462E+00
             xred      5.0000000000E-01  0.0000000000E+00  3.5703300000E-01
                       0.0000000000E+00  5.0000000000E-01  6.4296700000E-01
                       5.0000000000E-01  5.0000000000E-01  0.0000000000E+00
                       0.0000000000E+00  0.0000000000E+00  0.0000000000E+00
                       5.0000000000E-01  0.0000000000E+00  7.7210800000E-01
                       0.0000000000E+00  5.0000000000E-01  2.2789200000E-01
            znucl       11.00000   12.00000   51.00000

- Timing analysis has been suppressed with timopt=0

 Suggested references for the acknowledgment of ABINIT usage.

 Calculation completed.
.Delivered  14 WARNINGs and   9 COMMENTs to log file.