.Version 9.7.2 of ABINIT

 ABINIT is a project of the Universite Catholique de Louvain,
 Corning Inc. and other collaborators, see ~abinit/doc/developers/contributors.txt .
 acknowledgments of the ABINIT effort.

.Starting date : Wed  1 Dec 2021.
- ( at 21h42 )

- input  file    -> /scratch/users/j/a/jabreu/flow_simple_remain_atoms/flow/w238/t1/run.abi
- output file    -> /scratch/users/j/a/jabreu/flow_simple_remain_atoms/flow/w238/t1/run.abo
- root for input  files -> /scratch/users/j/a/jabreu/flow_simple_remain_atoms/flow/w238/t1/indata/in
- root for output files -> /scratch/users/j/a/jabreu/flow_simple_remain_atoms/flow/w238/t1/outdata/out

 Symmetries : space group R3 m (#160); Bravais hR (rhombohedral)
     intxc =       0      iscf =       7    lmnmax =      18     lnmax =       6
     mgfft =      48  mpssoang =       3    mqgrid =    3001     natom =       5
  nloc_mem =       1    nspden =       1   nspinor =       1    nsppol =       1
      nsym =       6    n1xccc =    2501    ntypat =       3    occopt =       1
   xclevel =       2
-    mband =          29        mffmem =           1         mkmem =           2
-   mkqmem =           2        mk1mem =           2           mpw =        6031
      nfft =      110592          nkpt =           2
  Rough estimation (10% accuracy) of disk space for files :

------------- Echo of variables that govern the present computation ------------
-
- outvars: echo of selected default values
-   iomode0 =  0 , fftalg0 =512 , wfoptalg0 =  0
-
- outvars: echo of global parameters not present in the input file
-  max_nthreads =    0
-
 -outvars: echo values of preprocessed input variables --------
            acell      1.0000000000E+00  1.0000000000E+00  1.0000000000E+00 Bohr
              amu      3.90983000E+01  9.29063800E+01  1.59994000E+01
             ecut      4.40000000E+01 Hartree
-          fftalg         512
           irdden           1
           irdwfk           1
           istwfk        1    1
              ixc     -116133
              kpt      5.00000000E-01  5.00000000E-01  5.00000000E-01
                       0.00000000E+00  0.00000000E+00  0.00000000E+00
           kptopt           0
P           mkmem           2
P          mkqmem           2
P          mk1mem           2
            natom           5
            nband          29
           nbdbuf           4
            ngfft          48      48      48
             nkpt           2
            nstep        2000
             nsym           6
           ntypat           3
              occ      2.000000  2.000000  2.000000  2.000000  2.000000  2.000000
                       2.000000  2.000000  2.000000  2.000000  2.000000  2.000000
                       2.000000  2.000000  2.000000  2.000000  2.000000  2.000000
                       2.000000  2.000000  0.000000  0.000000  0.000000  0.000000
                       0.000000  0.000000  0.000000  0.000000  0.000000
        optdriver           1
            prtwf          -1
            rfdir           1       1       1
           rfelfd           2
            rprim      7.5630791145E+00  0.0000000000E+00  1.3909310400E-02
                       1.3883753200E-02  7.5630663711E+00  1.3909310400E-02
                       0.0000000000E+00  0.0000000000E+00  7.5630919048E+00
          spgroup         160
           symrel      1  0  0   0  1  0   0  0  1       0  1  0   1  0  0   0  0  1
                       0  0  1   1  0  0   0  1  0       1  0  0   0  0  1   0  1  0
                       0  1  0   0  0  1   1  0  0       0  0  1   0  1  0   1  0  0
           tolwfr      1.00000000E-20
            typat      1  2  3  3  3
           useylm           1
              wtk        0.50000    0.50000
           xangst      5.7561186796E-02  5.7455616946E-02  5.7667145312E-02
                       2.0204594037E+00  2.0167537887E+00  2.0241786613E+00
                       1.2548910764E-01  2.1168608761E+00  2.1209848038E+00
                       2.1207504294E+00  2.1168608761E+00  1.2938960645E-01
                       2.1170876731E+00  1.2160291622E-01  2.1209848038E+00
            xcart      1.0877487893E-01  1.0857538082E-01  1.0897511151E-01
                       3.8181149356E+00  3.8111123381E+00  3.8251433139E+00
                       2.3714004609E-01  4.0002873173E+00  4.0080804112E+00
                       4.0076375078E+00  4.0002873173E+00  2.4451092062E-01
                       4.0007159015E+00  2.2979620862E-01  4.0080804112E+00
             xred      1.4356000000E-02  1.4356000000E-02  1.4356000000E-02
                       5.0391100000E-01  5.0391100000E-01  5.0391100000E-01
                       3.0384000000E-02  5.2892400000E-01  5.2892400000E-01
                       5.2892400000E-01  5.2892400000E-01  3.0384000000E-02
                       5.2892400000E-01  3.0384000000E-02  5.2892400000E-01
            znucl       19.00000   41.00000    8.00000

 chkinp: Checking input parameters for consistency.

== DATASET  1 ==================================================================
-   mpi_nproc: 1, omp_nthreads: -1 (-1 if OMP is not activated)

--- !DatasetInfo
iteration_state: {dtset: 1, }
dimensions: {natom: 5, nkpt: 2, mband: 29, nsppol: 1, nspinor: 1, nspden: 1, mpw: 6031, }
cutoff_energies: {ecut:  44.0, pawecutdg:  -1.0, }
electrons: {nelect:   4.00000000E+01, charge:   0.00000000E+00, occopt:   1.00000000E+00, tsmear:   1.00000000E-02, }
meta: {optdriver: 1, rfelfd: 2, }
...

 Real(R)+Recip(G) space primitive vectors, cartesian coordinates (Bohr,Bohr^-1):
 R(1)=  7.5630791  0.0000000  0.0139093  G(1)=  0.1322213 -0.0002427  0.0000000
 R(2)=  0.0138838  7.5630664  0.0139093  G(2)=  0.0000000  0.1322215  0.0000000
 R(3)=  0.0000000  0.0000000  7.5630919  G(3)= -0.0002432 -0.0002427  0.1322211
 Unit cell volume ucvol=  4.3260938E+02 bohr^3
 Angles (23,13,12)=  8.98946271E+01  8.98946271E+01  8.98946271E+01 degrees

 getcut: wavevector=  0.0000  0.0000  0.0000  ngfft=  48  48  48
         ecut(hartree)=     44.000   => boxcut(ratio)=   2.12545

--- Pseudopotential description ------------------------------------------------
- pspini: atom type   1  psp file is /scratch/users/j/a/jabreu/pseudos/PBEsol/K.psp8
- pspatm: opening atomic psp file    /scratch/users/j/a/jabreu/pseudos/PBEsol/K.psp8
- K     ONCVPSP-3.3.0  r_core=   1.36296   1.46408   1.61068
- 19.00000   9.00000    180112                znucl, zion, pspdat
    8 -116133    2    4       400   0.00000   pspcod,pspxc,lmax,lloc,mmax,r2well
    3.99000000000000    5.00000000000000    0.00000000000000   rchrg,fchrg,qchrg
     nproj     2     2     2
     extension_switch     1
  pspatm : epsatm=    8.32487830
         --- l  ekb(1:nproj) -->
             0   10.921326    0.816676
             1    4.431000    0.560368
             2   -3.384038   -1.043186
 pspatm: atomic psp has been read  and splines computed

- pspini: atom type   2  psp file is /scratch/users/j/a/jabreu/pseudos/PBEsol/Nb.psp8
- pspatm: opening atomic psp file    /scratch/users/j/a/jabreu/pseudos/PBEsol/Nb.psp8
- Nb    ONCVPSP-3.3.0  r_core=   1.50879   1.40458   1.40458
- 41.00000  13.00000    180112                znucl, zion, pspdat
    8 -116133    2    4       600   0.00000   pspcod,pspxc,lmax,lloc,mmax,r2well
    5.99000000000000    5.00000000000000    0.00000000000000   rchrg,fchrg,qchrg
     nproj     2     2     2
     extension_switch     1
  pspatm : epsatm=   15.66753381
         --- l  ekb(1:nproj) -->
             0   12.953547    1.345168
             1    7.772306    0.779703
             2    3.518917    1.091480
 pspatm: atomic psp has been read  and splines computed

- pspini: atom type   3  psp file is /scratch/users/j/a/jabreu/pseudos/PBEsol/O.psp8
- pspatm: opening atomic psp file    /scratch/users/j/a/jabreu/pseudos/PBEsol/O.psp8
- O     ONCVPSP-3.3.0  r_core=   1.35509   1.45563   1.26150
-  8.00000   6.00000    180112                znucl, zion, pspdat
    8 -116133    2    4       600   0.00000   pspcod,pspxc,lmax,lloc,mmax,r2well
    5.99000000000000    4.00000000000000    0.00000000000000   rchrg,fchrg,qchrg
     nproj     2     2     1
     extension_switch     1
  pspatm : epsatm=    6.22910522
         --- l  ekb(1:nproj) -->
             0    6.050032    0.820363
             1   -4.739617   -1.153841
             2   -1.335834
 pspatm: atomic psp has been read  and splines computed

   1.70718911E+03                                ecore*ucvol(ha*bohr**3)

 ==>  initialize data related to q vector <==

 The list of irreducible perturbations for this q vector is:
    1)    idir= 1    ipert=   6
    2)    idir= 2    ipert=   6
    3)    idir= 3    ipert=   6

 Perturbation wavevector (in red.coord.)   0.000000  0.000000  0.000000
 Perturbation : derivative vs k along direction   1

 dfpt_looppert : COMMENT -
  In a d/dk calculation, iscf is set to -3 automatically.
 The set of symmetries contains only one element for this perturbation.
 symkpt : not enough symmetry to change the number of k points.

 Initialisation of the first-order wave-functions :
  ireadwf=   0

--- !BeginCycle
iteration_state: {dtset: 1, }
solver: {iscf: 7, nstep: 2000, nline: 4, wfoptalg: 0, }
tolerances: {tolwfr: 1.00E-20, }
...

     iter   2DEtotal(Ha)        deltaE(Ha) residm    vres2
-ETOT  1  -31.647781547479     -3.165E+01 2.933E-02 0.000E+00
 ETOT  2  -31.676728928864     -2.895E-02 1.959E-03 0.000E+00
 ETOT  3  -31.676886914663     -1.580E-04 4.733E-05 0.000E+00
 ETOT  4  -31.676888178712     -1.264E-06 2.447E-06 0.000E+00
 ETOT  5  -31.676888192289     -1.358E-08 2.729E-07 0.000E+00
 ETOT  6  -31.676888192457     -1.684E-10 1.618E-08 0.000E+00
 ETOT  7  -31.676888192459     -2.267E-12 2.547E-09 0.000E+00
 ETOT  8  -31.676888192460     -7.816E-14 1.755E-10 0.000E+00
 ETOT  9  -31.676888192459      2.132E-14 2.611E-11 0.000E+00
 ETOT 10  -31.676888192460     -2.132E-14 1.934E-12 0.000E+00
 ETOT 11  -31.676888192459      3.908E-14 2.786E-13 0.000E+00
 ETOT 12  -31.676888192459     -1.066E-14 2.190E-14 0.000E+00
 ETOT 13  -31.676888192459      7.105E-15 3.067E-15 0.000E+00
 ETOT 14  -31.676888192459      7.105E-15 2.539E-16 0.000E+00
 ETOT 15  -31.676888192459     -1.421E-14 3.480E-17 0.000E+00
 ETOT 16  -31.676888192459      1.421E-14 3.012E-18 0.000E+00
 ETOT 17  -31.676888192459      3.553E-15 4.054E-19 0.000E+00
 ETOT 18  -31.676888192459     -1.421E-14 3.652E-20 0.000E+00
 ETOT 19  -31.676888192459      0.000E+00 9.951E-21 0.000E+00

 At SCF step   19   max residual=  9.95E-21 < tolwfr=  1.00E-20 =>converged.

 ----iterations are completed or convergence reached----

 dfpt_looppert: DFPT cycle converged with prtwf=-1. Will skip output of the 1st-order WFK file.
 dfpt_looppert : ek2=    5.5214596203E+01
          f-sum rule ratio=    1.1827199338E+00
 prteigrs : about to open file /scratch/users/j/a/jabreu/flow_simple_remain_atoms/flow/w238/t1/tmpdata/tmp_1WF1_EIG
 Expectation of eigenvalue derivatives (hartree) for nkpt=   2  k points:
  (in case of degenerate eigenvalues, averaged derivative)
 kpt#   1, nband= 29, wtk=  0.50000, kpt=  0.5000  0.5000  0.5000 (reduced coord)
  -0.00000   -0.00000   -0.00000    0.00000    0.00000    0.00000   -0.00000   -0.00000
  -0.00000   -0.00000    0.00000   -0.00000   -0.00000    0.00000   -0.00000   -0.00000
  -0.00000    0.00000    0.00000   -0.00000    0.00000    0.00000    0.00000    0.00000
   0.00000   -0.00000   -0.00000    0.00000    0.00006
 prteigrs : prtvol=0 or 1, do not print more k-points.

 Eight components of 2nd-order total energy (hartree) are
 1,2,3: 0th-order hamiltonian combined with 1st-order wavefunctions
     kin0=   3.06192853E+01 eigvalue=  -5.55616705E-01  local=  -1.33773039E+01
 4,5,6: 1st-order hamiltonian combined with 1st and 0th-order wfs
     kin1=  -6.53034036E+01  Hartree=   0.00000000E+00     xc=   0.00000000E+00
 7,8,9: eventually, occupation + non-local contributions
    edocc=   1.46373535E+01     enl0=   3.53170025E-01   enl1=   1.94962718E+00
 1-9 gives the relaxation energy (to be shifted if some occ is /=2.0)
   erelax=  -3.16768882E+01
  No Ewald or frozen-wf contrib.: the relaxation energy is the total one
 2DEtotal=   -0.3167688819E+02 Ha. Also 2DEtotal=   -0.861971964095E+03 eV
    (  non-var. 2DEtotal :   -3.1676888192E+01 Ha)

 Perturbation wavevector (in red.coord.)   0.000000  0.000000  0.000000
 Perturbation : derivative vs k along direction   2
 The set of symmetries contains only one element for this perturbation.
 symkpt : not enough symmetry to change the number of k points.

[...]

 Perturbation wavevector (in red.coord.)   0.000000  0.000000  0.000000
 Perturbation : derivative vs k along direction   3
 The set of symmetries contains only one element for this perturbation.
 symkpt : not enough symmetry to change the number of k points.

 Initialisation of the first-order wave-functions :
  ireadwf=   0

--- !BeginCycle
iteration_state: {dtset: 1, }
solver: {iscf: 7, nstep: 2000, nline: 4, wfoptalg: 0, }
tolerances: {tolwfr: 1.00E-20, }
...

     iter   2DEtotal(Ha)        deltaE(Ha) residm    vres2
-ETOT  1  -31.647544557631     -3.165E+01 2.965E-02 0.000E+00
 ETOT  2  -31.676731103500     -2.919E-02 1.984E-03 0.000E+00
 ETOT  3  -31.676891740164     -1.606E-04 4.673E-05 0.000E+00
 ETOT  4  -31.676893016784     -1.277E-06 2.459E-06 0.000E+00
 ETOT  5  -31.676893030199     -1.342E-08 2.506E-07 0.000E+00
 ETOT  6  -31.676893030360     -1.610E-10 1.669E-08 0.000E+00
 ETOT  7  -31.676893030362     -2.121E-12 2.337E-09 0.000E+00
 ETOT  8  -31.676893030362     -7.105E-14 1.810E-10 0.000E+00
 ETOT  9  -31.676893030362      3.197E-14 2.346E-11 0.000E+00
 ETOT 10  -31.676893030362     -1.421E-14 1.996E-12 0.000E+00
 ETOT 11  -31.676893030362     -1.421E-14 2.450E-13 0.000E+00
 ETOT 12  -31.676893030362      1.066E-14 2.262E-14 0.000E+00
 ETOT 13  -31.676893030362     -3.553E-15 2.645E-15 0.000E+00
 ETOT 14  -31.676893030362     -3.553E-15 2.621E-16 0.000E+00
 ETOT 15  -31.676893030362      7.105E-15 2.944E-17 0.000E+00
 ETOT 16  -31.676893030362     -7.105E-15 3.108E-18 0.000E+00
 ETOT 17  -31.676893030362      7.105E-15 3.365E-19 0.000E+00
 ETOT 18  -31.676893030362     -1.421E-14 3.767E-20 0.000E+00
 ETOT 19  -31.676893030362      1.066E-14 9.588E-21 0.000E+00

 At SCF step   19   max residual=  9.59E-21 < tolwfr=  1.00E-20 =>converged.

 ----iterations are completed or convergence reached----

 dfpt_looppert: DFPT cycle converged with prtwf=-1. Will skip output of the 1st-order WFK file.
 dfpt_looppert : ek2=    5.5214596204E+01
          f-sum rule ratio=    1.1827201475E+00
 prteigrs : about to open file /scratch/users/j/a/jabreu/flow_simple_remain_atoms/flow/w238/t1/tmpdata/tmp_1WF1_EIG
 Expectation of eigenvalue derivatives (hartree) for nkpt=   2  k points:
  (in case of degenerate eigenvalues, averaged derivative)
 kpt#   1, nband= 29, wtk=  0.50000, kpt=  0.5000  0.5000  0.5000 (reduced coord)
   0.00000   -0.00000   -0.00000   -0.00000    0.00000   -0.00000    0.00000    0.00000
   0.00000    0.00000    0.00000    0.00000    0.00000    0.00000   -0.00000   -0.00000
   0.00000    0.00000    0.00000   -0.00000   -0.00000    0.00000    0.00000    0.00000
   0.00000   -0.00000    0.00000    0.00000   -0.00024
 prteigrs : prtvol=0 or 1, do not print more k-points.

 Eight components of 2nd-order total energy (hartree) are
 1,2,3: 0th-order hamiltonian combined with 1st-order wavefunctions
     kin0=   3.09390203E+01 eigvalue=  -5.60123632E-01  local=  -1.35440526E+01
 4,5,6: 1st-order hamiltonian combined with 1st and 0th-order wfs
     kin1=  -6.53034154E+01  Hartree=   0.00000000E+00     xc=   0.00000000E+00
 7,8,9: eventually, occupation + non-local contributions
    edocc=   1.44911294E+01     enl0=   3.50919539E-01   enl1=   1.94962931E+00
 1-9 gives the relaxation energy (to be shifted if some occ is /=2.0)
   erelax=  -3.16768930E+01
  No Ewald or frozen-wf contrib.: the relaxation energy is the total one
 2DEtotal=   -0.3167689303E+02 Ha. Also 2DEtotal=   -0.861972095741E+03 eV
    (  non-var. 2DEtotal :   -3.1676893030E+01 Ha)

 CALCULATION OF EFFECTIVE MASSES
 NOTE : Additional infos (eff. mass eigenvalues, eigenvectors and, if degenerate, average mass) are available in stdout.

--- !WARNING
src_file: m_efmas.F90
src_line: 0
message: |
    Effective masses calculations require given k-point(s) to be band extrema for given bands, but max abs gradient of band(s) was found to be greater than 1e-5. Abinit will continue anyway.
...

[...]

--- !WARNING
src_file: m_efmas.F90
src_line: 0
message: |
    Effective masses calculations require given k-point(s) to be band extrema for given bands, but max abs gradient of band(s) was found to be greater than 1e-5. Abinit will continue anyway.
...

 K-point ( 0.500, 0.500, 0.500) | band =    20
 Effective mass tensor:
             -1.6835304446             -0.3617124393             -0.3629656590
             -0.3617124393             -1.6820980633             -0.3624174828
             -0.3629656590             -0.3624174828             -1.6848523646
 Effective mass tensor eigenvalues:
             -2.4082264738             -1.3212286450             -1.3210257537
 Angular average effective mass 1/(<1/m>)=  -1.5551276264
 Angular average effective mass for Frohlich model (<m**0.5>)**2=  -1.5885172253
 Effective masses along directions: (cart. coord. / red. coord. -> eff. mass)
    1:   1.000000  0.000000  0.000000 /   0.999998  0.001836  0.000000 ->  -1.5551856750
    2:   0.000000  1.000000  0.000000 /   0.000000  1.000000  0.000000 ->  -1.5540266765
    3:   0.000000  0.000000  1.000000 /   0.001839  0.001839  0.999997 ->  -1.5561720109
    4:   0.577350  0.577350  0.577350 /   0.577350  0.578407  0.576291 ->  -2.4082219853
    5:   0.000000  0.707107  0.707107 /   0.001299  0.707754  0.706457 ->  -1.8899224042
    6:   0.707107  0.000000  0.707107 /   0.707753  0.002596  0.706455 ->  -1.8912907632
    7:   0.707107  0.707107  0.000000 /   0.706459  0.707754  0.000000 ->  -1.8883760339

 COMMENTS:
 - At k-point ( 0.000, 0.000, 0.000), bands    21 through    22
   are DEGENERATE (effective mass tensor is therefore not defined).
   See Section IIIB Eqs. (67)-(70) and Appendix E of PRB 93 205147 (2016).
 - Angular average effective mass for Frohlich model is to be averaged over degenerate bands. See later.
 - Associated theta integrals calculated with ntheta=   1000 points.

 K-point ( 0.000, 0.000, 0.000) | band =    21
 Transport equivalent effective mass tensor:
              7.5539514828             -0.9331911092             -0.9366298438
             -0.9331911092              7.5574400155             -0.9349062454
             -0.9366298438             -0.9349062454              7.5505062679
 Transport equivalent effective mass tensor eigenvalues:
              8.4888961356              8.4888602342              5.6841413965
 Angular average effective mass 1/(<1/m>)=   1.3321369884
 Angular average effective mass for Frohlich model (<m**0.5>)**2=   1.6067119290
 Effective masses along directions: (cart. coord. / red. coord. -> eff. mass)
    1:   1.000000  0.000000  0.000000 /   0.999998  0.001836  0.000000 ->   4.0878112467
    2:   0.000000  1.000000  0.000000 /   0.000000  1.000000  0.000000 ->   4.1013531407
    3:   0.000000  0.000000  1.000000 /   0.001839  0.001839  0.999997 ->   4.0743865557
    4:   0.577350  0.577350  0.577350 /   0.577350  0.578407  0.576291 ->   0.5665476746
    5:   0.000000  0.707107  0.707107 /   0.001299  0.707754  0.706457 ->   0.8347766976
    6:   0.707107  0.000000  0.707107 /   0.707753  0.002596  0.706455 ->   0.8347047538
    7:   0.707107  0.707107  0.000000 /   0.706459  0.707754  0.000000 ->   0.8348369176

 K-point ( 0.000, 0.000, 0.000) | band =    22
 Transport equivalent effective mass tensor:
              0.5324067661              0.0024752428              0.0024832506
              0.0024752428              0.5324017261              0.0024794788
              0.0024832506              0.0024794788              0.5324169990
 Transport equivalent effective mass tensor eigenvalues:
              0.5373671576              0.5299299040              0.5299284296
 Angular average effective mass 1/(<1/m>)=   0.4359290823
 Angular average effective mass for Frohlich model (<m**0.5>)**2=   0.4410178496
 Effective masses along directions: (cart. coord. / red. coord. -> eff. mass)
    1:   1.000000  0.000000  0.000000 /   0.999998  0.001836  0.000000 ->   0.3571427941
    2:   0.000000  1.000000  0.000000 /   0.000000  1.000000  0.000000 ->   0.3571557038
    3:   0.000000  0.000000  1.000000 /   0.001839  0.001839  0.999997 ->   0.3571317862
    4:   0.577350  0.577350  0.577350 /   0.577350  0.578407  0.576291 ->   0.5650719744
    5:   0.000000  0.707107  0.707107 /   0.001299  0.707754  0.706457 ->   0.4780659872
    6:   0.707107  0.000000  0.707107 /   0.707753  0.002596  0.706455 ->   0.4778811819
    7:   0.707107  0.707107  0.000000 /   0.706459  0.707754  0.000000 ->   0.4782499645

 Angular average effective mass for Frohlich model, averaged over degenerate bands.
 Value of     (<<m**0.5>>)**2 =     9.328210E-01
 Absolute Value of <<m**0.5>> =     9.658266E-01

 END OF EFFECTIVE MASSES SECTION

 ---- first-order wavefunction calculations are completed ----

 Total localisation tensor (bohr^2) in cartesian coordinates
  WARNING : still subject to testing - especially symmetries.
      direction              matrix element
   alpha     beta       real part   imaginary part
     1        1       1.1254004101    0.0000000000
     1        2       0.0020659464    0.0000000000
     1        3       0.0020735241    0.0000000000
     2        1       0.0020659464    0.0000000000
     2        2       1.1254082198    0.0000000000
     2        3       0.0020697494    0.0000000000
     3        1       0.0020735241    0.0000000000
     3        2       0.0020697494    0.0000000000
     3        3       1.1254084387    0.0000000000

 respfn : d/dk was computed, but no 2DTE, so no DDB output.

== END DATASET(S) ==============================================================

 -outvars: echo values of variables after computation  --------
            acell      1.0000000000E+00  1.0000000000E+00  1.0000000000E+00 Bohr
              amu      3.90983000E+01  9.29063800E+01  1.59994000E+01
             ecut      4.40000000E+01 Hartree
           etotal     -3.1676893030E+01
            fcart      0.0000000000E+00  0.0000000000E+00  0.0000000000E+00
                       0.0000000000E+00  0.0000000000E+00  0.0000000000E+00
                       0.0000000000E+00  0.0000000000E+00  0.0000000000E+00
                       0.0000000000E+00  0.0000000000E+00  0.0000000000E+00
                       0.0000000000E+00  0.0000000000E+00  0.0000000000E+00
-          fftalg         512
           irdden           1
           irdwfk           1
           istwfk        1    1
              ixc     -116133
              kpt      5.00000000E-01  5.00000000E-01  5.00000000E-01
                       0.00000000E+00  0.00000000E+00  0.00000000E+00
           kptopt           0
P           mkmem           2
P          mkqmem           2
P          mk1mem           2
            natom           5
            nband          29
           nbdbuf           4
            ngfft          48      48      48
             nkpt           2
            nstep        2000
             nsym           6
           ntypat           3
              occ      2.000000  2.000000  2.000000  2.000000  2.000000  2.000000
                       2.000000  2.000000  2.000000  2.000000  2.000000  2.000000
                       2.000000  2.000000  2.000000  2.000000  2.000000  2.000000
                       2.000000  2.000000  0.000000  0.000000  0.000000  0.000000
                       0.000000  0.000000  0.000000  0.000000  0.000000
        optdriver           1
            prtwf          -1
            rfdir           1       1       1
           rfelfd           2
            rprim      7.5630791145E+00  0.0000000000E+00  1.3909310400E-02
                       1.3883753200E-02  7.5630663711E+00  1.3909310400E-02
                       0.0000000000E+00  0.0000000000E+00  7.5630919048E+00
          spgroup         160
           strten      0.0000000000E+00  0.0000000000E+00  0.0000000000E+00
                       0.0000000000E+00  0.0000000000E+00  0.0000000000E+00
           symrel      1  0  0   0  1  0   0  0  1       0  1  0   1  0  0   0  0  1
                       0  0  1   1  0  0   0  1  0       1  0  0   0  0  1   0  1  0
                       0  1  0   0  0  1   1  0  0       0  0  1   0  1  0   1  0  0
           tolwfr      1.00000000E-20
            typat      1  2  3  3  3
           useylm           1
              wtk        0.50000    0.50000
           xangst      5.7561186796E-02  5.7455616946E-02  5.7667145312E-02
                       2.0204594037E+00  2.0167537887E+00  2.0241786613E+00
                       1.2548910764E-01  2.1168608761E+00  2.1209848038E+00
                       2.1207504294E+00  2.1168608761E+00  1.2938960645E-01
                       2.1170876731E+00  1.2160291622E-01  2.1209848038E+00
            xcart      1.0877487893E-01  1.0857538082E-01  1.0897511151E-01
                       3.8181149356E+00  3.8111123381E+00  3.8251433139E+00
                       2.3714004609E-01  4.0002873173E+00  4.0080804112E+00
                       4.0076375078E+00  4.0002873173E+00  2.4451092062E-01
                       4.0007159015E+00  2.2979620862E-01  4.0080804112E+00
             xred      1.4356000000E-02  1.4356000000E-02  1.4356000000E-02
                       5.0391100000E-01  5.0391100000E-01  5.0391100000E-01
                       3.0384000000E-02  5.2892400000E-01  5.2892400000E-01
                       5.2892400000E-01  5.2892400000E-01  3.0384000000E-02
                       5.2892400000E-01  3.0384000000E-02  5.2892400000E-01
            znucl       19.00000   41.00000    8.00000

- Timing analysis has been suppressed with timopt=0

 Suggested references for the acknowledgment of ABINIT usage.

 Calculation completed.
.Delivered   8 WARNINGs and   5 COMMENTs to log file.