.Version 9.5.1 of ABINIT

 ABINIT is a project of the Universite Catholique de Louvain,
 Corning Inc. and other collaborators, see ~abinit/doc/developers/contributors.txt .
 acknowledgments of the ABINIT effort.

.Starting date : Tue 27 Apr 2021.
- ( at 18h27 )

- input  file    -> /scratch/users/j/a/jabreu/flow_simple_4atoms/flow/w159/t1/run.abi
- output file    -> /scratch/users/j/a/jabreu/flow_simple_4atoms/flow/w159/t1/run.abo
- root for input  files -> /scratch/users/j/a/jabreu/flow_simple_4atoms/flow/w159/t1/indata/in
- root for output files -> /scratch/users/j/a/jabreu/flow_simple_4atoms/flow/w159/t1/outdata/out

 Symmetries : space group Im m m (# 71); Bravais oI (body-center ortho.)
     intxc =       0      iscf =       7    lmnmax =      32     lnmax =       8
     mgfft =      64  mpssoang =       4    mqgrid =    3001     natom =       4
  nloc_mem =       1    nspden =       1   nspinor =       1    nsppol =       1
      nsym =       8    n1xccc =    2501    ntypat =       2    occopt =       1
   xclevel =       2
-    mband =          24        mffmem =           1         mkmem =           2
-   mkqmem =           2        mk1mem =           2           mpw =        9449
      nfft =      262144          nkpt =           2
  Rough estimation (10% accuracy) of disk space for files :

------------- Echo of variables that govern the present computation ------------
-
- outvars: echo of selected default values
-   iomode0 =  0 , fftalg0 =512 , wfoptalg0 =  0
-
- outvars: echo of global parameters not present in the input file
-  max_nthreads =    0
-
 -outvars: echo values of preprocessed input variables --------
            acell      1.0000000000E+00  1.0000000000E+00  1.0000000000E+00 Bohr
              amu      1.32905430E+02  1.59994000E+01
             ecut      4.40000000E+01 Hartree
-          fftalg         512
           irdden           1
           irdwfk           1
           istwfk        1    0
              ixc     -116133
              kpt      0.00000000E+00  0.00000000E+00  0.00000000E+00
                       9.98762282E-02 -9.98762282E-02  9.98762282E-02
           kptopt           0
P           mkmem           2
P          mkqmem           2
P          mk1mem           2
            natom           4
            nband          24
           nbdbuf           4
            ngfft          64      64      64
             nkpt           2
            nstep         100
             nsym           8
           ntypat           2
              occ      2.000000  2.000000  2.000000  2.000000  2.000000  2.000000
                       2.000000  2.000000  2.000000  2.000000  2.000000  2.000000
                       2.000000  2.000000  2.000000  0.000000  0.000000  0.000000
                       0.000000  0.000000  0.000000  0.000000  0.000000  0.000000
        optdriver           1
            prtwf          -1
            rfdir           1       1       1
           rfelfd           2
            rprim      9.6479677005E+00  0.0000000000E+00 -2.9277891126E+00
                      -2.3917581151E+00  6.9938657999E+00 -6.8571542297E+00
                       0.0000000000E+00  0.0000000000E+00  1.0082421824E+01
          spgroup          71
           symrel      1  0  0   0  1  0   0  0  1      -1  0  0   0 -1  0   0  0 -1
                       0  0  1  -1 -1 -1   1  0  0       0  0 -1   1  1  1  -1  0  0
                      -1 -1 -1   0  0  1   0  1  0       1  1  1   0  0 -1   0 -1  0
                       0  1  0   1  0  0  -1 -1 -1       0 -1  0  -1  0  0   1  1  1
           tolwfr      1.00000000E-20
            typat      1  1  2  2
           useylm           1
              wtk        0.50000    0.50000
           xangst      9.7796778240E-01  9.4260995995E-01 -1.3187821036E+00
                       2.8618529509E+00  2.7583844213E+00 -3.8591869005E+00
                       1.9574274854E+00  0.0000000000E+00  1.4515673303E+00
                       3.1480571309E+00  0.0000000000E+00  2.3345012365E+00
            xcart      1.8480912755E+00  1.7812746744E+00 -2.4921370048E+00
                       5.4081183099E+00  5.2125911255E+00 -7.2928063375E+00
                       3.6990018725E+00  0.0000000000E+00  2.7430647177E+00
                       5.9489658280E+00  0.0000000000E+00  4.4115679938E+00
             xred      2.5469100000E-01  2.5469100000E-01  6.9388939039E-18
                       7.4530900000E-01  7.4530900000E-01 -2.7755575616E-17
                       3.8339700000E-01  0.0000000000E+00  3.8339700000E-01
                       6.1660300000E-01  0.0000000000E+00  6.1660300000E-01
            znucl       55.00000    8.00000

 chkinp: Checking input parameters for consistency.

== DATASET  1 ==================================================================
-   mpi_nproc: 1, omp_nthreads: -1 (-1 if OMP is not activated)

--- !DatasetInfo
iteration_state: {dtset: 1, }
dimensions: {natom: 4, nkpt: 2, mband: 24, nsppol: 1, nspinor: 1, nspden: 1, mpw: 9449, }
cutoff_energies: {ecut:  44.0, pawecutdg:  -1.0, }
electrons: {nelect:   3.00000000E+01, charge:   0.00000000E+00, occopt:   1.00000000E+00, tsmear:   1.00000000E-02, }
meta: {optdriver: 1, rfelfd: 2, }
...

 Real(R)+Recip(G) space primitive vectors, cartesian coordinates (Bohr,Bohr^-1):
 R(1)=  9.6479677  0.0000000 -2.9277891  G(1)=  0.1036488  0.0354457  0.0000000
 R(2)= -2.3917581  6.9938658 -6.8571542  G(2)=  0.0000000  0.1429824  0.0000000
 R(3)=  0.0000000  0.0000000 10.0824218  G(3)=  0.0300981  0.1075367  0.0991825
 Unit cell volume ucvol=  6.8032746E+02 bohr^3
 Angles (23,13,12)=  1.32852226E+02  1.06881037E+02  9.16907382E+01 degrees

 getcut: wavevector=  0.0000  0.0000  0.0000  ngfft=  64  64  64
         ecut(hartree)=     44.000   => boxcut(ratio)=   2.12596

--- Pseudopotential description ------------------------------------------------
- pspini: atom type   1  psp file is /scratch/users/j/a/jabreu/pseudos/PBEsol/Cs.psp8
- pspatm: opening atomic psp file    /scratch/users/j/a/jabreu/pseudos/PBEsol/Cs.psp8
- Cs    ONCVPSP-3.3.0  r_core=   2.27353   1.85623   2.01788   1.90105
- 55.00000   9.00000    180112                znucl, zion, pspdat
    8 -116133    3    4       600   0.00000   pspcod,pspxc,lmax,lloc,mmax,r2well
    5.99000000000000    5.00000000000000    0.00000000000000   rchrg,fchrg,qchrg
     nproj     2     2     2     2
     extension_switch     1
  pspatm : epsatm=   22.12462445
         --- l  ekb(1:nproj) -->
             0    6.214110    0.767882
             1    6.311966    0.793598
             2    3.769790    0.913105
             3   -9.247129   -2.432478
 pspatm: atomic psp has been read  and splines computed

- pspini: atom type   2  psp file is /scratch/users/j/a/jabreu/pseudos/PBEsol/O.psp8
- pspatm: opening atomic psp file    /scratch/users/j/a/jabreu/pseudos/PBEsol/O.psp8
- O     ONCVPSP-3.3.0  r_core=   1.35509   1.45563   1.26150
-  8.00000   6.00000    180112                znucl, zion, pspdat
    8 -116133    2    4       600   0.00000   pspcod,pspxc,lmax,lloc,mmax,r2well
    5.99000000000000    4.00000000000000    0.00000000000000   rchrg,fchrg,qchrg
     nproj     2     2     1
     extension_switch     1
  pspatm : epsatm=    6.22910522
         --- l  ekb(1:nproj) -->
             0    6.050032    0.820363
             1   -4.739617   -1.153841
             2   -1.335834
 pspatm: atomic psp has been read  and splines computed

   1.70122378E+03                                ecore*ucvol(ha*bohr**3)

-inwffil : will read wavefunctions from disk file /scratch/users/j/a/jabreu/flow_simple_4atoms/flow/w159/t1/indata/in_WFK

 ==>  initialize data related to q vector <==

 The list of irreducible perturbations for this q vector is:
    1)    idir= 1    ipert=   5
    2)    idir= 2    ipert=   5
    3)    idir= 3    ipert=   5

 Perturbation wavevector (in red.coord.)   0.000000  0.000000  0.000000
 Perturbation : derivative vs k along direction   1

 dfpt_looppert : COMMENT -
  In a d/dk calculation, iscf is set to -3 automatically.
 The set of symmetries contains only one element for this perturbation.
 symkpt : not enough symmetry to change the number of k points.

[...]

 Initialisation of the first-order wave-functions :
  ireadwf=   0

--- !BeginCycle
iteration_state: {dtset: 1, }
solver: {iscf: 7, nstep: 100, nline: 4, wfoptalg: 0, }
tolerances: {tolwfr: 1.00E-20, }
...

     iter   2DEtotal(Ha)        deltaE(Ha) residm    vres2
-ETOT  1  -15.872702944370     -1.587E+01 2.603E-02 0.000E+00
 ETOT  2  -15.892258463054     -1.956E-02 1.485E-03 0.000E+00
 ETOT  3  -15.892925086780     -6.666E-04 1.149E-04 0.000E+00
 ETOT  4  -15.892963156883     -3.807E-05 7.251E-06 0.000E+00
 ETOT  5  -15.892965650422     -2.494E-06 1.497E-06 0.000E+00
 ETOT  6  -15.892965822285     -1.719E-07 9.671E-08 0.000E+00
 ETOT  7  -15.892965834526     -1.224E-08 2.251E-08 0.000E+00
 ETOT  8  -15.892965835415     -8.891E-10 1.546E-09 0.000E+00
 ETOT  9  -15.892965835481     -6.558E-11 3.693E-10 0.000E+00
 ETOT 10  -15.892965835486     -4.887E-12 2.622E-11 0.000E+00
 ETOT 11  -15.892965835486     -3.553E-13 6.218E-12 0.000E+00
 ETOT 12  -15.892965835486     -2.132E-14 4.522E-13 0.000E+00
 ETOT 13  -15.892965835486     -1.243E-14 1.063E-13 0.000E+00
 ETOT 14  -15.892965835486      5.329E-15 7.887E-15 0.000E+00
 ETOT 15  -15.892965835486     -7.105E-15 1.838E-15 0.000E+00
 ETOT 16  -15.892965835486      1.421E-14 1.388E-16 0.000E+00
 ETOT 17  -15.892965835486     -1.243E-14 3.202E-17 0.000E+00
 ETOT 18  -15.892965835486      1.776E-15 2.458E-18 0.000E+00
 ETOT 19  -15.892965835486      0.000E+00 5.615E-19 0.000E+00
 ETOT 20  -15.892965835486      0.000E+00 4.381E-20 0.000E+00
 ETOT 21  -15.892965835486      3.553E-15 9.980E-21 0.000E+00

 At SCF step   21   max residual=  9.98E-21 < tolwfr=  1.00E-20 =>converged.

 ----iterations are completed or convergence reached----

 dfpt_looppert: DFPT cycle converged with prtwf=-1. Will skip output of the 1st-order WFK file.
 dfpt_looppert : ek2=    2.8423202297E+01
          f-sum rule ratio=    1.0305681156E+00
 prteigrs : about to open file /scratch/users/j/a/jabreu/flow_simple_4atoms/flow/w159/t1/tmpdata/tmp_1WF1_EIG
 Expectation of eigenvalue derivatives (hartree) for nkpt=   2  k points:
  (in case of degenerate eigenvalues, averaged derivative)
 kpt#   1, nband= 24, wtk=  0.50000, kpt=  0.0000  0.0000  0.0000 (reduced coord)
  -0.00000    0.00000    0.00000    0.00000   -0.00000    0.00000   -0.00000   -0.00000
   0.00000    0.00000   -0.00000   -0.00000    0.00000    0.00000   -0.00000    0.00000
   0.00000    0.00000    0.00000   -0.00000   -0.00000    0.00000    0.00000    0.00182
 prteigrs : prtvol=0 or 1, do not print more k-points.

 Eight components of 2nd-order total energy (hartree) are
 1,2,3: 0th-order hamiltonian combined with 1st-order wavefunctions
     kin0=   1.49602202E+01 eigvalue=  -1.22655527E-02  local=  -7.01553653E+00
 4,5,6: 1st-order hamiltonian combined with 1st and 0th-order wfs
     kin1=  -2.92920460E+01  Hartree=   0.00000000E+00     xc=   0.00000000E+00
 7,8,9: eventually, occupation + non-local contributions
    edocc=   6.77259634E+00     enl0=   1.18795143E+00   enl1=  -2.49388564E+00
 1-9 gives the relaxation energy (to be shifted if some occ is /=2.0)
   erelax=  -1.58929658E+01
  No Ewald or frozen-wf contrib.: the relaxation energy is the total one
 2DEtotal=   -0.1589296584E+02 Ha. Also 2DEtotal=   -0.432469594023E+03 eV
    (  non-var. 2DEtotal :   -1.5892965835E+01 Ha)

 Perturbation wavevector (in red.coord.)   0.000000  0.000000  0.000000
 Perturbation : derivative vs k along direction   2
 The set of symmetries contains only one element for this perturbation.
 symkpt : not enough symmetry to change the number of k points.

[...]

 Perturbation wavevector (in red.coord.)   0.000000  0.000000  0.000000
 Perturbation : derivative vs k along direction   3
 The set of symmetries contains only one element for this perturbation.
 symkpt : not enough symmetry to change the number of k points.

-inwffil : will read wavefunctions from disk file /scratch/users/j/a/jabreu/flow_simple_4atoms/flow/w159/t1/indata/in_WFK

 Initialisation of the first-order wave-functions :
  ireadwf=   0

--- !BeginCycle
iteration_state: {dtset: 1, }
solver: {iscf: 7, nstep: 100, nline: 4, wfoptalg: 0, }
tolerances: {tolwfr: 1.00E-20, }
...

     iter   2DEtotal(Ha)        deltaE(Ha) residm    vres2
-ETOT  1  -30.454275491285     -3.045E+01 4.188E-02 0.000E+00
 ETOT  2  -30.485440297444     -3.116E-02 4.660E-03 0.000E+00
 ETOT  3  -30.486469388964     -1.029E-03 7.540E-05 0.000E+00
 ETOT  4  -30.486527307108     -5.792E-05 1.356E-05 0.000E+00
 ETOT  5  -30.486531137863     -3.831E-06 7.078E-07 0.000E+00
 ETOT  6  -30.486531405088     -2.672E-07 1.497E-07 0.000E+00
 ETOT  7  -30.486531424271     -1.918E-08 8.521E-09 0.000E+00
 ETOT  8  -30.486531425671     -1.400E-09 1.949E-09 0.000E+00
 ETOT  9  -30.486531425774     -1.034E-10 1.130E-10 0.000E+00
 ETOT 10  -30.486531425782     -7.706E-12 2.705E-11 0.000E+00
 ETOT 11  -30.486531425782     -5.720E-13 1.563E-12 0.000E+00
 ETOT 12  -30.486531425782     -6.040E-14 3.908E-13 0.000E+00
 ETOT 13  -30.486531425782      0.000E+00 2.259E-14 0.000E+00
 ETOT 14  -30.486531425782      0.000E+00 5.837E-15 0.000E+00
 ETOT 15  -30.486531425782      0.000E+00 3.356E-16 0.000E+00
 ETOT 16  -30.486531425782      7.105E-15 8.949E-17 0.000E+00
 ETOT 17  -30.486531425782      7.105E-15 5.104E-18 0.000E+00
 ETOT 18  -30.486531425782      0.000E+00 1.401E-18 0.000E+00
 ETOT 19  -30.486531425782      0.000E+00 7.882E-20 0.000E+00
 ETOT 20  -30.486531425782      7.105E-15 2.227E-20 0.000E+00
 ETOT 21  -30.486531425782     -7.105E-15 9.860E-21 0.000E+00

 At SCF step   21   max residual=  9.86E-21 < tolwfr=  1.00E-20 =>converged.

 ----iterations are completed or convergence reached----

 dfpt_looppert: DFPT cycle converged with prtwf=-1. Will skip output of the 1st-order WFK file.
 dfpt_looppert : ek2=    5.2839197560E+01
          f-sum rule ratio=    1.0650547434E+00
 prteigrs : about to open file /scratch/users/j/a/jabreu/flow_simple_4atoms/flow/w159/t1/tmpdata/tmp_1WF1_EIG
 Expectation of eigenvalue derivatives (hartree) for nkpt=   2  k points:
  (in case of degenerate eigenvalues, averaged derivative)
 kpt#   1, nband= 24, wtk=  0.50000, kpt=  0.0000  0.0000  0.0000 (reduced coord)
  -0.00000    0.00000   -0.00000    0.00000   -0.00000   -0.00000   -0.00000    0.00000
   0.00000    0.00000    0.00000    0.00000    0.00000   -0.00000    0.00000    0.00000
   0.00000    0.00000   -0.00000   -0.00000   -0.00000    0.00000    0.00000    0.00073
 prteigrs : prtvol=0 or 1, do not print more k-points.

 Eight components of 2nd-order total energy (hartree) are
 1,2,3: 0th-order hamiltonian combined with 1st-order wavefunctions
     kin0=   2.67411884E+01 eigvalue=  -1.48866092E-01  local=  -1.22266161E+01
 4,5,6: 1st-order hamiltonian combined with 1st and 0th-order wfs
     kin1=  -5.62766380E+01  Hartree=   0.00000000E+00     xc=   0.00000000E+00
 7,8,9: eventually, occupation + non-local contributions
    edocc=   1.41185816E+01     enl0=   2.00224363E+00   enl1=  -4.69642485E+00
 1-9 gives the relaxation energy (to be shifted if some occ is /=2.0)
   erelax=  -3.04865314E+01
  No Ewald or frozen-wf contrib.: the relaxation energy is the total one
 2DEtotal=   -0.3048653143E+02 Ha. Also 2DEtotal=   -0.829580709187E+03 eV
    (  non-var. 2DEtotal :   -3.0486531426E+01 Ha)

 CALCULATION OF EFFECTIVE MASSES
 NOTE : Additional infos (eff. mass eigenvalues, eigenvectors and, if degenerate, average mass) are available in stdout.

 K-point ( 0.000, 0.000, 0.000) | band =    15
 Effective mass tensor:
             -1.4232498703              0.3806509030              0.0063017900
              0.3806509030             -2.1778339630             -0.5133476060
              0.0063017900             -0.5133476060             -1.4269901472
 Effective mass tensor eigenvalues:
             -2.5447652202             -1.4185467098             -1.0647620505
 Angular average effective mass 1/(<1/m>)=  -1.4726908922
 Angular average effective mass for Frohlich model (<m**0.5>)**2=  -1.5262739790
 Effective masses along directions: (cart. coord. / red. coord. -> eff. mass)
    1:   1.000000  0.000000  0.000000 /   0.970620 -0.240619  0.000000 ->  -1.3513892438
    2:   0.000000  1.000000  0.000000 /   0.000000  1.000000  0.000000 ->  -1.8925627588
    3:   0.000000  0.000000  1.000000 /  -0.233479 -0.546829  0.804031 ->  -1.3008569281
    4:   0.577350  0.577350  0.577350 /   0.545256 -0.182968  0.818058 ->  -1.6263816760
    5:   0.000000  0.707107  0.707107 /  -0.278842  0.013020  0.960249 ->  -2.1782091336
    6:   0.707107  0.000000  0.707107 /   0.440861 -0.606752  0.661433 ->  -1.4142599819
    7:   0.707107  0.707107  0.000000 /   0.902576  0.430531  0.000000 ->  -1.2908887403

 K-point ( 0.100,-0.100, 0.100) | band =    16
 Effective mass tensor:
              0.6182798364             -0.0207092048              0.0944390149
             -0.0207092048              0.5315261645              0.0279271645
              0.0944390149              0.0279271645              0.5609605042
 Effective mass tensor eigenvalues:
              0.4709674498              0.5514869197              0.6883121354
 Angular average effective mass 1/(<1/m>)=   0.5566484557
 Angular average effective mass for Frohlich model (<m**0.5>)**2=   0.5606239262
 Effective masses along directions: (cart. coord. / red. coord. -> eff. mass)
    1:   1.000000  0.000000  0.000000 /   0.970620 -0.240619  0.000000 ->   0.6011627999
    2:   0.000000  1.000000  0.000000 /   0.000000  1.000000  0.000000 ->   0.5290638947
    3:   0.000000  0.000000  1.000000 /  -0.233479 -0.546829  0.804031 ->   0.5447145018
    4:   0.577350  0.577350  0.577350 /   0.545256 -0.182968  0.818058 ->   0.6294862524
    5:   0.000000  0.707107  0.707107 /  -0.278842  0.013020  0.960249 ->   0.5696529160
    6:   0.707107  0.000000  0.707107 /   0.440861 -0.606752  0.661433 ->   0.6823053298
    7:   0.707107  0.707107  0.000000 /   0.902576  0.430531  0.000000 ->   0.5386421620

 END OF EFFECTIVE MASSES SECTION

 ---- first-order wavefunction calculations are completed ----

 Total localisation tensor (bohr^2) in cartesian coordinates
  WARNING : still subject to testing - especially symmetries.
      direction              matrix element
   alpha     beta       real part   imaginary part
     1        1       1.2636254023    0.0000000000
     1        2      -0.3913482659    0.0000000000
     1        3       0.0408496843    0.0000000000
     2        1      -0.3913482659    0.0000000000
     2        2       1.1443620638    0.0000000000
     2        3      -1.1219928135    0.0000000000
     3        1       0.0408496843    0.0000000000
     3        2      -1.1219928135    0.0000000000
     3        3       3.6800725520    0.0000000000

 respfn : d/dk was computed, but no 2DTE, so no DDB output.

== END DATASET(S) ==============================================================

 -outvars: echo values of variables after computation  --------
            acell      1.0000000000E+00  1.0000000000E+00  1.0000000000E+00 Bohr
              amu      1.32905430E+02  1.59994000E+01
             ecut      4.40000000E+01 Hartree
           etotal     -3.0486531426E+01
            fcart      0.0000000000E+00  0.0000000000E+00  0.0000000000E+00
                       0.0000000000E+00  0.0000000000E+00  0.0000000000E+00
                       0.0000000000E+00  0.0000000000E+00  0.0000000000E+00
                       0.0000000000E+00  0.0000000000E+00  0.0000000000E+00
-          fftalg         512
           irdden           1
           irdwfk           1
           istwfk        1    0
              ixc     -116133
              kpt      0.00000000E+00  0.00000000E+00  0.00000000E+00
                       9.98762282E-02 -9.98762282E-02  9.98762282E-02
           kptopt           0
P           mkmem           2
P          mkqmem           2
P          mk1mem           2
            natom           4
            nband          24
           nbdbuf           4
            ngfft          64      64      64
             nkpt           2
            nstep         100
             nsym           8
           ntypat           2
              occ      2.000000  2.000000  2.000000  2.000000  2.000000  2.000000
                       2.000000  2.000000  2.000000  2.000000  2.000000  2.000000
                       2.000000  2.000000  2.000000  0.000000  0.000000  0.000000
                       0.000000  0.000000  0.000000  0.000000  0.000000  0.000000
        optdriver           1
            prtwf          -1
            rfdir           1       1       1
           rfelfd           2
            rprim      9.6479677005E+00  0.0000000000E+00 -2.9277891126E+00
                      -2.3917581151E+00  6.9938657999E+00 -6.8571542297E+00
                       0.0000000000E+00  0.0000000000E+00  1.0082421824E+01
          spgroup          71
           strten      0.0000000000E+00  0.0000000000E+00  0.0000000000E+00
                       0.0000000000E+00  0.0000000000E+00  0.0000000000E+00
           symrel      1  0  0   0  1  0   0  0  1      -1  0  0   0 -1  0   0  0 -1
                       0  0  1  -1 -1 -1   1  0  0       0  0 -1   1  1  1  -1  0  0
                      -1 -1 -1   0  0  1   0  1  0       1  1  1   0  0 -1   0 -1  0
                       0  1  0   1  0  0  -1 -1 -1       0 -1  0  -1  0  0   1  1  1
           tolwfr      1.00000000E-20
            typat      1  1  2  2
           useylm           1
              wtk        0.50000    0.50000
           xangst      9.7796778240E-01  9.4260995995E-01 -1.3187821036E+00
                       2.8618529509E+00  2.7583844213E+00 -3.8591869005E+00
                       1.9574274854E+00  0.0000000000E+00  1.4515673303E+00
                       3.1480571309E+00  0.0000000000E+00  2.3345012365E+00
            xcart      1.8480912755E+00  1.7812746744E+00 -2.4921370048E+00
                       5.4081183099E+00  5.2125911255E+00 -7.2928063375E+00
                       3.6990018725E+00  0.0000000000E+00  2.7430647177E+00
                       5.9489658280E+00  0.0000000000E+00  4.4115679938E+00
             xred      2.5469100000E-01  2.5469100000E-01  6.9388939039E-18
                       7.4530900000E-01  7.4530900000E-01 -2.7755575616E-17
                       3.8339700000E-01  0.0000000000E+00  3.8339700000E-01
                       6.1660300000E-01  0.0000000000E+00  6.1660300000E-01
            znucl       55.00000    8.00000

- Timing analysis has been suppressed with timopt=0

 Suggested references for the acknowledgment of ABINIT usage.

 Calculation completed.
.Delivered  14 WARNINGs and   9 COMMENTs to log file.