.Version 9.5.1 of ABINIT

 ABINIT is a project of the Universite Catholique de Louvain,
 Corning Inc. and other collaborators, see ~abinit/doc/developers/contributors.txt .
 acknowledgments of the ABINIT effort.

.Starting date : Wed  5 May 2021.
- ( at 20h03 )

- input  file    -> /scratch/users/j/a/jabreu/flow_simple_7atoms/flow/w181/t1/run.abi
- output file    -> /scratch/users/j/a/jabreu/flow_simple_7atoms/flow/w181/t1/run.abo
- root for input  files -> /scratch/users/j/a/jabreu/flow_simple_7atoms/flow/w181/t1/indata/in
- root for output files -> /scratch/users/j/a/jabreu/flow_simple_7atoms/flow/w181/t1/outdata/out

 Symmetries : space group R3 m (#160); Bravais hR (rhombohedral)
     intxc =       0      iscf =       7    lmnmax =      18     lnmax =       6
     mgfft =      72  mpssoang =       3    mqgrid =    3022     natom =       7
  nloc_mem =       1    nspden =       1   nspinor =       1    nsppol =       1
      nsym =       6    n1xccc =    2501    ntypat =       3    occopt =       1
   xclevel =       2
-    mband =          60        mffmem =           1         mkmem =           1
-   mkqmem =           1        mk1mem =           1           mpw =       17708
      nfft =      373248          nkpt =           1
  Rough estimation (10% accuracy) of disk space for files :

------------- Echo of variables that govern the present computation ------------
-
- outvars: echo of selected default values
-   iomode0 =  0 , fftalg0 =512 , wfoptalg0 =  0
-
- outvars: echo of global parameters not present in the input file
-  max_nthreads =    0
-
 -outvars: echo values of preprocessed input variables --------
            acell      1.0000000000E+00  1.0000000000E+00  1.0000000000E+00 Bohr
              amu      2.04383300E+02  7.49215900E+01  7.89600000E+01
             ecut      4.30000000E+01 Hartree
-          fftalg         512
           irdden           1
           irdwfk           1
              ixc     -116133
              kpt      5.00000000E-01 -5.00000000E-01  5.00000000E-01
           kptopt           0
P           mkmem           1
P          mkqmem           1
P          mk1mem           1
            natom           7
            nband          60
           nbdbuf           4
            ngfft          72      72      72
             nkpt           1
            nstep        2000
             nsym           6
           ntypat           3
              occ      2.000000  2.000000  2.000000  2.000000  2.000000  2.000000
                       2.000000  2.000000  2.000000  2.000000  2.000000  2.000000
                       2.000000  2.000000  2.000000  2.000000  2.000000  2.000000
                       2.000000  2.000000  2.000000  2.000000  2.000000  2.000000
                       2.000000  2.000000  2.000000  2.000000  2.000000  2.000000
                       2.000000  2.000000  2.000000  2.000000  2.000000  2.000000
                       2.000000  2.000000  2.000000  2.000000  2.000000  2.000000
                       2.000000  2.000000  2.000000  2.000000  2.000000  2.000000
                       2.000000  2.000000  2.000000  0.000000  0.000000  0.000000
                       0.000000  0.000000  0.000000  0.000000  0.000000  0.000000
        optdriver           1
            prtwf          -1
            rfdir           1       1       1
           rfelfd           2
            rprim      1.1098595041E+01  0.0000000000E+00 -3.2219352452E+00
                      -4.2902849495E+00  1.0235832499E+01 -3.2219352452E+00
                       0.0000000000E+00  0.0000000000E+00  1.1556802266E+01
          spgroup         160
           symrel      1  0  0   0  1  0   0  0  1       0  1  0   1  0  0   0  0  1
                       0  0  1   1  0  0   0  1  0       1  0  0   0  0  1   0  1  0
                       0  1  0   0  0  1   1  0  0       0  0  1   0  1  0   1  0  0
           tolwfr      1.00000000E-20
            typat      1  1  1  2  3  3  3
           useylm           1
           xangst      5.7498566690E-01  8.6445195595E-01  2.7857469867E+00
                      -2.9887905382E-01  2.9493328002E+00 -2.2445337988E-01
                       2.8355979037E+00  8.6445195595E-01 -2.2445337988E-01
                       2.4946381163E+00  3.7505192271E+00  1.8734332487E+00
                       3.9833612266E+00  5.3894322572E-01  2.9914404477E+00
                      -1.0427646104E+00  3.8820443621E+00  2.9914404477E+00
                       2.5821213673E+00  3.8820443621E+00 -1.8354081915E+00
            xcart      1.0865654408E+00  1.6335774518E+00  5.2642988803E+00
                      -5.6479955857E-01  5.5734312672E+00 -4.2415541758E-01
                       5.3585034609E+00  1.6335774518E+00 -4.2415541758E-01
                       4.7141828405E+00  7.0874541954E+00  3.5402757683E+00
                       7.5274618066E+00  1.0184550978E+00  5.6530031890E+00
                      -1.9705395347E+00  7.3360006801E+00  5.6530031890E+00
                       4.8795022261E+00  7.3360006801E+00 -3.4684188241E+00
             xred      1.5959400000E-01  1.5959400000E-01  5.4450200000E-01
                       1.5959400000E-01  5.4450200000E-01  1.5959400000E-01
                       5.4450200000E-01  1.5959400000E-01  1.5959400000E-01
                       6.9241600000E-01  6.9241600000E-01  6.9241600000E-01
                       7.1669800000E-01  9.9499000000E-02  7.1669800000E-01
                       9.9499000000E-02  7.1669800000E-01  7.1669800000E-01
                       7.1669800000E-01  7.1669800000E-01  9.9499000000E-02
            znucl       81.00000   33.00000   34.00000

 chkinp: Checking input parameters for consistency.

== DATASET  1 ==================================================================
-   mpi_nproc: 1, omp_nthreads: -1 (-1 if OMP is not activated)

--- !DatasetInfo
iteration_state: {dtset: 1, }
dimensions: {natom: 7, nkpt: 1, mband: 60, nsppol: 1, nspinor: 1, nspden: 1, mpw: 17708, }
cutoff_energies: {ecut:  43.0, pawecutdg:  -1.0, }
electrons: {nelect:   1.02000000E+02, charge:   0.00000000E+00, occopt:   1.00000000E+00, tsmear:   1.00000000E-02, }
meta: {optdriver: 1, rfelfd: 2, }
...

 Real(R)+Recip(G) space primitive vectors, cartesian coordinates (Bohr,Bohr^-1):
 R(1)= 11.0985950  0.0000000 -3.2219352  G(1)=  0.0901015  0.0377655  0.0000000
 R(2)= -4.2902849 10.2358325 -3.2219352  G(2)=  0.0000000  0.0976960  0.0000000
 R(3)=  0.0000000  0.0000000 11.5568023  G(3)=  0.0251195  0.0377655  0.0865291
 Unit cell volume ucvol=  1.3128916E+03 bohr^3
 Angles (23,13,12)=  1.06188075E+02  1.06188075E+02  1.06188075E+02 degrees

 getcut: wavevector=  0.0000  0.0000  0.0000  ngfft=  72  72  72
         ecut(hartree)=     43.000   => boxcut(ratio)=   2.11055

--- Pseudopotential description ------------------------------------------------
- pspini: atom type   1  psp file is /scratch/users/j/a/jabreu/pseudos/PBEsol/Tl.psp8
- pspatm: opening atomic psp file    /scratch/users/j/a/jabreu/pseudos/PBEsol/Tl.psp8
- Tl    ONCVPSP-3.3.0  r_core=   2.10510   2.60929   2.00701
- 81.00000  13.00000    180112                znucl, zion, pspdat
    8 -116133    2    4       600   0.00000   pspcod,pspxc,lmax,lloc,mmax,r2well
    5.99000000000000    7.00000000000000    0.00000000000000   rchrg,fchrg,qchrg
     nproj     2     2     2
     extension_switch     1
  pspatm : epsatm=   37.24354552
         --- l  ekb(1:nproj) -->
             0    6.297242    0.908324
             1    4.393460    0.899003
             2   -2.697741   -0.589563
 pspatm: atomic psp has been read  and splines computed

- pspini: atom type   2  psp file is /scratch/users/j/a/jabreu/pseudos/PBEsol/As.psp8
- pspatm: opening atomic psp file    /scratch/users/j/a/jabreu/pseudos/PBEsol/As.psp8
- As    ONCVPSP-3.3.0  r_core=   1.76603   1.70395   1.80867
- 33.00000  15.00000    180112                znucl, zion, pspdat
    8 -116133    2    4       600   0.00000   pspcod,pspxc,lmax,lloc,mmax,r2well
    5.99000000000000    5.00000000000000    0.00000000000000   rchrg,fchrg,qchrg
     nproj     2     2     2
     extension_switch     1
  pspatm : epsatm=   28.79155382
         --- l  ekb(1:nproj) -->
             0    8.270760    0.868950
             1    4.919053    0.756587
             2  -10.048665   -4.076802
 pspatm: atomic psp has been read  and splines computed

- pspini: atom type   3  psp file is /scratch/users/j/a/jabreu/pseudos/PBEsol/Se.psp8
- pspatm: opening atomic psp file    /scratch/users/j/a/jabreu/pseudos/PBEsol/Se.psp8
- Se    ONCVPSP-3.3.0  r_core=   1.81943   1.50330   1.90835
- 34.00000  16.00000    180112                znucl, zion, pspdat
    8 -116133    2    4       600   0.00000   pspcod,pspxc,lmax,lloc,mmax,r2well
    5.99000000000000    5.00000000000000    0.00000000000000   rchrg,fchrg,qchrg
     nproj     2     2     2
     extension_switch     1
  pspatm : epsatm=   29.17862020
         --- l  ekb(1:nproj) -->
             0    8.973804    1.019550
             1    6.849857    1.297308
             2   -9.203962   -3.731027
 pspatm: atomic psp has been read  and splines computed

   2.32619212E+04                                ecore*ucvol(ha*bohr**3)

-inwffil : will read wavefunctions from disk file /scratch/users/j/a/jabreu/flow_simple_7atoms/flow/w181/t1/indata/in_WFK

 ==>  initialize data related to q vector <==

 The list of irreducible perturbations for this q vector is:
    1)    idir= 1    ipert=   8
    2)    idir= 2    ipert=   8
    3)    idir= 3    ipert=   8

 Perturbation wavevector (in red.coord.)   0.000000  0.000000  0.000000
 Perturbation : derivative vs k along direction   1

 dfpt_looppert : COMMENT -
  In a d/dk calculation, iscf is set to -3 automatically.
 The set of symmetries contains only one element for this perturbation.
 symkpt : not enough symmetry to change the number of k points.

[...]

 Initialisation of the first-order wave-functions :
  ireadwf=   0

--- !BeginCycle
iteration_state: {dtset: 1, }
solver: {iscf: 7, nstep: 2000, nline: 4, wfoptalg: 0, }
tolerances: {tolwfr: 1.00E-20, }
...

     iter   2DEtotal(Ha)        deltaE(Ha) residm    vres2
-ETOT  1  -101.38927876398     -1.014E+02 3.918E-02 0.000E+00
 ETOT  2  -101.47051624118     -8.124E-02 9.487E-04 0.000E+00
 ETOT  3  -101.47076858007     -2.523E-04 2.103E-05 0.000E+00
 ETOT  4  -101.47077096009     -2.380E-06 7.466E-07 0.000E+00
 ETOT  5  -101.47077099225     -3.216E-08 1.446E-08 0.000E+00
 ETOT  6  -101.47077099276     -5.045E-10 7.444E-10 0.000E+00
 ETOT  7  -101.47077099277     -8.811E-12 1.427E-11 0.000E+00
 ETOT  8  -101.47077099277     -1.563E-13 7.969E-13 0.000E+00
 ETOT  9  -101.47077099277      2.842E-14 1.538E-14 0.000E+00
 ETOT 10  -101.47077099277      4.263E-14 8.685E-16 0.000E+00
 ETOT 11  -101.47077099277     -8.527E-14 1.661E-17 0.000E+00
 ETOT 12  -101.47077099277      0.000E+00 9.496E-19 0.000E+00
 ETOT 13  -101.47077099277      2.842E-14 1.843E-20 0.000E+00
 ETOT 14  -101.47077099277      1.421E-14 9.988E-21 0.000E+00

 At SCF step   14   max residual=  9.99E-21 < tolwfr=  1.00E-20 =>converged.

 ----iterations are completed or convergence reached----

 dfpt_looppert: DFPT cycle converged with prtwf=-1. Will skip output of the 1st-order WFK file.
 dfpt_looppert : ek2=    7.6867642807E+01
          f-sum rule ratio=    1.1623306881E+00
 prteigrs : about to open file /scratch/users/j/a/jabreu/flow_simple_7atoms/flow/w181/t1/tmpdata/tmp_1WF1_EIG
 Expectation of eigenvalue derivatives (hartree) for nkpt=   1  k points:
  (in case of degenerate eigenvalues, averaged derivative)
 kpt#   1, nband= 60, wtk=  1.00000, kpt=  0.5000 -0.5000  0.5000 (reduced coord)
  -0.00000   -0.00000   -0.00000    0.00000    0.00000    0.00000    0.00000    0.00000
   0.00000    0.00000    0.00000    0.00000   -0.00000    0.00000    0.00000   -0.00000
  -0.00000    0.00000    0.00000    0.00000    0.00000   -0.00000   -0.00000   -0.00000
   0.00000    0.00000    0.00000    0.00000   -0.00000   -0.00000   -0.00000   -0.00000
  -0.00000   -0.00000   -0.00000   -0.00000   -0.00000   -0.00000   -0.00000   -0.00000
  -0.00000    0.00000    0.00000    0.00000    0.00000   -0.00000   -0.00000   -0.00000
   0.00000   -0.00000   -0.00000    0.00000    0.00000    0.00000   -0.00000    0.00000
   0.00000   -0.00000   -0.00000   -0.00000

 Eight components of 2nd-order total energy (hartree) are
 1,2,3: 0th-order hamiltonian combined with 1st-order wavefunctions
     kin0=   1.07057526E+02 eigvalue=   1.31584218E+01  local=  -4.78389205E+01
 4,5,6: 1st-order hamiltonian combined with 1st and 0th-order wfs
     kin1=  -8.93456202E+01  Hartree=   0.00000000E+00     xc=   0.00000000E+00
 7,8,9: eventually, occupation + non-local contributions
    edocc=   1.60790046E+01     enl0=   1.30147394E+01   enl1=  -1.13595922E+02
 1-9 gives the relaxation energy (to be shifted if some occ is /=2.0)
   erelax=  -1.01470771E+02
  No Ewald or frozen-wf contrib.: the relaxation energy is the total one
 2DEtotal=   -0.1014707710E+03 Ha. Also 2DEtotal=   -0.276116010005E+04 eV
    (  non-var. 2DEtotal :   -1.0147077099E+02 Ha)

 Perturbation wavevector (in red.coord.)   0.000000  0.000000  0.000000
 Perturbation : derivative vs k along direction   2
 The set of symmetries contains only one element for this perturbation.
 symkpt : not enough symmetry to change the number of k points.

[...]

 Perturbation wavevector (in red.coord.)   0.000000  0.000000  0.000000
 Perturbation : derivative vs k along direction   3
 The set of symmetries contains only one element for this perturbation.
 symkpt : not enough symmetry to change the number of k points.

-inwffil : will read wavefunctions from disk file /scratch/users/j/a/jabreu/flow_simple_7atoms/flow/w181/t1/indata/in_WFK

 Initialisation of the first-order wave-functions :
  ireadwf=   0

--- !BeginCycle
iteration_state: {dtset: 1, }
solver: {iscf: 7, nstep: 2000, nline: 4, wfoptalg: 0, }
tolerances: {tolwfr: 1.00E-20, }
...

     iter   2DEtotal(Ha)        deltaE(Ha) residm    vres2
-ETOT  1  -101.38780619420     -1.014E+02 4.821E-02 0.000E+00
 ETOT  2  -101.47052247102     -8.272E-02 1.370E-03 0.000E+00
 ETOT  3  -101.47076779230     -2.453E-04 3.027E-05 0.000E+00
 ETOT  4  -101.47076979112     -1.999E-06 1.276E-06 0.000E+00
 ETOT  5  -101.47076981408     -2.296E-08 3.413E-08 0.000E+00
 ETOT  6  -101.47076981438     -3.090E-10 1.678E-09 0.000E+00
 ETOT  7  -101.47076981439     -4.675E-12 4.954E-11 0.000E+00
 ETOT  8  -101.47076981439     -5.684E-14 2.562E-12 0.000E+00
 ETOT  9  -101.47076981439     -5.684E-14 7.744E-14 0.000E+00
 ETOT 10  -101.47076981439     -4.263E-14 4.093E-15 0.000E+00
 ETOT 11  -101.47076981439      4.263E-14 1.232E-16 0.000E+00
 ETOT 12  -101.47076981439      1.421E-14 6.595E-18 0.000E+00
 ETOT 13  -101.47076981439     -2.842E-14 1.973E-19 0.000E+00
 ETOT 14  -101.47076981439      0.000E+00 1.065E-20 0.000E+00
 ETOT 15  -101.47076981439      0.000E+00 9.801E-21 0.000E+00

 At SCF step   15   max residual=  9.80E-21 < tolwfr=  1.00E-20 =>converged.

 ----iterations are completed or convergence reached----

 dfpt_looppert: DFPT cycle converged with prtwf=-1. Will skip output of the 1st-order WFK file.
 dfpt_looppert : ek2=    7.6867642807E+01
          f-sum rule ratio=    1.1623306682E+00
 prteigrs : about to open file /scratch/users/j/a/jabreu/flow_simple_7atoms/flow/w181/t1/tmpdata/tmp_1WF1_EIG
 Expectation of eigenvalue derivatives (hartree) for nkpt=   1  k points:
  (in case of degenerate eigenvalues, averaged derivative)
 kpt#   1, nband= 60, wtk=  1.00000, kpt=  0.5000 -0.5000  0.5000 (reduced coord)
  -0.00000   -0.00000   -0.00000    0.00000    0.00000    0.00000    0.00000    0.00000
   0.00000   -0.00000   -0.00000   -0.00000    0.00000    0.00000    0.00000    0.00000
   0.00000    0.00000    0.00000    0.00000   -0.00000    0.00000    0.00000    0.00000
   0.00000   -0.00000    0.00000    0.00000   -0.00000   -0.00000    0.00000    0.00000
  -0.00000   -0.00000    0.00000    0.00000   -0.00000   -0.00000   -0.00000    0.00000
   0.00000    0.00000   -0.00000   -0.00000    0.00000   -0.00000   -0.00000   -0.00000
  -0.00000   -0.00000   -0.00000    0.00000   -0.00000   -0.00000    0.00000    0.00000
   0.00000   -0.00000   -0.00000   -0.00000

 Eight components of 2nd-order total energy (hartree) are
 1,2,3: 0th-order hamiltonian combined with 1st-order wavefunctions
     kin0=   1.07057537E+02 eigvalue=   1.31584196E+01  local=  -4.78389283E+01
 4,5,6: 1st-order hamiltonian combined with 1st and 0th-order wfs
     kin1=  -8.93456186E+01  Hartree=   0.00000000E+00     xc=   0.00000000E+00
 7,8,9: eventually, occupation + non-local contributions
    edocc=   1.60789994E+01     enl0=   1.30147421E+01   enl1=  -1.13595921E+02
 1-9 gives the relaxation energy (to be shifted if some occ is /=2.0)
   erelax=  -1.01470770E+02
  No Ewald or frozen-wf contrib.: the relaxation energy is the total one
 2DEtotal=   -0.1014707698E+03 Ha. Also 2DEtotal=   -0.276116006799E+04 eV
    (  non-var. 2DEtotal :   -1.0147076981E+02 Ha)

 CALCULATION OF EFFECTIVE MASSES
 NOTE : Additional infos (eff. mass eigenvalues, eigenvectors and, if degenerate, average mass) are available in stdout.

 COMMENTS:
 - At k-point ( 0.500,-0.500, 0.500), bands    50 through    51
   are DEGENERATE (effective mass tensor is therefore not defined).
   See Section IIIB Eqs. (67)-(70) and Appendix E of PRB 93 205147 (2016).
 - Angular average effective mass for Frohlich model is to be averaged over degenerate bands. See later.
 - Associated theta integrals calculated with ntheta=   1000 points.

 K-point ( 0.500,-0.500, 0.500) | band =    50
 Transport equivalent effective mass tensor:
             -0.2157885781              0.0277643398              0.0138685938
              0.0277643398             -0.1925141478              0.0208504631
              0.0138685938              0.0208504631             -0.2238408999
 Transport equivalent effective mass tensor eigenvalues:
             -0.2342559307             -0.2342559030             -0.1636317920
 Angular average effective mass 1/(<1/m>)=  -0.1986191294
 Angular average effective mass for Frohlich model (<m**0.5>)**2=  -0.2009212823
 Effective masses along directions: (cart. coord. / red. coord. -> eff. mass)
    1:   1.000000  0.000000  0.000000 /   0.932736 -0.360560  0.000000 ->  -0.2168602140
    2:   0.000000  1.000000  0.000000 /   0.000000  1.000000  0.000000 ->  -0.2003903650
    3:   0.000000  0.000000  1.000000 /  -0.259360 -0.259360  0.930303 ->  -0.2323940442
    4:   0.577350  0.577350  0.577350 /   0.552807  0.191151  0.811090 ->  -0.1595484736
    5:   0.000000  0.707107  0.707107 /  -0.231839  0.504694  0.831585 ->  -0.1679771970
    6:   0.707107  0.000000  0.707107 /   0.496149 -0.473193  0.727960 ->  -0.1804499480
    7:   0.707107  0.707107  0.000000 /   0.881484  0.472213  0.000000 ->  -0.1643128077

 K-point ( 0.500,-0.500, 0.500) | band =    51
 Transport equivalent effective mass tensor:
             -1.3906493811              0.6256027810              0.3124964302
              0.6256027810             -0.8662145596              0.4698177938
              0.3124964302              0.4698177938             -1.5720857663
 Transport equivalent effective mass tensor eigenvalues:
             -1.8067661311             -1.8067654638             -0.2154181121
 Angular average effective mass 1/(<1/m>)=  -0.4054171653
 Angular average effective mass for Frohlich model (<m**0.5>)**2=  -0.5901790402
 Effective masses along directions: (cart. coord. / red. coord. -> eff. mass)
    1:   1.000000  0.000000  0.000000 /   0.932736 -0.360560  0.000000 ->  -0.4242586529
    2:   0.000000  1.000000  0.000000 /   0.000000  1.000000  0.000000 ->  -0.2260877277
    3:   0.000000  0.000000  1.000000 /  -0.259360 -0.259360  0.930303 ->  -0.5496333814
    4:   0.577350  0.577350  0.577350 /   0.552807  0.191151  0.811090 ->  -0.1782648239
    5:   0.000000  0.707107  0.707107 /  -0.231839  0.504694  0.831585 ->  -0.2496844607
    6:   0.707107  0.000000  0.707107 /   0.496149 -0.473193  0.727960 ->  -0.4064077621
    7:   0.707107  0.707107  0.000000 /   0.881484  0.472213  0.000000 ->  -0.1991424271

 Angular average effective mass for Frohlich model, averaged over degenerate bands.
 Value of     (<<m**0.5>>)**2 =     3.699520E-01
 Absolute Value of <<m**0.5>> =     6.082368E-01

 K-point ( 0.500,-0.500, 0.500) | band =    52
 Effective mass tensor:
              0.2145702662              0.0347079176              0.0173370576
              0.0347079176              0.2436654786              0.0260650902
              0.0173370576              0.0260650902              0.2045043296
 Effective mass tensor eigenvalues:
              0.1914844772              0.1914844778              0.2797711194
 Angular average effective mass 1/(<1/m>)=   0.2139943578
 Angular average effective mass for Frohlich model (<m**0.5>)**2=   0.2159078945
 Effective masses along directions: (cart. coord. / red. coord. -> eff. mass)
    1:   1.000000  0.000000  0.000000 /   0.932736 -0.360560  0.000000 ->   0.2087062259
    2:   0.000000  1.000000  0.000000 /   0.000000  1.000000  0.000000 ->   0.2353873140
    3:   0.000000  0.000000  1.000000 /  -0.259360 -0.259360  0.930303 ->   0.2008306358
    4:   0.577350  0.577350  0.577350 /   0.552807  0.191151  0.811090 ->   0.2701978824
    5:   0.000000  0.707107  0.707107 /  -0.231839  0.504694  0.831585 ->   0.2422906791
    6:   0.707107  0.000000  0.707107 /   0.496149 -0.473193  0.727960 ->   0.2192141521
    7:   0.707107  0.707107  0.000000 /   0.881484  0.472213  0.000000 ->   0.2582648435

 END OF EFFECTIVE MASSES SECTION

 ---- first-order wavefunction calculations are completed ----

 Total localisation tensor (bohr^2) in cartesian coordinates
  WARNING : still subject to testing - especially symmetries.
      direction              matrix element
   alpha     beta       real part   imaginary part
     1        1       4.6698084700    0.0000000000
     1        2      -1.4484050664    0.0000000000
     1        3      -0.7234972189    0.0000000000
     2        1      -1.4484050664    0.0000000000
     2        2       3.4556286642    0.0000000000
     2        3      -1.0877289941    0.0000000000
     3        1      -0.7234972189    0.0000000000
     3        2      -1.0877289941    0.0000000000
     3        3       5.0898725045    0.0000000000

 respfn : d/dk was computed, but no 2DTE, so no DDB output.

== END DATASET(S) ==============================================================

 -outvars: echo values of variables after computation  --------
            acell      1.0000000000E+00  1.0000000000E+00  1.0000000000E+00 Bohr
              amu      2.04383300E+02  7.49215900E+01  7.89600000E+01
             ecut      4.30000000E+01 Hartree
           etotal     -1.0147076981E+02
            fcart      0.0000000000E+00  0.0000000000E+00  0.0000000000E+00
                       0.0000000000E+00  0.0000000000E+00  0.0000000000E+00
                       0.0000000000E+00  0.0000000000E+00  0.0000000000E+00
                       0.0000000000E+00  0.0000000000E+00  0.0000000000E+00
                       0.0000000000E+00  0.0000000000E+00  0.0000000000E+00
                       0.0000000000E+00  0.0000000000E+00  0.0000000000E+00
                       0.0000000000E+00  0.0000000000E+00  0.0000000000E+00
-          fftalg         512
           irdden           1
           irdwfk           1
              ixc     -116133
              kpt      5.00000000E-01 -5.00000000E-01  5.00000000E-01
           kptopt           0
P           mkmem           1
P          mkqmem           1
P          mk1mem           1
            natom           7
            nband          60
           nbdbuf           4
            ngfft          72      72      72
             nkpt           1
            nstep        2000
             nsym           6
           ntypat           3
              occ      2.000000  2.000000  2.000000  2.000000  2.000000  2.000000
                       2.000000  2.000000  2.000000  2.000000  2.000000  2.000000
                       2.000000  2.000000  2.000000  2.000000  2.000000  2.000000
                       2.000000  2.000000  2.000000  2.000000  2.000000  2.000000
                       2.000000  2.000000  2.000000  2.000000  2.000000  2.000000
                       2.000000  2.000000  2.000000  2.000000  2.000000  2.000000
                       2.000000  2.000000  2.000000  2.000000  2.000000  2.000000
                       2.000000  2.000000  2.000000  2.000000  2.000000  2.000000
                       2.000000  2.000000  2.000000  0.000000  0.000000  0.000000
                       0.000000  0.000000  0.000000  0.000000  0.000000  0.000000
        optdriver           1
            prtwf          -1
            rfdir           1       1       1
           rfelfd           2
            rprim      1.1098595041E+01  0.0000000000E+00 -3.2219352452E+00
                      -4.2902849495E+00  1.0235832499E+01 -3.2219352452E+00
                       0.0000000000E+00  0.0000000000E+00  1.1556802266E+01
          spgroup         160
           strten      0.0000000000E+00  0.0000000000E+00  0.0000000000E+00
                       0.0000000000E+00  0.0000000000E+00  0.0000000000E+00
           symrel      1  0  0   0  1  0   0  0  1       0  1  0   1  0  0   0  0  1
                       0  0  1   1  0  0   0  1  0       1  0  0   0  0  1   0  1  0
                       0  1  0   0  0  1   1  0  0       0  0  1   0  1  0   1  0  0
           tolwfr      1.00000000E-20
            typat      1  1  1  2  3  3  3
           useylm           1
           xangst      5.7498566690E-01  8.6445195595E-01  2.7857469867E+00
                      -2.9887905382E-01  2.9493328002E+00 -2.2445337988E-01
                       2.8355979037E+00  8.6445195595E-01 -2.2445337988E-01
                       2.4946381163E+00  3.7505192271E+00  1.8734332487E+00
                       3.9833612266E+00  5.3894322572E-01  2.9914404477E+00
                      -1.0427646104E+00  3.8820443621E+00  2.9914404477E+00
                       2.5821213673E+00  3.8820443621E+00 -1.8354081915E+00
            xcart      1.0865654408E+00  1.6335774518E+00  5.2642988803E+00
                      -5.6479955857E-01  5.5734312672E+00 -4.2415541758E-01
                       5.3585034609E+00  1.6335774518E+00 -4.2415541758E-01
                       4.7141828405E+00  7.0874541954E+00  3.5402757683E+00
                       7.5274618066E+00  1.0184550978E+00  5.6530031890E+00
                      -1.9705395347E+00  7.3360006801E+00  5.6530031890E+00
                       4.8795022261E+00  7.3360006801E+00 -3.4684188241E+00
             xred      1.5959400000E-01  1.5959400000E-01  5.4450200000E-01
                       1.5959400000E-01  5.4450200000E-01  1.5959400000E-01
                       5.4450200000E-01  1.5959400000E-01  1.5959400000E-01
                       6.9241600000E-01  6.9241600000E-01  6.9241600000E-01
                       7.1669800000E-01  9.9499000000E-02  7.1669800000E-01
                       9.9499000000E-02  7.1669800000E-01  7.1669800000E-01
                       7.1669800000E-01  7.1669800000E-01  9.9499000000E-02
            znucl       81.00000   33.00000   34.00000

- Timing analysis has been suppressed with timopt=0

 Suggested references for the acknowledgment of ABINIT usage.

 Calculation completed.
.Delivered   6 WARNINGs and   5 COMMENTs to log file.