.Version 9.5.2 of ABINIT

 ABINIT is a project of the Universite Catholique de Louvain,
 Corning Inc. and other collaborators, see ~abinit/doc/developers/contributors.txt .
 acknowledgments of the ABINIT effort.

.Starting date : Mon 24 May 2021.
- ( at 11h30 )

- input  file    -> /scratch/users/j/a/jabreu/flow_simple_10atoms/flow/w333/t1/run.abi
- output file    -> /scratch/users/j/a/jabreu/flow_simple_10atoms/flow/w333/t1/run.abo
- root for input  files -> /scratch/users/j/a/jabreu/flow_simple_10atoms/flow/w333/t1/indata/in
- root for output files -> /scratch/users/j/a/jabreu/flow_simple_10atoms/flow/w333/t1/outdata/out

 Symmetries : space group I4/m m m (#139); Bravais tI (body-center tetrag.)
     intxc =       0      iscf =       7    lmnmax =      32     lnmax =       8
     mgfft =      80  mpssoang =       4    mqgrid =    3190     natom =      10
  nloc_mem =       1    nspden =       1   nspinor =       1    nsppol =       1
      nsym =      16    n1xccc =    2501    ntypat =       3    occopt =       1
   xclevel =       2
-    mband =          49        mffmem =           1         mkmem =           2
-   mkqmem =           2        mk1mem =           2           mpw =       22091
      nfft =      512000          nkpt =           2
  Rough estimation (10% accuracy) of disk space for files :

------------- Echo of variables that govern the present computation ------------
-
- outvars: echo of selected default values
-   iomode0 =  0 , fftalg0 =512 , wfoptalg0 =  0
-
- outvars: echo of global parameters not present in the input file
-  max_nthreads =    0
-
 -outvars: echo values of preprocessed input variables --------
            acell      1.0000000000E+00  1.0000000000E+00  1.0000000000E+00 Bohr
              amu      1.32905430E+02  8.89058500E+01  1.89984032E+01
             ecut      4.20000000E+01 Hartree
-          fftalg         512
           irdden           1
           irdwfk           1
           istwfk        0    1
              ixc     -116133
              kpt      5.00000000E-01  5.00000000E-01 -5.00000000E-01
                       0.00000000E+00  0.00000000E+00  0.00000000E+00
           kptopt           0
P           mkmem           2
P          mkqmem           2
P          mk1mem           2
            natom          10
            nband          49
           nbdbuf           4
            ngfft          80      80      80
             nkpt           2
            nstep        2000
             nsym          16
           ntypat           3
              occ      2.000000  2.000000  2.000000  2.000000  2.000000  2.000000
                       2.000000  2.000000  2.000000  2.000000  2.000000  2.000000
                       2.000000  2.000000  2.000000  2.000000  2.000000  2.000000
                       2.000000  2.000000  2.000000  2.000000  2.000000  2.000000
                       2.000000  2.000000  2.000000  2.000000  2.000000  2.000000
                       2.000000  2.000000  2.000000  2.000000  2.000000  2.000000
                       2.000000  2.000000  2.000000  2.000000  0.000000  0.000000
                       0.000000  0.000000  0.000000  0.000000  0.000000  0.000000
                       0.000000
        optdriver           1
            prtwf          -1
            rfdir           1       1       1
           rfelfd           2
            rprim      1.1621968449E+01  0.0000000000E+00 -6.5951952402E+00
                      -3.9409548320E+00  1.0933390400E+01 -6.5951952402E+00
                       0.0000000000E+00  0.0000000000E+00  1.3362887071E+01
          spgroup         139
           symrel      1  0  0   0  1  0   0  0  1      -1  0  0   0 -1  0   0  0 -1
                      -1 -1 -1   0  0  1   0  1  0       1  1  1   0  0 -1   0 -1  0
                       0  1  0   1  0  0  -1 -1 -1       0 -1  0  -1  0  0   1  1  1
                       0  0  1  -1 -1 -1   1  0  0       0  0 -1   1  1  1  -1  0  0
                       0  1  0   1  0  0   0  0  1       0 -1  0  -1  0  0   0  0 -1
                      -1 -1 -1   0  0  1   1  0  0       1  1  1   0  0 -1  -1  0  0
                       1  0  0   0  1  0  -1 -1 -1      -1  0  0   0 -1  0   1  1  1
                       0  0  1  -1 -1 -1   0  1  0       0  0 -1   1  1  1   0 -1  0
           tolwfr      1.00000000E-20
            typat      1  1  1  2  3  3  3  3  3  3
           useylm           1
              wtk        0.50000    0.50000
           xangst     -2.6577402369E-02  4.3392757592E+00  4.5640632232E-02
                       2.0323086724E+00  2.8928505061E+00 -3.4900270073E+00
                       4.0911947472E+00  1.4464252531E+00  4.5640632232E-02
                       0.0000000000E+00  0.0000000000E+00  0.0000000000E+00
                      -1.4565356581E+00  4.0408666581E+00  2.5012680671E+00
                       1.8547229241E+00  0.0000000000E+00  1.0800402047E+00
                       4.2953578980E+00  0.0000000000E+00  2.5012680671E+00
                      -6.2892781906E-01  1.7448343542E+00  1.0800402047E+00
                       3.1644224769E+00  4.5043360234E+00 -5.4341744720E+00
                       9.0019486799E-01  1.2813649889E+00 -1.5458795427E+00
            xcart     -5.0224011800E-02  8.2000427999E+00  8.6248295450E-02
                       3.8405068084E+00  5.4666952000E+00 -6.5951952402E+00
                       7.7312376286E+00  2.7333476000E+00  8.6248295450E-02
                       0.0000000000E+00  0.0000000000E+00  0.0000000000E+00
                      -2.7524534966E+00  7.6361313233E+00  4.7267116318E+00
                       3.5049183789E+00  0.0000000000E+00  2.0409801993E+00
                       8.1170500699E+00  0.0000000000E+00  4.7267116318E+00
                      -1.1885013354E+00  3.2972590766E+00  2.0409801993E+00
                       5.9798918501E+00  8.5119614946E+00 -1.0269101510E+01
                       1.7011217667E+00  2.4214289053E+00 -2.9212889701E+00
             xred      2.5000000000E-01  7.5000000000E-01  5.0000000000E-01
                       5.0000000000E-01  5.0000000000E-01  0.0000000000E+00
                       7.5000000000E-01  2.5000000000E-01  5.0000000000E-01
                       0.0000000000E+00  0.0000000000E+00  0.0000000000E+00
                      -2.7755575616E-17  6.9842300000E-01  6.9842300000E-01
                       3.0157700000E-01  0.0000000000E+00  3.0157700000E-01
                       6.9842300000E-01  0.0000000000E+00  6.9842300000E-01
                       0.0000000000E+00  3.0157700000E-01  3.0157700000E-01
                       7.7852900000E-01  7.7852900000E-01 -5.5511151231E-17
                       2.2147100000E-01  2.2147100000E-01  1.3877787808E-17
            znucl       55.00000   39.00000    9.00000

 chkinp: Checking input parameters for consistency.

== DATASET  1 ==================================================================
-   mpi_nproc: 1, omp_nthreads: -1 (-1 if OMP is not activated)

--- !DatasetInfo
iteration_state: {dtset: 1, }
dimensions: {natom: 10, nkpt: 2, mband: 49, nsppol: 1, nspinor: 1, nspden: 1, mpw: 22091, }
cutoff_energies: {ecut:  42.0, pawecutdg:  -1.0, }
electrons: {nelect:   8.00000000E+01, charge:   0.00000000E+00, occopt:   1.00000000E+00, tsmear:   1.00000000E-02, }
meta: {optdriver: 1, rfelfd: 2, }
...

 Real(R)+Recip(G) space primitive vectors, cartesian coordinates (Bohr,Bohr^-1):
 R(1)= 11.6219684  0.0000000 -6.5951952  G(1)=  0.0860439  0.0310147  0.0000000
 R(2)= -3.9409548 10.9333904 -6.5951952  G(2)=  0.0000000  0.0914629  0.0000000
 R(3)=  0.0000000  0.0000000 13.3628871  G(3)=  0.0424666  0.0604483  0.0748341
 Unit cell volume ucvol=  1.6979889E+03 bohr^3
 Angles (23,13,12)=  1.19573897E+02  1.19573897E+02  9.07396307E+01 degrees

 getcut: wavevector=  0.0000  0.0000  0.0000  ngfft=  80  80  80
         ecut(hartree)=     42.000   => boxcut(ratio)=   2.05228

--- Pseudopotential description ------------------------------------------------
- pspini: atom type   1  psp file is /scratch/users/j/a/jabreu/pseudos/PBEsol/Cs.psp8
- pspatm: opening atomic psp file    /scratch/users/j/a/jabreu/pseudos/PBEsol/Cs.psp8
- Cs    ONCVPSP-3.3.0  r_core=   2.27353   1.85623   2.01788   1.90105
- 55.00000   9.00000    180112                znucl, zion, pspdat
    8 -116133    3    4       600   0.00000   pspcod,pspxc,lmax,lloc,mmax,r2well
    5.99000000000000    5.00000000000000    0.00000000000000   rchrg,fchrg,qchrg
     nproj     2     2     2     2
     extension_switch     1
  pspatm : epsatm=   22.12462445
         --- l  ekb(1:nproj) -->
             0    6.214110    0.767882
             1    6.311966    0.793598
             2    3.769790    0.913105
             3   -9.247129   -2.432478
 pspatm: atomic psp has been read  and splines computed

- pspini: atom type   2  psp file is /scratch/users/j/a/jabreu/pseudos/PBEsol/Y.psp8
- pspatm: opening atomic psp file    /scratch/users/j/a/jabreu/pseudos/PBEsol/Y.psp8
- Y     ONCVPSP-3.3.0  r_core=   1.60520   1.51226   1.56736
- 39.00000  11.00000    180112                znucl, zion, pspdat
    8 -116133    2    4       600   0.00000   pspcod,pspxc,lmax,lloc,mmax,r2well
    5.99000000000000    4.00000000000000    0.00000000000000   rchrg,fchrg,qchrg
     nproj     2     2     2
     extension_switch     1
  pspatm : epsatm=   18.54790046
         --- l  ekb(1:nproj) -->
             0   10.130768    0.866504
             1    5.598307    0.427135
             2    1.217602    0.315447
 pspatm: atomic psp has been read  and splines computed

- pspini: atom type   3  psp file is /scratch/users/j/a/jabreu/pseudos/PBEsol/F.psp8
- pspatm: opening atomic psp file    /scratch/users/j/a/jabreu/pseudos/PBEsol/F.psp8
- F     ONCVPSP-3.3.0  r_core=   1.30942   1.45782   1.60379
-  9.00000   7.00000    180112                znucl, zion, pspdat
    8 -116133    2    4       600   0.00000   pspcod,pspxc,lmax,lloc,mmax,r2well
    5.99000000000000    2.50000000000000    0.00000000000000   rchrg,fchrg,qchrg
     nproj     2     2     1
     extension_switch     1
  pspatm : epsatm=    4.89824824
         --- l  ekb(1:nproj) -->
             0    6.506434    1.065875
             1   -3.978753   -1.295852
             2   -2.394754
 pspatm: atomic psp has been read  and splines computed

   9.14490106E+03                                ecore*ucvol(ha*bohr**3)

 ==>  initialize data related to q vector <==

 The list of irreducible perturbations for this q vector is:
    1)    idir= 1    ipert=  11
    2)    idir= 2    ipert=  11
    3)    idir= 3    ipert=  11

 Perturbation wavevector (in red.coord.)   0.000000  0.000000  0.000000
 Perturbation : derivative vs k along direction   1

 dfpt_looppert : COMMENT -
  In a d/dk calculation, iscf is set to -3 automatically.
 The set of symmetries contains only one element for this perturbation.
 symkpt : not enough symmetry to change the number of k points.

 Initialisation of the first-order wave-functions :
  ireadwf=   0

--- !BeginCycle
iteration_state: {dtset: 1, }
solver: {iscf: 7, nstep: 2000, nline: 4, wfoptalg: 0, }
tolerances: {tolwfr: 1.00E-20, }
...

     iter   2DEtotal(Ha)        deltaE(Ha) residm    vres2
[...]
 ETOT 17  -38.563360673875     -7.105E-15 6.995E-08 0.000E+00
 ETOT 18  -38.563360673875      0.000E+00 6.827E-08 0.000E+00
 ETOT 19  -38.563360673875      7.105E-15 1.802E-08 0.000E+00
 ETOT 20  -38.563360673875      0.000E+00 1.701E-08 0.000E+00
 ETOT 21  -38.563360673875     -2.132E-14 4.656E-09 0.000E+00
 ETOT 22  -38.563360673875      1.421E-14 4.247E-09 0.000E+00
 ETOT 23  -38.563360673875      7.105E-15 1.206E-09 0.000E+00
 ETOT 24  -38.563360673875     -1.421E-14 1.067E-09 0.000E+00
 ETOT 25  -38.563360673875      1.421E-14 3.131E-10 0.000E+00
 ETOT 26  -38.563360673875      7.105E-15 2.697E-10 0.000E+00
 ETOT 27  -38.563360673875      7.105E-15 8.146E-11 0.000E+00
 ETOT 28  -38.563360673875     -1.421E-14 6.852E-11 0.000E+00
 ETOT 29  -38.563360673875      0.000E+00 2.123E-11 0.000E+00
 ETOT 30  -38.563360673875      7.105E-15 1.749E-11 0.000E+00
 ETOT 31  -38.563360673875      0.000E+00 5.541E-12 0.000E+00
 ETOT 32  -38.563360673875     -7.105E-15 4.482E-12 0.000E+00
 ETOT 33  -38.563360673875      7.105E-15 1.448E-12 0.000E+00
 ETOT 34  -38.563360673875      0.000E+00 1.152E-12 0.000E+00
 ETOT 35  -38.563360673875      0.000E+00 3.786E-13 0.000E+00
 ETOT 36  -38.563360673875      0.000E+00 2.967E-13 0.000E+00
 ETOT 37  -38.563360673875      0.000E+00 9.910E-14 0.000E+00
 ETOT 38  -38.563360673875      7.105E-15 7.656E-14 0.000E+00
 ETOT 39  -38.563360673875     -1.421E-14 2.596E-14 0.000E+00
 ETOT 40  -38.563360673875     -7.105E-15 1.979E-14 0.000E+00
 ETOT 41  -38.563360673875      1.421E-14 6.802E-15 0.000E+00
 ETOT 42  -38.563360673875     -7.105E-15 5.120E-15 0.000E+00
 ETOT 43  -38.563360673875     -7.105E-15 1.784E-15 0.000E+00
 ETOT 44  -38.563360673875      1.421E-14 1.326E-15 0.000E+00
 ETOT 45  -38.563360673875      7.105E-15 4.679E-16 0.000E+00
 ETOT 46  -38.563360673875     -7.105E-15 3.440E-16 0.000E+00
 ETOT 47  -38.563360673875     -1.421E-14 1.228E-16 0.000E+00
 ETOT 48  -38.563360673875      1.421E-14 8.928E-17 0.000E+00
 ETOT 49  -38.563360673875      0.000E+00 3.224E-17 0.000E+00
 ETOT 50  -38.563360673875      0.000E+00 2.319E-17 0.000E+00
 ETOT 51  -38.563360673875      0.000E+00 8.469E-18 0.000E+00
 ETOT 52  -38.563360673875      0.000E+00 6.031E-18 0.000E+00
 ETOT 53  -38.563360673875      0.000E+00 2.225E-18 0.000E+00
 ETOT 54  -38.563360673875      0.000E+00 1.569E-18 0.000E+00
 ETOT 55  -38.563360673875      7.105E-15 5.850E-19 0.000E+00
 ETOT 56  -38.563360673875     -7.105E-15 4.088E-19 0.000E+00
 ETOT 57  -38.563360673875      0.000E+00 1.538E-19 0.000E+00
 ETOT 58  -38.563360673875      0.000E+00 1.066E-19 0.000E+00
 ETOT 59  -38.563360673875      7.105E-15 4.046E-20 0.000E+00
 ETOT 60  -38.563360673875     -7.105E-15 2.781E-20 0.000E+00
 ETOT 61  -38.563360673875      0.000E+00 1.065E-20 0.000E+00
 ETOT 62  -38.563360673875      0.000E+00 9.989E-21 0.000E+00

 At SCF step   62   max residual=  9.99E-21 < tolwfr=  1.00E-20 =>converged.

 ----iterations are completed or convergence reached----

 dfpt_looppert: DFPT cycle converged with prtwf=-1. Will skip output of the 1st-order WFK file.
 dfpt_looppert : ek2=    6.9845566857E+01
          f-sum rule ratio=    1.0255436199E+00
 prteigrs : about to open file /scratch/users/j/a/jabreu/flow_simple_10atoms/flow/w333/t1/tmpdata/tmp_1WF1_EIG
 Expectation of eigenvalue derivatives (hartree) for nkpt=   2  k points:
  (in case of degenerate eigenvalues, averaged derivative)
 kpt#   1, nband= 49, wtk=  0.50000, kpt=  0.5000  0.5000 -0.5000 (reduced coord)
  -0.00000    0.00000    0.00000    0.00000   -0.00000    0.00000    0.00000    0.00000
   0.00000   -0.00000    0.00000    0.00000    0.00000   -0.00000   -0.00000   -0.00000
   0.00000    0.00000   -0.00000   -0.00000   -0.00000   -0.00000   -0.00000   -0.00000
   0.00000    0.00000    0.00000    0.00000   -0.00000    0.00000    0.00000    0.00000
   0.00000    0.00000    0.00000    0.00000   -0.00000    0.00000    0.00000    0.00000
   0.00000   -0.00000   -0.00000   -0.00000   -0.00000    0.00000    0.00000    0.00001
  -0.00000
 prteigrs : prtvol=0 or 1, do not print more k-points.

 Eight components of 2nd-order total energy (hartree) are
 1,2,3: 0th-order hamiltonian combined with 1st-order wavefunctions
     kin0=   5.19685178E+01 eigvalue=   4.19370908E+00  local=  -2.83106840E+01
 4,5,6: 1st-order hamiltonian combined with 1st and 0th-order wfs
     kin1=  -7.16296755E+01  Hartree=   0.00000000E+00     xc=   0.00000000E+00
 7,8,9: eventually, occupation + non-local contributions
    edocc=   6.50605284E+00     enl0=   4.20576495E+00   enl1=  -5.49704588E+00
 1-9 gives the relaxation energy (to be shifted if some occ is /=2.0)
   erelax=  -3.85633607E+01
  No Ewald or frozen-wf contrib.: the relaxation energy is the total one
 2DEtotal=   -0.3856336067E+02 Ha. Also 2DEtotal=   -0.104936241023E+04 eV
    (  non-var. 2DEtotal :   -3.8563360674E+01 Ha)

 CALCULATION OF EFFECTIVE MASSES
 NOTE : Additional infos (eff. mass eigenvalues, eigenvectors and, if degenerate, average mass) are available in stdout.

 COMMENTS:
 - At k-point ( 0.500, 0.500,-0.500), bands    39 through    40
   are DEGENERATE (effective mass tensor is therefore not defined).
   See Section IIIB Eqs. (67)-(70) and Appendix E of PRB 93 205147 (2016).
 - Angular average effective mass for Frohlich model is to be averaged over degenerate bands. See later.
 - Associated theta integrals calculated with ntheta=   1000 points.

 K-point ( 0.500, 0.500,-0.500) | band =    39
 Transport equivalent effective mass tensor:
             -7.2326645965             -8.9076052797             10.7466047391
             -8.9076052797            -13.6545905384             15.2974403196
             10.7466047391             15.2974403196            -19.4302583707
 Transport equivalent effective mass tensor eigenvalues:
            -38.3677826596             -0.9749608451             -0.9747700009
 Angular average effective mass 1/(<1/m>)=  -1.2683631698
 Angular average effective mass for Frohlich model (<m**0.5>)**2=  -1.7642425901
 Effective masses along directions: (cart. coord. / red. coord. -> eff. mass)
    1:   1.000000  0.000000  0.000000 /   0.947034 -0.321135  0.000000 ->  -0.9544214353
    2:   0.000000  1.000000  0.000000 /   0.000000  1.000000  0.000000 ->  -1.0811660968
    3:   0.000000  0.000000  1.000000 /  -0.404712 -0.404712  0.820010 ->  -2.1836357777
    4:   0.577350  0.577350  0.577350 /   0.351951  0.027813  0.935605 ->  -1.0774700999
    5:   0.000000  0.707107  0.707107 /  -0.424937  0.279515  0.860988 ->  -0.8246210843
    6:   0.707107  0.000000  0.707107 /   0.283296 -0.593790  0.753098 ->  -0.7712761922
    7:   0.707107  0.707107  0.000000 /   0.856866  0.515539  0.000000 ->  -1.8124178956

 K-point ( 0.500, 0.500,-0.500) | band =    40
 Transport equivalent effective mass tensor:
           -631.4210126774           -668.8976708277            806.9888690943
           -668.8976708277          -1113.7787838157           1148.7540168764
            806.9888690943           1148.7540168764          -1547.4299039084
 Transport equivalent effective mass tensor eigenvalues:
          -2969.5320819489           -161.5725910816           -161.5250273710
 Angular average effective mass 1/(<1/m>)=  -6.1807892107
 Angular average effective mass for Frohlich model (<m**0.5>)**2= -12.7607866821
 Effective masses along directions: (cart. coord. / red. coord. -> eff. mass)
    1:   1.000000  0.000000  0.000000 /   0.947034 -0.321135  0.000000 ->  -8.1274092655
    2:   0.000000  1.000000  0.000000 /   0.000000  1.000000  0.000000 -> -56.7718988868
    3:   0.000000  0.000000  1.000000 /  -0.404712 -0.404712  0.820010 ->  -3.5798794566
    4:   0.577350  0.577350  0.577350 /   0.351951  0.027813  0.935605 ->  -2.3358281173
    5:   0.000000  0.707107  0.707107 /  -0.424937  0.279515  0.860988 ->  -5.8513459475
    6:   0.707107  0.000000  0.707107 /   0.283296 -0.593790  0.753098 -> -25.3752424660
    7:   0.707107  0.707107  0.000000 /   0.856866  0.515539  0.000000 ->  -5.3093911016

 Angular average effective mass for Frohlich model, averaged over degenerate bands.
 Value of     (<<m**0.5>>)**2 =     6.003657E+00
 Absolute Value of <<m**0.5>> =     2.450236E+00

 K-point ( 0.000, 0.000, 0.000) | band =    41
 Effective mass tensor:
              0.4914245221              0.0354707484             -0.0427833670
              0.0354707484              0.5169690760             -0.0609193720
             -0.0427833670             -0.0609193720              0.5399737240
 Effective mass tensor eigenvalues:
              0.4664743431              0.4665095765              0.6153834025
 Angular average effective mass 1/(<1/m>)=   0.5074148064
 Angular average effective mass for Frohlich model (<m**0.5>)**2=   0.5098836983
 Effective masses along directions: (cart. coord. / red. coord. -> eff. mass)
    1:   1.000000  0.000000  0.000000 /   0.947034 -0.321135  0.000000 ->   0.4861937646
    2:   0.000000  1.000000  0.000000 /   0.000000  1.000000  0.000000 ->   0.5081720534
    3:   0.000000  0.000000  1.000000 /  -0.404712 -0.404712  0.820010 ->   0.5297474513
    4:   0.577350  0.577350  0.577350 /   0.351951  0.027813  0.935605 ->   0.4696535386
    5:   0.000000  0.707107  0.707107 /  -0.424937  0.279515  0.860988 ->   0.4672931338
    6:   0.707107  0.000000  0.707107 /   0.283296 -0.593790  0.753098 ->   0.4714163950
    7:   0.707107  0.707107  0.000000 /   0.856866  0.515539  0.000000 ->   0.5294496557

 END OF EFFECTIVE MASSES SECTION

 ---- first-order wavefunction calculations are completed ----

 Total localisation tensor (bohr^2) in cartesian coordinates
  WARNING : still subject to testing - especially symmetries.
      direction              matrix element
   alpha     beta       real part   imaginary part
     1        1       0.8481852172    0.0000000000
     1        2      -0.2426654450    0.0000000000
     1        3      -0.2853089541    0.0000000000
     2        1      -0.2426654450    0.0000000000
     2        2       0.6732267076    0.0000000000
     2        3      -0.4061010734    0.0000000000
     3        1      -0.2853089541    0.0000000000
     3        2      -0.4061010734    0.0000000000
     3        3       1.8272663379    0.0000000000

 respfn : d/dk was computed, but no 2DTE, so no DDB output.

== END DATASET(S) ==============================================================

 -outvars: echo values of variables after computation  --------
            acell      1.0000000000E+00  1.0000000000E+00  1.0000000000E+00 Bohr
              amu      1.32905430E+02  8.89058500E+01  1.89984032E+01
             ecut      4.20000000E+01 Hartree
           etotal     -3.8563360674E+01
            fcart      0.0000000000E+00  0.0000000000E+00  0.0000000000E+00
                       0.0000000000E+00  0.0000000000E+00  0.0000000000E+00
                       0.0000000000E+00  0.0000000000E+00  0.0000000000E+00
                       0.0000000000E+00  0.0000000000E+00  0.0000000000E+00
                       0.0000000000E+00  0.0000000000E+00  0.0000000000E+00
                       0.0000000000E+00  0.0000000000E+00  0.0000000000E+00
                       0.0000000000E+00  0.0000000000E+00  0.0000000000E+00
                       0.0000000000E+00  0.0000000000E+00  0.0000000000E+00
                       0.0000000000E+00  0.0000000000E+00  0.0000000000E+00
                       0.0000000000E+00  0.0000000000E+00  0.0000000000E+00
-          fftalg         512
           irdden           1
           irdwfk           1
           istwfk        0    1
              ixc     -116133
              kpt      5.00000000E-01  5.00000000E-01 -5.00000000E-01
                       0.00000000E+00  0.00000000E+00  0.00000000E+00
           kptopt           0
P           mkmem           2
P          mkqmem           2
P          mk1mem           2
            natom          10
            nband          49
           nbdbuf           4
            ngfft          80      80      80
             nkpt           2
            nstep        2000
             nsym          16
           ntypat           3
              occ      2.000000  2.000000  2.000000  2.000000  2.000000  2.000000
                       2.000000  2.000000  2.000000  2.000000  2.000000  2.000000
                       2.000000  2.000000  2.000000  2.000000  2.000000  2.000000
                       2.000000  2.000000  2.000000  2.000000  2.000000  2.000000
                       2.000000  2.000000  2.000000  2.000000  2.000000  2.000000
                       2.000000  2.000000  2.000000  2.000000  2.000000  2.000000
                       2.000000  2.000000  2.000000  2.000000  0.000000  0.000000
                       0.000000  0.000000  0.000000  0.000000  0.000000  0.000000
                       0.000000
        optdriver           1
            prtwf          -1
            rfdir           1       1       1
           rfelfd           2
            rprim      1.1621968449E+01  0.0000000000E+00 -6.5951952402E+00
                      -3.9409548320E+00  1.0933390400E+01 -6.5951952402E+00
                       0.0000000000E+00  0.0000000000E+00  1.3362887071E+01
          spgroup         139
           strten      0.0000000000E+00  0.0000000000E+00  0.0000000000E+00
                       0.0000000000E+00  0.0000000000E+00  0.0000000000E+00
           symrel      1  0  0   0  1  0   0  0  1      -1  0  0   0 -1  0   0  0 -1
                      -1 -1 -1   0  0  1   0  1  0       1  1  1   0  0 -1   0 -1  0
                       0  1  0   1  0  0  -1 -1 -1       0 -1  0  -1  0  0   1  1  1
                       0  0  1  -1 -1 -1   1  0  0       0  0 -1   1  1  1  -1  0  0
                       0  1  0   1  0  0   0  0  1       0 -1  0  -1  0  0   0  0 -1
                      -1 -1 -1   0  0  1   1  0  0       1  1  1   0  0 -1  -1  0  0
                       1  0  0   0  1  0  -1 -1 -1      -1  0  0   0 -1  0   1  1  1
                       0  0  1  -1 -1 -1   0  1  0       0  0 -1   1  1  1   0 -1  0
           tolwfr      1.00000000E-20
            typat      1  1  1  2  3  3  3  3  3  3
           useylm           1
              wtk        0.50000    0.50000
           xangst     -2.6577402369E-02  4.3392757592E+00  4.5640632232E-02
                       2.0323086724E+00  2.8928505061E+00 -3.4900270073E+00
                       4.0911947472E+00  1.4464252531E+00  4.5640632232E-02
                       0.0000000000E+00  0.0000000000E+00  0.0000000000E+00
                      -1.4565356581E+00  4.0408666581E+00  2.5012680671E+00
                       1.8547229241E+00  0.0000000000E+00  1.0800402047E+00
                       4.2953578980E+00  0.0000000000E+00  2.5012680671E+00
                      -6.2892781906E-01  1.7448343542E+00  1.0800402047E+00
                       3.1644224769E+00  4.5043360234E+00 -5.4341744720E+00
                       9.0019486799E-01  1.2813649889E+00 -1.5458795427E+00
            xcart     -5.0224011800E-02  8.2000427999E+00  8.6248295450E-02
                       3.8405068084E+00  5.4666952000E+00 -6.5951952402E+00
                       7.7312376286E+00  2.7333476000E+00  8.6248295450E-02
                       0.0000000000E+00  0.0000000000E+00  0.0000000000E+00
                      -2.7524534966E+00  7.6361313233E+00  4.7267116318E+00
                       3.5049183789E+00  0.0000000000E+00  2.0409801993E+00
                       8.1170500699E+00  0.0000000000E+00  4.7267116318E+00
                      -1.1885013354E+00  3.2972590766E+00  2.0409801993E+00
                       5.9798918501E+00  8.5119614946E+00 -1.0269101510E+01
                       1.7011217667E+00  2.4214289053E+00 -2.9212889701E+00
             xred      2.5000000000E-01  7.5000000000E-01  5.0000000000E-01
                       5.0000000000E-01  5.0000000000E-01  0.0000000000E+00
                       7.5000000000E-01  2.5000000000E-01  5.0000000000E-01
                       0.0000000000E+00  0.0000000000E+00  0.0000000000E+00
                      -2.7755575616E-17  6.9842300000E-01  6.9842300000E-01
                       3.0157700000E-01  0.0000000000E+00  3.0157700000E-01
                       6.9842300000E-01  0.0000000000E+00  6.9842300000E-01
                       0.0000000000E+00  3.0157700000E-01  3.0157700000E-01
                       7.7852900000E-01  7.7852900000E-01 -5.5511151231E-17
                       2.2147100000E-01  2.2147100000E-01  1.3877787808E-17
            znucl       55.00000   39.00000    9.00000

- Timing analysis has been suppressed with timopt=0

 Suggested references for the acknowledgment of ABINIT usage.

 Calculation completed.
.Delivered   2 WARNINGs and   5 COMMENTs to log file.