.Version 9.5.2 of ABINIT

 ABINIT is a project of the Universite Catholique de Louvain,
 Corning Inc. and other collaborators, see ~abinit/doc/developers/contributors.txt .
 acknowledgments of the ABINIT effort.

.Starting date : Mon 24 May 2021.
- ( at 11h09 )

- input  file    -> /scratch/users/j/a/jabreu/flow_simple_10atoms/flow/w296/t1/run.abi
- output file    -> /scratch/users/j/a/jabreu/flow_simple_10atoms/flow/w296/t1/run.abo
- root for input  files -> /scratch/users/j/a/jabreu/flow_simple_10atoms/flow/w296/t1/indata/in
- root for output files -> /scratch/users/j/a/jabreu/flow_simple_10atoms/flow/w296/t1/outdata/out

 Symmetries : space group Cm c 2_1 (# 36); Bravais oC (1-face-center ortho.)
     intxc =       0      iscf =       7    lmnmax =      18     lnmax =       6
     mgfft =      72  mpssoang =       3    mqgrid =    3357     natom =      10
  nloc_mem =       1    nspden =       1   nspinor =       1    nsppol =       1
      nsym =       4    n1xccc =    2501    ntypat =       2    occopt =       1
   xclevel =       2
-    mband =          45        mffmem =           1         mkmem =           2
-   mkqmem =           2        mk1mem =           2           mpw =       13240
      nfft =      259200          nkpt =           2
  Rough estimation (10% accuracy) of disk space for files :

------------- Echo of variables that govern the present computation ------------
-
- outvars: echo of selected default values
-   iomode0 =  0 , fftalg0 =512 , wfoptalg0 =  0
-
- outvars: echo of global parameters not present in the input file
-  max_nthreads =    0
-
 -outvars: echo values of preprocessed input variables --------
            acell      1.0000000000E+00  1.0000000000E+00  1.0000000000E+00 Bohr
              amu      8.54678000E+01  3.20660000E+01
             ecut      2.70000000E+01 Hartree
-          fftalg         512
           irdden           1
           irdwfk           1
              ixc     -116133
              kpt      3.17491116E-01  3.17491116E-01  0.00000000E+00
                      -5.00000000E-01  5.00000000E-01  0.00000000E+00
           kptopt           0
P           mkmem           2
P          mkqmem           2
P          mk1mem           2
            natom          10
            nband          45
           nbdbuf           4
            ngfft          60      60      72
             nkpt           2
            nstep        2000
             nsym           4
           ntypat           2
              occ      2.000000  2.000000  2.000000  2.000000  2.000000  2.000000
                       2.000000  2.000000  2.000000  2.000000  2.000000  2.000000
                       2.000000  2.000000  2.000000  2.000000  2.000000  2.000000
                       2.000000  2.000000  2.000000  2.000000  2.000000  2.000000
                       2.000000  2.000000  2.000000  2.000000  2.000000  2.000000
                       2.000000  2.000000  2.000000  2.000000  2.000000  2.000000
                       0.000000  0.000000  0.000000  0.000000  0.000000  0.000000
                       0.000000  0.000000  0.000000
        optdriver           1
            prtwf          -1
            rfdir           1       1       1
           rfelfd           2
            rprim      1.2084265664E+01  0.0000000000E+00  0.0000000000E+00
                      -4.0919756461E+00  1.1370365515E+01  0.0000000000E+00
                       0.0000000000E+00  0.0000000000E+00  1.4350591037E+01
          spgroup          36
           symrel      1  0  0   0  1  0   0  0  1       0  1  0   1  0  0   0  0  1
                      -1  0  0   0 -1  0   0  0  1       0 -1  0  -1  0  0   0  0  1
            tnons      0.0000000  0.0000000  0.0000000    -0.0000000  0.0000000  0.5000000
                       0.0000000  0.0000000  0.5000000     0.0000000  0.0000000  0.0000000
           tolwfr      1.00000000E-20
            typat      1  1  1  1  2  2  2  2  2  2
           useylm           1
              wtk        0.50000    0.50000
           xangst      5.7180935682E+00  4.7560286973E-01  6.1510231184E+00
                      -1.4887558462E+00  5.5413354144E+00  2.3540202650E+00
                       1.2343997204E+00  3.6272149735E+00  4.0913617026E+00
                       2.9949380016E+00  2.3897233105E+00  2.9435884921E-01
                       4.4604771595E+00  3.4102562129E+00  4.9689325961E+00
                      -2.3113943747E-01  2.6066820712E+00  1.1719297427E+00
                       2.5309560159E+00  6.6519057812E-01  4.9689325961E+00
                       1.6983817061E+00  5.3517477060E+00  1.1719297427E+00
                       3.7682340026E-01  4.2300099017E+00  6.0752045654E-05
                       3.8525143218E+00  1.7869283824E+00  3.7970636054E+00
            xcart      1.0805630846E+01  8.9875917180E-01  1.1623749131E+01
                      -2.8133408280E+00  1.0471606344E+01  4.4484536121E+00
                       2.3326774101E+00  6.8544429251E+00  7.7315531285E+00
                       5.6596126080E+00  4.5159225903E+00  5.5625760979E-01
                       8.4290802534E+00  6.4444502854E+00  9.3899217794E+00
                      -4.3679023533E-01  4.9259152300E+00  2.2146262607E+00
                       4.7828137245E+00  1.2570280188E+00  9.3899217794E+00
                       3.2094762936E+00  1.0113337497E+01  2.2146262607E+00
                       7.1209302696E-01  7.9935602535E+00  1.1480472830E-04
                       7.2801969911E+00  3.3768052619E+00  7.1754103234E+00
             xred      9.2095600000E-01  7.9044000000E-02  8.0998400000E-01
                       7.9044000000E-02  9.2095600000E-01  3.0998400000E-01
                       3.9716600000E-01  6.0283400000E-01  5.3876200000E-01
                       6.0283400000E-01  3.9716600000E-01  3.8762000000E-02
                       8.8944700000E-01  5.6677600000E-01  6.5432300000E-01
                       1.1055300000E-01  4.3322400000E-01  1.5432300000E-01
                       4.3322400000E-01  1.1055300000E-01  6.5432300000E-01
                       5.6677600000E-01  8.8944700000E-01  1.5432300000E-01
                       2.9698300000E-01  7.0301700000E-01  8.0000000000E-06
                       7.0301700000E-01  2.9698300000E-01  5.0000800000E-01
            znucl       37.00000   16.00000

 chkinp: Checking input parameters for consistency.

== DATASET  1 ==================================================================
-   mpi_nproc: 1, omp_nthreads: -1 (-1 if OMP is not activated)

--- !DatasetInfo
iteration_state: {dtset: 1, }
dimensions: {natom: 10, nkpt: 2, mband: 45, nsppol: 1, nspinor: 1, nspden: 1, mpw: 13240, }
cutoff_energies: {ecut:  27.0, pawecutdg:  -1.0, }
electrons: {nelect:   7.20000000E+01, charge:   0.00000000E+00, occopt:   1.00000000E+00, tsmear:   1.00000000E-02, }
meta: {optdriver: 1, rfelfd: 2, }
...

 Real(R)+Recip(G) space primitive vectors, cartesian coordinates (Bohr,Bohr^-1):
 R(1)= 12.0842657  0.0000000  0.0000000  G(1)=  0.0827522  0.0297809  0.0000000
 R(2)= -4.0919756 11.3703655  0.0000000  G(2)=  0.0000000  0.0879479  0.0000000
 R(3)=  0.0000000  0.0000000 14.3505910  G(3)=  0.0000000  0.0000000  0.0696835
 Unit cell volume ucvol=  1.9718073E+03 bohr^3
 Angles (23,13,12)=  9.00000000E+01  9.00000000E+01  1.09792827E+02 degrees

 getcut: wavevector=  0.0000  0.0000  0.0000  ngfft=  60  60  72
         ecut(hartree)=     27.000   => boxcut(ratio)=   2.12271

--- Pseudopotential description ------------------------------------------------
- pspini: atom type   1  psp file is /scratch/users/j/a/jabreu/pseudos/PBEsol/Rb.psp8
- pspatm: opening atomic psp file    /scratch/users/j/a/jabreu/pseudos/PBEsol/Rb.psp8
- Rb    ONCVPSP-3.3.0  r_core=   1.71227   1.75361   1.90633
- 37.00000   9.00000    180112                znucl, zion, pspdat
    8 -116133    2    4       600   0.00000   pspcod,pspxc,lmax,lloc,mmax,r2well
    5.99000000000000    7.00000000000000    0.00000000000000   rchrg,fchrg,qchrg
     nproj     2     2     2
     extension_switch     1
  pspatm : epsatm=   34.48400912
         --- l  ekb(1:nproj) -->
             0    8.196957   -0.477221
             1    3.231347   -0.378736
             2   -1.047201    0.996637
 pspatm: atomic psp has been read  and splines computed

- pspini: atom type   2  psp file is /scratch/users/j/a/jabreu/pseudos/PBEsol/S.psp8
- pspatm: opening atomic psp file    /scratch/users/j/a/jabreu/pseudos/PBEsol/S.psp8
- S     ONCVPSP-3.3.0  r_core=   1.45376   1.45376   1.61851
- 16.00000   6.00000    180112                znucl, zion, pspdat
    8 -116133    2    4       600   0.00000   pspcod,pspxc,lmax,lloc,mmax,r2well
    5.99000000000000    6.00000000000000    0.00000000000000   rchrg,fchrg,qchrg
     nproj     2     2     2
     extension_switch     1
  pspatm : epsatm=    8.71840985
         --- l  ekb(1:nproj) -->
             0    6.834532    0.579453
             1    3.282851    0.896984
             2   -3.496974   -0.974265
 pspatm: atomic psp has been read  and splines computed

   1.36977477E+04                                ecore*ucvol(ha*bohr**3)

 ==>  initialize data related to q vector <==

 The list of irreducible perturbations for this q vector is:
    1)    idir= 1    ipert=  11
    2)    idir= 2    ipert=  11
    3)    idir= 3    ipert=  11

 Perturbation wavevector (in red.coord.)   0.000000  0.000000  0.000000
 Perturbation : derivative vs k along direction   1

 dfpt_looppert : COMMENT -
  In a d/dk calculation, iscf is set to -3 automatically.
 The set of symmetries contains only one element for this perturbation.
 symkpt : not enough symmetry to change the number of k points.

 Initialisation of the first-order wave-functions :
  ireadwf=   0

--- !BeginCycle
iteration_state: {dtset: 1, }
solver: {iscf: 7, nstep: 2000, nline: 4, wfoptalg: 0, }
tolerances: {tolwfr: 1.00E-20, }
...

     iter   2DEtotal(Ha)        deltaE(Ha) residm    vres2
-ETOT  1  -21.456284157339     -2.146E+01 8.166E-02 0.000E+00
 ETOT  2  -21.497941815929     -4.166E-02 4.001E-03 0.000E+00
 ETOT  3  -21.498281349125     -3.395E-04 2.605E-04 0.000E+00
 ETOT  4  -21.498285141841     -3.793E-06 3.040E-05 0.000E+00
 ETOT  5  -21.498285189324     -4.748E-08 3.975E-06 0.000E+00
 ETOT  6  -21.498285189968     -6.443E-10 6.580E-07 0.000E+00
 ETOT  7  -21.498285189977     -9.234E-12 9.378E-08 0.000E+00
 ETOT  8  -21.498285189977     -1.457E-13 1.509E-08 0.000E+00
 ETOT  9  -21.498285189977     -3.553E-15 2.345E-09 0.000E+00
 ETOT 10  -21.498285189977     -1.776E-14 3.536E-10 0.000E+00
 ETOT 11  -21.498285189977     -3.553E-15 6.088E-11 0.000E+00
 ETOT 12  -21.498285189977      1.066E-14 9.140E-12 0.000E+00
 ETOT 13  -21.498285189977      3.553E-15 1.621E-12 0.000E+00
 ETOT 14  -21.498285189977     -1.066E-14 2.442E-13 0.000E+00
 ETOT 15  -21.498285189977      0.000E+00 4.385E-14 0.000E+00
 ETOT 16  -21.498285189977      0.000E+00 6.613E-15 0.000E+00
 ETOT 17  -21.498285189977      0.000E+00 1.199E-15 0.000E+00
 ETOT 18  -21.498285189977      0.000E+00 1.807E-16 0.000E+00
 ETOT 19  -21.498285189977      7.105E-15 3.298E-17 0.000E+00
 ETOT 20  -21.498285189977     -3.553E-15 4.965E-18 0.000E+00
 ETOT 21  -21.498285189977     -1.066E-14 9.114E-19 0.000E+00
 ETOT 22  -21.498285189977      0.000E+00 1.370E-19 0.000E+00
 ETOT 23  -21.498285189977      7.105E-15 2.526E-20 0.000E+00
 ETOT 24  -21.498285189977      7.105E-15 9.935E-21 0.000E+00

 At SCF step   24   max residual=  9.94E-21 < tolwfr=  1.00E-20 =>converged.

 ----iterations are completed or convergence reached----

 dfpt_looppert: DFPT cycle converged with prtwf=-1. Will skip output of the 1st-order WFK file.
 dfpt_looppert : ek2=    4.3971712225E+01
          f-sum rule ratio=    1.0004692847E+00
 prteigrs : about to open file /scratch/users/j/a/jabreu/flow_simple_10atoms/flow/w296/t1/tmpdata/tmp_1WF1_EIG
 Expectation of eigenvalue derivatives (hartree) for nkpt=   2  k points:
  (in case of degenerate eigenvalues, averaged derivative)
 kpt#   1, nband= 45, wtk=  0.50000, kpt=  0.3175  0.3175  0.0000 (reduced coord)
   0.00009   -0.00003   -0.00000    0.00003   -0.00730    0.00283   -0.01502    0.01774
  -0.01543   -0.00474    0.00221    0.01131   -0.00736    0.00235    0.00824   -0.00267
   0.00381    0.00173    0.00309    0.00581   -0.01183    0.02060   -0.01255    0.05017
  -0.05647   -0.00576   -0.01882    0.00218    0.01282    0.01465    0.02458   -0.00259
  -0.01575    0.02801   -0.01752   -0.00095   -0.11825   -0.04447   -0.01012    0.10199
  -0.00989    0.00100    0.03412    0.04781   -0.00054
 prteigrs : prtvol=0 or 1, do not print more k-points.

 Eight components of 2nd-order total energy (hartree) are
 1,2,3: 0th-order hamiltonian combined with 1st-order wavefunctions
     kin0=   2.92321589E+01 eigvalue=   2.91454324E+00  local=  -1.68111759E+01
 4,5,6: 1st-order hamiltonian combined with 1st and 0th-order wfs
     kin1=  -4.39923475E+01  Hartree=   0.00000000E+00     xc=   0.00000000E+00
 7,8,9: eventually, occupation + non-local contributions
    edocc=   5.60029152E+00     enl0=   5.62467405E-01   enl1=   9.95777096E-01
 1-9 gives the relaxation energy (to be shifted if some occ is /=2.0)
   erelax=  -2.14982852E+01
  No Ewald or frozen-wf contrib.: the relaxation energy is the total one
 2DEtotal=   -0.2149828519E+02 Ha. Also 2DEtotal=   -0.584998090636E+03 eV
    (  non-var. 2DEtotal :   -2.1498285190E+01 Ha)

 Perturbation wavevector (in red.coord.)   0.000000  0.000000  0.000000
 Perturbation : derivative vs k along direction   2
 The set of symmetries contains only one element for this perturbation.
 symkpt : not enough symmetry to change the number of k points.

[...]

 Perturbation wavevector (in red.coord.)   0.000000  0.000000  0.000000
 Perturbation : derivative vs k along direction   3
 The set of symmetries contains only one element for this perturbation.
 symkpt : not enough symmetry to change the number of k points.

 Initialisation of the first-order wave-functions :
  ireadwf=   0

--- !BeginCycle
iteration_state: {dtset: 1, }
solver: {iscf: 7, nstep: 2000, nline: 4, wfoptalg: 0, }
tolerances: {tolwfr: 1.00E-20, }
...

     iter   2DEtotal(Ha)        deltaE(Ha) residm    vres2
-ETOT  1  -13.512403018882     -1.351E+01 7.908E-02 0.000E+00
 ETOT  2  -13.537932223275     -2.553E-02 4.662E-03 0.000E+00
 ETOT  3  -13.538127511067     -1.953E-04 4.872E-04 0.000E+00
 ETOT  4  -13.538129551973     -2.041E-06 8.590E-05 0.000E+00
 ETOT  5  -13.538129575793     -2.382E-08 1.230E-05 0.000E+00
 ETOT  6  -13.538129576091     -2.982E-10 2.256E-06 0.000E+00
 ETOT  7  -13.538129576095     -3.872E-12 3.394E-07 0.000E+00
 ETOT  8  -13.538129576095     -7.105E-14 6.264E-08 0.000E+00
 ETOT  9  -13.538129576095      1.599E-14 9.529E-09 0.000E+00
 ETOT 10  -13.538129576095      7.105E-15 1.775E-09 0.000E+00
 ETOT 11  -13.538129576095      0.000E+00 2.699E-10 0.000E+00
 ETOT 12  -13.538129576095      5.329E-15 5.100E-11 0.000E+00
 ETOT 13  -13.538129576095     -1.776E-15 7.703E-12 0.000E+00
 ETOT 14  -13.538129576095     -1.776E-15 1.480E-12 0.000E+00
 ETOT 15  -13.538129576095     -1.776E-15 2.212E-13 0.000E+00
 ETOT 16  -13.538129576095      5.329E-15 4.333E-14 0.000E+00
 ETOT 17  -13.538129576095      0.000E+00 6.386E-15 0.000E+00
 ETOT 18  -13.538129576095      0.000E+00 1.277E-15 0.000E+00
 ETOT 19  -13.538129576095      0.000E+00 1.852E-16 0.000E+00
 ETOT 20  -13.538129576095     -3.553E-15 3.783E-17 0.000E+00
 ETOT 21  -13.538129576095      3.553E-15 5.393E-18 0.000E+00
 ETOT 22  -13.538129576095     -1.776E-15 1.126E-18 0.000E+00
 ETOT 23  -13.538129576095     -3.553E-15 1.576E-19 0.000E+00
 ETOT 24  -13.538129576095      0.000E+00 3.362E-20 0.000E+00
 ETOT 25  -13.538129576095      1.776E-15 9.905E-21 0.000E+00

 At SCF step   25   max residual=  9.90E-21 < tolwfr=  1.00E-20 =>converged.

 ----iterations are completed or convergence reached----

 dfpt_looppert: DFPT cycle converged with prtwf=-1. Will skip output of the 1st-order WFK file.
 dfpt_looppert : ek2=    2.7604675902E+01
          f-sum rule ratio=    1.0029380382E+00
 prteigrs : about to open file /scratch/users/j/a/jabreu/flow_simple_10atoms/flow/w296/t1/tmpdata/tmp_1WF1_EIG
 Expectation of eigenvalue derivatives (hartree) for nkpt=   2  k points:
  (in case of degenerate eigenvalues, averaged derivative)
 kpt#   1, nband= 45, wtk=  0.50000, kpt=  0.3175  0.3175  0.0000 (reduced coord)
   0.00000   -0.00000   -0.00000    0.00000   -0.00000   -0.00000    0.00000   -0.00000
   0.00000   -0.00000   -0.00000    0.00000   -0.00000   -0.00000    0.00000    0.00000
  -0.00000   -0.00000   -0.00000    0.00000   -0.00000    0.00000   -0.00000   -0.00000
   0.00000   -0.00000    0.00000   -0.00000    0.00000   -0.00000   -0.00000   -0.00000
  -0.00000   -0.00000    0.00000    0.00000   -0.00000   -0.00000   -0.00000   -0.00000
   0.00000   -0.00000    0.00000    0.00000    0.00043
 prteigrs : prtvol=0 or 1, do not print more k-points.

 Eight components of 2nd-order total energy (hartree) are
 1,2,3: 0th-order hamiltonian combined with 1st-order wavefunctions
     kin0=   1.89856935E+01 eigvalue=   1.79626820E+00  local=  -1.09142714E+01
 4,5,6: 1st-order hamiltonian combined with 1st and 0th-order wfs
     kin1=  -2.76857795E+01  Hartree=   0.00000000E+00     xc=   0.00000000E+00
 7,8,9: eventually, occupation + non-local contributions
    edocc=   3.21120338E+00     enl0=   4.59235870E-01   enl1=   6.09520343E-01
 1-9 gives the relaxation energy (to be shifted if some occ is /=2.0)
   erelax=  -1.35381296E+01
  No Ewald or frozen-wf contrib.: the relaxation energy is the total one
 2DEtotal=   -0.1353812958E+02 Ha. Also 2DEtotal=   -0.368391240642E+03 eV
    (  non-var. 2DEtotal :   -1.3538129576E+01 Ha)

 CALCULATION OF EFFECTIVE MASSES
 NOTE : Additional infos (eff. mass eigenvalues, eigenvectors and, if degenerate, average mass) are available in stdout.

 K-point ( 0.317, 0.317, 0.000) | band =    36
 Effective mass tensor:
             -5.2537672234              2.3181324522              0.0004291380
              2.3181324522             -3.5844617353             -0.0003019509
              0.0004291380             -0.0003019509             -1.8990034105
 Effective mass tensor eigenvalues:
             -6.8829293144             -1.9552996996             -1.8990033553
 Angular average effective mass 1/(<1/m>)=  -2.5352622424
 Angular average effective mass for Frohlich model (<m**0.5>)**2=  -2.7474291096
 Effective masses along directions: (cart. coord. / red. coord. -> eff. mass)
    1:   1.000000  0.000000  0.000000 /   0.947170 -0.320731  0.000000 ->  -3.7545914571
    2:   0.000000  1.000000  0.000000 /   0.000000  1.000000  0.000000 ->  -2.5616265254
    3:   0.000000  0.000000  1.000000 /   0.000000  0.000000  1.000000 ->  -1.8990033705
    4:   0.577350  0.577350  0.577350 /   0.600514  0.361691  0.713136 ->  -1.9635785045
    5:   0.000000  0.707107  0.707107 /   0.000000  0.621021  0.783794 ->  -2.1812089890
    6:   0.707107  0.000000  0.707107 /   0.629326 -0.213103  0.747352 ->  -2.5220739137
    7:   0.707107  0.707107  0.000000 /   0.856621  0.515946  0.000000 ->  -1.9975799681

 K-point (-0.500, 0.500, 0.000) | band =    37
 Effective mass tensor:
              2.4359960846             -1.4963562852              0.0000110900
             -1.4963562852              1.3589764566             -0.0000078083
              0.0000110900             -0.0000078083              0.6768320595
 Effective mass tensor eigenvalues:
              0.3071797115              0.6768320594              3.4877928298
 Angular average effective mass 1/(<1/m>)=   0.5976561130
 Angular average effective mass for Frohlich model (<m**0.5>)**2=   0.7404181937
 Effective masses along directions: (cart. coord. / red. coord. -> eff. mass)
    1:   1.000000  0.000000  0.000000 /   0.947170 -0.320731  0.000000 ->   0.7883721532
    2:   0.000000  1.000000  0.000000 /   0.000000  1.000000  0.000000 ->   0.4398115424
    3:   0.000000  0.000000  1.000000 /   0.000000  0.000000  1.000000 ->   0.6768320594
    4:   0.577350  0.577350  0.577350 /   0.600514  0.361691  0.713136 ->   0.3839786952
    5:   0.000000  0.707107  0.707107 /   0.000000  0.621021  0.783794 ->   0.5331656769
    6:   0.707107  0.000000  0.707107 /   0.629326 -0.213103  0.747352 ->   0.7283590352
    7:   0.707107  0.707107  0.000000 /   0.856621  0.515946  0.000000 ->   0.3156832345

 END OF EFFECTIVE MASSES SECTION

 ---- first-order wavefunction calculations are completed ----

 Total localisation tensor (bohr^2) in cartesian coordinates
  WARNING : still subject to testing - especially symmetries.
      direction              matrix element
   alpha     beta       real part   imaginary part
     1        1       1.5682409766    0.0000000000
     1        2      -0.4482669497    0.0000000000
     1        3       0.0000000000    0.0000000000
     2        1      -0.4482669497    0.0000000000
     2        2       1.2455985831    0.0000000000
     2        3       0.0000000000    0.0000000000
     3        1       0.0000000000    0.0000000000
     3        2       0.0000000000    0.0000000000
     3        3       1.1619574936    0.0000000000

 respfn : d/dk was computed, but no 2DTE, so no DDB output.

== END DATASET(S) ==============================================================

 -outvars: echo values of variables after computation  --------
            acell      1.0000000000E+00  1.0000000000E+00  1.0000000000E+00 Bohr
              amu      8.54678000E+01  3.20660000E+01
             ecut      2.70000000E+01 Hartree
           etotal     -1.3538129576E+01
            fcart      0.0000000000E+00  0.0000000000E+00  0.0000000000E+00
                       0.0000000000E+00  0.0000000000E+00  0.0000000000E+00
                       0.0000000000E+00  0.0000000000E+00  0.0000000000E+00
                       0.0000000000E+00  0.0000000000E+00  0.0000000000E+00
                       0.0000000000E+00  0.0000000000E+00  0.0000000000E+00
                       0.0000000000E+00  0.0000000000E+00  0.0000000000E+00
                       0.0000000000E+00  0.0000000000E+00  0.0000000000E+00
                       0.0000000000E+00  0.0000000000E+00  0.0000000000E+00
                       0.0000000000E+00  0.0000000000E+00  0.0000000000E+00
                       0.0000000000E+00  0.0000000000E+00  0.0000000000E+00
-          fftalg         512
           irdden           1
           irdwfk           1
              ixc     -116133
              kpt      3.17491116E-01  3.17491116E-01  0.00000000E+00
                      -5.00000000E-01  5.00000000E-01  0.00000000E+00
           kptopt           0
P           mkmem           2
P          mkqmem           2
P          mk1mem           2
            natom          10
            nband          45
           nbdbuf           4
            ngfft          60      60      72
             nkpt           2
            nstep        2000
             nsym           4
           ntypat           2
              occ      2.000000  2.000000  2.000000  2.000000  2.000000  2.000000
                       2.000000  2.000000  2.000000  2.000000  2.000000  2.000000
                       2.000000  2.000000  2.000000  2.000000  2.000000  2.000000
                       2.000000  2.000000  2.000000  2.000000  2.000000  2.000000
                       2.000000  2.000000  2.000000  2.000000  2.000000  2.000000
                       2.000000  2.000000  2.000000  2.000000  2.000000  2.000000
                       0.000000  0.000000  0.000000  0.000000  0.000000  0.000000
                       0.000000  0.000000  0.000000
        optdriver           1
            prtwf          -1
            rfdir           1       1       1
           rfelfd           2
            rprim      1.2084265664E+01  0.0000000000E+00  0.0000000000E+00
                      -4.0919756461E+00  1.1370365515E+01  0.0000000000E+00
                       0.0000000000E+00  0.0000000000E+00  1.4350591037E+01
          spgroup          36
           strten      0.0000000000E+00  0.0000000000E+00  0.0000000000E+00
                       0.0000000000E+00  0.0000000000E+00  0.0000000000E+00
           symrel      1  0  0   0  1  0   0  0  1       0  1  0   1  0  0   0  0  1
                      -1  0  0   0 -1  0   0  0  1       0 -1  0  -1  0  0   0  0  1
            tnons      0.0000000  0.0000000  0.0000000    -0.0000000  0.0000000  0.5000000
                       0.0000000  0.0000000  0.5000000     0.0000000  0.0000000  0.0000000
           tolwfr      1.00000000E-20
            typat      1  1  1  1  2  2  2  2  2  2
           useylm           1
              wtk        0.50000    0.50000
           xangst      5.7180935682E+00  4.7560286973E-01  6.1510231184E+00
                      -1.4887558462E+00  5.5413354144E+00  2.3540202650E+00
                       1.2343997204E+00  3.6272149735E+00  4.0913617026E+00
                       2.9949380016E+00  2.3897233105E+00  2.9435884921E-01
                       4.4604771595E+00  3.4102562129E+00  4.9689325961E+00
                      -2.3113943747E-01  2.6066820712E+00  1.1719297427E+00
                       2.5309560159E+00  6.6519057812E-01  4.9689325961E+00
                       1.6983817061E+00  5.3517477060E+00  1.1719297427E+00
                       3.7682340026E-01  4.2300099017E+00  6.0752045654E-05
                       3.8525143218E+00  1.7869283824E+00  3.7970636054E+00
            xcart      1.0805630846E+01  8.9875917180E-01  1.1623749131E+01
                      -2.8133408280E+00  1.0471606344E+01  4.4484536121E+00
                       2.3326774101E+00  6.8544429251E+00  7.7315531285E+00
                       5.6596126080E+00  4.5159225903E+00  5.5625760979E-01
                       8.4290802534E+00  6.4444502854E+00  9.3899217794E+00
                      -4.3679023533E-01  4.9259152300E+00  2.2146262607E+00
                       4.7828137245E+00  1.2570280188E+00  9.3899217794E+00
                       3.2094762936E+00  1.0113337497E+01  2.2146262607E+00
                       7.1209302696E-01  7.9935602535E+00  1.1480472830E-04
                       7.2801969911E+00  3.3768052619E+00  7.1754103234E+00
             xred      9.2095600000E-01  7.9044000000E-02  8.0998400000E-01
                       7.9044000000E-02  9.2095600000E-01  3.0998400000E-01
                       3.9716600000E-01  6.0283400000E-01  5.3876200000E-01
                       6.0283400000E-01  3.9716600000E-01  3.8762000000E-02
                       8.8944700000E-01  5.6677600000E-01  6.5432300000E-01
                       1.1055300000E-01  4.3322400000E-01  1.5432300000E-01
                       4.3322400000E-01  1.1055300000E-01  6.5432300000E-01
                       5.6677600000E-01  8.8944700000E-01  1.5432300000E-01
                       2.9698300000E-01  7.0301700000E-01  8.0000000000E-06
                       7.0301700000E-01  2.9698300000E-01  5.0000800000E-01
            znucl       37.00000   16.00000

- Timing analysis has been suppressed with timopt=0

 Suggested references for the acknowledgment of ABINIT usage.

 Calculation completed.
.Delivered   2 WARNINGs and   5 COMMENTs to log file.