.Version 9.5.1 of ABINIT

 ABINIT is a project of the Universite Catholique de Louvain,
 Corning Inc. and other collaborators, see ~abinit/doc/developers/contributors.txt .
 acknowledgments of the ABINIT effort.

.Starting date : Wed 19 May 2021.
- ( at 03h12 )

- input  file    -> /scratch/users/j/a/jabreu/flow_simple_8atoms/flow/w440/t1/run.abi
- output file    -> /scratch/users/j/a/jabreu/flow_simple_8atoms/flow/w440/t1/run.abo
- root for input  files -> /scratch/users/j/a/jabreu/flow_simple_8atoms/flow/w440/t1/indata/in
- root for output files -> /scratch/users/j/a/jabreu/flow_simple_8atoms/flow/w440/t1/outdata/out

 Symmetries : space group P6_3/m m c (#194); Bravais hP (primitive hexag.)
     intxc =       0      iscf =       7    lmnmax =      18     lnmax =       6
     mgfft =     192  mpssoang =       3    mqgrid =    9003     natom =       8
  nloc_mem =       1    nspden =       1   nspinor =       1    nsppol =       1
      nsym =      24    n1xccc =    2501    ntypat =       3    occopt =       1
   xclevel =       2
-    mband =          63        mffmem =           1         mkmem =           2
-   mkqmem =           2        mk1mem =           2           mpw =       16126
      nfft =      307200          nkpt =           2
  Rough estimation (10% accuracy) of disk space for files :

------------- Echo of variables that govern the present computation ------------
-
- outvars: echo of selected default values
-   iomode0 =  0 , fftalg0 =512 , wfoptalg0 =  0
-
- outvars: echo of global parameters not present in the input file
-  max_nthreads =    0
-
 -outvars: echo values of preprocessed input variables --------
            acell      1.0000000000E+00  1.0000000000E+00  1.0000000000E+00 Bohr
              amu      3.90983000E+01  9.29063800E+01  7.89600000E+01
             ecut      4.30000000E+01 Hartree
-          fftalg         512
           irdden           1
           irdwfk           1
           istwfk        1    0
              ixc     -116133
              kpt      0.00000000E+00  0.00000000E+00  0.00000000E+00
                       1.38888889E-01  1.38888889E-01  0.00000000E+00
           kptopt           0
P           mkmem           2
P          mkqmem           2
P          mk1mem           2
            natom           8
            nband          63
           nbdbuf           4
            ngfft          40      40     192
             nkpt           2
            nstep        2000
             nsym          24
           ntypat           3
              occ      2.000000  2.000000  2.000000  2.000000  2.000000  2.000000
                       2.000000  2.000000  2.000000  2.000000  2.000000  2.000000
                       2.000000  2.000000  2.000000  2.000000  2.000000  2.000000
                       2.000000  2.000000  2.000000  2.000000  2.000000  2.000000
                       2.000000  2.000000  2.000000  2.000000  2.000000  2.000000
                       2.000000  2.000000  2.000000  2.000000  2.000000  2.000000
                       2.000000  2.000000  2.000000  2.000000  2.000000  2.000000
                       2.000000  2.000000  2.000000  2.000000  2.000000  2.000000
                       2.000000  2.000000  2.000000  2.000000  2.000000  2.000000
                       0.000000  0.000000  0.000000  0.000000  0.000000  0.000000
                       0.000000  0.000000  0.000000
        optdriver           1
            prtwf          -1
            rfdir           1       1       1
           rfelfd           2
            rprim      6.7318671640E+00  0.0000000000E+00  0.0000000000E+00
                      -3.3659335820E+00  5.8299679789E+00  0.0000000000E+00
                       0.0000000000E+00  0.0000000000E+00  3.0498495868E+01
          spgroup         194
           symrel      1  0  0   0  1  0   0  0  1      -1  0  0   0 -1  0   0  0 -1
                       0  1  0   1  0  0   0  0  1       0 -1  0  -1  0  0   0  0 -1
                       1  1  0  -1  0  0   0  0  1      -1 -1  0   1  0  0   0  0 -1
                      -1  0  0   1  1  0   0  0  1       1  0  0  -1 -1  0   0  0 -1
                       0  1  0  -1 -1  0   0  0  1       0 -1  0   1  1  0   0  0 -1
                      -1 -1  0   0  1  0   0  0  1       1  1  0   0 -1  0   0  0 -1
                      -1  0  0   0 -1  0   0  0  1       1  0  0   0  1  0   0  0 -1
                       0 -1  0  -1  0  0   0  0  1       0  1  0   1  0  0   0  0 -1
                      -1 -1  0   1  0  0   0  0  1       1  1  0  -1  0  0   0  0 -1
                       1  0  0  -1 -1  0   0  0  1      -1  0  0   1  1  0   0  0 -1
                       0 -1  0   1  1  0   0  0  1       0  1  0  -1 -1  0   0  0 -1
                       1  1  0   0 -1  0   0  0  1      -1 -1  0   0  1  0   0  0 -1
            tnons      0.0000000  0.0000000  0.0000000     0.0000000  0.0000000  0.0000000
                       0.0000000  0.0000000  0.5000000     0.0000000  0.0000000  0.5000000
                       0.0000000  0.0000000  0.5000000     0.0000000  0.0000000  0.5000000
                       0.0000000  0.0000000  0.0000000     0.0000000  0.0000000  0.0000000
                       0.0000000  0.0000000  0.0000000     0.0000000  0.0000000  0.0000000
                       0.0000000  0.0000000  0.5000000     0.0000000  0.0000000  0.5000000
                       0.0000000  0.0000000  0.5000000     0.0000000  0.0000000  0.5000000
                       0.0000000  0.0000000  0.0000000     0.0000000  0.0000000  0.0000000
                       0.0000000  0.0000000  0.0000000     0.0000000  0.0000000  0.0000000
                       0.0000000  0.0000000  0.5000000     0.0000000  0.0000000  0.5000000
                       0.0000000  0.0000000  0.5000000     0.0000000  0.0000000  0.5000000
                       0.0000000  0.0000000  0.0000000     0.0000000  0.0000000  0.0000000
           tolwfr      1.00000000E-20
            typat      1  1  2  2  3  3  3  3
           useylm           1
              wtk        0.50000    0.50000
           xangst      0.0000000000E+00  0.0000000000E+00  8.9590051541E-16
                       0.0000000000E+00  0.0000000000E+00  8.0695544547E+00
                       0.0000000000E+00  0.0000000000E+00  1.2104331682E+01
                       0.0000000000E+00  0.0000000000E+00  4.0347772274E+00
                       0.0000000000E+00  2.0567241208E+00  1.3720001736E+01
                       0.0000000000E+00  2.0567241208E+00  1.0488661628E+01
                       1.7811753372E+00  1.0283620604E+00  5.6504472812E+00
                       1.7811753372E+00  1.0283620604E+00  2.4191071735E+00
            xcart      0.0000000000E+00  0.0000000000E+00  1.6930066164E-15
                       0.0000000000E+00  0.0000000000E+00  1.5249247934E+01
                       0.0000000000E+00  0.0000000000E+00  2.2873871901E+01
                       0.0000000000E+00  0.0000000000E+00  7.6246239669E+00
                       0.0000000000E+00  3.8866453193E+00  2.5927045824E+01
                       0.0000000000E+00  3.8866453193E+00  1.9820697978E+01
                       3.3659335820E+00  1.9433226596E+00  1.0677797890E+01
                       3.3659335820E+00  1.9433226596E+00  4.5714500441E+00
             xred      0.0000000000E+00  0.0000000000E+00  5.5511151231E-17
                       0.0000000000E+00  0.0000000000E+00  5.0000000000E-01
                       0.0000000000E+00  0.0000000000E+00  7.5000000000E-01
                       0.0000000000E+00  0.0000000000E+00  2.5000000000E-01
                       3.3333333333E-01  6.6666666667E-01  8.5010900000E-01
                       3.3333333333E-01  6.6666666667E-01  6.4989100000E-01
                       6.6666666667E-01  3.3333333333E-01  3.5010900000E-01
                       6.6666666667E-01  3.3333333333E-01  1.4989100000E-01
            znucl       19.00000   41.00000   34.00000

 chkinp: Checking input parameters for consistency.

== DATASET  1 ==================================================================
-   mpi_nproc: 1, omp_nthreads: -1 (-1 if OMP is not activated)

--- !DatasetInfo
iteration_state: {dtset: 1, }
dimensions: {natom: 8, nkpt: 2, mband: 63, nsppol: 1, nspinor: 1, nspden: 1, mpw: 16126, }
cutoff_energies: {ecut:  43.0, pawecutdg:  -1.0, }
electrons: {nelect:   1.08000000E+02, charge:   0.00000000E+00, occopt:   1.00000000E+00, tsmear:   1.00000000E-02, }
meta: {optdriver: 1, rfelfd: 2, }
...

 Real(R)+Recip(G) space primitive vectors, cartesian coordinates (Bohr,Bohr^-1):
 R(1)=  6.7318672  0.0000000  0.0000000  G(1)=  0.1485472  0.0857638  0.0000000
 R(2)= -3.3659336  5.8299680  0.0000000  G(2)=  0.0000000  0.1715275  0.0000000
 R(3)=  0.0000000  0.0000000 30.4984959  G(3)=  0.0000000  0.0000000  0.0327885
 Unit cell volume ucvol=  1.1969614E+03 bohr^3
 Angles (23,13,12)=  9.00000000E+01  9.00000000E+01  1.20000000E+02 degrees

 getcut: wavevector=  0.0000  0.0000  0.0000  ngfft=  40  40 192
         ecut(hartree)=     43.000   => boxcut(ratio)=   2.01291

--- Pseudopotential description ------------------------------------------------
- pspini: atom type   1  psp file is /scratch/users/j/a/jabreu/pseudos/PBEsol/K.psp8
- pspatm: opening atomic psp file    /scratch/users/j/a/jabreu/pseudos/PBEsol/K.psp8
- K     ONCVPSP-3.3.0  r_core=   1.36296   1.46408   1.61068
- 19.00000   9.00000    180112                znucl, zion, pspdat
    8 -116133    2    4       400   0.00000   pspcod,pspxc,lmax,lloc,mmax,r2well
    3.99000000000000    5.00000000000000    0.00000000000000   rchrg,fchrg,qchrg
     nproj     2     2     2
     extension_switch     1
  pspatm : epsatm=    8.32487830
         --- l  ekb(1:nproj) -->
             0   10.921326    0.816676
             1    4.431000    0.560368
             2   -3.384038   -1.043186
 pspatm: atomic psp has been read  and splines computed

- pspini: atom type   2  psp file is /scratch/users/j/a/jabreu/pseudos/PBEsol/Nb.psp8
- pspatm: opening atomic psp file    /scratch/users/j/a/jabreu/pseudos/PBEsol/Nb.psp8
- Nb    ONCVPSP-3.3.0  r_core=   1.50879   1.40458   1.40458
- 41.00000  13.00000    180112                znucl, zion, pspdat
    8 -116133    2    4       600   0.00000   pspcod,pspxc,lmax,lloc,mmax,r2well
    5.99000000000000    5.00000000000000    0.00000000000000   rchrg,fchrg,qchrg
     nproj     2     2     2
     extension_switch     1
  pspatm : epsatm=   15.66753381
         --- l  ekb(1:nproj) -->
             0   12.953547    1.345168
             1    7.772306    0.779703
             2    3.518917    1.091480
 pspatm: atomic psp has been read  and splines computed

- pspini: atom type   3  psp file is /scratch/users/j/a/jabreu/pseudos/PBEsol/Se.psp8
- pspatm: opening atomic psp file    /scratch/users/j/a/jabreu/pseudos/PBEsol/Se.psp8
- Se    ONCVPSP-3.3.0  r_core=   1.81943   1.50330   1.90835
- 34.00000  16.00000    180112                znucl, zion, pspdat
    8 -116133    2    4       600   0.00000   pspcod,pspxc,lmax,lloc,mmax,r2well
    5.99000000000000    5.00000000000000    0.00000000000000   rchrg,fchrg,qchrg
     nproj     2     2     2
     extension_switch     1
[...]
 ETOT 19  -8.7761431248189      1.776E-15 1.103E-07 0.000E+00
 ETOT 20  -8.7761431248189     -1.776E-15 4.377E-08 0.000E+00
 ETOT 21  -8.7761431248189      1.776E-15 6.107E-08 0.000E+00
 ETOT 22  -8.7761431248189      0.000E+00 2.431E-08 0.000E+00
 ETOT 23  -8.7761431248189      1.776E-15 3.388E-08 0.000E+00
 ETOT 24  -8.7761431248189      1.776E-15 1.352E-08 0.000E+00
 ETOT 25  -8.7761431248189     -1.776E-15 1.881E-08 0.000E+00
 ETOT 26  -8.7761431248189     -1.776E-15 7.521E-09 0.000E+00
 ETOT 27  -8.7761431248189      1.776E-15 1.044E-08 0.000E+00
 ETOT 28  -8.7761431248189      0.000E+00 4.183E-09 0.000E+00
 ETOT 29  -8.7761431248189      1.776E-15 5.789E-09 0.000E+00
 ETOT 30  -8.7761431248189     -1.776E-15 2.323E-09 0.000E+00
 ETOT 31  -8.7761431248189      1.776E-15 3.206E-09 0.000E+00
 ETOT 32  -8.7761431248189      0.000E+00 1.288E-09 0.000E+00
 ETOT 33  -8.7761431248189      0.000E+00 1.773E-09 0.000E+00
 ETOT 34  -8.7761431248189      0.000E+00 7.132E-10 0.000E+00
 ETOT 35  -8.7761431248189     -1.776E-15 9.794E-10 0.000E+00
 ETOT 36  -8.7761431248189      1.776E-15 3.941E-10 0.000E+00
 ETOT 37  -8.7761431248189     -1.776E-15 5.405E-10 0.000E+00
 ETOT 38  -8.7761431248189     -1.776E-15 2.175E-10 0.000E+00
 ETOT 39  -8.7761431248189      1.776E-15 2.981E-10 0.000E+00
 ETOT 40  -8.7761431248189     -1.776E-15 1.199E-10 0.000E+00
 ETOT 41  -8.7761431248189      1.776E-15 1.645E-10 0.000E+00
 ETOT 42  -8.7761431248189     -1.776E-15 6.612E-11 0.000E+00
 ETOT 43  -8.7761431248189      3.553E-15 9.077E-11 0.000E+00
 ETOT 44  -8.7761431248189     -1.776E-15 3.647E-11 0.000E+00
 ETOT 45  -8.7761431248189      0.000E+00 5.014E-11 0.000E+00
 ETOT 46  -8.7761431248189      1.776E-15 2.013E-11 0.000E+00
 ETOT 47  -8.7761431248189      1.776E-15 2.774E-11 0.000E+00
 ETOT 48  -8.7761431248189     -5.329E-15 1.113E-11 0.000E+00
 ETOT 49  -8.7761431248189      0.000E+00 1.536E-11 0.000E+00
 ETOT 50  -8.7761431248189      0.000E+00 6.159E-12 0.000E+00
 ETOT 51  -8.7761431248189      1.776E-15 8.520E-12 0.000E+00
 ETOT 52  -8.7761431248189      0.000E+00 3.414E-12 0.000E+00
 ETOT 53  -8.7761431248189      0.000E+00 4.732E-12 0.000E+00
 ETOT 54  -8.7761431248189      0.000E+00 1.895E-12 0.000E+00
 ETOT 55  -8.7761431248189      0.000E+00 2.631E-12 0.000E+00
 ETOT 56  -8.7761431248189      0.000E+00 1.053E-12 0.000E+00
 ETOT 57  -8.7761431248189      0.000E+00 1.464E-12 0.000E+00
 ETOT 58  -8.7761431248189      0.000E+00 5.863E-13 0.000E+00
 ETOT 59  -8.7761431248189      0.000E+00 8.159E-13 0.000E+00
 ETOT 60  -8.7761431248189      0.000E+00 3.266E-13 0.000E+00
 ETOT 61  -8.7761431248189      0.000E+00 4.549E-13 0.000E+00
[...]
 ETOT  106  -8.7761431248189      0.000E+00 5.157E-19 0.000E+00
 ETOT  107  -8.7761431248189     -1.776E-15 7.203E-19 0.000E+00
 ETOT  108  -8.7761431248189      1.776E-15 2.889E-19 0.000E+00
 ETOT  109  -8.7761431248189      0.000E+00 4.035E-19 0.000E+00
 ETOT  110  -8.7761431248189      1.776E-15 1.618E-19 0.000E+00
 ETOT  111  -8.7761431248189     -3.553E-15 2.260E-19 0.000E+00
 ETOT  112  -8.7761431248189      0.000E+00 9.062E-20 0.000E+00
 ETOT  113  -8.7761431248189      0.000E+00 1.266E-19 0.000E+00
 ETOT  114  -8.7761431248189      1.776E-15 5.076E-20 0.000E+00
 ETOT  115  -8.7761431248189      0.000E+00 7.090E-20 0.000E+00
 ETOT  116  -8.7761431248189      0.000E+00 2.844E-20 0.000E+00
 ETOT  117  -8.7761431248189      0.000E+00 3.972E-20 0.000E+00
 ETOT  118  -8.7761431248189     -1.776E-15 1.593E-20 0.000E+00
 ETOT  119  -8.7761431248189      1.776E-15 2.225E-20 0.000E+00
 ETOT  120  -8.7761431248189     -1.776E-15 9.952E-21 0.000E+00

 At SCF step  120   max residual=  9.95E-21 < tolwfr=  1.00E-20 =>converged.

 ----iterations are completed or convergence reached----

 dfpt_looppert: DFPT cycle converged with prtwf=-1. Will skip output of the 1st-order WFK file.
 dfpt_looppert : ek2=    9.1676208869E+00
          f-sum rule ratio=    1.0032755599E+00
 prteigrs : about to open file /scratch/users/j/a/jabreu/flow_simple_8atoms/flow/w440/t1/tmpdata/tmp_1WF1_EIG
 Expectation of eigenvalue derivatives (hartree) for nkpt=   2  k points:
  (in case of degenerate eigenvalues, averaged derivative)
 kpt#   1, nband= 63, wtk=  0.50000, kpt=  0.0000  0.0000  0.0000 (reduced coord)
  -0.00000   -0.00000    0.00000    0.00000   -0.00000   -0.00000    0.00000    0.00000
  -0.00000   -0.00000   -0.00000   -0.00000   -0.00000   -0.00000    0.00000    0.00000
   0.00000    0.00000   -0.00000    0.00000    0.00000   -0.00000   -0.00000   -0.00000
  -0.00000   -0.00000    0.00000    0.00000    0.00000    0.00000    0.00000    0.00000
  -0.00000   -0.00000    0.00000    0.00000    0.00000    0.00000   -0.00000   -0.00000
  -0.00000    0.00000   -0.00000    0.00000    0.00000    0.00000    0.00000    0.00000
   0.00000    0.00000   -0.00000   -0.00000    0.00000    0.00000    0.00000    0.00000
   0.00000    0.00000   -0.00000   -0.00000   -0.00000   -0.00000   -0.00000
 prteigrs : prtvol=0 or 1, do not print more k-points.

 Eight components of 2nd-order total energy (hartree) are
 1,2,3: 0th-order hamiltonian combined with 1st-order wavefunctions
     kin0=   1.07256061E+01 eigvalue=   9.35645496E-01  local=  -5.02107937E+00
 4,5,6: 1st-order hamiltonian combined with 1st and 0th-order wfs
     kin1=  -9.19764998E+00  Hartree=   0.00000000E+00     xc=   0.00000000E+00
 7,8,9: eventually, occupation + non-local contributions
    edocc=   1.10063144E+00     enl0=   1.03533947E+00   enl1=  -8.35463627E+00
 1-9 gives the relaxation energy (to be shifted if some occ is /=2.0)
   erelax=  -8.77614312E+00
  No Ewald or frozen-wf contrib.: the relaxation energy is the total one
 2DEtotal=   -0.8776143125E+01 Ha. Also 2DEtotal=   -0.238810999380E+03 eV
    (  non-var. 2DEtotal :   -8.7761431247E+00 Ha)

 CALCULATION OF EFFECTIVE MASSES
 NOTE : Additional infos (eff. mass eigenvalues, eigenvectors and, if degenerate, average mass) are available in stdout.

 K-point ( 0.000, 0.000, 0.000) | band =    54
 Effective mass tensor:
             -0.7689830420             -0.0000000000              0.0000000168
             -0.0000000000             -0.7689830421              0.0000000200
              0.0000000168              0.0000000200             -0.3577799039
 Effective mass tensor eigenvalues:
             -0.7689830421             -0.7689830420             -0.3577799039
 Angular average effective mass 1/(<1/m>)=  -0.5559826291
 Angular average effective mass for Frohlich model (<m**0.5>)**2=  -0.5804571848
 Effective masses along directions: (cart. coord. / red. coord. -> eff. mass)
    1:   1.000000  0.000000  0.000000 /   0.894427 -0.447214  0.000000 ->  -0.7689830420
    2:   0.000000  1.000000  0.000000 /   0.000000  1.000000  0.000000 ->  -0.7689830421
    3:   0.000000  0.000000  1.000000 /   0.000000  0.000000  1.000000 ->  -0.3577799039
    4:   0.577350  0.577350  0.577350 /   0.214872  0.078649  0.973470 ->  -0.5559826015
    5:   0.000000  0.707107  0.707107 /   0.000000  0.187756  0.982216 ->  -0.4883488051
    6:   0.707107  0.000000  0.707107 /   0.214299 -0.107149  0.970873 ->  -0.4883488078
    7:   0.707107  0.707107  0.000000 /   0.939071  0.343724  0.000000 ->  -0.7689830421

 K-point ( 0.139, 0.139, 0.000) | band =    55
 Effective mass tensor:
              1.5583934823             -0.4782216473             -0.0000036491
             -0.4782216473              1.0061821265             -0.0000072917
             -0.0000036491             -0.0000072917              0.4738129952
 Effective mass tensor eigenvalues:
              0.4738129949              0.7300828705              1.8344927386
 Angular average effective mass 1/(<1/m>)=   0.7452759489
 Angular average effective mass for Frohlich model (<m**0.5>)**2=   0.8074588662
 Effective masses along directions: (cart. coord. / red. coord. -> eff. mass)
    1:   1.000000  0.000000  0.000000 /   0.894427 -0.447214  0.000000 ->   1.3311026787
    2:   0.000000  1.000000  0.000000 /   0.000000  1.000000  0.000000 ->   0.8594310352
    3:   0.000000  0.000000  1.000000 /   0.000000  0.000000  1.000000 ->   0.4738129951
    4:   0.577350  0.577350  0.577350 /   0.214872  0.078649  0.973470 ->   0.6329730458
    5:   0.000000  0.707107  0.707107 /   0.000000  0.187756  0.982216 ->   0.6108475950
    6:   0.707107  0.000000  0.707107 /   0.214299 -0.107149  0.970873 ->   0.6988567765
    7:   0.707107  0.707107  0.000000 /   0.939071  0.343724  0.000000 ->   0.7607637224

 END OF EFFECTIVE MASSES SECTION

 ---- first-order wavefunction calculations are completed ----

 Total localisation tensor (bohr^2) in cartesian coordinates
  WARNING : still subject to testing - especially symmetries.
      direction              matrix element
   alpha     beta       real part   imaginary part
     1        1       2.1202924666    0.0000000000
     1        2      -0.7344918465    0.0000000000
     1        3       0.0000000000    0.0000000000
     2        1      -0.7344918465    0.0000000000
     2        2       1.2721771959    0.0000000000
     2        3       0.0000000000    0.0000000000
     3        1       0.0000000000    0.0000000000
     3        2       0.0000000000    0.0000000000
     3        3       1.0773196900    0.0000000000

 respfn : d/dk was computed, but no 2DTE, so no DDB output.

== END DATASET(S) ==============================================================

 -outvars: echo values of variables after computation  --------
            acell      1.0000000000E+00  1.0000000000E+00  1.0000000000E+00 Bohr
              amu      3.90983000E+01  9.29063800E+01  7.89600000E+01
             ecut      4.30000000E+01 Hartree
           etotal     -8.7761431248E+00
            fcart      0.0000000000E+00  0.0000000000E+00  0.0000000000E+00
                       0.0000000000E+00  0.0000000000E+00  0.0000000000E+00
                       0.0000000000E+00  0.0000000000E+00  0.0000000000E+00
                       0.0000000000E+00  0.0000000000E+00  0.0000000000E+00
                       0.0000000000E+00  0.0000000000E+00  0.0000000000E+00
                       0.0000000000E+00  0.0000000000E+00  0.0000000000E+00
                       0.0000000000E+00  0.0000000000E+00  0.0000000000E+00
                       0.0000000000E+00  0.0000000000E+00  0.0000000000E+00
-          fftalg         512
           irdden           1
           irdwfk           1
           istwfk        1    0
              ixc     -116133
              kpt      0.00000000E+00  0.00000000E+00  0.00000000E+00
                       1.38888889E-01  1.38888889E-01  0.00000000E+00
           kptopt           0
P           mkmem           2
P          mkqmem           2
P          mk1mem           2
            natom           8
            nband          63
           nbdbuf           4
            ngfft          40      40     192
             nkpt           2
            nstep        2000
             nsym          24
           ntypat           3
              occ      2.000000  2.000000  2.000000  2.000000  2.000000  2.000000
                       2.000000  2.000000  2.000000  2.000000  2.000000  2.000000
                       2.000000  2.000000  2.000000  2.000000  2.000000  2.000000
                       2.000000  2.000000  2.000000  2.000000  2.000000  2.000000
                       2.000000  2.000000  2.000000  2.000000  2.000000  2.000000
                       2.000000  2.000000  2.000000  2.000000  2.000000  2.000000
                       2.000000  2.000000  2.000000  2.000000  2.000000  2.000000
                       2.000000  2.000000  2.000000  2.000000  2.000000  2.000000
                       2.000000  2.000000  2.000000  2.000000  2.000000  2.000000
                       0.000000  0.000000  0.000000  0.000000  0.000000  0.000000
                       0.000000  0.000000  0.000000
        optdriver           1
            prtwf          -1
            rfdir           1       1       1
           rfelfd           2
            rprim      6.7318671640E+00  0.0000000000E+00  0.0000000000E+00
                      -3.3659335820E+00  5.8299679789E+00  0.0000000000E+00
                       0.0000000000E+00  0.0000000000E+00  3.0498495868E+01
          spgroup         194
           strten      0.0000000000E+00  0.0000000000E+00  0.0000000000E+00
                       0.0000000000E+00  0.0000000000E+00  0.0000000000E+00
           symrel      1  0  0   0  1  0   0  0  1      -1  0  0   0 -1  0   0  0 -1
                       0  1  0   1  0  0   0  0  1       0 -1  0  -1  0  0   0  0 -1
                       1  1  0  -1  0  0   0  0  1      -1 -1  0   1  0  0   0  0 -1
                      -1  0  0   1  1  0   0  0  1       1  0  0  -1 -1  0   0  0 -1
                       0  1  0  -1 -1  0   0  0  1       0 -1  0   1  1  0   0  0 -1
                      -1 -1  0   0  1  0   0  0  1       1  1  0   0 -1  0   0  0 -1
                      -1  0  0   0 -1  0   0  0  1       1  0  0   0  1  0   0  0 -1
                       0 -1  0  -1  0  0   0  0  1       0  1  0   1  0  0   0  0 -1
                      -1 -1  0   1  0  0   0  0  1       1  1  0  -1  0  0   0  0 -1
                       1  0  0  -1 -1  0   0  0  1      -1  0  0   1  1  0   0  0 -1
                       0 -1  0   1  1  0   0  0  1       0  1  0  -1 -1  0   0  0 -1
                       1  1  0   0 -1  0   0  0  1      -1 -1  0   0  1  0   0  0 -1
            tnons      0.0000000  0.0000000  0.0000000     0.0000000  0.0000000  0.0000000
                       0.0000000  0.0000000  0.5000000     0.0000000  0.0000000  0.5000000
                       0.0000000  0.0000000  0.5000000     0.0000000  0.0000000  0.5000000
                       0.0000000  0.0000000  0.0000000     0.0000000  0.0000000  0.0000000
                       0.0000000  0.0000000  0.0000000     0.0000000  0.0000000  0.0000000
                       0.0000000  0.0000000  0.5000000     0.0000000  0.0000000  0.5000000
                       0.0000000  0.0000000  0.5000000     0.0000000  0.0000000  0.5000000
                       0.0000000  0.0000000  0.0000000     0.0000000  0.0000000  0.0000000
                       0.0000000  0.0000000  0.0000000     0.0000000  0.0000000  0.0000000
                       0.0000000  0.0000000  0.5000000     0.0000000  0.0000000  0.5000000
                       0.0000000  0.0000000  0.5000000     0.0000000  0.0000000  0.5000000
                       0.0000000  0.0000000  0.0000000     0.0000000  0.0000000  0.0000000
           tolwfr      1.00000000E-20
            typat      1  1  2  2  3  3  3  3
           useylm           1
              wtk        0.50000    0.50000
           xangst      0.0000000000E+00  0.0000000000E+00  8.9590051541E-16
                       0.0000000000E+00  0.0000000000E+00  8.0695544547E+00
                       0.0000000000E+00  0.0000000000E+00  1.2104331682E+01
                       0.0000000000E+00  0.0000000000E+00  4.0347772274E+00
                       0.0000000000E+00  2.0567241208E+00  1.3720001736E+01
                       0.0000000000E+00  2.0567241208E+00  1.0488661628E+01
                       1.7811753372E+00  1.0283620604E+00  5.6504472812E+00
                       1.7811753372E+00  1.0283620604E+00  2.4191071735E+00
            xcart      0.0000000000E+00  0.0000000000E+00  1.6930066164E-15
                       0.0000000000E+00  0.0000000000E+00  1.5249247934E+01
                       0.0000000000E+00  0.0000000000E+00  2.2873871901E+01
                       0.0000000000E+00  0.0000000000E+00  7.6246239669E+00
                       0.0000000000E+00  3.8866453193E+00  2.5927045824E+01
                       0.0000000000E+00  3.8866453193E+00  1.9820697978E+01
                       3.3659335820E+00  1.9433226596E+00  1.0677797890E+01
                       3.3659335820E+00  1.9433226596E+00  4.5714500441E+00
             xred      0.0000000000E+00  0.0000000000E+00  5.5511151231E-17
                       0.0000000000E+00  0.0000000000E+00  5.0000000000E-01
                       0.0000000000E+00  0.0000000000E+00  7.5000000000E-01
                       0.0000000000E+00  0.0000000000E+00  2.5000000000E-01
                       3.3333333333E-01  6.6666666667E-01  8.5010900000E-01
                       3.3333333333E-01  6.6666666667E-01  6.4989100000E-01
                       6.6666666667E-01  3.3333333333E-01  3.5010900000E-01
                       6.6666666667E-01  3.3333333333E-01  1.4989100000E-01
            znucl       19.00000   41.00000   34.00000

- Timing analysis has been suppressed with timopt=0

 Suggested references for the acknowledgment of ABINIT usage.

 Calculation completed.
.Delivered  14 WARNINGs and  11 COMMENTs to log file.