.Version 9.5.2 of ABINIT

 ABINIT is a project of the Universite Catholique de Louvain,
 Corning Inc. and other collaborators, see ~abinit/doc/developers/contributors.txt .
 acknowledgments of the ABINIT effort.

.Starting date : Wed 26 May 2021.
- ( at 02h47 )

- input  file    -> /scratch/users/j/a/jabreu/flow_simple_11atoms/flow/w259/t1/run.abi
- output file    -> /scratch/users/j/a/jabreu/flow_simple_11atoms/flow/w259/t1/run.abo
- root for input  files -> /scratch/users/j/a/jabreu/flow_simple_11atoms/flow/w259/t1/indata/in
- root for output files -> /scratch/users/j/a/jabreu/flow_simple_11atoms/flow/w259/t1/outdata/out

 Symmetries : space group P6_3 m c (#186); Bravais hP (primitive hexag.)
     intxc =       0      iscf =       7    lmnmax =      18     lnmax =       6
     mgfft =     180  mpssoang =       3    mqgrid =    8231     natom =      12
  nloc_mem =       1    nspden =       1   nspinor =       1    nsppol =       1
      nsym =      12    n1xccc =    2501    ntypat =       2    occopt =       1
   xclevel =       2
-    mband =          33        mffmem =           1         mkmem =           2
-   mkqmem =           2        mk1mem =           2           mpw =       10541
      nfft =      233280          nkpt =           2
  Rough estimation (10% accuracy) of disk space for files :

------------- Echo of variables that govern the present computation ------------
-
- outvars: echo of selected default values
-   iomode0 =  0 , fftalg0 =512 , wfoptalg0 =  0
-
- outvars: echo of global parameters not present in the input file
-  max_nthreads =    0
-
 -outvars: echo values of preprocessed input variables --------
            acell      1.0000000000E+00  1.0000000000E+00  1.0000000000E+00 Bohr
              amu      2.80855000E+01  1.20110000E+01
             ecut      4.10000000E+01 Hartree
-          fftalg         512
           irdden           1
           irdwfk           1
           istwfk        1    0
              ixc     -116133
              kpt      0.00000000E+00  0.00000000E+00  0.00000000E+00
                       5.00000000E-01  0.00000000E+00  2.14285714E-01
           kptopt           0
P           mkmem           2
P          mkqmem           2
P          mk1mem           2
            natom          12
            nband          33
           nbdbuf           4
            ngfft          36      36     180
             nkpt           2
            nstep        2000
             nsym          12
           ntypat           2
              occ      2.000000  2.000000  2.000000  2.000000  2.000000  2.000000
                       2.000000  2.000000  2.000000  2.000000  2.000000  2.000000
                       2.000000  2.000000  2.000000  2.000000  2.000000  2.000000
                       2.000000  2.000000  2.000000  2.000000  2.000000  2.000000
                       0.000000  0.000000  0.000000  0.000000  0.000000  0.000000
                       0.000000  0.000000  0.000000
        optdriver           1
            prtwf          -1
            rfdir           1       1       1
           rfelfd           2
            rprim      5.8194320287E+00  0.0000000000E+00  0.0000000000E+00
                      -2.9097160144E+00  5.0397759725E+00  0.0000000000E+00
                       0.0000000000E+00  0.0000000000E+00  2.8552771319E+01
          spgroup         186
           symrel      1  0  0   0  1  0   0  0  1       0  1  0   1  0  0   0  0  1
                       1  1  0  -1  0  0   0  0  1      -1  0  0   1  1  0   0  0  1
                       0  1  0  -1 -1  0   0  0  1      -1 -1  0   0  1  0   0  0  1
                      -1  0  0   0 -1  0   0  0  1       0 -1  0  -1  0  0   0  0  1
                      -1 -1  0   1  0  0   0  0  1       1  0  0  -1 -1  0   0  0  1
                       0 -1  0   1  1  0   0  0  1       1  1  0   0 -1  0   0  0  1
            tnons      0.0000000  0.0000000  0.0000000     0.0000000  0.0000000  0.5000000
                       0.0000000  0.0000000  0.5000000    -0.0000000  0.0000000  0.0000000
                      -0.0000000  0.0000000  0.0000000    -0.0000000 -0.0000000  0.5000000
                      -0.0000000 -0.0000000  0.5000000    -0.0000000 -0.0000000  0.0000000
                      -0.0000000 -0.0000000  0.0000000     0.0000000 -0.0000000  0.5000000
                       0.0000000 -0.0000000  0.5000000     0.0000000  0.0000000  0.0000000
           tolwfr      1.00000000E-20
            typat      1  1  1  1  1  1  2  2  2  2  2  2
           useylm           1
              wtk        0.50000    0.50000
           xangst      1.5397553983E+00  8.8897819368E-01  1.2586087595E+01
                      -1.7639476748E-11  1.7779563874E+00  5.0313496830E+00
                      -1.7639476748E-11  1.7779563874E+00  1.0070510965E+01
                       1.5397553983E+00  8.8897819368E-01  2.5157730531E+00
                      -2.2792958606E-16 -9.8696405902E-17  7.5505374777E+00
                      -2.2792958606E-16 -9.8696405902E-17  1.5105275390E+01
                      -2.2792958606E-16 -9.8696405902E-17  1.3211287486E+01
                      -2.2792958606E-16 -9.8696405902E-17  5.6565495737E+00
                       1.5397553983E+00  8.8897819368E-01  1.0697493774E+01
                      -1.7639476748E-11  1.7779563874E+00  3.1427558619E+00
                      -1.7639476748E-11  1.7779563874E+00  8.1819473629E+00
                       1.5397553983E+00  8.8897819368E-01  6.2720945093E-01
            xcart      2.9097160143E+00  1.6799253242E+00  2.3784258639E+01
                      -3.3333780181E-11  3.3598506483E+00  9.5078729797E+00
                      -3.3333780181E-11  3.3598506483E+00  1.9030507742E+01
                       2.9097160143E+00  1.6799253242E+00  4.7541220829E+00
                      -4.3072449523E-16 -1.8650917745E-16  1.4268447989E+01
                      -4.3072449523E-16 -1.8650917745E-16  2.8544833648E+01
                      -4.3072449523E-16 -1.8650917745E-16  2.4965715211E+01
                      -4.3072449523E-16 -1.8650917745E-16  1.0689329551E+01
                       2.9097160143E+00  1.6799253242E+00  2.0215333541E+01
                      -3.3333780181E-11  3.3598506483E+00  5.9389478815E+00
                      -3.3333780181E-11  3.3598506483E+00  1.5461639750E+01
                       2.9097160143E+00  1.6799253242E+00  1.1852540902E+00
             xred      6.6666666667E-01  3.3333333333E-01  8.3299300000E-01
                       3.3333333333E-01  6.6666666667E-01  3.3299300000E-01
                       3.3333333333E-01  6.6666666667E-01  6.6650300000E-01
                       6.6666666667E-01  3.3333333333E-01  1.6650300000E-01
                      -9.2518585385E-17 -3.7007434154E-17  4.9972200000E-01
                      -9.2518585385E-17 -3.7007434154E-17  9.9972200000E-01
                      -9.2518585385E-17 -3.7007434154E-17  8.7437100000E-01
                      -9.2518585385E-17 -3.7007434154E-17  3.7437100000E-01
                       6.6666666667E-01  3.3333333333E-01  7.0799900000E-01
                       3.3333333333E-01  6.6666666667E-01  2.0799900000E-01
                       3.3333333333E-01  6.6666666667E-01  5.4151100000E-01
                       6.6666666667E-01  3.3333333333E-01  4.1511000000E-02
            znucl       14.00000    6.00000

 chkinp: Checking input parameters for consistency.

== DATASET  1 ==================================================================
-   mpi_nproc: 1, omp_nthreads: -1 (-1 if OMP is not activated)

--- !DatasetInfo
iteration_state: {dtset: 1, }
dimensions: {natom: 12, nkpt: 2, mband: 33, nsppol: 1, nspinor: 1, nspden: 1, mpw: 10541, }
cutoff_energies: {ecut:  41.0, pawecutdg:  -1.0, }
electrons: {nelect:   4.80000000E+01, charge:   0.00000000E+00, occopt:   1.00000000E+00, tsmear:   1.00000000E-02, }
meta: {optdriver: 1, rfelfd: 2, }
...

 Real(R)+Recip(G) space primitive vectors, cartesian coordinates (Bohr,Bohr^-1):
 R(1)=  5.8194320  0.0000000  0.0000000  G(1)=  0.1718381  0.0992108  0.0000000
 R(2)= -2.9097160  5.0397760  0.0000000  G(2)=  0.0000000  0.1984215  0.0000000
 R(3)=  0.0000000  0.0000000 28.5527713  G(3)=  0.0000000  0.0000000  0.0350229
 Unit cell volume ucvol=  8.3741377E+02 bohr^3
 Angles (23,13,12)=  9.00000000E+01  9.00000000E+01  1.20000000E+02 degrees

 getcut: wavevector=  0.0000  0.0000  0.0000  ngfft=  36  36 180
         ecut(hartree)=     41.000   => boxcut(ratio)=   2.14617

--- Pseudopotential description ------------------------------------------------
- pspini: atom type   1  psp file is /scratch/users/j/a/jabreu/pseudos/PBEsol/Si.psp8
- pspatm: opening atomic psp file    /scratch/users/j/a/jabreu/pseudos/PBEsol/Si.psp8
- Si    ONCVPSP-3.3.0  r_core=   1.60303   1.72197   1.91712
- 14.00000   4.00000    180112                znucl, zion, pspdat
    8 -116133    2    4       600   0.00000   pspcod,pspxc,lmax,lloc,mmax,r2well
    5.99000000000000    4.00000000000000    0.00000000000000   rchrg,fchrg,qchrg
     nproj     2     2     2
     extension_switch     1
  pspatm : epsatm=    7.86468782
         --- l  ekb(1:nproj) -->
             0    5.384426    0.843824
             1    2.663259    0.615854
             2   -2.267219   -0.458043
 pspatm: atomic psp has been read  and splines computed

- pspini: atom type   2  psp file is /scratch/users/j/a/jabreu/pseudos/PBEsol/C.psp8
- pspatm: opening atomic psp file    /scratch/users/j/a/jabreu/pseudos/PBEsol/C.psp8
- C     ONCVPSP-3.3.0  r_core=   1.20440   1.26326
-  6.00000   4.00000    180112                znucl, zion, pspdat
    8 -116133    1    4       600   0.00000   pspcod,pspxc,lmax,lloc,mmax,r2well
    5.99000000000000    4.00000000000000    0.00000000000000   rchrg,fchrg,qchrg
     nproj     2     2
     extension_switch     1
  pspatm : epsatm=    4.34909529
         --- l  ekb(1:nproj) -->
             0    6.468939    0.390031
             1   -4.179695   -0.878453
 pspatm: atomic psp has been read  and splines computed

   3.51756953E+03                                ecore*ucvol(ha*bohr**3)

 ==>  initialize data related to q vector <==

 The list of irreducible perturbations for this q vector is:
    1)    idir= 1    ipert=  13
    2)    idir= 2    ipert=  13
    3)    idir= 3    ipert=  13

 Perturbation wavevector (in red.coord.)   0.000000  0.000000  0.000000
 Perturbation : derivative vs k along direction   1

 dfpt_looppert : COMMENT -
  In a d/dk calculation, iscf is set to -3 automatically.
 The set of symmetries contains only one element for this perturbation.
 symkpt : not enough symmetry to change the number of k points.

 Initialisation of the first-order wave-functions :
  ireadwf=   0

--- !BeginCycle
iteration_state: {dtset: 1, }
solver: {iscf: 7, nstep: 2000, nline: 4, wfoptalg: 0, }
tolerances: {tolwfr: 1.00E-20, }
...

     iter   2DEtotal(Ha)        deltaE(Ha) residm    vres2
-ETOT  1  -99.538426309736     -9.954E+01 1.408E-01 0.000E+00
 ETOT  2  -99.630055755905     -9.163E-02 4.548E-03 0.000E+00
 ETOT  3  -99.630585411563     -5.297E-04 2.273E-04 0.000E+00
 ETOT  4  -99.630590243160     -4.832E-06 1.167E-04 0.000E+00
[...]
    (  non-var. 2DEtotal :   -9.9630590295E+01 Ha)

 Perturbation wavevector (in red.coord.)   0.000000  0.000000  0.000000
 Perturbation : derivative vs k along direction   2
 The set of symmetries contains only one element for this perturbation.
 symkpt : not enough symmetry to change the number of k points.

[...]

 Perturbation wavevector (in red.coord.)   0.000000  0.000000  0.000000
 Perturbation : derivative vs k along direction   3
 The set of symmetries contains only one element for this perturbation.
 symkpt : not enough symmetry to change the number of k points.

 Initialisation of the first-order wave-functions :
  ireadwf=   0

--- !BeginCycle
iteration_state: {dtset: 1, }
solver: {iscf: 7, nstep: 2000, nline: 4, wfoptalg: 0, }
tolerances: {tolwfr: 1.00E-20, }
...

     iter   2DEtotal(Ha)        deltaE(Ha) residm    vres2
-ETOT  1  -2.3097086211872     -2.310E+00 4.608E-03 0.000E+00
 ETOT  2  -2.3116172728746     -1.909E-03 4.602E-04 0.000E+00
 ETOT  3  -2.3116266223645     -9.349E-06 3.775E-05 0.000E+00
 ETOT  4  -2.3116266929695     -7.061E-08 7.903E-06 0.000E+00
 ETOT  5  -2.3116266935957     -6.262E-10 7.292E-07 0.000E+00
 ETOT  6  -2.3116266936018     -6.096E-12 1.682E-07 0.000E+00
 ETOT  7  -2.3116266936019     -6.262E-14 1.628E-08 0.000E+00
 ETOT  8  -2.3116266936019     -1.332E-15 3.779E-09 0.000E+00
 ETOT  9  -2.3116266936019      4.441E-16 3.801E-10 0.000E+00
 ETOT 10  -2.3116266936019      1.776E-15 8.712E-11 0.000E+00
 ETOT 11  -2.3116266936019      0.000E+00 9.072E-12 0.000E+00
 ETOT 12  -2.3116266936019      0.000E+00 2.048E-12 0.000E+00
 ETOT 13  -2.3116266936019      0.000E+00 2.196E-13 0.000E+00
 ETOT 14  -2.3116266936019      0.000E+00 5.633E-14 0.000E+00
 ETOT 15  -2.3116266936019     -8.882E-16 5.372E-15 0.000E+00
 ETOT 16  -2.3116266936019      0.000E+00 1.738E-15 0.000E+00
 ETOT 17  -2.3116266936019      4.441E-16 1.352E-16 0.000E+00
 ETOT 18  -2.3116266936019      0.000E+00 5.373E-17 0.000E+00
 ETOT 19  -2.3116266936019      4.441E-16 4.132E-18 0.000E+00
 ETOT 20  -2.3116266936019      0.000E+00 1.664E-18 0.000E+00
 ETOT 21  -2.3116266936019      0.000E+00 1.265E-19 0.000E+00
 ETOT 22  -2.3116266936019      0.000E+00 5.156E-20 0.000E+00
 ETOT 23  -2.3116266936019     -4.441E-16 9.902E-21 0.000E+00

 At SCF step   23   max residual=  9.90E-21 < tolwfr=  1.00E-20 =>converged.

 ----iterations are completed or convergence reached----

 dfpt_looppert: DFPT cycle converged with prtwf=-1. Will skip output of the 1st-order WFK file.
 dfpt_looppert : ek2=    4.6487312067E+00
          f-sum rule ratio=    1.0059462994E+00
 prteigrs : about to open file /scratch/users/j/a/jabreu/flow_simple_11atoms/flow/w259/t1/tmpdata/tmp_1WF1_EIG
 Expectation of eigenvalue derivatives (hartree) for nkpt=   2  k points:
  (in case of degenerate eigenvalues, averaged derivative)
 kpt#   1, nband= 33, wtk=  0.50000, kpt=  0.0000  0.0000  0.0000 (reduced coord)
  -0.00000    0.00000   -0.00000    0.00000   -0.00000    0.00000   -0.00000    0.00000
   0.00000    0.00000   -0.00000   -0.00000   -0.00000    0.00000    0.00000    0.00000
   0.00000    0.00000    0.00000    0.00000    0.00000   -0.00000   -0.00000   -0.00000
   0.00000    0.00000   -0.00000   -0.00000    0.00000   -0.00000   -0.00000   -0.00000
   0.00000
 prteigrs : prtvol=0 or 1, do not print more k-points.

 Eight components of 2nd-order total energy (hartree) are
 1,2,3: 0th-order hamiltonian combined with 1st-order wavefunctions
     kin0=   3.92485356E+00 eigvalue=  -6.02240585E-01  local=  -1.86412695E+00
 4,5,6: 1st-order hamiltonian combined with 1st and 0th-order wfs
     kin1=  -4.67637395E+00  Hartree=   0.00000000E+00     xc=   0.00000000E+00
 7,8,9: eventually, occupation + non-local contributions
    edocc=   7.38386484E-01     enl0=   1.14754176E-01   enl1=   5.31205673E-02
 1-9 gives the relaxation energy (to be shifted if some occ is /=2.0)
   erelax=  -2.31162669E+00
  No Ewald or frozen-wf contrib.: the relaxation energy is the total one
 2DEtotal=   -0.2311626694E+01 Ha. Also 2DEtotal=   -0.629025613006E+02 eV
    (  non-var. 2DEtotal :   -2.3116266935E+00 Ha)

 CALCULATION OF EFFECTIVE MASSES
 NOTE : Additional infos (eff. mass eigenvalues, eigenvectors and, if degenerate, average mass) are available in stdout.

 COMMENTS:
 - At k-point ( 0.000, 0.000, 0.000), bands    23 through    24
   are DEGENERATE (effective mass tensor is therefore not defined).
   See Section IIIB Eqs. (67)-(70) and Appendix E of PRB 93 205147 (2016).
 - Angular average effective mass for Frohlich model is to be averaged over degenerate bands. See later.
 - Associated theta integrals calculated with ntheta=   1000 points.

 K-point ( 0.000, 0.000, 0.000) | band =    23
 Transport equivalent effective mass tensor:
             -0.3035142164              0.0000001529              0.0000005384
              0.0000001529             -0.3035148041              0.0000018873
              0.0000005384              0.0000018873             -1.6192995080
 Transport equivalent effective mass tensor eigenvalues:
             -1.6192995081             -0.3035148415             -0.3035141790
 Angular average effective mass 1/(<1/m>)=  -0.4162607100
 Angular average effective mass for Frohlich model (<m**0.5>)**2=  -0.4711042855
 Effective masses along directions: (cart. coord. / red. coord. -> eff. mass)
    1:   1.000000  0.000000  0.000000 /   0.894427 -0.447214  0.000000 ->  -0.3035144581
    2:   0.000000  1.000000  0.000000 /   0.000000  1.000000  0.000000 ->  -0.3035145632
    3:   0.000000  0.000000  1.000000 /   0.000000  0.000000  1.000000 ->  -1.6192936584
    4:   0.577350  0.577350  0.577350 /   0.199176  0.072904  0.977248 ->  -0.4162601603
    5:   0.000000  0.707107  0.707107 /   0.000000  0.173821  0.984777 ->  -0.5112087100
    6:   0.707107  0.000000  0.707107 /   0.198719 -0.099360  0.975007 ->  -0.5112097908
    7:   0.707107  0.707107  0.000000 /   0.939071  0.343724  0.000000 ->  -0.3035144860

 K-point ( 0.000, 0.000, 0.000) | band =    24
 Transport equivalent effective mass tensor:
             -3.9525566310             -0.0000016956              0.0000106764
             -0.0000016956             -3.9525503471              0.0000182707
              0.0000106764              0.0000182707             -1.6192995091
 Transport equivalent effective mass tensor eigenvalues:
             -3.9525570594             -3.9525499188             -1.6192995089
 Angular average effective mass 1/(<1/m>)=  -2.6701010367
 Angular average effective mass for Frohlich model (<m**0.5>)**2=  -2.8327828757
 Effective masses along directions: (cart. coord. / red. coord. -> eff. mass)
    1:   1.000000  0.000000  0.000000 /   0.894427 -0.447214  0.000000 ->  -3.9525534185
    2:   0.000000  1.000000  0.000000 /   0.000000  1.000000  0.000000 ->  -3.9525534208
    3:   0.000000  0.000000  1.000000 /   0.000000  0.000000  1.000000 ->  -1.6193053582
    4:   0.577350  0.577350  0.577350 /   0.199176  0.072904  0.977248 ->  -2.6700774781
    5:   0.000000  0.707107  0.707107 /   0.000000  0.173821  0.984777 ->  -2.2973856008
    6:   0.707107  0.000000  0.707107 /   0.198719 -0.099360  0.975007 ->  -2.2973815124
    7:   0.707107  0.707107  0.000000 /   0.939071  0.343724  0.000000 ->  -3.9525535692

 Angular average effective mass for Frohlich model, averaged over degenerate bands.
 Value of     (<<m**0.5>>)**2 =     1.403582E+00
 Absolute Value of <<m**0.5>> =     1.184729E+00

 K-point ( 0.500, 0.000, 0.214) | band =    25
 Effective mass tensor:
              0.6171254394              0.2195656795              0.0004077898
              0.2195656795              0.3635933957              0.0002422256
              0.0004077898              0.0002422256              1.8317426266
 Effective mass tensor eigenvalues:
              0.2368269503              0.7438916780              1.8317428334
 Angular average effective mass 1/(<1/m>)=   0.4907813020
 Angular average effective mass for Frohlich model (<m**0.5>)**2=   0.5979238824
 Effective masses along directions: (cart. coord. / red. coord. -> eff. mass)
    1:   1.000000  0.000000  0.000000 /   0.894427 -0.447214  0.000000 ->   0.4845347440
    2:   0.000000  1.000000  0.000000 /   0.000000  1.000000  0.000000 ->   0.2854746086
    3:   0.000000  0.000000  1.000000 /   0.000000  0.000000  1.000000 ->   1.8317423241
    4:   0.577350  0.577350  0.577350 /   0.199176  0.072904  0.977248 ->   0.8289270297
    5:   0.000000  0.707107  0.707107 /   0.000000  0.173821  0.984777 ->   0.4940107012
    6:   0.707107  0.000000  0.707107 /   0.198719 -0.099360  0.975007 ->   0.7665259641
    7:   0.707107  0.707107  0.000000 /   0.939071  0.343724  0.000000 ->   0.6505823344

 END OF EFFECTIVE MASSES SECTION

 ---- first-order wavefunction calculations are completed ----

 Total localisation tensor (bohr^2) in cartesian coordinates
  WARNING : still subject to testing - especially symmetries.
      direction              matrix element
   alpha     beta       real part   imaginary part
     1        1       3.7112964370    0.0000000000
     1        2      -1.7884715420    0.0000000000
     1        3       0.0000000000    0.0000000000
     2        1      -1.7884715420    0.0000000000
     2        2       3.0977235786    0.0000000000
     2        3       0.0000000000    0.0000000000
     3        1       0.0000000000    0.0000000000
     3        2       0.0000000000    0.0000000000
     3        3       1.2941992957    0.0000000000

 respfn : d/dk was computed, but no 2DTE, so no DDB output.

== END DATASET(S) ==============================================================

 -outvars: echo values of variables after computation  --------
            acell      1.0000000000E+00  1.0000000000E+00  1.0000000000E+00 Bohr
              amu      2.80855000E+01  1.20110000E+01
             ecut      4.10000000E+01 Hartree
           etotal     -2.3116266936E+00
            fcart      0.0000000000E+00  0.0000000000E+00  0.0000000000E+00
                       0.0000000000E+00  0.0000000000E+00  0.0000000000E+00
                       0.0000000000E+00  0.0000000000E+00  0.0000000000E+00
                       0.0000000000E+00  0.0000000000E+00  0.0000000000E+00
                       0.0000000000E+00  0.0000000000E+00  0.0000000000E+00
                       0.0000000000E+00  0.0000000000E+00  0.0000000000E+00
                       0.0000000000E+00  0.0000000000E+00  0.0000000000E+00
                       0.0000000000E+00  0.0000000000E+00  0.0000000000E+00
                       0.0000000000E+00  0.0000000000E+00  0.0000000000E+00
                       0.0000000000E+00  0.0000000000E+00  0.0000000000E+00
                       0.0000000000E+00  0.0000000000E+00  0.0000000000E+00
                       0.0000000000E+00  0.0000000000E+00  0.0000000000E+00
-          fftalg         512
           irdden           1
           irdwfk           1
           istwfk        1    0
              ixc     -116133
              kpt      0.00000000E+00  0.00000000E+00  0.00000000E+00
                       5.00000000E-01  0.00000000E+00  2.14285714E-01
           kptopt           0
P           mkmem           2
P          mkqmem           2
P          mk1mem           2
            natom          12
            nband          33
           nbdbuf           4
            ngfft          36      36     180
             nkpt           2
            nstep        2000
             nsym          12
           ntypat           2
              occ      2.000000  2.000000  2.000000  2.000000  2.000000  2.000000
                       2.000000  2.000000  2.000000  2.000000  2.000000  2.000000
                       2.000000  2.000000  2.000000  2.000000  2.000000  2.000000
                       2.000000  2.000000  2.000000  2.000000  2.000000  2.000000
                       0.000000  0.000000  0.000000  0.000000  0.000000  0.000000
                       0.000000  0.000000  0.000000
        optdriver           1
            prtwf          -1
            rfdir           1       1       1
           rfelfd           2
            rprim      5.8194320287E+00  0.0000000000E+00  0.0000000000E+00
                      -2.9097160144E+00  5.0397759725E+00  0.0000000000E+00
                       0.0000000000E+00  0.0000000000E+00  2.8552771319E+01
          spgroup         186
           strten      0.0000000000E+00  0.0000000000E+00  0.0000000000E+00
                       0.0000000000E+00  0.0000000000E+00  0.0000000000E+00
           symrel      1  0  0   0  1  0   0  0  1       0  1  0   1  0  0   0  0  1
                       1  1  0  -1  0  0   0  0  1      -1  0  0   1  1  0   0  0  1
                       0  1  0  -1 -1  0   0  0  1      -1 -1  0   0  1  0   0  0  1
                      -1  0  0   0 -1  0   0  0  1       0 -1  0  -1  0  0   0  0  1
                      -1 -1  0   1  0  0   0  0  1       1  0  0  -1 -1  0   0  0  1
                       0 -1  0   1  1  0   0  0  1       1  1  0   0 -1  0   0  0  1
            tnons      0.0000000  0.0000000  0.0000000     0.0000000  0.0000000  0.5000000
                       0.0000000  0.0000000  0.5000000    -0.0000000  0.0000000  0.0000000
                      -0.0000000  0.0000000  0.0000000    -0.0000000 -0.0000000  0.5000000
                      -0.0000000 -0.0000000  0.5000000    -0.0000000 -0.0000000  0.0000000
                      -0.0000000 -0.0000000  0.0000000     0.0000000 -0.0000000  0.5000000
                       0.0000000 -0.0000000  0.5000000     0.0000000  0.0000000  0.0000000
           tolwfr      1.00000000E-20
            typat      1  1  1  1  1  1  2  2  2  2  2  2
           useylm           1
              wtk        0.50000    0.50000
           xangst      1.5397553983E+00  8.8897819368E-01  1.2586087595E+01
                      -1.7639476748E-11  1.7779563874E+00  5.0313496830E+00
                      -1.7639476748E-11  1.7779563874E+00  1.0070510965E+01
                       1.5397553983E+00  8.8897819368E-01  2.5157730531E+00
                      -2.2792958606E-16 -9.8696405902E-17  7.5505374777E+00
                      -2.2792958606E-16 -9.8696405902E-17  1.5105275390E+01
                      -2.2792958606E-16 -9.8696405902E-17  1.3211287486E+01
                      -2.2792958606E-16 -9.8696405902E-17  5.6565495737E+00
                       1.5397553983E+00  8.8897819368E-01  1.0697493774E+01
                      -1.7639476748E-11  1.7779563874E+00  3.1427558619E+00
                      -1.7639476748E-11  1.7779563874E+00  8.1819473629E+00
                       1.5397553983E+00  8.8897819368E-01  6.2720945093E-01
            xcart      2.9097160143E+00  1.6799253242E+00  2.3784258639E+01
                      -3.3333780181E-11  3.3598506483E+00  9.5078729797E+00
                      -3.3333780181E-11  3.3598506483E+00  1.9030507742E+01
                       2.9097160143E+00  1.6799253242E+00  4.7541220829E+00
                      -4.3072449523E-16 -1.8650917745E-16  1.4268447989E+01
                      -4.3072449523E-16 -1.8650917745E-16  2.8544833648E+01
                      -4.3072449523E-16 -1.8650917745E-16  2.4965715211E+01
                      -4.3072449523E-16 -1.8650917745E-16  1.0689329551E+01
                       2.9097160143E+00  1.6799253242E+00  2.0215333541E+01
                      -3.3333780181E-11  3.3598506483E+00  5.9389478815E+00
                      -3.3333780181E-11  3.3598506483E+00  1.5461639750E+01
                       2.9097160143E+00  1.6799253242E+00  1.1852540902E+00
             xred      6.6666666667E-01  3.3333333333E-01  8.3299300000E-01
                       3.3333333333E-01  6.6666666667E-01  3.3299300000E-01
                       3.3333333333E-01  6.6666666667E-01  6.6650300000E-01
                       6.6666666667E-01  3.3333333333E-01  1.6650300000E-01
                      -9.2518585385E-17 -3.7007434154E-17  4.9972200000E-01
                      -9.2518585385E-17 -3.7007434154E-17  9.9972200000E-01
                      -9.2518585385E-17 -3.7007434154E-17  8.7437100000E-01
                      -9.2518585385E-17 -3.7007434154E-17  3.7437100000E-01
                       6.6666666667E-01  3.3333333333E-01  7.0799900000E-01
                       3.3333333333E-01  6.6666666667E-01  2.0799900000E-01
                       3.3333333333E-01  6.6666666667E-01  5.4151100000E-01
                       6.6666666667E-01  3.3333333333E-01  4.1511000000E-02
            znucl       14.00000    6.00000

- Timing analysis has been suppressed with timopt=0

 Suggested references for the acknowledgment of ABINIT usage.

 Calculation completed.
.Delivered   2 WARNINGs and   5 COMMENTs to log file.