.Version 9.5.1 of ABINIT

 ABINIT is a project of the Universite Catholique de Louvain,
 Corning Inc. and other collaborators, see ~abinit/doc/developers/contributors.txt .
 acknowledgments of the ABINIT effort.

.Starting date : Tue 27 Apr 2021.
- ( at 18h34 )

- input  file    -> /scratch/users/j/a/jabreu/flow_simple_4atoms/flow/w197/t1/run.abi
- output file    -> /scratch/users/j/a/jabreu/flow_simple_4atoms/flow/w197/t1/run.abo
- root for input  files -> /scratch/users/j/a/jabreu/flow_simple_4atoms/flow/w197/t1/indata/in
- root for output files -> /scratch/users/j/a/jabreu/flow_simple_4atoms/flow/w197/t1/outdata/out

 Symmetries : space group Fm -3 m (#225); Bravais cF (face-center cubic)
     intxc =       0      iscf =       7    lmnmax =      25     lnmax =       7
     mgfft =      64  mpssoang =       4    mqgrid =    3001     natom =       4
  nloc_mem =       1    nspden =       1   nspinor =       1    nsppol =       1
      nsym =      48    n1xccc =    2501    ntypat =       3    occopt =       1
   xclevel =       2
-    mband =          36        mffmem =           1         mkmem =           2
-   mkqmem =           2        mk1mem =           2           mpw =       10646
      nfft =      262144          nkpt =           2
  Rough estimation (10% accuracy) of disk space for files :

------------- Echo of variables that govern the present computation ------------
-
- outvars: echo of selected default values
-   iomode0 =  0 , fftalg0 =512 , wfoptalg0 =  0
-
- outvars: echo of global parameters not present in the input file
-  max_nthreads =    0
-
 -outvars: echo values of preprocessed input variables --------
            acell      1.0000000000E+00  1.0000000000E+00  1.0000000000E+00 Bohr
              amu      1.37327000E+02  7.49215900E+01  1.96966540E+02
             ecut      4.20000000E+01 Hartree
-          fftalg         512
           irdden           1
           irdwfk           1
           istwfk        1    0
              ixc     -116133
              kpt      5.00000000E-01  5.00000000E-01  5.00000000E-01
                       2.29166667E-01  0.00000000E+00  2.29166667E-01
           kptopt           0
P           mkmem           2
P          mkqmem           2
P          mk1mem           2
            natom           4
            nband          36
           nbdbuf           4
            ngfft          64      64      64
             nkpt           2
            nstep         100
             nsym          48
           ntypat           3
              occ      2.000000  2.000000  2.000000  2.000000  2.000000  2.000000
                       2.000000  2.000000  2.000000  2.000000  2.000000  2.000000
                       2.000000  2.000000  2.000000  2.000000  2.000000  2.000000
                       2.000000  2.000000  2.000000  2.000000  2.000000  2.000000
                       2.000000  2.000000  2.000000  0.000000  0.000000  0.000000
                       0.000000  0.000000  0.000000  0.000000  0.000000  0.000000
        optdriver           1
            prtwf          -1
            rfdir           1       1       1
           rfelfd           2
            rprim      9.1008584953E+00  0.0000000000E+00  5.2543831021E+00
                       3.0336194984E+00  8.5803716755E+00  5.2543831021E+00
                       0.0000000000E+00  0.0000000000E+00  1.0508766204E+01
          spgroup         225
           symrel      1  0  0   0  1  0   0  0  1      -1  0  0   0 -1  0   0  0 -1
                       0 -1  1   0 -1  0   1 -1  0       0  1 -1   0  1  0  -1  1  0
                      -1  0  0  -1  0  1  -1  1  0       1  0  0   1  0 -1   1 -1  0
                       0  1 -1   1  0 -1   0  0 -1       0 -1  1  -1  0  1   0  0  1
                      -1  0  0  -1  1  0  -1  0  1       1  0  0   1 -1  0   1  0 -1
                       0 -1  1   1 -1  0   0 -1  0       0  1 -1  -1  1  0   0  1  0
                       1  0  0   0  0  1   0  1  0      -1  0  0   0  0 -1   0 -1  0
                       0  1 -1   0  0 -1   1  0 -1       0 -1  1   0  0  1  -1  0  1
                      -1  0  1  -1  1  0  -1  0  0       1  0 -1   1 -1  0   1  0  0
                       0 -1  0   1 -1  0   0 -1  1       0  1  0  -1  1  0   0  1 -1
                       1  0 -1   0  0 -1   0  1 -1      -1  0  1   0  0  1   0 -1  1
                       0  1  0   0  0  1   1  0  0       0 -1  0   0  0 -1  -1  0  0
                       1  0 -1   0  1 -1   0  0 -1      -1  0  1   0 -1  1   0  0  1
                       0 -1  0   0 -1  1   1 -1  0       0  1  0   0  1 -1  -1  1  0
                      -1  0  1  -1  0  0  -1  1  0       1  0 -1   1  0  0   1 -1  0
                       0  1  0   1  0  0   0  0  1       0 -1  0  -1  0  0   0  0 -1
                       0  0 -1   0  1 -1   1  0 -1       0  0  1   0 -1  1  -1  0  1
                       1 -1  0   0 -1  1   0 -1  0      -1  1  0   0  1 -1   0  1  0
                       0  0  1   1  0  0   0  1  0       0  0 -1  -1  0  0   0 -1  0
                      -1  1  0  -1  0  0  -1  0  1       1 -1  0   1  0  0   1  0 -1
                       0  0  1   0  1  0   1  0  0       0  0 -1   0 -1  0  -1  0  0
                       1 -1  0   0 -1  0   0 -1  1      -1  1  0   0  1  0   0  1 -1
                       0  0 -1   1  0 -1   0  1 -1       0  0  1  -1  0  1   0 -1  1
                      -1  1  0  -1  0  1  -1  0  0       1 -1  0   1  0 -1   1  0  0
           tolwfr      1.00000000E-20
            typat      1  1  2  3
           useylm           1
              wtk        0.50000    0.50000
           xangst      1.6053222981E+00  1.1351342830E+00  2.7804997828E+00
                       4.8159668943E+00  3.4054028489E+00  8.3414993485E+00
                       0.0000000000E+00  0.0000000000E+00  0.0000000000E+00
                       3.2106445962E+00  2.2702685660E+00  5.5609995657E+00
            xcart      3.0336194984E+00  2.1450929189E+00  5.2543831021E+00
                       9.1008584953E+00  6.4352787566E+00  1.5763149306E+01
                       0.0000000000E+00  0.0000000000E+00  0.0000000000E+00
                       6.0672389968E+00  4.2901858377E+00  1.0508766204E+01
             xred      2.5000000000E-01  2.5000000000E-01  2.5000000000E-01
                       7.5000000000E-01  7.5000000000E-01  7.5000000000E-01
                       0.0000000000E+00  0.0000000000E+00  0.0000000000E+00
                       5.0000000000E-01  5.0000000000E-01  5.0000000000E-01
            znucl       56.00000   33.00000   79.00000

 chkinp: Checking input parameters for consistency.

== DATASET  1 ==================================================================
-   mpi_nproc: 1, omp_nthreads: -1 (-1 if OMP is not activated)

--- !DatasetInfo
iteration_state: {dtset: 1, }
dimensions: {natom: 4, nkpt: 2, mband: 36, nsppol: 1, nspinor: 1, nspden: 1, mpw: 10646, }
cutoff_energies: {ecut:  42.0, pawecutdg:  -1.0, }
electrons: {nelect:   5.40000000E+01, charge:   0.00000000E+00, occopt:   1.00000000E+00, tsmear:   1.00000000E-02, }
meta: {optdriver: 1, rfelfd: 2, }
...

 Real(R)+Recip(G) space primitive vectors, cartesian coordinates (Bohr,Bohr^-1):
 R(1)=  9.1008585  0.0000000  5.2543831  G(1)=  0.1098797 -0.0388484  0.0000000
 R(2)=  3.0336195  8.5803717  5.2543831  G(2)=  0.0000000  0.1165451  0.0000000
 R(3)=  0.0000000  0.0000000 10.5087662  G(3)= -0.0549399 -0.0388484  0.0951586
 Unit cell volume ucvol=  8.2061640E+02 bohr^3
 Angles (23,13,12)=  6.00000000E+01  6.00000000E+01  6.00000000E+01 degrees

 getcut: wavevector=  0.0000  0.0000  0.0000  ngfft=  64  64  64
         ecut(hartree)=     42.000   => boxcut(ratio)=   2.08756

--- Pseudopotential description ------------------------------------------------
- pspini: atom type   1  psp file is /scratch/users/j/a/jabreu/pseudos/PBEsol/Ba.psp8
- pspatm: opening atomic psp file    /scratch/users/j/a/jabreu/pseudos/PBEsol/Ba.psp8
- Ba    ONCVPSP-3.3.0  r_core=   2.15444   1.91218   2.15444
- 56.00000  10.00000    180112                znucl, zion, pspdat
    8 -116133    2    4       600   0.00000   pspcod,pspxc,lmax,lloc,mmax,r2well
    5.99000000000000    5.00000000000000    0.00000000000000   rchrg,fchrg,qchrg
     nproj     2     2     2
     extension_switch     1
  pspatm : epsatm=   26.37418029
         --- l  ekb(1:nproj) -->
             0    6.652372    0.677024
             1    5.027722    0.408462
             2    2.543237    0.416854
 pspatm: atomic psp has been read  and splines computed

- pspini: atom type   2  psp file is /scratch/users/j/a/jabreu/pseudos/PBEsol/As.psp8
- pspatm: opening atomic psp file    /scratch/users/j/a/jabreu/pseudos/PBEsol/As.psp8
- As    ONCVPSP-3.3.0  r_core=   1.76603   1.70395   1.80867
- 33.00000  15.00000    180112                znucl, zion, pspdat
    8 -116133    2    4       600   0.00000   pspcod,pspxc,lmax,lloc,mmax,r2well
    5.99000000000000    5.00000000000000    0.00000000000000   rchrg,fchrg,qchrg
     nproj     2     2     2
     extension_switch     1
  pspatm : epsatm=   28.79155382
         --- l  ekb(1:nproj) -->
             0    8.270760    0.868950
             1    4.919053    0.756587
             2  -10.048665   -4.076802
 pspatm: atomic psp has been read  and splines computed

- pspini: atom type   3  psp file is /scratch/users/j/a/jabreu/pseudos/PBEsol/Au.psp8
- pspatm: opening atomic psp file    /scratch/users/j/a/jabreu/pseudos/PBEsol/Au.psp8
- Au    ONCVPSP-3.3.0  r_core=   1.45604   1.56407   1.56407   1.60183
- 79.00000  19.00000    180112                znucl, zion, pspdat
    8 -116133    3    4       500   0.00000   pspcod,pspxc,lmax,lloc,mmax,r2well
    4.99000000000000    5.00000000000000    0.00000000000000   rchrg,fchrg,qchrg
     nproj     2     2     2     1
     extension_switch     1
  pspatm : epsatm=   32.21965837
         --- l  ekb(1:nproj) -->
             0    9.413866   -0.196587
             1    2.474292   -1.517497
             2    1.503483    0.298081
             3    1.177996
 pspatm: atomic psp has been read  and splines computed

   6.14301693E+03                                ecore*ucvol(ha*bohr**3)

-inwffil : will read wavefunctions from disk file /scratch/users/j/a/jabreu/flow_simple_4atoms/flow/w197/t1/indata/in_WFK

 ==>  initialize data related to q vector <==

 The list of irreducible perturbations for this q vector is:
    1)    idir= 1    ipert=   5
    2)    idir= 2    ipert=   5
    3)    idir= 3    ipert=   5

 Perturbation wavevector (in red.coord.)   0.000000  0.000000  0.000000
 Perturbation : derivative vs k along direction   1

 dfpt_looppert : COMMENT -
  In a d/dk calculation, iscf is set to -3 automatically.
 The set of symmetries contains only one element for this perturbation.
 symkpt : not enough symmetry to change the number of k points.

[...]

 Initialisation of the first-order wave-functions :
  ireadwf=   0

--- !BeginCycle
iteration_state: {dtset: 1, }
solver: {iscf: 7, nstep: 100, nline: 4, wfoptalg: 0, }
tolerances: {tolwfr: 1.00E-20, }
...

     iter   2DEtotal(Ha)        deltaE(Ha) residm    vres2
-ETOT  1  -50.914662472233     -5.091E+01 3.805E-02 0.000E+00
 ETOT  2  -50.952566616362     -3.790E-02 6.524E-04 0.000E+00
 ETOT  3  -50.952664196398     -9.758E-05 7.434E-06 0.000E+00
 ETOT  4  -50.952664858850     -6.625E-07 2.302E-07 0.000E+00
 ETOT  5  -50.952664865309     -6.459E-09 3.433E-09 0.000E+00
 ETOT  6  -50.952664865384     -7.437E-11 1.172E-10 0.000E+00
 ETOT  7  -50.952664865385     -1.030E-12 2.821E-12 0.000E+00
 ETOT  8  -50.952664865385     -8.527E-14 7.956E-14 0.000E+00
 ETOT  9  -50.952664865385      9.948E-14 3.574E-15 0.000E+00
 ETOT 10  -50.952664865385     -2.842E-14 1.026E-16 0.000E+00
 ETOT 11  -50.952664865385     -1.421E-14 4.573E-18 0.000E+00
 ETOT 12  -50.952664865385      0.000E+00 1.355E-19 0.000E+00
 ETOT 13  -50.952664865385      0.000E+00 9.756E-21 0.000E+00

 At SCF step   13   max residual=  9.76E-21 < tolwfr=  1.00E-20 =>converged.

 ----iterations are completed or convergence reached----

 dfpt_looppert: DFPT cycle converged with prtwf=-1. Will skip output of the 1st-order WFK file.
 dfpt_looppert : ek2=    5.7912363699E+01
          f-sum rule ratio=    1.2588104284E+00
 prteigrs : about to open file /scratch/users/j/a/jabreu/flow_simple_4atoms/flow/w197/t1/tmpdata/tmp_1WF1_EIG
 Expectation of eigenvalue derivatives (hartree) for nkpt=   2  k points:
  (in case of degenerate eigenvalues, averaged derivative)
 kpt#   1, nband= 36, wtk=  0.50000, kpt=  0.5000  0.5000  0.5000 (reduced coord)
  -0.00000    0.00000    0.00000    0.00000   -0.00000    0.00000    0.00000   -0.00000
  -0.00000    0.00000    0.00000    0.00000   -0.00000   -0.00000   -0.00000   -0.00000
  -0.00000    0.00000   -0.00000   -0.00000   -0.00000    0.00000    0.00000    0.00000
  -0.00000   -0.00000    0.00000   -0.00000   -0.00000    0.00000    0.00000    0.00000
   0.00000    0.00000    0.00000   -0.00004
 prteigrs : prtvol=0 or 1, do not print more k-points.

 Eight components of 2nd-order total energy (hartree) are
 1,2,3: 0th-order hamiltonian combined with 1st-order wavefunctions
     kin0=   4.68796677E+01 eigvalue=   2.45895099E+00  local=  -2.15937996E+01
 4,5,6: 1st-order hamiltonian combined with 1st and 0th-order wfs
     kin1=  -7.29006874E+01  Hartree=   0.00000000E+00     xc=   0.00000000E+00
 7,8,9: eventually, occupation + non-local contributions
    edocc=   1.81839435E+01     enl0=   5.02390231E+00   enl1=  -2.90046424E+01
 1-9 gives the relaxation energy (to be shifted if some occ is /=2.0)
   erelax=  -5.09526649E+01
  No Ewald or frozen-wf contrib.: the relaxation energy is the total one
 2DEtotal=   -0.5095266487E+02 Ha. Also 2DEtotal=   -0.138649252234E+04 eV
    (  non-var. 2DEtotal :   -5.0952664865E+01 Ha)

 Perturbation wavevector (in red.coord.)   0.000000  0.000000  0.000000
 Perturbation : derivative vs k along direction   2
 The set of symmetries contains only one element for this perturbation.
 symkpt : not enough symmetry to change the number of k points.

[...]

 Perturbation wavevector (in red.coord.)   0.000000  0.000000  0.000000
 Perturbation : derivative vs k along direction   3
 The set of symmetries contains only one element for this perturbation.
 symkpt : not enough symmetry to change the number of k points.

-inwffil : will read wavefunctions from disk file /scratch/users/j/a/jabreu/flow_simple_4atoms/flow/w197/t1/indata/in_WFK

 Initialisation of the first-order wave-functions :
  ireadwf=   0

--- !BeginCycle
iteration_state: {dtset: 1, }
solver: {iscf: 7, nstep: 100, nline: 4, wfoptalg: 0, }
tolerances: {tolwfr: 1.00E-20, }
...

     iter   2DEtotal(Ha)        deltaE(Ha) residm    vres2
-ETOT  1  -50.915792714258     -5.092E+01 3.805E-02 0.000E+00
 ETOT  2  -50.952574839603     -3.678E-02 6.528E-04 0.000E+00
 ETOT  3  -50.952673360640     -9.852E-05 7.431E-06 0.000E+00
 ETOT  4  -50.952674051462     -6.908E-07 2.300E-07 0.000E+00
 ETOT  5  -50.952674058268     -6.806E-09 3.432E-09 0.000E+00
 ETOT  6  -50.952674058346     -7.828E-11 1.171E-10 0.000E+00
 ETOT  7  -50.952674058347     -1.037E-12 2.822E-12 0.000E+00
 ETOT  8  -50.952674058347     -7.105E-14 7.957E-14 0.000E+00
 ETOT  9  -50.952674058347      7.105E-14 3.575E-15 0.000E+00
 ETOT 10  -50.952674058347     -2.842E-14 1.027E-16 0.000E+00
 ETOT 11  -50.952674058347      1.421E-14 4.575E-18 0.000E+00
 ETOT 12  -50.952674058347     -2.132E-14 1.355E-19 0.000E+00
 ETOT 13  -50.952674058347      0.000E+00 9.995E-21 0.000E+00

 At SCF step   13   max residual=  1.00E-20 < tolwfr=  1.00E-20 =>converged.

 ----iterations are completed or convergence reached----

 dfpt_looppert: DFPT cycle converged with prtwf=-1. Will skip output of the 1st-order WFK file.
 dfpt_looppert : ek2=    5.7912363698E+01
          f-sum rule ratio=    1.2588110636E+00
 prteigrs : about to open file /scratch/users/j/a/jabreu/flow_simple_4atoms/flow/w197/t1/tmpdata/tmp_1WF1_EIG
 Expectation of eigenvalue derivatives (hartree) for nkpt=   2  k points:
  (in case of degenerate eigenvalues, averaged derivative)
 kpt#   1, nband= 36, wtk=  0.50000, kpt=  0.5000  0.5000  0.5000 (reduced coord)
   0.00000    0.00000    0.00000    0.00000    0.00000    0.00000    0.00000   -0.00000
  -0.00000   -0.00000    0.00000    0.00000    0.00000   -0.00000   -0.00000    0.00000
   0.00000   -0.00000   -0.00000    0.00000    0.00000    0.00000    0.00000   -0.00000
   0.00000    0.00000   -0.00000   -0.00000   -0.00000    0.00000    0.00000    0.00000
  -0.00000   -0.00000    0.00000    0.00005
 prteigrs : prtvol=0 or 1, do not print more k-points.

 Eight components of 2nd-order total energy (hartree) are
 1,2,3: 0th-order hamiltonian combined with 1st-order wavefunctions
     kin0=   4.68790622E+01 eigvalue=   2.45882478E+00  local=  -2.15934665E+01
 4,5,6: 1st-order hamiltonian combined with 1st and 0th-order wfs
     kin1=  -7.29007241E+01  Hartree=   0.00000000E+00     xc=   0.00000000E+00
 7,8,9: eventually, occupation + non-local contributions
    edocc=   1.81842935E+01     enl0=   5.02396002E+00   enl1=  -2.90046240E+01
 1-9 gives the relaxation energy (to be shifted if some occ is /=2.0)
   erelax=  -5.09526741E+01
  No Ewald or frozen-wf contrib.: the relaxation energy is the total one
 2DEtotal=   -0.5095267406E+02 Ha. Also 2DEtotal=   -0.138649277250E+04 eV
    (  non-var. 2DEtotal :   -5.0952674058E+01 Ha)

 CALCULATION OF EFFECTIVE MASSES
 NOTE : Additional infos (eff. mass eigenvalues, eigenvectors and, if degenerate, average mass) are available in stdout.

 K-point ( 0.500, 0.500, 0.500) | band =    27
 Effective mass tensor:
             -3.8362519650             -2.6249787539             -6.4298585242
             -2.6249787539             -1.9801117260             -4.5465965957
             -6.4298585242             -4.5465965957            -11.2608131469
 Effective mass tensor eigenvalues:
            -16.8292339662             -0.1239714359             -0.1239714358
 Angular average effective mass 1/(<1/m>)=  -0.1852747467
 Angular average effective mass for Frohlich model (<m**0.5>)**2=  -0.2753627898
 Effective masses along directions: (cart. coord. / red. coord. -> eff. mass)
    1:   1.000000  0.000000  0.000000 /   0.948683  0.316228  0.000000 ->  -0.1590570789
    2:   0.000000  1.000000  0.000000 /   0.000000  1.000000  0.000000 ->  -0.1393395610
    3:   0.000000  0.000000  1.000000 /   0.408248  0.408248  0.816497 ->  -0.3665144996
    4:   0.577350  0.577350  0.577350 /   0.585539  0.688047  0.428644 ->  -0.9512827369
    5:   0.000000  0.707107  0.707107 /   0.289489  0.762222  0.578977 ->  -0.3605757900
    6:   0.707107  0.000000  0.707107 /   0.731423  0.422287  0.535439 ->  -0.7013359734
    7:   0.707107  0.707107  0.000000 /   0.616798  0.787122  0.000000 ->  -0.1826914286

 K-point ( 0.229, 0.000, 0.229) | band =    28
 Effective mass tensor:
              0.3499407893              0.0861096206             -0.1054590655
              0.0861096206              0.2890514853              0.1491414254
             -0.1054590655              0.1491414254              0.2281627423
 Effective mass tensor eigenvalues:
              0.0455025830              0.4108231368              0.4108292972
 Angular average effective mass 1/(<1/m>)=   0.1117526006
 Angular average effective mass for Frohlich model (<m**0.5>)**2=   0.1593037939
 Effective masses along directions: (cart. coord. / red. coord. -> eff. mass)
    1:   1.000000  0.000000  0.000000 /   0.948683  0.316228  0.000000 ->   0.1757095006
    2:   0.000000  1.000000  0.000000 /   0.000000  1.000000  0.000000 ->   0.1117525906
    3:   0.000000  0.000000  1.000000 /   0.408248  0.408248  0.816497 ->   0.0819305287
    4:   0.577350  0.577350  0.577350 /   0.585539  0.688047  0.428644 ->   0.2315003637
    5:   0.000000  0.707107  0.707107 /   0.289489  0.762222  0.578977 ->   0.3848151109
    6:   0.707107  0.000000  0.707107 /   0.731423  0.422287  0.535439 ->   0.0685409978
    7:   0.707107  0.707107  0.000000 /   0.616798  0.787122  0.000000 ->   0.3685251096

 END OF EFFECTIVE MASSES SECTION

 ---- first-order wavefunction calculations are completed ----

 Total localisation tensor (bohr^2) in cartesian coordinates
  WARNING : still subject to testing - especially symmetries.
      direction              matrix element
   alpha     beta       real part   imaginary part
     1        1       7.1232312452    0.0000000000
     1        2       2.0147533689    0.0000000000
     1        3       4.9351190955    0.0000000000
     2        1       2.0147533689    0.0000000000
     2        2       5.6985830784    0.0000000000
     2        3       3.4896551997    0.0000000000
     3        1       4.9351190955    0.0000000000
     3        2       3.4896551997    0.0000000000
     3        3      12.8218181212    0.0000000000

 respfn : d/dk was computed, but no 2DTE, so no DDB output.

== END DATASET(S) ==============================================================

 -outvars: echo values of variables after computation  --------
            acell      1.0000000000E+00  1.0000000000E+00  1.0000000000E+00 Bohr
              amu      1.37327000E+02  7.49215900E+01  1.96966540E+02
             ecut      4.20000000E+01 Hartree
           etotal     -5.0952674058E+01
            fcart      0.0000000000E+00  0.0000000000E+00  0.0000000000E+00
                       0.0000000000E+00  0.0000000000E+00  0.0000000000E+00
                       0.0000000000E+00  0.0000000000E+00  0.0000000000E+00
                       0.0000000000E+00  0.0000000000E+00  0.0000000000E+00
-          fftalg         512
           irdden           1
           irdwfk           1
           istwfk        1    0
              ixc     -116133
              kpt      5.00000000E-01  5.00000000E-01  5.00000000E-01
                       2.29166667E-01  0.00000000E+00  2.29166667E-01
           kptopt           0
P           mkmem           2
P          mkqmem           2
P          mk1mem           2
            natom           4
            nband          36
           nbdbuf           4
            ngfft          64      64      64
             nkpt           2
            nstep         100
             nsym          48
           ntypat           3
              occ      2.000000  2.000000  2.000000  2.000000  2.000000  2.000000
                       2.000000  2.000000  2.000000  2.000000  2.000000  2.000000
                       2.000000  2.000000  2.000000  2.000000  2.000000  2.000000
                       2.000000  2.000000  2.000000  2.000000  2.000000  2.000000
                       2.000000  2.000000  2.000000  0.000000  0.000000  0.000000
                       0.000000  0.000000  0.000000  0.000000  0.000000  0.000000
        optdriver           1
            prtwf          -1
            rfdir           1       1       1
           rfelfd           2
            rprim      9.1008584953E+00  0.0000000000E+00  5.2543831021E+00
                       3.0336194984E+00  8.5803716755E+00  5.2543831021E+00
                       0.0000000000E+00  0.0000000000E+00  1.0508766204E+01
          spgroup         225
           strten      0.0000000000E+00  0.0000000000E+00  0.0000000000E+00
                       0.0000000000E+00  0.0000000000E+00  0.0000000000E+00
           symrel      1  0  0   0  1  0   0  0  1      -1  0  0   0 -1  0   0  0 -1
                       0 -1  1   0 -1  0   1 -1  0       0  1 -1   0  1  0  -1  1  0
                      -1  0  0  -1  0  1  -1  1  0       1  0  0   1  0 -1   1 -1  0
                       0  1 -1   1  0 -1   0  0 -1       0 -1  1  -1  0  1   0  0  1
                      -1  0  0  -1  1  0  -1  0  1       1  0  0   1 -1  0   1  0 -1
                       0 -1  1   1 -1  0   0 -1  0       0  1 -1  -1  1  0   0  1  0
                       1  0  0   0  0  1   0  1  0      -1  0  0   0  0 -1   0 -1  0
                       0  1 -1   0  0 -1   1  0 -1       0 -1  1   0  0  1  -1  0  1
                      -1  0  1  -1  1  0  -1  0  0       1  0 -1   1 -1  0   1  0  0
                       0 -1  0   1 -1  0   0 -1  1       0  1  0  -1  1  0   0  1 -1
                       1  0 -1   0  0 -1   0  1 -1      -1  0  1   0  0  1   0 -1  1
                       0  1  0   0  0  1   1  0  0       0 -1  0   0  0 -1  -1  0  0
                       1  0 -1   0  1 -1   0  0 -1      -1  0  1   0 -1  1   0  0  1
                       0 -1  0   0 -1  1   1 -1  0       0  1  0   0  1 -1  -1  1  0
                      -1  0  1  -1  0  0  -1  1  0       1  0 -1   1  0  0   1 -1  0
                       0  1  0   1  0  0   0  0  1       0 -1  0  -1  0  0   0  0 -1
                       0  0 -1   0  1 -1   1  0 -1       0  0  1   0 -1  1  -1  0  1
                       1 -1  0   0 -1  1   0 -1  0      -1  1  0   0  1 -1   0  1  0
                       0  0  1   1  0  0   0  1  0       0  0 -1  -1  0  0   0 -1  0
                      -1  1  0  -1  0  0  -1  0  1       1 -1  0   1  0  0   1  0 -1
                       0  0  1   0  1  0   1  0  0       0  0 -1   0 -1  0  -1  0  0
                       1 -1  0   0 -1  0   0 -1  1      -1  1  0   0  1  0   0  1 -1
                       0  0 -1   1  0 -1   0  1 -1       0  0  1  -1  0  1   0 -1  1
                      -1  1  0  -1  0  1  -1  0  0       1 -1  0   1  0 -1   1  0  0
           tolwfr      1.00000000E-20
            typat      1  1  2  3
           useylm           1
              wtk        0.50000    0.50000
           xangst      1.6053222981E+00  1.1351342830E+00  2.7804997828E+00
                       4.8159668943E+00  3.4054028489E+00  8.3414993485E+00
                       0.0000000000E+00  0.0000000000E+00  0.0000000000E+00
                       3.2106445962E+00  2.2702685660E+00  5.5609995657E+00
            xcart      3.0336194984E+00  2.1450929189E+00  5.2543831021E+00
                       9.1008584953E+00  6.4352787566E+00  1.5763149306E+01
                       0.0000000000E+00  0.0000000000E+00  0.0000000000E+00
                       6.0672389968E+00  4.2901858377E+00  1.0508766204E+01
             xred      2.5000000000E-01  2.5000000000E-01  2.5000000000E-01
                       7.5000000000E-01  7.5000000000E-01  7.5000000000E-01
                       0.0000000000E+00  0.0000000000E+00  0.0000000000E+00
                       5.0000000000E-01  5.0000000000E-01  5.0000000000E-01
            znucl       56.00000   33.00000   79.00000

- Timing analysis has been suppressed with timopt=0

 Suggested references for the acknowledgment of ABINIT usage.

 Calculation completed.
.Delivered  14 WARNINGs and   9 COMMENTs to log file.