.Version 9.5.2 of ABINIT

 ABINIT is a project of the Universite Catholique de Louvain,
 Corning Inc. and other collaborators, see ~abinit/doc/developers/contributors.txt .
 acknowledgments of the ABINIT effort.

.Starting date : Mon 24 May 2021.
- ( at 11h32 )

- input  file    -> /scratch/users/j/a/jabreu/flow_simple_10atoms/flow/w341/t1/run.abi
- output file    -> /scratch/users/j/a/jabreu/flow_simple_10atoms/flow/w341/t1/run.abo
- root for input  files -> /scratch/users/j/a/jabreu/flow_simple_10atoms/flow/w341/t1/indata/in
- root for output files -> /scratch/users/j/a/jabreu/flow_simple_10atoms/flow/w341/t1/outdata/out

 Symmetries : space group Ib a m (# 72); Bravais oI (body-center ortho.)
     intxc =       0      iscf =       7    lmnmax =      18     lnmax =       6
     mgfft =      75  mpssoang =       3    mqgrid =    3001     natom =      10
  nloc_mem =       1    nspden =       1   nspinor =       1    nsppol =       1
      nsym =       8    n1xccc =    2501    ntypat =       3    occopt =       1
   xclevel =       2
-    mband =          59        mffmem =           1         mkmem =           1
-   mkqmem =           1        mk1mem =           1           mpw =       15547
      nfft =      421875          nkpt =           1
  Rough estimation (10% accuracy) of disk space for files :

------------- Echo of variables that govern the present computation ------------
-
- outvars: echo of selected default values
-   iomode0 =  0 , fftalg0 =512 , wfoptalg0 =  0
-
- outvars: echo of global parameters not present in the input file
-  max_nthreads =    0
-
 -outvars: echo values of preprocessed input variables --------
            acell      1.0000000000E+00  1.0000000000E+00  1.0000000000E+00 Bohr
              amu      3.90983000E+01  6.53900000E+01  1.59994000E+01
             ecut      4.40000000E+01 Hartree
-          fftalg         512
           irdden           1
           irdwfk           1
           istwfk        1
              ixc     -116133
           kptopt           0
P           mkmem           1
P          mkqmem           1
P          mk1mem           1
            natom          10
            nband          59
           nbdbuf           4
            ngfft          75      75      75
             nkpt           1
            nstep        2000
             nsym           8
           ntypat           3
              occ      2.000000  2.000000  2.000000  2.000000  2.000000  2.000000
                       2.000000  2.000000  2.000000  2.000000  2.000000  2.000000
                       2.000000  2.000000  2.000000  2.000000  2.000000  2.000000
                       2.000000  2.000000  2.000000  2.000000  2.000000  2.000000
                       2.000000  2.000000  2.000000  2.000000  2.000000  2.000000
                       2.000000  2.000000  2.000000  2.000000  2.000000  2.000000
                       2.000000  2.000000  2.000000  2.000000  2.000000  2.000000
                       2.000000  2.000000  2.000000  2.000000  2.000000  2.000000
                       2.000000  2.000000  0.000000  0.000000  0.000000  0.000000
                       0.000000  0.000000  0.000000  0.000000  0.000000
        optdriver           1
            prtwf          -1
            rfdir           1       1       1
           rfelfd           2
            rprim      1.0006464978E+01  0.0000000000E+00 -7.2591268968E+00
                      -2.1253085970E+00  9.0085040654E+00 -8.1947655568E+00
                       0.0000000000E+00  0.0000000000E+00  1.2362211156E+01
          spgroup          72
           symrel      1  0  0   0  1  0   0  0  1      -1  0  0   0 -1  0   0  0 -1
                       0  0  1  -1 -1 -1   1  0  0       0  0 -1   1  1  1  -1  0  0
                      -1 -1 -1   0  0  1   0  1  0       1  1  1   0  0 -1   0 -1  0
                       0  1  0   1  0  0  -1 -1 -1       0 -1  0  -1  0  0   1  1  1
            tnons      0.0000000  0.0000000  0.0000000     0.0000000  0.0000000  0.0000000
                       0.0000000  0.5000000  0.5000000     0.0000000  0.5000000  0.5000000
                       0.0000000  0.0000000  0.0000000     0.0000000  0.0000000  0.0000000
                       0.0000000  0.5000000  0.5000000     0.0000000  0.5000000  0.5000000
           tolwfr      1.00000000E-20
            typat      1  1  1  1  2  2  3  3  3  3
           useylm           1
           xangst      1.9953894768E+00  3.1092471617E+00  8.3834326769E-01
                       2.1751388574E+00  1.6578478732E+00 -2.4743905467E+00
                       4.0072386904E+00  7.2569964426E-01  4.7490737276E-01
                       1.6328964372E-01  4.0413953906E+00 -2.1109546518E+00
                      -2.8116621769E-01  1.1917737587E+00  5.5132930726E-01
                      -8.4349865306E-01  3.5753212762E+00  1.6539879218E+00
                       4.1435347443E+00  2.8400719488E+00 -4.0260896723E+00
                       2.6993589826E-02  1.9270230861E+00  2.3900423933E+00
                       2.7824147613E+00  4.3105706036E+00 -1.3571156267E+00
                       1.3881135728E+00  4.5652443134E-01 -2.7893165229E-01
            xcart      3.7707396395E+00  5.8756256151E+00  1.5842391813E+00
                       4.1104167415E+00  3.1328784503E+00 -4.6759204791E+00
                       7.5725836740E+00  1.3713735824E+00  8.9744487301E-01
                       3.0857270696E-01  7.6371304830E+00 -3.9891261708E+00
                      -5.3132714925E-01  2.2521260164E+00  1.0418613998E+00
                      -1.5939814478E+00  6.7563780491E+00  3.1255841993E+00
                       7.8301458889E+00  5.3669581809E+00 -7.6082068671E+00
                       5.1010492115E-02  3.6415458845E+00  4.5165255693E+00
                       5.2580018870E+00  8.1457979172E+00 -2.5645768652E+00
                       2.6231544940E+00  8.6270614820E-01 -5.2710443263E-01
             xred      5.1536000000E-01  6.5223100000E-01  8.6312900000E-01
                       4.8464000000E-01  3.4776900000E-01  1.3687100000E-01
                       7.8910200000E-01  1.5223100000E-01  6.3687100000E-01
                       2.1089800000E-01  8.4776900000E-01  3.6312900000E-01
                       3.4694469520E-18  2.5000000000E-01  2.5000000000E-01
                       3.4694469520E-18  7.5000000000E-01  7.5000000000E-01
                       9.0904550000E-01  5.9576575000E-01  3.1327975000E-01
                       9.0954500000E-02  4.0423425000E-01  6.8672025000E-01
                       7.1751400000E-01  9.0423425000E-01  8.1327975000E-01
                       2.8248600000E-01  9.5765750000E-02  1.8672025000E-01
            znucl       19.00000   30.00000    8.00000

 chkinp: Checking input parameters for consistency.

== DATASET  1 ==================================================================
-   mpi_nproc: 1, omp_nthreads: -1 (-1 if OMP is not activated)

--- !DatasetInfo
iteration_state: {dtset: 1, }
dimensions: {natom: 10, nkpt: 1, mband: 59, nsppol: 1, nspinor: 1, nspden: 1, mpw: 15547, }
cutoff_energies: {ecut:  44.0, pawecutdg:  -1.0, }
electrons: {nelect:   1.00000000E+02, charge:   0.00000000E+00, occopt:   1.00000000E+00, tsmear:   1.00000000E-02, }
meta: {optdriver: 1, rfelfd: 2, }
...

 Real(R)+Recip(G) space primitive vectors, cartesian coordinates (Bohr,Bohr^-1):
 R(1)= 10.0064650  0.0000000 -7.2591269  G(1)=  0.0999354  0.0235770  0.0000000
 R(2)= -2.1253086  9.0085041 -8.1947656  G(2)=  0.0000000  0.1110062  0.0000000
 R(3)=  0.0000000  0.0000000 12.3622112  G(3)=  0.0586824  0.0874292  0.0808917
 Unit cell volume ucvol=  1.1143703E+03 bohr^3
 Angles (23,13,12)=  1.31520527E+02  1.25958771E+02  7.55170859E+01 degrees

 getcut: wavevector=  0.0000  0.0000  0.0000  ngfft=  75  75  75
         ecut(hartree)=     44.000   => boxcut(ratio)=   2.00506

--- Pseudopotential description ------------------------------------------------
- pspini: atom type   1  psp file is /scratch/users/j/a/jabreu/pseudos/PBEsol/K.psp8
- pspatm: opening atomic psp file    /scratch/users/j/a/jabreu/pseudos/PBEsol/K.psp8
- K     ONCVPSP-3.3.0  r_core=   1.36296   1.46408   1.61068
- 19.00000   9.00000    180112                znucl, zion, pspdat
    8 -116133    2    4       400   0.00000   pspcod,pspxc,lmax,lloc,mmax,r2well
    3.99000000000000    5.00000000000000    0.00000000000000   rchrg,fchrg,qchrg
     nproj     2     2     2
     extension_switch     1
  pspatm : epsatm=    8.32487830
         --- l  ekb(1:nproj) -->
             0   10.921326    0.816676
             1    4.431000    0.560368
             2   -3.384038   -1.043186
 pspatm: atomic psp has been read  and splines computed

- pspini: atom type   2  psp file is /scratch/users/j/a/jabreu/pseudos/PBEsol/Zn.psp8
- pspatm: opening atomic psp file    /scratch/users/j/a/jabreu/pseudos/PBEsol/Zn.psp8
- Zn    ONCVPSP-3.3.0  r_core=   1.35823   1.66358   1.85211
- 30.00000  20.00000    180112                znucl, zion, pspdat
    8 -116133    2    4       600   0.00000   pspcod,pspxc,lmax,lloc,mmax,r2well
    5.99000000000000    2.50000000000000    0.00000000000000   rchrg,fchrg,qchrg
     nproj     2     2     2
     extension_switch     1
  pspatm : epsatm=   26.57343589
         --- l  ekb(1:nproj) -->
             0    2.830835   -1.519107
             1   -4.626739   -1.324150
             2   -6.948510   -2.555500
 pspatm: atomic psp has been read  and splines computed

- pspini: atom type   3  psp file is /scratch/users/j/a/jabreu/pseudos/PBEsol/O.psp8
- pspatm: opening atomic psp file    /scratch/users/j/a/jabreu/pseudos/PBEsol/O.psp8
- O     ONCVPSP-3.3.0  r_core=   1.35509   1.45563   1.26150
-  8.00000   6.00000    180112                znucl, zion, pspdat
    8 -116133    2    4       600   0.00000   pspcod,pspxc,lmax,lloc,mmax,r2well
    5.99000000000000    4.00000000000000    0.00000000000000   rchrg,fchrg,qchrg
     nproj     2     2     1
     extension_switch     1
  pspatm : epsatm=    6.22910522
         --- l  ekb(1:nproj) -->
             0    6.050032    0.820363
             1   -4.739617   -1.153841
             2   -1.335834
 pspatm: atomic psp has been read  and splines computed

   1.11362806E+04                                ecore*ucvol(ha*bohr**3)

 ==>  initialize data related to q vector <==

 The list of irreducible perturbations for this q vector is:
    1)    idir= 1    ipert=  11
    2)    idir= 2    ipert=  11
    3)    idir= 3    ipert=  11

 Perturbation wavevector (in red.coord.)   0.000000  0.000000  0.000000
 Perturbation : derivative vs k along direction   1

 dfpt_looppert : COMMENT -
  In a d/dk calculation, iscf is set to -3 automatically.
 The set of symmetries contains only one element for this perturbation.
 symkpt : not enough symmetry to change the number of k points.

 Initialisation of the first-order wave-functions :
  ireadwf=   0

--- !BeginCycle
iteration_state: {dtset: 1, }
solver: {iscf: 7, nstep: 2000, nline: 4, wfoptalg: 0, }
tolerances: {tolwfr: 1.00E-20, }
...

     iter   2DEtotal(Ha)        deltaE(Ha) residm    vres2
-ETOT  1  -46.014858795489     -4.601E+01 7.159E-02 0.000E+00
[...]
 ETOT 22  -46.154205540084      1.421E-14 8.368E-19 0.000E+00
 ETOT 23  -46.154205540084     -1.421E-14 2.019E-19 0.000E+00
 ETOT 24  -46.154205540084      7.105E-15 3.737E-20 0.000E+00
 ETOT 25  -46.154205540084     -7.105E-15 9.577E-21 0.000E+00

 At SCF step   25   max residual=  9.58E-21 < tolwfr=  1.00E-20 =>converged.

 ----iterations are completed or convergence reached----

 dfpt_looppert: DFPT cycle converged with prtwf=-1. Will skip output of the 1st-order WFK file.
 dfpt_looppert : ek2=    8.3243857760E+01
          f-sum rule ratio=    1.0488997722E+00
 prteigrs : about to open file /scratch/users/j/a/jabreu/flow_simple_10atoms/flow/w341/t1/tmpdata/tmp_1WF1_EIG
 Expectation of eigenvalue derivatives (hartree) for nkpt=   1  k points:
  (in case of degenerate eigenvalues, averaged derivative)
 kpt#   1, nband= 59, wtk=  1.00000, kpt=  0.0000  0.0000  0.0000 (reduced coord)
   0.00000    0.00000    0.00000    0.00000   -0.00000   -0.00000   -0.00000   -0.00000
   0.00000    0.00000   -0.00000   -0.00000    0.00000    0.00000    0.00000    0.00000
  -0.00000    0.00000    0.00000   -0.00000   -0.00000    0.00000   -0.00000    0.00000
  -0.00000    0.00000   -0.00000    0.00000    0.00000   -0.00000    0.00000    0.00000
   0.00000    0.00000    0.00000    0.00000    0.00000    0.00000    0.00000    0.00000
  -0.00000   -0.00000    0.00000   -0.00000    0.00000   -0.00000    0.00000   -0.00000
   0.00000   -0.00000    0.00000    0.00000   -0.00000   -0.00000    0.00000    0.00000
   0.00000    0.00000   -0.00000

 Eight components of 2nd-order total energy (hartree) are
 1,2,3: 0th-order hamiltonian combined with 1st-order wavefunctions
     kin0=   7.27083904E+01 eigvalue=   1.66467541E+00  local=  -3.18431700E+01
 4,5,6: 1st-order hamiltonian combined with 1st and 0th-order wfs
     kin1=  -8.73144634E+01  Hartree=   0.00000000E+00     xc=   0.00000000E+00
 7,8,9: eventually, occupation + non-local contributions
    edocc=   6.49230088E+00     enl0=  -2.86799112E+00   enl1=  -4.99394764E+00
 1-9 gives the relaxation energy (to be shifted if some occ is /=2.0)
   erelax=  -4.61542055E+01
  No Ewald or frozen-wf contrib.: the relaxation energy is the total one
 2DEtotal=   -0.4615420554E+02 Ha. Also 2DEtotal=   -0.125591980370E+04 eV
    (  non-var. 2DEtotal :   -4.6154205540E+01 Ha)

 Perturbation wavevector (in red.coord.)   0.000000  0.000000  0.000000
 Perturbation : derivative vs k along direction   2
 The set of symmetries contains only one element for this perturbation.
 symkpt : not enough symmetry to change the number of k points.

[...]

 Perturbation wavevector (in red.coord.)   0.000000  0.000000  0.000000
 Perturbation : derivative vs k along direction   3
 The set of symmetries contains only one element for this perturbation.
 symkpt : not enough symmetry to change the number of k points.

 Initialisation of the first-order wave-functions :
  ireadwf=   0

--- !BeginCycle
iteration_state: {dtset: 1, }
solver: {iscf: 7, nstep: 2000, nline: 4, wfoptalg: 0, }
tolerances: {tolwfr: 1.00E-20, }
...

     iter   2DEtotal(Ha)        deltaE(Ha) residm    vres2
-ETOT  1  -76.264359484972     -7.626E+01 2.039E-01 0.000E+00
 ETOT  2  -76.497201720823     -2.328E-01 1.568E-02 0.000E+00
 ETOT  3  -76.500323808496     -3.122E-03 1.512E-03 0.000E+00
 ETOT  4  -76.500386628578     -6.282E-05 1.713E-04 0.000E+00
 ETOT  5  -76.500388170183     -1.542E-06 2.752E-05 0.000E+00
 ETOT  6  -76.500388212381     -4.220E-08 4.137E-06 0.000E+00
 ETOT  7  -76.500388213629     -1.248E-09 7.022E-07 0.000E+00
 ETOT  8  -76.500388213668     -3.919E-11 1.391E-07 0.000E+00
 ETOT  9  -76.500388213669     -1.194E-12 1.980E-08 0.000E+00
 ETOT 10  -76.500388213669     -1.279E-13 4.885E-09 0.000E+00
 ETOT 11  -76.500388213669      9.948E-14 5.771E-10 0.000E+00
 ETOT 12  -76.500388213669     -5.684E-14 1.760E-10 0.000E+00
 ETOT 13  -76.500388213669      1.421E-14 1.979E-11 0.000E+00
 ETOT 14  -76.500388213669     -4.263E-14 6.458E-12 0.000E+00
 ETOT 15  -76.500388213669      2.842E-14 7.318E-13 0.000E+00
 ETOT 16  -76.500388213669      0.000E+00 2.407E-13 0.000E+00
 ETOT 17  -76.500388213669      0.000E+00 2.738E-14 0.000E+00
 ETOT 18  -76.500388213669     -1.421E-14 9.098E-15 0.000E+00
 ETOT 19  -76.500388213669      0.000E+00 1.036E-15 0.000E+00
 ETOT 20  -76.500388213669     -1.421E-14 3.479E-16 0.000E+00
 ETOT 21  -76.500388213669     -1.421E-14 3.967E-17 0.000E+00
 ETOT 22  -76.500388213669      1.421E-14 1.344E-17 0.000E+00
 ETOT 23  -76.500388213669      0.000E+00 1.532E-18 0.000E+00
 ETOT 24  -76.500388213669      0.000E+00 5.234E-19 0.000E+00
 ETOT 25  -76.500388213669     -1.421E-14 5.968E-20 0.000E+00
 ETOT 26  -76.500388213669      1.421E-14 2.052E-20 0.000E+00
 ETOT 27  -76.500388213669     -1.421E-14 9.799E-21 0.000E+00

 At SCF step   27   max residual=  9.80E-21 < tolwfr=  1.00E-20 =>converged.

 ----iterations are completed or convergence reached----

 dfpt_looppert: DFPT cycle converged with prtwf=-1. Will skip output of the 1st-order WFK file.
 dfpt_looppert : ek2=    1.3920840510E+02
          f-sum rule ratio=    1.0384797959E+00
 prteigrs : about to open file /scratch/users/j/a/jabreu/flow_simple_10atoms/flow/w341/t1/tmpdata/tmp_1WF1_EIG
 Expectation of eigenvalue derivatives (hartree) for nkpt=   1  k points:
  (in case of degenerate eigenvalues, averaged derivative)
 kpt#   1, nband= 59, wtk=  1.00000, kpt=  0.0000  0.0000  0.0000 (reduced coord)
   0.00000    0.00000   -0.00000    0.00000   -0.00000   -0.00000   -0.00000   -0.00000
  -0.00000    0.00000   -0.00000   -0.00000    0.00000    0.00000    0.00000   -0.00000
   0.00000   -0.00000    0.00000   -0.00000   -0.00000    0.00000   -0.00000    0.00000
  -0.00000   -0.00000   -0.00000    0.00000    0.00000   -0.00000    0.00000    0.00000
   0.00000    0.00000   -0.00000    0.00000    0.00000    0.00000    0.00000    0.00000
  -0.00000   -0.00000   -0.00000    0.00000   -0.00000   -0.00000   -0.00000   -0.00000
   0.00000   -0.00000    0.00000    0.00000    0.00000   -0.00000    0.00000    0.00000
   0.00000    0.00000   -0.00000

 Eight components of 2nd-order total energy (hartree) are
 1,2,3: 0th-order hamiltonian combined with 1st-order wavefunctions
     kin0=   1.20227414E+02 eigvalue=   3.19289416E+00  local=  -5.24657774E+01
 4,5,6: 1st-order hamiltonian combined with 1st and 0th-order wfs
     kin1=  -1.44565116E+02  Hartree=   0.00000000E+00     xc=   0.00000000E+00
 7,8,9: eventually, occupation + non-local contributions
    edocc=   1.05078355E+01     enl0=  -4.96197824E+00   enl1=  -8.43566032E+00
 1-9 gives the relaxation energy (to be shifted if some occ is /=2.0)
   erelax=  -7.65003882E+01
  No Ewald or frozen-wf contrib.: the relaxation energy is the total one
 2DEtotal=   -0.7650038821E+02 Ha. Also 2DEtotal=   -0.208168142912E+04 eV
    (  non-var. 2DEtotal :   -7.6500388213E+01 Ha)

 CALCULATION OF EFFECTIVE MASSES
 NOTE : Additional infos (eff. mass eigenvalues, eigenvectors and, if degenerate, average mass) are available in stdout.

 K-point ( 0.000, 0.000, 0.000) | band =    50
 Effective mass tensor:
            -99.4718400838              3.3623859570            -48.3409299374
              3.3623859570            -15.0904786425             -6.5931813921
            -48.3409299374             -6.5931813921            -29.3346103386
 Effective mass tensor eigenvalues:
           -124.1246891609            -18.9338284780             -0.8384114260
 Angular average effective mass 1/(<1/m>)=  -2.3931006491
 Angular average effective mass for Frohlich model (<m**0.5>)**2=  -5.8464367831
 Effective masses along directions: (cart. coord. / red. coord. -> eff. mass)
    1:   1.000000  0.000000  0.000000 /   0.978180 -0.207759  0.000000 ->  -4.9358245157
    2:   0.000000  1.000000  0.000000 /   0.000000  1.000000  0.000000 ->  -3.3906765525
    3:   0.000000  0.000000  1.000000 /  -0.439605 -0.496267  0.748643 ->  -1.3226166386
    4:   0.577350  0.577350  0.577350 /   0.215790 -0.103017  0.970990 -> -35.8818609180
    5:   0.000000  0.707107  0.707107 /  -0.505545  0.056671  0.860937 ->  -9.0772290018
    6:   0.707107  0.000000  0.707107 /   0.168173 -0.631725  0.756731 -> -10.2182566139
    7:   0.707107  0.707107  0.000000 /   0.823898  0.566739  0.000000 ->  -2.1711947694

 K-point ( 0.000, 0.000, 0.000) | band =    51
 Effective mass tensor:
              0.3690154030              0.0145876458             -0.0119501783
              0.0145876458              0.3472900459             -0.0286044197
             -0.0119501783             -0.0286044197              0.3863537651
 Effective mass tensor eigenvalues:
              0.3306157334              0.3629210661              0.4091224145
 Angular average effective mass 1/(<1/m>)=   0.3647711004
 Angular average effective mass for Frohlich model (<m**0.5>)**2=   0.3655973580
 Effective masses along directions: (cart. coord. / red. coord. -> eff. mass)
    1:   1.000000  0.000000  0.000000 /   0.978180 -0.207759  0.000000 ->   0.3681017890
    2:   0.000000  1.000000  0.000000 /   0.000000  1.000000  0.000000 ->   0.3446629157
    3:   0.000000  0.000000  1.000000 /  -0.439605 -0.496267  0.748643 ->   0.3836841646
    4:   0.577350  0.577350  0.577350 /   0.215790 -0.103017  0.970990 ->   0.3495006676
    5:   0.000000  0.707107  0.707107 /  -0.505545  0.056671  0.860937 ->   0.3372315471
    6:   0.707107  0.000000  0.707107 /   0.168173 -0.631725  0.756731 ->   0.3652944127
    7:   0.707107  0.707107  0.000000 /   0.823898  0.566739  0.000000 ->   0.3702105458

 END OF EFFECTIVE MASSES SECTION

 ---- first-order wavefunction calculations are completed ----

 Total localisation tensor (bohr^2) in cartesian coordinates
  WARNING : still subject to testing - especially symmetries.
      direction              matrix element
   alpha     beta       real part   imaginary part
     1        1       0.7380079810    0.0000000000
     1        2      -0.1514179089    0.0000000000
     1        3      -0.3717279669    0.0000000000
     2        1      -0.1514179089    0.0000000000
     2        2       0.6418121350    0.0000000000
     2        3      -0.5838372209    0.0000000000
     3        1      -0.3717279669    0.0000000000
     3        2      -0.5838372209    0.0000000000
     3        3       2.6726876954    0.0000000000

 respfn : d/dk was computed, but no 2DTE, so no DDB output.

== END DATASET(S) ==============================================================

 -outvars: echo values of variables after computation  --------
            acell      1.0000000000E+00  1.0000000000E+00  1.0000000000E+00 Bohr
              amu      3.90983000E+01  6.53900000E+01  1.59994000E+01
             ecut      4.40000000E+01 Hartree
           etotal     -7.6500388214E+01
            fcart      0.0000000000E+00  0.0000000000E+00  0.0000000000E+00
                       0.0000000000E+00  0.0000000000E+00  0.0000000000E+00
                       0.0000000000E+00  0.0000000000E+00  0.0000000000E+00
                       0.0000000000E+00  0.0000000000E+00  0.0000000000E+00
                       0.0000000000E+00  0.0000000000E+00  0.0000000000E+00
                       0.0000000000E+00  0.0000000000E+00  0.0000000000E+00
                       0.0000000000E+00  0.0000000000E+00  0.0000000000E+00
                       0.0000000000E+00  0.0000000000E+00  0.0000000000E+00
                       0.0000000000E+00  0.0000000000E+00  0.0000000000E+00
                       0.0000000000E+00  0.0000000000E+00  0.0000000000E+00
-          fftalg         512
           irdden           1
           irdwfk           1
           istwfk        1
              ixc     -116133
           kptopt           0
P           mkmem           1
P          mkqmem           1
P          mk1mem           1
            natom          10
            nband          59
           nbdbuf           4
            ngfft          75      75      75
             nkpt           1
            nstep        2000
             nsym           8
           ntypat           3
              occ      2.000000  2.000000  2.000000  2.000000  2.000000  2.000000
                       2.000000  2.000000  2.000000  2.000000  2.000000  2.000000
                       2.000000  2.000000  2.000000  2.000000  2.000000  2.000000
                       2.000000  2.000000  2.000000  2.000000  2.000000  2.000000
                       2.000000  2.000000  2.000000  2.000000  2.000000  2.000000
                       2.000000  2.000000  2.000000  2.000000  2.000000  2.000000
                       2.000000  2.000000  2.000000  2.000000  2.000000  2.000000
                       2.000000  2.000000  2.000000  2.000000  2.000000  2.000000
                       2.000000  2.000000  0.000000  0.000000  0.000000  0.000000
                       0.000000  0.000000  0.000000  0.000000  0.000000
        optdriver           1
            prtwf          -1
            rfdir           1       1       1
           rfelfd           2
            rprim      1.0006464978E+01  0.0000000000E+00 -7.2591268968E+00
                      -2.1253085970E+00  9.0085040654E+00 -8.1947655568E+00
                       0.0000000000E+00  0.0000000000E+00  1.2362211156E+01
          spgroup          72
           strten      0.0000000000E+00  0.0000000000E+00  0.0000000000E+00
                       0.0000000000E+00  0.0000000000E+00  0.0000000000E+00
           symrel      1  0  0   0  1  0   0  0  1      -1  0  0   0 -1  0   0  0 -1
                       0  0  1  -1 -1 -1   1  0  0       0  0 -1   1  1  1  -1  0  0
                      -1 -1 -1   0  0  1   0  1  0       1  1  1   0  0 -1   0 -1  0
                       0  1  0   1  0  0  -1 -1 -1       0 -1  0  -1  0  0   1  1  1
            tnons      0.0000000  0.0000000  0.0000000     0.0000000  0.0000000  0.0000000
                       0.0000000  0.5000000  0.5000000     0.0000000  0.5000000  0.5000000
                       0.0000000  0.0000000  0.0000000     0.0000000  0.0000000  0.0000000
                       0.0000000  0.5000000  0.5000000     0.0000000  0.5000000  0.5000000
           tolwfr      1.00000000E-20
            typat      1  1  1  1  2  2  3  3  3  3
           useylm           1
           xangst      1.9953894768E+00  3.1092471617E+00  8.3834326769E-01
                       2.1751388574E+00  1.6578478732E+00 -2.4743905467E+00
                       4.0072386904E+00  7.2569964426E-01  4.7490737276E-01
                       1.6328964372E-01  4.0413953906E+00 -2.1109546518E+00
                      -2.8116621769E-01  1.1917737587E+00  5.5132930726E-01
                      -8.4349865306E-01  3.5753212762E+00  1.6539879218E+00
                       4.1435347443E+00  2.8400719488E+00 -4.0260896723E+00
                       2.6993589826E-02  1.9270230861E+00  2.3900423933E+00
                       2.7824147613E+00  4.3105706036E+00 -1.3571156267E+00
                       1.3881135728E+00  4.5652443134E-01 -2.7893165229E-01
            xcart      3.7707396395E+00  5.8756256151E+00  1.5842391813E+00
                       4.1104167415E+00  3.1328784503E+00 -4.6759204791E+00
                       7.5725836740E+00  1.3713735824E+00  8.9744487301E-01
                       3.0857270696E-01  7.6371304830E+00 -3.9891261708E+00
                      -5.3132714925E-01  2.2521260164E+00  1.0418613998E+00
                      -1.5939814478E+00  6.7563780491E+00  3.1255841993E+00
                       7.8301458889E+00  5.3669581809E+00 -7.6082068671E+00
                       5.1010492115E-02  3.6415458845E+00  4.5165255693E+00
                       5.2580018870E+00  8.1457979172E+00 -2.5645768652E+00
                       2.6231544940E+00  8.6270614820E-01 -5.2710443263E-01
             xred      5.1536000000E-01  6.5223100000E-01  8.6312900000E-01
                       4.8464000000E-01  3.4776900000E-01  1.3687100000E-01
                       7.8910200000E-01  1.5223100000E-01  6.3687100000E-01
                       2.1089800000E-01  8.4776900000E-01  3.6312900000E-01
                       3.4694469520E-18  2.5000000000E-01  2.5000000000E-01
                       3.4694469520E-18  7.5000000000E-01  7.5000000000E-01
                       9.0904550000E-01  5.9576575000E-01  3.1327975000E-01
                       9.0954500000E-02  4.0423425000E-01  6.8672025000E-01
                       7.1751400000E-01  9.0423425000E-01  8.1327975000E-01
                       2.8248600000E-01  9.5765750000E-02  1.8672025000E-01
            znucl       19.00000   30.00000    8.00000

- Timing analysis has been suppressed with timopt=0

 Suggested references for the acknowledgment of ABINIT usage.

 Calculation completed.
.Delivered   2 WARNINGs and   5 COMMENTs to log file.