.Version 9.5.2 of ABINIT

 ABINIT is a project of the Universite Catholique de Louvain,
 Corning Inc. and other collaborators, see ~abinit/doc/developers/contributors.txt .
 acknowledgments of the ABINIT effort.

.Starting date : Mon 24 May 2021.
- ( at 23h00 )

- input  file    -> /scratch/users/j/a/jabreu/flow_simple_10atoms/flow/w468/t1/run.abi
- output file    -> /scratch/users/j/a/jabreu/flow_simple_10atoms/flow/w468/t1/run.abo
- root for input  files -> /scratch/users/j/a/jabreu/flow_simple_10atoms/flow/w468/t1/indata/in
- root for output files -> /scratch/users/j/a/jabreu/flow_simple_10atoms/flow/w468/t1/outdata/out

 Symmetries : space group Fd d 2 (# 43); Bravais oF (face-center ortho.)
     intxc =       0      iscf =       7    lmnmax =      32     lnmax =       8
     mgfft =      75  mpssoang =       4    mqgrid =    3001     natom =      10
  nloc_mem =       1    nspden =       1   nspinor =       1    nsppol =       1
      nsym =       4    n1xccc =    2501    ntypat =       2    occopt =       1
   xclevel =       2
-    mband =          55        mffmem =           1         mkmem =           2
-   mkqmem =           2        mk1mem =           2           mpw =       11379
      nfft =      421875          nkpt =           2
  Rough estimation (10% accuracy) of disk space for files :

------------- Echo of variables that govern the present computation ------------
-
- outvars: echo of selected default values
-   iomode0 =  0 , fftalg0 =512 , wfoptalg0 =  0
-
- outvars: echo of global parameters not present in the input file
-  max_nthreads =    0
-
 -outvars: echo values of preprocessed input variables --------
            acell      1.0000000000E+00  1.0000000000E+00  1.0000000000E+00 Bohr
              amu      1.95080000E+02  1.89984032E+01
             ecut      4.20000000E+01 Hartree
-          fftalg         512
           irdden           1
           irdwfk           1
           istwfk        1    0
              ixc     -116133
              kpt      0.00000000E+00  0.00000000E+00  0.00000000E+00
                       2.25000000E-01  2.25000000E-01  0.00000000E+00
           kptopt           0
P           mkmem           2
P          mkqmem           2
P          mk1mem           2
            natom          10
            nband          55
           nbdbuf           4
            ngfft          75      75      75
             nkpt           2
            nstep        2000
             nsym           4
           ntypat           2
              occ      2.000000  2.000000  2.000000  2.000000  2.000000  2.000000
                       2.000000  2.000000  2.000000  2.000000  2.000000  2.000000
                       2.000000  2.000000  2.000000  2.000000  2.000000  2.000000
                       2.000000  2.000000  2.000000  2.000000  2.000000  2.000000
                       2.000000  2.000000  2.000000  2.000000  2.000000  2.000000
                       2.000000  2.000000  2.000000  2.000000  2.000000  2.000000
                       2.000000  2.000000  2.000000  2.000000  2.000000  2.000000
                       2.000000  2.000000  2.000000  2.000000  0.000000  0.000000
                       0.000000  0.000000  0.000000  0.000000  0.000000  0.000000
                       0.000000
        optdriver           1
            prtwf          -1
            rfdir           1       1       1
           rfelfd           2
            rprim      1.0104786455E+01  0.0000000000E+00  7.4333341335E+00
                       5.7493691671E+00  8.3097210326E+00  2.9603513648E+00
                       0.0000000000E+00  0.0000000000E+00  1.0393685511E+01
          spgroup          43
           symrel      1  0  0   0  1  0   0  0  1      -1  0  0  -1  0  1  -1  1  0
                       0  1 -1   0  1  0  -1  1  0       0 -1  1  -1  0  1   0  0  1
            tnons      0.0000000  0.0000000  0.0000000     0.0000000  0.0000000 -0.0000000
                       0.2500000  0.2500000  0.2500000     0.2500000  0.2500000  0.2500000
           tolwfr      1.00000000E-20
            typat      1  1  2  2  2  2  2  2  2  2
           useylm           1
              wtk        0.50000    0.50000
           xangst      4.7630143573E+00  1.1146138119E+00  4.7277169038E+00
                       6.8604288115E+00  2.2139425570E+00  7.4777676450E+00
                       1.5252385363E+00  3.5490289474E-01  3.7717146736E+00
                       2.5029081355E+00  2.1617684147E+00  1.9549726696E+00
                       5.1849455825E+00  2.1340466418E+00  6.4412591095E+00
                       3.1535378834E+00  2.3609041216E+00  4.6285096623E+00
                       6.7512874293E+00  4.2466113005E+00  7.3785604023E+00
                       5.7820249449E+00  2.4469969529E+00  9.1913098520E+00
                       9.3773596836E-01  4.6972118618E-02  1.0216639311E+00
                       4.2428044847E+00  2.7104170075E-01  3.1384729369E+00
            xcart      9.0007927024E+00  2.1063148485E+00  8.9340901819E+00
                       1.2964331608E+01  4.1837451066E+00  1.4130932934E+01
                       2.8822831209E+00  6.7066927482E-01  7.1275077845E+00
                       4.7298109118E+00  4.0851502666E+00  3.6943629428E+00
                       9.7981271649E+00  4.0327637077E+00  1.2172215668E+01
                       5.9593229492E+00  4.4614622158E+00  8.7466156652E+00
                       1.2758084286E+01  8.0249323508E+00  1.3943458415E+01
                       1.0926443639E+01  4.6241540890E+00  1.7369058423E+01
                       1.7720641652E+00  8.8764440070E-02  1.9306650296E+00
                       8.0177385114E+00  5.1219458501E-01  5.9308543262E+00
             xred      7.4652400000E-01  2.5347600000E-01  2.5347600000E-01
                       9.9652400000E-01  5.0347600000E-01  5.0347600000E-01
                       2.3931800000E-01  8.0709000000E-02  4.9161100000E-01
                       1.8836200000E-01  4.9161100000E-01  8.0709000000E-02
                       6.9352475000E-01  4.8530675000E-01  5.3689675000E-01
                       2.8427175000E-01  5.3689675000E-01  4.8530675000E-01
                       7.1310325000E-01  9.6572825000E-01  5.5647525000E-01
                       7.6469325000E-01  5.5647525000E-01  9.6572825000E-01
                       1.6929100000E-01  1.0682000000E-02  6.1638000000E-02
                       7.5838900000E-01  6.1638000000E-02  1.0682000000E-02
            znucl       78.00000    9.00000

 chkinp: Checking input parameters for consistency.

== DATASET  1 ==================================================================
-   mpi_nproc: 1, omp_nthreads: -1 (-1 if OMP is not activated)

--- !DatasetInfo
iteration_state: {dtset: 1, }
dimensions: {natom: 10, nkpt: 2, mband: 55, nsppol: 1, nspinor: 1, nspden: 1, mpw: 11379, }
cutoff_energies: {ecut:  42.0, pawecutdg:  -1.0, }
electrons: {nelect:   9.20000000E+01, charge:   0.00000000E+00, occopt:   1.00000000E+00, tsmear:   1.00000000E-02, }
meta: {optdriver: 1, rfelfd: 2, }
...

 Real(R)+Recip(G) space primitive vectors, cartesian coordinates (Bohr,Bohr^-1):
 R(1)= 10.1047865  0.0000000  7.4333341  G(1)=  0.0989630 -0.0684710  0.0000000
 R(2)=  5.7493692  8.3097210  2.9603514  G(2)=  0.0000000  0.1203410  0.0000000
 R(3)=  0.0000000  0.0000000 10.3936855  G(3)= -0.0707762  0.0146932  0.0962123
 Unit cell volume ucvol=  8.7273653E+02 bohr^3
 Angles (23,13,12)=  7.36712488E+01  5.36608686E+01  5.26678827E+01 degrees

 getcut: wavevector=  0.0000  0.0000  0.0000  ngfft=  75  75  75
         ecut(hartree)=     42.000   => boxcut(ratio)=   2.02214

--- Pseudopotential description ------------------------------------------------
- pspini: atom type   1  psp file is /scratch/users/j/a/jabreu/pseudos/PBEsol/Pt.psp8
- pspatm: opening atomic psp file    /scratch/users/j/a/jabreu/pseudos/PBEsol/Pt.psp8
- Pt    ONCVPSP-3.3.0  r_core=   1.45722   1.45722   1.45722   1.91724
- 78.00000  18.00000    180112                znucl, zion, pspdat
    8 -116133    3    4       500   0.00000   pspcod,pspxc,lmax,lloc,mmax,r2well
    4.99000000000000    5.00000000000000    0.00000000000000   rchrg,fchrg,qchrg
     nproj     2     2     2     2
     extension_switch     1
  pspatm : epsatm=   26.54019552
         --- l  ekb(1:nproj) -->
             0   18.149684    1.747248
             1    8.048135    1.208190
             2    2.365973    0.348456
             3    3.491561    0.381218
 pspatm: atomic psp has been read  and splines computed

- pspini: atom type   2  psp file is /scratch/users/j/a/jabreu/pseudos/PBEsol/F.psp8
- pspatm: opening atomic psp file    /scratch/users/j/a/jabreu/pseudos/PBEsol/F.psp8
- F     ONCVPSP-3.3.0  r_core=   1.30942   1.45782   1.60379
-  9.00000   7.00000    180112                znucl, zion, pspdat
    8 -116133    2    4       600   0.00000   pspcod,pspxc,lmax,lloc,mmax,r2well
    5.99000000000000    2.50000000000000    0.00000000000000   rchrg,fchrg,qchrg
     nproj     2     2     1
     extension_switch     1
  pspatm : epsatm=    4.89824824
         --- l  ekb(1:nproj) -->
             0    6.506434    1.065875
             1   -3.978753   -1.295852
             2   -2.394754
 pspatm: atomic psp has been read  and splines computed

   8.48850668E+03                                ecore*ucvol(ha*bohr**3)

 ==>  initialize data related to q vector <==

 The list of irreducible perturbations for this q vector is:
    1)    idir= 1    ipert=  11
    2)    idir= 2    ipert=  11
    3)    idir= 3    ipert=  11

 Perturbation wavevector (in red.coord.)   0.000000  0.000000  0.000000
 Perturbation : derivative vs k along direction   1

 dfpt_looppert : COMMENT -
  In a d/dk calculation, iscf is set to -3 automatically.
 The set of symmetries contains only one element for this perturbation.
 symkpt : not enough symmetry to change the number of k points.

 Initialisation of the first-order wave-functions :
  ireadwf=   0

--- !BeginCycle
iteration_state: {dtset: 1, }
solver: {iscf: 7, nstep: 2000, nline: 4, wfoptalg: 0, }
tolerances: {tolwfr: 1.00E-20, }
...

     iter   2DEtotal(Ha)        deltaE(Ha) residm    vres2
-ETOT  1  -56.107087566993     -5.611E+01 5.573E-02 0.000E+00
 ETOT  2  -56.184294272828     -7.721E-02 1.748E-03 0.000E+00
 ETOT  3  -56.184597697057     -3.034E-04 2.534E-05 0.000E+00
 ETOT  4  -56.184600208587     -2.512E-06 1.107E-06 0.000E+00
 ETOT  5  -56.184600235568     -2.698E-08 2.946E-08 0.000E+00
 ETOT  6  -56.184600235903     -3.349E-10 1.454E-09 0.000E+00
 ETOT  7  -56.184600235908     -4.562E-12 4.559E-11 0.000E+00
 ETOT  8  -56.184600235908     -4.974E-14 2.313E-12 0.000E+00
 ETOT  9  -56.184600235908     -3.553E-14 7.815E-14 0.000E+00
 ETOT 10  -56.184600235908      2.132E-14 4.052E-15 0.000E+00
 ETOT 11  -56.184600235908     -2.132E-14 1.410E-16 0.000E+00
 ETOT 12  -56.184600235908      7.105E-15 7.485E-18 0.000E+00
 ETOT 13  -56.184600235908      7.105E-15 2.626E-19 0.000E+00
 ETOT 14  -56.184600235908     -7.105E-15 1.424E-20 0.000E+00
 ETOT 15  -56.184600235908      7.105E-15 9.968E-21 0.000E+00

 At SCF step   15   max residual=  9.97E-21 < tolwfr=  1.00E-20 =>converged.

 ----iterations are completed or convergence reached----

 dfpt_looppert: DFPT cycle converged with prtwf=-1. Will skip output of the 1st-order WFK file.
 dfpt_looppert : ek2=    1.0519731904E+02
          f-sum rule ratio=    1.0134895486E+00
 prteigrs : about to open file /scratch/users/j/a/jabreu/flow_simple_10atoms/flow/w468/t1/tmpdata/tmp_1WF1_EIG
 Expectation of eigenvalue derivatives (hartree) for nkpt=   2  k points:
  (in case of degenerate eigenvalues, averaged derivative)
 kpt#   1, nband= 55, wtk=  0.50000, kpt=  0.0000  0.0000  0.0000 (reduced coord)
  -0.00000   -0.00000    0.00000   -0.00000   -0.00000   -0.00000   -0.00000    0.00000
  -0.00000    0.00000    0.00000   -0.00000   -0.00000    0.00000   -0.00000    0.00000
   0.00000   -0.00000   -0.00000   -0.00000   -0.00000    0.00000   -0.00000   -0.00000
   0.00000    0.00000   -0.00000    0.00000   -0.00000    0.00000   -0.00000    0.00000
  -0.00000    0.00000    0.00000   -0.00000    0.00000    0.00000   -0.00000   -0.00000
  -0.00000   -0.00000   -0.00000    0.00000   -0.00000   -0.00000    0.00000    0.00000
  -0.00000    0.00000   -0.00000    0.00000    0.00000    0.00000   -0.00000
 prteigrs : prtvol=0 or 1, do not print more k-points.

 Eight components of 2nd-order total energy (hartree) are
 1,2,3: 0th-order hamiltonian combined with 1st-order wavefunctions
     kin0=   7.83022508E+01 eigvalue=   2.49575587E+00  local=  -3.59336704E+01
 4,5,6: 1st-order hamiltonian combined with 1st and 0th-order wfs
     kin1=  -1.06616383E+02  Hartree=   0.00000000E+00     xc=   0.00000000E+00
 7,8,9: eventually, occupation + non-local contributions
    edocc=   9.67072342E+00     enl0=   1.64954049E+00   enl1=  -5.75281708E+00
 1-9 gives the relaxation energy (to be shifted if some occ is /=2.0)
   erelax=  -5.61846002E+01
  No Ewald or frozen-wf contrib.: the relaxation energy is the total one
 2DEtotal=   -0.5618460024E+02 Ha. Also 2DEtotal=   -0.152886072404E+04 eV
    (  non-var. 2DEtotal :   -5.6184600236E+01 Ha)

 Perturbation wavevector (in red.coord.)   0.000000  0.000000  0.000000
 Perturbation : derivative vs k along direction   2
 The set of symmetries contains only one element for this perturbation.
 symkpt : not enough symmetry to change the number of k points.

[...]

 Perturbation wavevector (in red.coord.)   0.000000  0.000000  0.000000
 Perturbation : derivative vs k along direction   3
 The set of symmetries contains only one element for this perturbation.
 symkpt : not enough symmetry to change the number of k points.

 Initialisation of the first-order wave-functions :
  ireadwf=   0

--- !BeginCycle
iteration_state: {dtset: 1, }
solver: {iscf: 7, nstep: 2000, nline: 4, wfoptalg: 0, }
tolerances: {tolwfr: 1.00E-20, }
...

     iter   2DEtotal(Ha)        deltaE(Ha) residm    vres2
-ETOT  1  -56.112510928042     -5.611E+01 5.221E-02 0.000E+00
 ETOT  2  -56.186018659902     -7.351E-02 1.503E-03 0.000E+00
 ETOT  3  -56.186310047944     -2.914E-04 1.944E-05 0.000E+00
 ETOT  4  -56.186312480491     -2.433E-06 7.470E-07 0.000E+00
 ETOT  5  -56.186312507023     -2.653E-08 1.747E-08 0.000E+00
 ETOT  6  -56.186312507357     -3.337E-10 7.231E-10 0.000E+00
 ETOT  7  -56.186312507361     -4.526E-12 2.699E-11 0.000E+00
 ETOT  8  -56.186312507361     -1.279E-13 1.133E-12 0.000E+00
 ETOT  9  -56.186312507361      3.553E-14 4.713E-14 0.000E+00
 ETOT 10  -56.186312507361     -4.263E-14 2.054E-15 0.000E+00
 ETOT 11  -56.186312507361      0.000E+00 8.751E-17 0.000E+00
 ETOT 12  -56.186312507361      0.000E+00 3.916E-18 0.000E+00
 ETOT 13  -56.186312507361     -1.421E-14 1.681E-19 0.000E+00
 ETOT 14  -56.186312507361      7.105E-15 9.915E-21 0.000E+00

 At SCF step   14   max residual=  9.91E-21 < tolwfr=  1.00E-20 =>converged.

 ----iterations are completed or convergence reached----

 dfpt_looppert: DFPT cycle converged with prtwf=-1. Will skip output of the 1st-order WFK file.
 dfpt_looppert : ek2=    1.0519731873E+02
          f-sum rule ratio=    1.0135245166E+00
 prteigrs : about to open file /scratch/users/j/a/jabreu/flow_simple_10atoms/flow/w468/t1/tmpdata/tmp_1WF1_EIG
 Expectation of eigenvalue derivatives (hartree) for nkpt=   2  k points:
  (in case of degenerate eigenvalues, averaged derivative)
 kpt#   1, nband= 55, wtk=  0.50000, kpt=  0.0000  0.0000  0.0000 (reduced coord)
   0.00000    0.00000    0.00000   -0.00000   -0.00000    0.00000    0.00000    0.00000
   0.00000   -0.00000   -0.00000    0.00000    0.00000   -0.00000    0.00000   -0.00000
  -0.00000    0.00000   -0.00000    0.00000    0.00000   -0.00000    0.00000   -0.00000
  -0.00000    0.00000   -0.00000   -0.00000   -0.00000   -0.00000    0.00000   -0.00000
  -0.00000    0.00000   -0.00000    0.00000   -0.00000   -0.00000    0.00000   -0.00000
   0.00000    0.00000   -0.00000   -0.00000    0.00000    0.00000   -0.00000    0.00000
  -0.00000    0.00000    0.00000   -0.00000    0.00000   -0.00000   -0.00000
 prteigrs : prtvol=0 or 1, do not print more k-points.

 Eight components of 2nd-order total energy (hartree) are
 1,2,3: 0th-order hamiltonian combined with 1st-order wavefunctions
     kin0=   7.81058210E+01 eigvalue=   2.50382302E+00  local=  -3.57599210E+01
 4,5,6: 1st-order hamiltonian combined with 1st and 0th-order wfs
     kin1=  -1.06620062E+02  Hartree=   0.00000000E+00     xc=   0.00000000E+00
 7,8,9: eventually, occupation + non-local contributions
    edocc=   9.72315826E+00     enl0=   1.61343121E+00   enl1=  -5.75256340E+00
 1-9 gives the relaxation energy (to be shifted if some occ is /=2.0)
   erelax=  -5.61863125E+01
  No Ewald or frozen-wf contrib.: the relaxation energy is the total one
 2DEtotal=   -0.5618631251E+02 Ha. Also 2DEtotal=   -0.152890731732E+04 eV
    (  non-var. 2DEtotal :   -5.6186312507E+01 Ha)

 CALCULATION OF EFFECTIVE MASSES
 NOTE : Additional infos (eff. mass eigenvalues, eigenvectors and, if degenerate, average mass) are available in stdout.

 K-point ( 0.000, 0.000, 0.000) | band =    46
 Effective mass tensor:
            -22.0117372091             -4.5332578966             -4.6471791989
             -4.5332578966            -15.7388399469              8.8665470031
             -4.6471791989              8.8665470031            -22.9081363684
 Effective mass tensor eigenvalues:
            -29.2255616627            -24.3877959162             -7.0453559454
 Angular average effective mass 1/(<1/m>)= -13.8148128471
 Angular average effective mass for Frohlich model (<m**0.5>)**2= -15.8027068728
 Effective masses along directions: (cart. coord. / red. coord. -> eff. mass)
    1:   1.000000  0.000000  0.000000 /   0.869160  0.494530  0.000000 -> -17.8112433838
    2:   0.000000  1.000000  0.000000 /   0.000000  1.000000  0.000000 -> -10.4041020810
    3:   0.000000  0.000000  1.000000 /   0.566709  0.225694  0.792403 -> -15.4088045695
    4:   0.577350  0.577350  0.577350 /   0.660395  0.640864  0.391372 -> -14.9723620963
    5:   0.000000  0.707107  0.707107 /   0.436277  0.661462  0.610025 ->  -8.0926910819
    6:   0.707107  0.000000  0.707107 /   0.791103  0.392875  0.468834 -> -26.3495369463
    7:   0.707107  0.707107  0.000000 /   0.583629  0.812020  0.000000 -> -21.1666751752

--- !WARNING
src_file: m_efmas.F90
src_line: 0
message: |

    Band(s)    47,
    are not band extrema, but saddle points;
    the transport equivalent formalism breaks down in these conditions.
    The associated tensor(s) will therefore not be printed.
...

 K-point ( 0.225, 0.225, 0.000) | band =    47
 Effective mass tensor:
     *** SADDLE POINT: TRANSPORT EQV. EFF. MASS NOT DEFINED (see WARNING above) ***
 Angular average effective mass 1/(<1/m>)=   6.0558196764
 Angular average effective mass for Frohlich model (<m**0.5>)**2=  12.1115261971
 Effective masses along directions: (cart. coord. / red. coord. -> eff. mass)
    1:   1.000000  0.000000  0.000000 /   0.869160  0.494530  0.000000 ->   3.2508720576
    2:   0.000000  1.000000  0.000000 /   0.000000  1.000000  0.000000 ->   5.5513504085
    3:   0.000000  0.000000  1.000000 /   0.566709  0.225694  0.792403 -> 130.8024152852
    4:   0.577350  0.577350  0.577350 /   0.660395  0.640864  0.391372 ->   3.8009331288
    5:   0.000000  0.707107  0.707107 /   0.436277  0.661462  0.610025 ->   4.7806749086
    6:   0.707107  0.000000  0.707107 /   0.791103  0.392875  0.468834 ->  10.2979678245
    7:   0.707107  0.707107  0.000000 /   0.583629  0.812020  0.000000 ->   2.9757164116

 END OF EFFECTIVE MASSES SECTION

 ---- first-order wavefunction calculations are completed ----

 Total localisation tensor (bohr^2) in cartesian coordinates
  WARNING : still subject to testing - especially symmetries.
      direction              matrix element
   alpha     beta       real part   imaginary part
     1        1       1.0701124947    0.0000000000
     1        2       0.3782612256    0.0000000000
     1        3       0.7294349662    0.0000000000
     2        1       0.3782612256    0.0000000000
     2        2       0.5467113296    0.0000000000
     2        3       0.1947667827    0.0000000000
     3        1       0.7294349662    0.0000000000
     3        2       0.1947667827    0.0000000000
     3        3       1.3622137936    0.0000000000

 respfn : d/dk was computed, but no 2DTE, so no DDB output.

== END DATASET(S) ==============================================================

 -outvars: echo values of variables after computation  --------
            acell      1.0000000000E+00  1.0000000000E+00  1.0000000000E+00 Bohr
              amu      1.95080000E+02  1.89984032E+01
             ecut      4.20000000E+01 Hartree
           etotal     -5.6186312507E+01
            fcart      0.0000000000E+00  0.0000000000E+00  0.0000000000E+00
                       0.0000000000E+00  0.0000000000E+00  0.0000000000E+00
                       0.0000000000E+00  0.0000000000E+00  0.0000000000E+00
                       0.0000000000E+00  0.0000000000E+00  0.0000000000E+00
                       0.0000000000E+00  0.0000000000E+00  0.0000000000E+00
                       0.0000000000E+00  0.0000000000E+00  0.0000000000E+00
                       0.0000000000E+00  0.0000000000E+00  0.0000000000E+00
                       0.0000000000E+00  0.0000000000E+00  0.0000000000E+00
                       0.0000000000E+00  0.0000000000E+00  0.0000000000E+00
                       0.0000000000E+00  0.0000000000E+00  0.0000000000E+00
-          fftalg         512
           irdden           1
           irdwfk           1
           istwfk        1    0
              ixc     -116133
              kpt      0.00000000E+00  0.00000000E+00  0.00000000E+00
                       2.25000000E-01  2.25000000E-01  0.00000000E+00
           kptopt           0
P           mkmem           2
P          mkqmem           2
P          mk1mem           2
            natom          10
            nband          55
           nbdbuf           4
            ngfft          75      75      75
             nkpt           2
            nstep        2000
             nsym           4
           ntypat           2
              occ      2.000000  2.000000  2.000000  2.000000  2.000000  2.000000
                       2.000000  2.000000  2.000000  2.000000  2.000000  2.000000
                       2.000000  2.000000  2.000000  2.000000  2.000000  2.000000
                       2.000000  2.000000  2.000000  2.000000  2.000000  2.000000
                       2.000000  2.000000  2.000000  2.000000  2.000000  2.000000
                       2.000000  2.000000  2.000000  2.000000  2.000000  2.000000
                       2.000000  2.000000  2.000000  2.000000  2.000000  2.000000
                       2.000000  2.000000  2.000000  2.000000  0.000000  0.000000
                       0.000000  0.000000  0.000000  0.000000  0.000000  0.000000
                       0.000000
        optdriver           1
            prtwf          -1
            rfdir           1       1       1
           rfelfd           2
            rprim      1.0104786455E+01  0.0000000000E+00  7.4333341335E+00
                       5.7493691671E+00  8.3097210326E+00  2.9603513648E+00
                       0.0000000000E+00  0.0000000000E+00  1.0393685511E+01
          spgroup          43
           strten      0.0000000000E+00  0.0000000000E+00  0.0000000000E+00
                       0.0000000000E+00  0.0000000000E+00  0.0000000000E+00
           symrel      1  0  0   0  1  0   0  0  1      -1  0  0  -1  0  1  -1  1  0
                       0  1 -1   0  1  0  -1  1  0       0 -1  1  -1  0  1   0  0  1
            tnons      0.0000000  0.0000000  0.0000000     0.0000000  0.0000000 -0.0000000
                       0.2500000  0.2500000  0.2500000     0.2500000  0.2500000  0.2500000
           tolwfr      1.00000000E-20
            typat      1  1  2  2  2  2  2  2  2  2
           useylm           1
              wtk        0.50000    0.50000
           xangst      4.7630143573E+00  1.1146138119E+00  4.7277169038E+00
                       6.8604288115E+00  2.2139425570E+00  7.4777676450E+00
                       1.5252385363E+00  3.5490289474E-01  3.7717146736E+00
                       2.5029081355E+00  2.1617684147E+00  1.9549726696E+00
                       5.1849455825E+00  2.1340466418E+00  6.4412591095E+00
                       3.1535378834E+00  2.3609041216E+00  4.6285096623E+00
                       6.7512874293E+00  4.2466113005E+00  7.3785604023E+00
                       5.7820249449E+00  2.4469969529E+00  9.1913098520E+00
                       9.3773596836E-01  4.6972118618E-02  1.0216639311E+00
                       4.2428044847E+00  2.7104170075E-01  3.1384729369E+00
            xcart      9.0007927024E+00  2.1063148485E+00  8.9340901819E+00
                       1.2964331608E+01  4.1837451066E+00  1.4130932934E+01
                       2.8822831209E+00  6.7066927482E-01  7.1275077845E+00
                       4.7298109118E+00  4.0851502666E+00  3.6943629428E+00
                       9.7981271649E+00  4.0327637077E+00  1.2172215668E+01
                       5.9593229492E+00  4.4614622158E+00  8.7466156652E+00
                       1.2758084286E+01  8.0249323508E+00  1.3943458415E+01
                       1.0926443639E+01  4.6241540890E+00  1.7369058423E+01
                       1.7720641652E+00  8.8764440070E-02  1.9306650296E+00
                       8.0177385114E+00  5.1219458501E-01  5.9308543262E+00
             xred      7.4652400000E-01  2.5347600000E-01  2.5347600000E-01
                       9.9652400000E-01  5.0347600000E-01  5.0347600000E-01
                       2.3931800000E-01  8.0709000000E-02  4.9161100000E-01
                       1.8836200000E-01  4.9161100000E-01  8.0709000000E-02
                       6.9352475000E-01  4.8530675000E-01  5.3689675000E-01
                       2.8427175000E-01  5.3689675000E-01  4.8530675000E-01
                       7.1310325000E-01  9.6572825000E-01  5.5647525000E-01
                       7.6469325000E-01  5.5647525000E-01  9.6572825000E-01
                       1.6929100000E-01  1.0682000000E-02  6.1638000000E-02
                       7.5838900000E-01  6.1638000000E-02  1.0682000000E-02
            znucl       78.00000    9.00000

- Timing analysis has been suppressed with timopt=0

 Suggested references for the acknowledgment of ABINIT usage.

 Calculation completed.
.Delivered   3 WARNINGs and   5 COMMENTs to log file.