.Version 9.5.2 of ABINIT

 ABINIT is a project of the Universite Catholique de Louvain,
 Corning Inc. and other collaborators, see ~abinit/doc/developers/contributors.txt .
 acknowledgments of the ABINIT effort.

.Starting date : Mon 24 May 2021.
- ( at 22h49 )

- input  file    -> /scratch/users/j/a/jabreu/flow_simple_10atoms/flow/w440/t1/run.abi
- output file    -> /scratch/users/j/a/jabreu/flow_simple_10atoms/flow/w440/t1/run.abo
- root for input  files -> /scratch/users/j/a/jabreu/flow_simple_10atoms/flow/w440/t1/indata/in
- root for output files -> /scratch/users/j/a/jabreu/flow_simple_10atoms/flow/w440/t1/outdata/out

 Symmetries : space group Cm m m (# 65); Bravais oC (1-face-center ortho.)
     intxc =       0      iscf =       7    lmnmax =      32     lnmax =       8
     mgfft =      72  mpssoang =       4    mqgrid =    3248     natom =      10
  nloc_mem =       1    nspden =       1   nspinor =       1    nsppol =       1
      nsym =       8    n1xccc =    2501    ntypat =       3    occopt =       1
   xclevel =       2
-    mband =          64        mffmem =           1         mkmem =           2
-   mkqmem =           2        mk1mem =           2           mpw =       10460
      nfft =      186624          nkpt =           2
  Rough estimation (10% accuracy) of disk space for files :

------------- Echo of variables that govern the present computation ------------
-
- outvars: echo of selected default values
-   iomode0 =  0 , fftalg0 =512 , wfoptalg0 =  0
-
- outvars: echo of global parameters not present in the input file
-  max_nthreads =    0
-
 -outvars: echo values of preprocessed input variables --------
            acell      1.0000000000E+00  1.0000000000E+00  1.0000000000E+00 Bohr
              amu      6.53900000E+01  1.95080000E+02  1.59994000E+01
             ecut      4.40000000E+01 Hartree
-          fftalg         512
           irdden           1
           irdwfk           1
              ixc     -116133
              kpt     -5.00000000E-01  5.00000000E-01  5.00000000E-01
                      -2.50000000E-01  2.50000000E-01  5.00000000E-01
           kptopt           0
P           mkmem           2
P          mkqmem           2
P          mk1mem           2
            natom          10
            nband          64
           nbdbuf           4
            ngfft          72      72      36
             nkpt           2
            nstep        2000
             nsym           8
           ntypat           3
              occ      2.000000  2.000000  2.000000  2.000000  2.000000  2.000000
                       2.000000  2.000000  2.000000  2.000000  2.000000  2.000000
                       2.000000  2.000000  2.000000  2.000000  2.000000  2.000000
                       2.000000  2.000000  2.000000  2.000000  2.000000  2.000000
                       2.000000  2.000000  2.000000  2.000000  2.000000  2.000000
                       2.000000  2.000000  2.000000  2.000000  2.000000  2.000000
                       2.000000  2.000000  2.000000  2.000000  2.000000  2.000000
                       2.000000  2.000000  2.000000  2.000000  2.000000  2.000000
                       2.000000  2.000000  2.000000  2.000000  2.000000  2.000000
                       2.000000  0.000000  0.000000  0.000000  0.000000  0.000000
                       0.000000  0.000000  0.000000  0.000000
        optdriver           1
            prtwf          -1
            rfdir           1       1       1
           rfelfd           2
            rprim      1.1491757439E+01  0.0000000000E+00  0.0000000000E+00
                      -3.7121676216E+00  1.0875674719E+01  0.0000000000E+00
                       0.0000000000E+00  0.0000000000E+00  5.9856029223E+00
          spgroup          65
           symrel      1  0  0   0  1  0   0  0  1      -1  0  0   0 -1  0   0  0 -1
                       0 -1  0  -1  0  0   0  0 -1       0  1  0   1  0  0   0  0  1
                      -1  0  0   0 -1  0   0  0  1       1  0  0   0  1  0   0  0 -1
                       0  1  0   1  0  0   0  0 -1       0 -1  0  -1  0  0   0  0  1
           tolwfr      1.00000000E-20
            typat      1  2  2  2  3  3  3  3  3  3
           useylm           1
              wtk        0.50000    0.50000
           xangst      2.0583908118E+00  2.8775795946E+00  0.0000000000E+00
                      -9.8219724991E-01  2.8775795946E+00  1.5837223231E+00
                       0.0000000000E+00  0.0000000000E+00  0.0000000000E+00
                       3.0405880617E+00  0.0000000000E+00  1.5837223231E+00
                       1.8960337404E+00  4.8162049675E-01  0.0000000000E+00
                       2.2207478832E+00  5.2735386925E+00  0.0000000000E+00
                      -1.5667292054E-01  1.9499630365E+00  0.0000000000E+00
                       4.2734545441E+00  3.8051961527E+00  0.0000000000E+00
                       8.5770203427E-01  3.7364565314E+00  1.5837223231E+00
                       3.2590795893E+00  2.0187026579E+00  1.5837223231E+00
            xcart      3.8897949088E+00  5.4378373594E+00  0.0000000000E+00
                      -1.8560838108E+00  5.4378373594E+00  2.9928014612E+00
                       0.0000000000E+00  0.0000000000E+00  0.0000000000E+00
                       5.7458787195E+00  0.0000000000E+00  2.9928014612E+00
                       3.5829845081E+00  9.1013083884E-01  0.0000000000E+00
                       4.1966053094E+00  9.9655438800E+00  0.0000000000E+00
                      -2.9606891226E-01  3.6848961082E+00  0.0000000000E+00
                       8.0756587298E+00  7.1907786106E+00  0.0000000000E+00
                       1.6208219484E+00  7.0608795517E+00  2.9928014612E+00
                       6.1587678691E+00  3.8147951671E+00  2.9928014612E+00
             xred      5.0000000000E-01  5.0000000000E-01  0.0000000000E+00
                       2.7755575616E-17  5.0000000000E-01  5.0000000000E-01
                       0.0000000000E+00  0.0000000000E+00  0.0000000000E+00
                       5.0000000000E-01  0.0000000000E+00  5.0000000000E-01
                       3.3882000000E-01  8.3685000000E-02  0.0000000000E+00
                       6.6118000000E-01  9.1631500000E-01  0.0000000000E+00
                       8.3685000000E-02  3.3882000000E-01  0.0000000000E+00
                       9.1631500000E-01  6.6118000000E-01  0.0000000000E+00
                       3.5076400000E-01  6.4923600000E-01  5.0000000000E-01
                       6.4923600000E-01  3.5076400000E-01  5.0000000000E-01
            znucl       30.00000   78.00000    8.00000

 chkinp: Checking input parameters for consistency.

== DATASET  1 ==================================================================
-   mpi_nproc: 1, omp_nthreads: -1 (-1 if OMP is not activated)

--- !DatasetInfo
iteration_state: {dtset: 1, }
dimensions: {natom: 10, nkpt: 2, mband: 64, nsppol: 1, nspinor: 1, nspden: 1, mpw: 10460, }
cutoff_energies: {ecut:  44.0, pawecutdg:  -1.0, }
electrons: {nelect:   1.10000000E+02, charge:   0.00000000E+00, occopt:   1.00000000E+00, tsmear:   1.00000000E-02, }
meta: {optdriver: 1, rfelfd: 2, }
...

 Real(R)+Recip(G) space primitive vectors, cartesian coordinates (Bohr,Bohr^-1):
 R(1)= 11.4917574  0.0000000  0.0000000  G(1)=  0.0870189  0.0297019  0.0000000
 R(2)= -3.7121676 10.8756747  0.0000000  G(2)=  0.0000000  0.0919483  0.0000000
 R(3)=  0.0000000  0.0000000  5.9856029  G(3)=  0.0000000  0.0000000  0.1670675
 Unit cell volume ucvol=  7.4808434E+02 bohr^3
 Angles (23,13,12)=  9.00000000E+01  9.00000000E+01  1.08846188E+02 degrees

 getcut: wavevector=  0.0000  0.0000  0.0000  ngfft=  72  72  36
         ecut(hartree)=     44.000   => boxcut(ratio)=   2.01420

--- Pseudopotential description ------------------------------------------------
- pspini: atom type   1  psp file is /scratch/users/j/a/jabreu/pseudos/PBEsol/Zn.psp8
- pspatm: opening atomic psp file    /scratch/users/j/a/jabreu/pseudos/PBEsol/Zn.psp8
- Zn    ONCVPSP-3.3.0  r_core=   1.35823   1.66358   1.85211
- 30.00000  20.00000    180112                znucl, zion, pspdat
    8 -116133    2    4       600   0.00000   pspcod,pspxc,lmax,lloc,mmax,r2well
    5.99000000000000    2.50000000000000    0.00000000000000   rchrg,fchrg,qchrg
     nproj     2     2     2
     extension_switch     1
  pspatm : epsatm=   26.57343589
         --- l  ekb(1:nproj) -->
             0    2.830835   -1.519107
             1   -4.626739   -1.324150
             2   -6.948510   -2.555500
 pspatm: atomic psp has been read  and splines computed

- pspini: atom type   2  psp file is /scratch/users/j/a/jabreu/pseudos/PBEsol/Pt.psp8
- pspatm: opening atomic psp file    /scratch/users/j/a/jabreu/pseudos/PBEsol/Pt.psp8
- Pt    ONCVPSP-3.3.0  r_core=   1.45722   1.45722   1.45722   1.91724
- 78.00000  18.00000    180112                znucl, zion, pspdat
    8 -116133    3    4       500   0.00000   pspcod,pspxc,lmax,lloc,mmax,r2well
    4.99000000000000    5.00000000000000    0.00000000000000   rchrg,fchrg,qchrg
     nproj     2     2     2     2
     extension_switch     1
  pspatm : epsatm=   26.54019552
         --- l  ekb(1:nproj) -->
             0   18.149684    1.747248
             1    8.048135    1.208190
             2    2.365973    0.348456
             3    3.491561    0.381218
 pspatm: atomic psp has been read  and splines computed

- pspini: atom type   3  psp file is /scratch/users/j/a/jabreu/pseudos/PBEsol/O.psp8
- pspatm: opening atomic psp file    /scratch/users/j/a/jabreu/pseudos/PBEsol/O.psp8
- O     ONCVPSP-3.3.0  r_core=   1.35509   1.45563   1.26150
-  8.00000   6.00000    180112                znucl, zion, pspdat
    8 -116133    2    4       600   0.00000   pspcod,pspxc,lmax,lloc,mmax,r2well
    5.99000000000000    4.00000000000000    0.00000000000000   rchrg,fchrg,qchrg
     nproj     2     2     1
     extension_switch     1
  pspatm : epsatm=    6.22910522
         --- l  ekb(1:nproj) -->
             0    6.050032    0.820363
             1   -4.739617   -1.153841
             2   -1.335834
 pspatm: atomic psp has been read  and splines computed

   1.57925519E+04                                ecore*ucvol(ha*bohr**3)

 ==>  initialize data related to q vector <==

 The list of irreducible perturbations for this q vector is:
    1)    idir= 1    ipert=  11
    2)    idir= 2    ipert=  11
    3)    idir= 3    ipert=  11

 Perturbation wavevector (in red.coord.)   0.000000  0.000000  0.000000
 Perturbation : derivative vs k along direction   1

 dfpt_looppert : COMMENT -
  In a d/dk calculation, iscf is set to -3 automatically.
 The set of symmetries contains only one element for this perturbation.
 symkpt : not enough symmetry to change the number of k points.

 Initialisation of the first-order wave-functions :
  ireadwf=   0

--- !BeginCycle
iteration_state: {dtset: 1, }
solver: {iscf: 7, nstep: 2000, nline: 4, wfoptalg: 0, }
tolerances: {tolwfr: 1.00E-20, }
...

     iter   2DEtotal(Ha)        deltaE(Ha) residm    vres2
-ETOT  1  -38.567695048575     -3.857E+01 7.102E-02 0.000E+00
 ETOT  2  -38.639900897196     -7.221E-02 6.724E-03 0.000E+00
[...]
 ETOT 13  -38.640573758832     -7.105E-15 3.000E-13 0.000E+00
 ETOT 14  -38.640573758832      0.000E+00 4.848E-14 0.000E+00
 ETOT 15  -38.640573758832      0.000E+00 5.068E-15 0.000E+00
 ETOT 16  -38.640573758832      0.000E+00 8.267E-16 0.000E+00
 ETOT 17  -38.640573758832      0.000E+00 8.633E-17 0.000E+00
 ETOT 18  -38.640573758832      7.105E-15 1.420E-17 0.000E+00
 ETOT 19  -38.640573758832     -1.421E-14 1.479E-18 0.000E+00
 ETOT 20  -38.640573758832      0.000E+00 2.452E-19 0.000E+00
 ETOT 21  -38.640573758832      2.842E-14 2.547E-20 0.000E+00
 ETOT 22  -38.640573758832     -2.842E-14 9.801E-21 0.000E+00

 At SCF step   22   max residual=  9.80E-21 < tolwfr=  1.00E-20 =>converged.

 ----iterations are completed or convergence reached----

 dfpt_looppert: DFPT cycle converged with prtwf=-1. Will skip output of the 1st-order WFK file.
 dfpt_looppert : ek2=    7.3429403119E+01
          f-sum rule ratio=    9.6380763798E-01
 prteigrs : about to open file /scratch/users/j/a/jabreu/flow_simple_10atoms/flow/w440/t1/tmpdata/tmp_1WF1_EIG
 Expectation of eigenvalue derivatives (hartree) for nkpt=   2  k points:
  (in case of degenerate eigenvalues, averaged derivative)
 kpt#   1, nband= 64, wtk=  0.50000, kpt= -0.5000  0.5000  0.5000 (reduced coord)
  -0.00000   -0.00000   -0.00000    0.00000    0.00000    0.00000   -0.00000   -0.00000
  -0.00000    0.00000   -0.00000    0.00000    0.00000   -0.00000   -0.00000   -0.00000
   0.00000    0.00000   -0.00000    0.00000    0.00000    0.00000   -0.00000    0.00000
   0.00000    0.00000    0.00000   -0.00000   -0.00000   -0.00000   -0.00000    0.00000
  -0.00000    0.00000   -0.00000   -0.00000   -0.00000   -0.00000    0.00000   -0.00000
  -0.00000    0.00000   -0.00000   -0.00000    0.00000   -0.00000   -0.00000   -0.00000
   0.00000   -0.00000    0.00000   -0.00000   -0.00000    0.00000    0.00000   -0.00000
   0.00000    0.00000    0.00000   -0.00000   -0.00000    0.00000   -0.00000   -0.00001
 prteigrs : prtvol=0 or 1, do not print more k-points.

 Eight components of 2nd-order total energy (hartree) are
 1,2,3: 0th-order hamiltonian combined with 1st-order wavefunctions
     kin0=   6.38416130E+01 eigvalue=  -3.15961175E+00  local=  -2.74681598E+01
 4,5,6: 1st-order hamiltonian combined with 1st and 0th-order wfs
     kin1=  -7.07718196E+01  Hartree=   0.00000000E+00     xc=   0.00000000E+00
 7,8,9: eventually, occupation + non-local contributions
    edocc=   5.59523280E+00     enl0=  -1.68500489E-01   enl1=  -6.50932794E+00
 1-9 gives the relaxation energy (to be shifted if some occ is /=2.0)
   erelax=  -3.86405738E+01
  No Ewald or frozen-wf contrib.: the relaxation energy is the total one
 2DEtotal=   -0.3864057376E+02 Ha. Also 2DEtotal=   -0.105146348512E+04 eV
    (  non-var. 2DEtotal :   -3.8640573758E+01 Ha)

 Perturbation wavevector (in red.coord.)   0.000000  0.000000  0.000000
 Perturbation : derivative vs k along direction   2
 The set of symmetries contains only one element for this perturbation.
 symkpt : not enough symmetry to change the number of k points.

[...]

 Perturbation wavevector (in red.coord.)   0.000000  0.000000  0.000000
 Perturbation : derivative vs k along direction   3
 The set of symmetries contains only one element for this perturbation.
 symkpt : not enough symmetry to change the number of k points.

 Initialisation of the first-order wave-functions :
  ireadwf=   0

--- !BeginCycle
iteration_state: {dtset: 1, }
solver: {iscf: 7, nstep: 2000, nline: 4, wfoptalg: 0, }
tolerances: {tolwfr: 1.00E-20, }
...

     iter   2DEtotal(Ha)        deltaE(Ha) residm    vres2
-ETOT  1  -132.16028349586     -1.322E+02 3.129E-01 0.000E+00
 ETOT  2  -132.33056850475     -1.703E-01 9.169E-03 0.000E+00
 ETOT  3  -132.33190994226     -1.341E-03 1.749E-04 0.000E+00
 ETOT  4  -132.33193256752     -2.263E-05 2.174E-05 0.000E+00
 ETOT  5  -132.33193309253     -5.250E-07 8.906E-07 0.000E+00
 ETOT  6  -132.33193310650     -1.397E-08 1.296E-07 0.000E+00
 ETOT  7  -132.33193310691     -4.074E-10 6.022E-09 0.000E+00
 ETOT  8  -132.33193310692     -1.279E-11 8.675E-10 0.000E+00
 ETOT  9  -132.33193310692     -4.547E-13 4.220E-11 0.000E+00
 ETOT 10  -132.33193310692      1.421E-13 6.083E-12 0.000E+00
 ETOT 11  -132.33193310692      1.137E-13 3.038E-13 0.000E+00
 ETOT 12  -132.33193310692     -1.137E-13 4.399E-14 0.000E+00
 ETOT 13  -132.33193310692      2.842E-14 2.235E-15 0.000E+00
 ETOT 14  -132.33193310692      2.842E-14 3.252E-16 0.000E+00
 ETOT 15  -132.33193310692     -2.842E-14 1.674E-17 0.000E+00
 ETOT 16  -132.33193310692      0.000E+00 2.445E-18 0.000E+00
 ETOT 17  -132.33193310692     -2.842E-14 1.271E-19 0.000E+00
 ETOT 18  -132.33193310692      2.842E-14 1.864E-20 0.000E+00
 ETOT 19  -132.33193310692     -2.842E-14 9.985E-21 0.000E+00

 At SCF step   19   max residual=  9.98E-21 < tolwfr=  1.00E-20 =>converged.

 ----iterations are completed or convergence reached----

 dfpt_looppert: DFPT cycle converged with prtwf=-1. Will skip output of the 1st-order WFK file.
 dfpt_looppert : ek2=    2.4241897565E+02
          f-sum rule ratio=    9.9491424982E-01
 prteigrs : about to open file /scratch/users/j/a/jabreu/flow_simple_10atoms/flow/w440/t1/tmpdata/tmp_1WF1_EIG
 Expectation of eigenvalue derivatives (hartree) for nkpt=   2  k points:
  (in case of degenerate eigenvalues, averaged derivative)
 kpt#   1, nband= 64, wtk=  0.50000, kpt= -0.5000  0.5000  0.5000 (reduced coord)
   0.00000    0.00000   -0.00000   -0.00000    0.00000    0.00000   -0.00000   -0.00000
   0.00000    0.00000   -0.00000   -0.00000   -0.00000   -0.00000   -0.00000   -0.00000
  -0.00000   -0.00000   -0.00000    0.00000    0.00000    0.00000   -0.00000    0.00000
   0.00000    0.00000   -0.00000   -0.00000    0.00000   -0.00000    0.00000    0.00000
   0.00000   -0.00000   -0.00000   -0.00000    0.00000   -0.00000    0.00000    0.00000
   0.00000    0.00000   -0.00000   -0.00000   -0.00000    0.00000    0.00000   -0.00000
  -0.00000   -0.00000    0.00000   -0.00000   -0.00000    0.00000    0.00000   -0.00000
  -0.00000   -0.00000   -0.00000    0.00000    0.00000    0.00000   -0.00000    0.00081
 prteigrs : prtvol=0 or 1, do not print more k-points.

 Eight components of 2nd-order total energy (hartree) are
 1,2,3: 0th-order hamiltonian combined with 1st-order wavefunctions
     kin0=   2.04250413E+02 eigvalue=  -1.05699563E+01  local=  -8.63200027E+01
 4,5,6: 1st-order hamiltonian combined with 1st and 0th-order wfs
     kin1=  -2.41186093E+02  Hartree=   0.00000000E+00     xc=   0.00000000E+00
 7,8,9: eventually, occupation + non-local contributions
    edocc=   2.51404842E+01     enl0=  -1.69005455E-01   enl1=  -2.34777729E+01
 1-9 gives the relaxation energy (to be shifted if some occ is /=2.0)
   erelax=  -1.32331933E+02
  No Ewald or frozen-wf contrib.: the relaxation energy is the total one
 2DEtotal=   -0.1323319331E+03 Ha. Also 2DEtotal=   -0.360093502871E+04 eV
    (  non-var. 2DEtotal :   -1.3233193311E+02 Ha)

 CALCULATION OF EFFECTIVE MASSES
 NOTE : Additional infos (eff. mass eigenvalues, eigenvectors and, if degenerate, average mass) are available in stdout.

 K-point (-0.500, 0.500, 0.500) | band =    55
 Effective mass tensor:
            -13.1869549424              6.4896264296             -0.0000000024
              6.4896264296             -8.7567781650             -0.0000000012
             -0.0000000024             -0.0000000012             -0.2801588549
 Effective mass tensor eigenvalues:
            -17.8291158393             -4.1146172680             -0.2801588549
 Angular average effective mass 1/(<1/m>)=  -0.7754888628
 Angular average effective mass for Frohlich model (<m**0.5>)**2=  -1.5802073810
 Effective masses along directions: (cart. coord. / red. coord. -> eff. mass)
    1:   1.000000  0.000000  0.000000 /   0.951584 -0.307389  0.000000 ->  -8.3775090021
    2:   0.000000  1.000000  0.000000 /   0.000000  1.000000  0.000000 ->  -5.5630726143
    3:   0.000000  0.000000  1.000000 /   0.000000  0.000000  1.000000 ->  -0.2801588549
    4:   0.577350  0.577350  0.577350 /   0.776180  0.483840  0.404282 ->  -0.7415733153
    5:   0.000000  0.707107  0.707107 /   0.000000  0.876080  0.482165 ->  -0.5334527865
    6:   0.707107  0.000000  0.707107 /   0.852603 -0.275415  0.444087 ->  -0.5421860413
    7:   0.707107  0.707107  0.000000 /   0.848623  0.528998  0.000000 ->  -4.2012437296

 K-point (-0.250, 0.250, 0.500) | band =    56
 Effective mass tensor:
              1.7425076885              0.2472806480             -0.0000131862
              0.2472806480              1.9111666815             -0.0000140331
             -0.0000131862             -0.0000140331              1.0402921023
 Effective mass tensor eigenvalues:
              1.0402921019              1.5655726010              2.0881017694
 Angular average effective mass 1/(<1/m>)=   1.4430595634
 Angular average effective mass for Frohlich model (<m**0.5>)**2=   1.4794414267
 Effective masses along directions: (cart. coord. / red. coord. -> eff. mass)
    1:   1.000000  0.000000  0.000000 /   0.951584 -0.307389  0.000000 ->   1.7105127193
    2:   0.000000  1.000000  0.000000 /   0.000000  1.000000  0.000000 ->   1.8760748884
    3:   0.000000  0.000000  1.000000 /   0.000000  0.000000  1.000000 ->   1.0402921021
    4:   0.577350  0.577350  0.577350 /   0.776180  0.483840  0.404282 ->   1.5562936915
    5:   0.000000  0.707107  0.707107 /   0.000000  0.876080  0.482165 ->   1.3384115361
    6:   0.707107  0.000000  0.707107 /   0.852603 -0.275415  0.444087 ->   1.2937436695
    7:   0.707107  0.707107  0.000000 /   0.848623  0.528998  0.000000 ->   2.0696156425

 END OF EFFECTIVE MASSES SECTION

 ---- first-order wavefunction calculations are completed ----

 Total localisation tensor (bohr^2) in cartesian coordinates
  WARNING : still subject to testing - especially symmetries.
      direction              matrix element
   alpha     beta       real part   imaginary part
     1        1       0.7182270670    0.0000000000
     1        2      -0.1988277526    0.0000000000
     1        3       0.0000000000    0.0000000000
     2        1      -0.1988277526    0.0000000000
     2        2       0.5825130175    0.0000000000
     2        3       0.0000000000    0.0000000000
     3        1       0.0000000000    0.0000000000
     3        2       0.0000000000    0.0000000000
     3        3       0.8382498584    0.0000000000

 respfn : d/dk was computed, but no 2DTE, so no DDB output.

== END DATASET(S) ==============================================================

 -outvars: echo values of variables after computation  --------
            acell      1.0000000000E+00  1.0000000000E+00  1.0000000000E+00 Bohr
              amu      6.53900000E+01  1.95080000E+02  1.59994000E+01
             ecut      4.40000000E+01 Hartree
           etotal     -1.3233193311E+02
            fcart      0.0000000000E+00  0.0000000000E+00  0.0000000000E+00
                       0.0000000000E+00  0.0000000000E+00  0.0000000000E+00
                       0.0000000000E+00  0.0000000000E+00  0.0000000000E+00
                       0.0000000000E+00  0.0000000000E+00  0.0000000000E+00
                       0.0000000000E+00  0.0000000000E+00  0.0000000000E+00
                       0.0000000000E+00  0.0000000000E+00  0.0000000000E+00
                       0.0000000000E+00  0.0000000000E+00  0.0000000000E+00
                       0.0000000000E+00  0.0000000000E+00  0.0000000000E+00
                       0.0000000000E+00  0.0000000000E+00  0.0000000000E+00
                       0.0000000000E+00  0.0000000000E+00  0.0000000000E+00
-          fftalg         512
           irdden           1
           irdwfk           1
              ixc     -116133
              kpt     -5.00000000E-01  5.00000000E-01  5.00000000E-01
                      -2.50000000E-01  2.50000000E-01  5.00000000E-01
           kptopt           0
P           mkmem           2
P          mkqmem           2
P          mk1mem           2
            natom          10
            nband          64
           nbdbuf           4
            ngfft          72      72      36
             nkpt           2
            nstep        2000
             nsym           8
           ntypat           3
              occ      2.000000  2.000000  2.000000  2.000000  2.000000  2.000000
                       2.000000  2.000000  2.000000  2.000000  2.000000  2.000000
                       2.000000  2.000000  2.000000  2.000000  2.000000  2.000000
                       2.000000  2.000000  2.000000  2.000000  2.000000  2.000000
                       2.000000  2.000000  2.000000  2.000000  2.000000  2.000000
                       2.000000  2.000000  2.000000  2.000000  2.000000  2.000000
                       2.000000  2.000000  2.000000  2.000000  2.000000  2.000000
                       2.000000  2.000000  2.000000  2.000000  2.000000  2.000000
                       2.000000  2.000000  2.000000  2.000000  2.000000  2.000000
                       2.000000  0.000000  0.000000  0.000000  0.000000  0.000000
                       0.000000  0.000000  0.000000  0.000000
        optdriver           1
            prtwf          -1
            rfdir           1       1       1
           rfelfd           2
            rprim      1.1491757439E+01  0.0000000000E+00  0.0000000000E+00
                      -3.7121676216E+00  1.0875674719E+01  0.0000000000E+00
                       0.0000000000E+00  0.0000000000E+00  5.9856029223E+00
          spgroup          65
           strten      0.0000000000E+00  0.0000000000E+00  0.0000000000E+00
                       0.0000000000E+00  0.0000000000E+00  0.0000000000E+00
           symrel      1  0  0   0  1  0   0  0  1      -1  0  0   0 -1  0   0  0 -1
                       0 -1  0  -1  0  0   0  0 -1       0  1  0   1  0  0   0  0  1
                      -1  0  0   0 -1  0   0  0  1       1  0  0   0  1  0   0  0 -1
                       0  1  0   1  0  0   0  0 -1       0 -1  0  -1  0  0   0  0  1
           tolwfr      1.00000000E-20
            typat      1  2  2  2  3  3  3  3  3  3
           useylm           1
              wtk        0.50000    0.50000
           xangst      2.0583908118E+00  2.8775795946E+00  0.0000000000E+00
                      -9.8219724991E-01  2.8775795946E+00  1.5837223231E+00
                       0.0000000000E+00  0.0000000000E+00  0.0000000000E+00
                       3.0405880617E+00  0.0000000000E+00  1.5837223231E+00
                       1.8960337404E+00  4.8162049675E-01  0.0000000000E+00
                       2.2207478832E+00  5.2735386925E+00  0.0000000000E+00
                      -1.5667292054E-01  1.9499630365E+00  0.0000000000E+00
                       4.2734545441E+00  3.8051961527E+00  0.0000000000E+00
                       8.5770203427E-01  3.7364565314E+00  1.5837223231E+00
                       3.2590795893E+00  2.0187026579E+00  1.5837223231E+00
            xcart      3.8897949088E+00  5.4378373594E+00  0.0000000000E+00
                      -1.8560838108E+00  5.4378373594E+00  2.9928014612E+00
                       0.0000000000E+00  0.0000000000E+00  0.0000000000E+00
                       5.7458787195E+00  0.0000000000E+00  2.9928014612E+00
                       3.5829845081E+00  9.1013083884E-01  0.0000000000E+00
                       4.1966053094E+00  9.9655438800E+00  0.0000000000E+00
                      -2.9606891226E-01  3.6848961082E+00  0.0000000000E+00
                       8.0756587298E+00  7.1907786106E+00  0.0000000000E+00
                       1.6208219484E+00  7.0608795517E+00  2.9928014612E+00
                       6.1587678691E+00  3.8147951671E+00  2.9928014612E+00
             xred      5.0000000000E-01  5.0000000000E-01  0.0000000000E+00
                       2.7755575616E-17  5.0000000000E-01  5.0000000000E-01
                       0.0000000000E+00  0.0000000000E+00  0.0000000000E+00
                       5.0000000000E-01  0.0000000000E+00  5.0000000000E-01
                       3.3882000000E-01  8.3685000000E-02  0.0000000000E+00
                       6.6118000000E-01  9.1631500000E-01  0.0000000000E+00
                       8.3685000000E-02  3.3882000000E-01  0.0000000000E+00
                       9.1631500000E-01  6.6118000000E-01  0.0000000000E+00
                       3.5076400000E-01  6.4923600000E-01  5.0000000000E-01
                       6.4923600000E-01  3.5076400000E-01  5.0000000000E-01
            znucl       30.00000   78.00000    8.00000

- Timing analysis has been suppressed with timopt=0

 Suggested references for the acknowledgment of ABINIT usage.

 Calculation completed.
.Delivered   2 WARNINGs and   5 COMMENTs to log file.