.Version 9.5.1 of ABINIT

 ABINIT is a project of the Universite Catholique de Louvain,
 Corning Inc. and other collaborators, see ~abinit/doc/developers/contributors.txt .
 acknowledgments of the ABINIT effort.

.Starting date : Tue  4 May 2021.
- ( at 19h14 )

- input  file    -> /scratch/users/j/a/jabreu/flow_simple_6atoms/flow/w164/t1/run.abi
- output file    -> /scratch/users/j/a/jabreu/flow_simple_6atoms/flow/w164/t1/run.abo
- root for input  files -> /scratch/users/j/a/jabreu/flow_simple_6atoms/flow/w164/t1/indata/in
- root for output files -> /scratch/users/j/a/jabreu/flow_simple_6atoms/flow/w164/t1/outdata/out

 Symmetries : space group P-3 m 1 (#164); Bravais hP (primitive hexag.)
     intxc =       0      iscf =       7    lmnmax =      32     lnmax =       8
     mgfft =      90  mpssoang =       4    mqgrid =    4171     natom =       6
  nloc_mem =       1    nspden =       1   nspinor =       1    nsppol =       1
      nsym =      12    n1xccc =    2501    ntypat =       3    occopt =       1
   xclevel =       2
-    mband =          24        mffmem =           1         mkmem =           2
-   mkqmem =           2        mk1mem =           2           mpw =       12524
      nfft =      262440          nkpt =           2
  Rough estimation (10% accuracy) of disk space for files :

------------- Echo of variables that govern the present computation ------------
-
- outvars: echo of selected default values
-   iomode0 =  0 , fftalg0 =512 , wfoptalg0 =  0
-
- outvars: echo of global parameters not present in the input file
-  max_nthreads =    0
-
 -outvars: echo values of preprocessed input variables --------
            acell      1.0000000000E+00  1.0000000000E+00  1.0000000000E+00 Bohr
              amu      6.94100000E+00  1.38905500E+02  3.09737620E+01
             ecut      5.20000000E+01 Hartree
-          fftalg         512
           irdden           1
           irdwfk           1
           istwfk        0    1
              ixc     -116133
              kpt      4.44444444E-02  4.44444444E-02  0.00000000E+00
                       5.00000000E-01  0.00000000E+00  5.00000000E-01
           kptopt           0
P           mkmem           2
P          mkqmem           2
P          mk1mem           2
            natom           6
            nband          24
           nbdbuf           4
            ngfft          54      54      90
             nkpt           2
            nstep        1000
             nsym          12
           ntypat           3
              occ      2.000000  2.000000  2.000000  2.000000  2.000000  2.000000
                       2.000000  2.000000  2.000000  2.000000  2.000000  2.000000
                       2.000000  2.000000  2.000000  0.000000  0.000000  0.000000
                       0.000000  0.000000  0.000000  0.000000  0.000000  0.000000
        optdriver           1
            prtwf          -1
            rfdir           1       1       1
           rfelfd           2
            rprim      7.9262150818E+00  0.0000000000E+00  0.0000000000E+00
                      -3.9631075409E+00  6.8643036167E+00  0.0000000000E+00
                       0.0000000000E+00  0.0000000000E+00  1.2848848174E+01
          spgroup         164
           symrel      1  0  0   0  1  0   0  0  1      -1  0  0   0 -1  0   0  0 -1
                      -1  0  0   1  1  0   0  0  1       1  0  0  -1 -1  0   0  0 -1
                       0  1  0  -1 -1  0   0  0  1       0 -1  0   1  1  0   0  0 -1
                       0 -1  0  -1  0  0   0  0  1       0  1  0   1  0  0   0  0 -1
                      -1 -1  0   1  0  0   0  0  1       1  1  0  -1  0  0   0  0 -1
                       1  1  0   0 -1  0   0  0  1      -1 -1  0   0  1  0   0  0 -1
           tolwfr      1.00000000E-20
            typat      1  1  1  2  3  3
           useylm           1
              wtk        0.50000    0.50000
           xangst      0.0000000000E+00  0.0000000000E+00  3.3996588051E+00
                       0.0000000000E+00  2.4216220179E+00  2.4500185125E+00
                       2.0971861858E+00  1.2108110089E+00  4.3492990978E+00
                       0.0000000000E+00  0.0000000000E+00  0.0000000000E+00
                       2.0971861858E+00  1.2108110089E+00  1.7748734710E+00
                       0.0000000000E+00  2.4216220179E+00  5.0244441392E+00
            xcart      0.0000000000E+00  0.0000000000E+00  6.4244240870E+00
                       0.0000000000E+00  4.5762024111E+00  4.6298640090E+00
                       3.9631075409E+00  2.2881012056E+00  8.2189841649E+00
                       0.0000000000E+00  0.0000000000E+00  0.0000000000E+00
                       3.9631075409E+00  2.2881012056E+00  3.3540247808E+00
                       0.0000000000E+00  4.5762024111E+00  9.4948233931E+00
             xred      0.0000000000E+00  0.0000000000E+00  5.0000000000E-01
                       3.3333333333E-01  6.6666666667E-01  3.6033300000E-01
                       6.6666666667E-01  3.3333333333E-01  6.3966700000E-01
                       0.0000000000E+00  0.0000000000E+00  0.0000000000E+00
                       6.6666666667E-01  3.3333333333E-01  2.6103700000E-01
                       3.3333333333E-01  6.6666666667E-01  7.3896300000E-01
            znucl        3.00000   57.00000   15.00000

 chkinp: Checking input parameters for consistency.

== DATASET  1 ==================================================================
-   mpi_nproc: 1, omp_nthreads: -1 (-1 if OMP is not activated)

--- !DatasetInfo
iteration_state: {dtset: 1, }
dimensions: {natom: 6, nkpt: 2, mband: 24, nsppol: 1, nspinor: 1, nspden: 1, mpw: 12524, }
cutoff_energies: {ecut:  52.0, pawecutdg:  -1.0, }
electrons: {nelect:   3.00000000E+01, charge:   0.00000000E+00, occopt:   1.00000000E+00, tsmear:   1.00000000E-02, }
meta: {optdriver: 1, rfelfd: 2, }
...

 Real(R)+Recip(G) space primitive vectors, cartesian coordinates (Bohr,Bohr^-1):
 R(1)=  7.9262151  0.0000000  0.0000000  G(1)=  0.1261636  0.0728406  0.0000000
 R(2)= -3.9631075  6.8643036  0.0000000  G(2)=  0.0000000  0.1456812  0.0000000
 R(3)=  0.0000000  0.0000000 12.8488482  G(3)=  0.0000000  0.0000000  0.0778280
 Unit cell volume ucvol=  6.9907945E+02 bohr^3
 Angles (23,13,12)=  9.00000000E+01  9.00000000E+01  1.20000000E+02 degrees

 getcut: wavevector=  0.0000  0.0000  0.0000  ngfft=  54  54  90
         ecut(hartree)=     52.000   => boxcut(ratio)=   2.09923

--- Pseudopotential description ------------------------------------------------
- pspini: atom type   1  psp file is /scratch/users/j/a/jabreu/pseudos/PBEsol/Li.psp8
- pspatm: opening atomic psp file    /scratch/users/j/a/jabreu/pseudos/PBEsol/Li.psp8
- Li    ONCVPSP-3.3.0  r_core=   1.40824   1.10935
-  3.00000   3.00000    180112                znucl, zion, pspdat
    8 -116133    1    4       400   0.00000   pspcod,pspxc,lmax,lloc,mmax,r2well
    3.99000000000000    0.00000000000000    0.00000000000000   rchrg,fchrg,qchrg
     nproj     2     2
     extension_switch     1
  pspatm : epsatm=    2.60859637
         --- l  ekb(1:nproj) -->
             0   -4.855856   -1.482423
             1   -2.171544   -0.427615
 pspatm: atomic psp has been read  and splines computed

- pspini: atom type   2  psp file is /scratch/users/j/a/jabreu/pseudos/PBEsol/La.psp8
- pspatm: opening atomic psp file    /scratch/users/j/a/jabreu/pseudos/PBEsol/La.psp8
- La    ONCVPSP-3.3.0  r_core=   2.11664   1.60878   1.85636   1.66739
- 57.00000  11.00000    180112                znucl, zion, pspdat
    8 -116133    3    4       600   0.00000   pspcod,pspxc,lmax,lloc,mmax,r2well
    5.99000000000000    5.00000000000000    0.00000000000000   rchrg,fchrg,qchrg
     nproj     2     2     2     2
     extension_switch     1
  pspatm : epsatm=   29.08531775
         --- l  ekb(1:nproj) -->
             0    6.695600    0.639047
             1    6.383649    1.151322
             2    3.612966    0.847811
             3  -13.718437   -4.858923
 pspatm: atomic psp has been read  and splines computed

- pspini: atom type   3  psp file is /scratch/users/j/a/jabreu/pseudos/PBEsol/P.psp8
- pspatm: opening atomic psp file    /scratch/users/j/a/jabreu/pseudos/PBEsol/P.psp8
- P     ONCVPSP-3.3.0  r_core=   1.46089   1.55067   1.70594
- 15.00000   5.00000    180112                znucl, zion, pspdat
    8 -116133    2    4       600   0.00000   pspcod,pspxc,lmax,lloc,mmax,r2well
    5.99000000000000    5.00000000000000    0.00000000000000   rchrg,fchrg,qchrg
     nproj     2     2     2
     extension_switch     1
  pspatm : epsatm=    7.31221086
         --- l  ekb(1:nproj) -->
             0    6.742364    1.063650
             1    3.449117    0.910422
             2   -3.077645   -0.799176
 pspatm: atomic psp has been read  and splines computed

   1.54606586E+03                                ecore*ucvol(ha*bohr**3)

-inwffil : will read wavefunctions from disk file /scratch/users/j/a/jabreu/flow_simple_6atoms/flow/w164/t1/indata/in_WFK

 ==>  initialize data related to q vector <==

 The list of irreducible perturbations for this q vector is:
    1)    idir= 1    ipert=   7
    2)    idir= 2    ipert=   7
    3)    idir= 3    ipert=   7

 Perturbation wavevector (in red.coord.)   0.000000  0.000000  0.000000
 Perturbation : derivative vs k along direction   1

 dfpt_looppert : COMMENT -
  In a d/dk calculation, iscf is set to -3 automatically.
 The set of symmetries contains only one element for this perturbation.
 symkpt : not enough symmetry to change the number of k points.

[...]

 Initialisation of the first-order wave-functions :
  ireadwf=   0

--- !BeginCycle
iteration_state: {dtset: 1, }
solver: {iscf: 7, nstep: 1000, nline: 4, wfoptalg: 0, }
tolerances: {tolwfr: 1.00E-20, }
...

     iter   2DEtotal(Ha)        deltaE(Ha) residm    vres2
-ETOT  1  -29.931286820342     -2.993E+01 2.778E-01 0.000E+00
 ETOT  2  -30.053595865590     -1.223E-01 5.014E-02 0.000E+00
 ETOT  3  -30.059356523241     -5.761E-03 1.749E-02 0.000E+00
 ETOT  4  -30.060389522803     -1.033E-03 7.438E-03 0.000E+00
 ETOT  5  -30.060741335550     -3.518E-04 4.019E-03 0.000E+00
 ETOT  6  -30.060874852502     -1.335E-04 2.722E-03 0.000E+00
 ETOT  7  -30.060927822658     -5.297E-05 1.934E-03 0.000E+00
 ETOT  8  -30.060949253066     -2.143E-05 1.421E-03 0.000E+00
 ETOT  9  -30.060958065869     -8.813E-06 1.149E-03 0.000E+00
 ETOT 10  -30.060961721512     -3.656E-06 8.594E-04 0.000E+00
 ETOT 11  -30.060963251521     -1.530E-06 7.186E-04 0.000E+00
 ETOT 12  -30.060963894927     -6.434E-07 5.452E-04 0.000E+00
 ETOT 13  -30.060964166572     -2.716E-07 4.544E-04 0.000E+00
 ETOT 14  -30.060964281601     -1.150E-07 3.471E-04 0.000E+00
 ETOT 15  -30.060964330432     -4.883E-08 2.882E-04 0.000E+00
 ETOT 16  -30.060964351202     -2.077E-08 2.211E-04 0.000E+00
 ETOT 17  -30.060964360050     -8.849E-09 1.830E-04 0.000E+00
 ETOT 18  -30.060964363826     -3.775E-09 1.409E-04 0.000E+00
 ETOT 19  -30.060964365438     -1.612E-09 1.162E-04 0.000E+00
 ETOT 20  -30.060964366128     -6.895E-10 8.975E-05 0.000E+00
 ETOT 21  -30.060964366422     -2.949E-10 7.380E-05 0.000E+00
 ETOT 22  -30.060964366549     -1.264E-10 6.114E-05 0.000E+00
[...]
 kpt#   1, nband= 24, wtk=  0.50000, kpt=  0.0444  0.0444  0.0000 (reduced coord)
   0.00007    0.00006   -0.00010    0.00182    0.00794   -0.02895   -0.00586    0.04083
  -0.01892    0.06098   -0.06960   -0.00171   -0.22746   -0.12222    0.00284   -0.00826
  -0.09625    0.03831   -0.01542   -0.01230    0.09036   -0.07331   -0.00742    0.02047
 prteigrs : prtvol=0 or 1, do not print more k-points.

 Eight components of 2nd-order total energy (hartree) are
 1,2,3: 0th-order hamiltonian combined with 1st-order wavefunctions
     kin0=   9.35992451E+01 eigvalue=  -2.60148168E+00  local=  -5.01403539E+01
 4,5,6: 1st-order hamiltonian combined with 1st and 0th-order wfs
     kin1=  -5.89721904E+01  Hartree=   0.00000000E+00     xc=   0.00000000E+00
 7,8,9: eventually, occupation + non-local contributions
    edocc=   8.23424548E+00     enl0=  -1.90306907E+01   enl1=  -1.14973832E+00
 1-9 gives the relaxation energy (to be shifted if some occ is /=2.0)
   erelax=  -3.00609644E+01
  No Ewald or frozen-wf contrib.: the relaxation energy is the total one
 2DEtotal=   -0.3006096437E+02 Ha. Also 2DEtotal=   -0.818000440583E+03 eV
    (  non-var. 2DEtotal :   -3.0060964367E+01 Ha)

 Perturbation wavevector (in red.coord.)   0.000000  0.000000  0.000000
 Perturbation : derivative vs k along direction   2
 The set of symmetries contains only one element for this perturbation.
 symkpt : not enough symmetry to change the number of k points.

[...]

 Perturbation wavevector (in red.coord.)   0.000000  0.000000  0.000000
 Perturbation : derivative vs k along direction   3
 The set of symmetries contains only one element for this perturbation.
 symkpt : not enough symmetry to change the number of k points.

-inwffil : will read wavefunctions from disk file /scratch/users/j/a/jabreu/flow_simple_6atoms/flow/w164/t1/indata/in_WFK

 Initialisation of the first-order wave-functions :
  ireadwf=   0

--- !BeginCycle
iteration_state: {dtset: 1, }
solver: {iscf: 7, nstep: 1000, nline: 4, wfoptalg: 0, }
tolerances: {tolwfr: 1.00E-20, }
...

     iter   2DEtotal(Ha)        deltaE(Ha) residm    vres2
-ETOT  1  -9.6279129577304     -9.628E+00 9.816E-02 0.000E+00
 ETOT  2  -9.6665004440048     -3.859E-02 1.334E-02 0.000E+00
 ETOT  3  -9.6692624477976     -2.762E-03 3.575E-03 0.000E+00
 ETOT  4  -9.6696895725637     -4.271E-04 2.111E-03 0.000E+00
 ETOT  5  -9.6697879349916     -9.836E-05 1.430E-03 0.000E+00
 ETOT  6  -9.6698141988065     -2.626E-05 8.725E-04 0.000E+00
 ETOT  7  -9.6698221352872     -7.936E-06 8.234E-04 0.000E+00
 ETOT  8  -9.6698246475101     -2.512E-06 4.063E-04 0.000E+00
 ETOT  9  -9.6698254661992     -8.187E-07 4.970E-04 0.000E+00
 ETOT 10  -9.6698257429148     -2.767E-07 2.128E-04 0.000E+00
 ETOT 11  -9.6698258386381     -9.572E-08 2.993E-04 0.000E+00
 ETOT 12  -9.6698258726442     -3.401E-08 1.257E-04 0.000E+00
 ETOT 13  -9.6698258849353     -1.229E-08 1.802E-04 0.000E+00
 ETOT 14  -9.6698258894593     -4.524E-09 7.456E-05 0.000E+00
 ETOT 15  -9.6698258911458     -1.687E-09 1.083E-04 0.000E+00
 ETOT 16  -9.6698258917825     -6.367E-10 4.512E-05 0.000E+00
 ETOT 17  -9.6698258920252     -2.427E-10 6.501E-05 0.000E+00
 ETOT 18  -9.6698258921186     -9.334E-11 2.959E-05 0.000E+00
 ETOT 19  -9.6698258921548     -3.619E-11 3.900E-05 0.000E+00
 ETOT 20  -9.6698258921689     -1.413E-11 1.959E-05 0.000E+00
 ETOT 21  -9.6698258921744     -5.539E-12 2.338E-05 0.000E+00
 ETOT 22  -9.6698258921766     -2.153E-12 1.305E-05 0.000E+00
 ETOT 23  -9.6698258921774     -8.491E-13 1.401E-05 0.000E+00
 ETOT 24  -9.6698258921778     -3.553E-13 8.716E-06 0.000E+00
 ETOT 25  -9.6698258921779     -1.457E-13 8.398E-06 0.000E+00
 ETOT 26  -9.6698258921780     -8.704E-14 5.835E-06 0.000E+00
 ETOT 27  -9.6698258921780     -7.105E-15 5.032E-06 0.000E+00
 ETOT 28  -9.6698258921781     -2.842E-14 3.912E-06 0.000E+00
 ETOT 29  -9.6698258921780      3.020E-14 3.015E-06 0.000E+00
 ETOT 30  -9.6698258921780     -2.132E-14 2.626E-06 0.000E+00
 ETOT 31  -9.6698258921780      3.553E-15 1.806E-06 0.000E+00
 ETOT 32  -9.6698258921780     -1.776E-15 1.764E-06 0.000E+00
 ETOT 33  -9.6698258921780      1.066E-14 1.082E-06 0.000E+00
 ETOT 34  -9.6698258921781     -3.553E-14 1.186E-06 0.000E+00
 ETOT 35  -9.6698258921780      1.776E-14 6.481E-07 0.000E+00
 ETOT 36  -9.6698258921781     -8.882E-15 7.976E-07 0.000E+00
 ETOT 37  -9.6698258921781     -4.086E-14 4.147E-07 0.000E+00
 ETOT 38  -9.6698258921781      3.553E-15 5.367E-07 0.000E+00
 ETOT 39  -9.6698258921781      4.263E-14 2.798E-07 0.000E+00
 ETOT 40  -9.6698258921781     -5.329E-15 3.614E-07 0.000E+00
 ETOT 41  -9.6698258921780      2.132E-14 1.889E-07 0.000E+00
 ETOT 42  -9.6698258921780      3.553E-15 2.434E-07 0.000E+00
 ETOT 43  -9.6698258921780     -1.421E-14 1.275E-07 0.000E+00
 ETOT 44  -9.6698258921780      5.329E-15 1.640E-07 0.000E+00
 ETOT 45  -9.6698258921780      0.000E+00 8.608E-08 0.000E+00
 ETOT 46  -9.6698258921780     -7.105E-15 1.105E-07 0.000E+00
 ETOT 47  -9.6698258921780      3.553E-15 5.813E-08 0.000E+00
 ETOT 48  -9.6698258921780      1.776E-15 7.448E-08 0.000E+00
 ETOT 49  -9.6698258921781     -8.882E-15 3.926E-08 0.000E+00
 ETOT 50  -9.6698258921780      5.329E-15 5.022E-08 0.000E+00
 ETOT 51  -9.6698258921780      5.329E-15 2.652E-08 0.000E+00
 ETOT 52  -9.6698258921780     -7.105E-15 3.386E-08 0.000E+00
 ETOT 53  -9.6698258921781     -5.329E-15 1.791E-08 0.000E+00
 ETOT 54  -9.6698258921781      1.776E-15 2.284E-08 0.000E+00
 ETOT 55  -9.6698258921781     -1.776E-15 1.210E-08 0.000E+00
 ETOT 56  -9.6698258921781      1.776E-15 1.541E-08 0.000E+00
 ETOT 57  -9.6698258921781      1.776E-15 8.176E-09 0.000E+00
 ETOT 58  -9.6698258921780      1.776E-15 1.040E-08 0.000E+00
 ETOT 59  -9.6698258921781     -1.776E-15 5.524E-09 0.000E+00
 ETOT 60  -9.6698258921780      3.553E-15 7.015E-09 0.000E+00
 ETOT 61  -9.6698258921780      0.000E+00 3.733E-09 0.000E+00
[...]
 ETOT  185  -9.6698258921780     -1.776E-15 1.096E-19 0.000E+00
 ETOT  186  -9.6698258921780      5.329E-15 1.296E-19 0.000E+00
 ETOT  187  -9.6698258921780     -8.882E-15 7.412E-20 0.000E+00
 ETOT  188  -9.6698258921780      3.553E-15 8.760E-20 0.000E+00
 ETOT  189  -9.6698258921780      3.553E-15 5.014E-20 0.000E+00
 ETOT  190  -9.6698258921780      0.000E+00 5.919E-20 0.000E+00
 ETOT  191  -9.6698258921780     -3.553E-15 3.392E-20 0.000E+00
 ETOT  192  -9.6698258921780     -1.776E-15 4.000E-20 0.000E+00
 ETOT  193  -9.6698258921780      0.000E+00 2.295E-20 0.000E+00
 ETOT  194  -9.6698258921780      3.553E-15 2.703E-20 0.000E+00
 ETOT  195  -9.6698258921780     -3.553E-15 1.553E-20 0.000E+00
 ETOT  196  -9.6698258921780      1.243E-14 1.826E-20 0.000E+00
 ETOT  197  -9.6698258921780     -1.776E-15 1.050E-20 0.000E+00
 ETOT  198  -9.6698258921780     -7.105E-15 1.234E-20 0.000E+00
 ETOT  199  -9.6698258921780     -1.776E-15 9.792E-21 0.000E+00

 At SCF step  199   max residual=  9.79E-21 < tolwfr=  1.00E-20 =>converged.

 ----iterations are completed or convergence reached----

 dfpt_looppert: DFPT cycle converged with prtwf=-1. Will skip output of the 1st-order WFK file.
 dfpt_looppert : ek2=    1.4347710077E+01
          f-sum rule ratio=    1.3520880856E+00
 prteigrs : about to open file /scratch/users/j/a/jabreu/flow_simple_6atoms/flow/w164/t1/tmpdata/tmp_1WF1_EIG
 Expectation of eigenvalue derivatives (hartree) for nkpt=   2  k points:
  (in case of degenerate eigenvalues, averaged derivative)
 kpt#   1, nband= 24, wtk=  0.50000, kpt=  0.0444  0.0444  0.0000 (reduced coord)
   0.00000   -0.00000    0.00000    0.00000   -0.00000   -0.00000    0.00000    0.00000
  -0.00000   -0.00000   -0.00000   -0.00000    0.00000   -0.00000   -0.00000   -0.00000
  -0.00000    0.00000   -0.00000    0.00000   -0.00000   -0.00000   -0.00001    0.00035
 prteigrs : prtvol=0 or 1, do not print more k-points.

 Eight components of 2nd-order total energy (hartree) are
 1,2,3: 0th-order hamiltonian combined with 1st-order wavefunctions
     kin0=   2.42581543E+01 eigvalue=  -1.11229439E+00  local=  -1.35977942E+01
 4,5,6: 1st-order hamiltonian combined with 1st and 0th-order wfs
     kin1=  -1.93993679E+01  Hartree=   0.00000000E+00     xc=   0.00000000E+00
 7,8,9: eventually, occupation + non-local contributions
    edocc=   3.72614503E+00     enl0=  -3.60438491E+00   enl1=   5.97160660E-02
 1-9 gives the relaxation energy (to be shifted if some occ is /=2.0)
   erelax=  -9.66982589E+00
  No Ewald or frozen-wf contrib.: the relaxation energy is the total one
 2DEtotal=   -0.9669825892E+01 Ha. Also 2DEtotal=   -0.263129344211E+03 eV
    (  non-var. 2DEtotal :   -9.6698258921E+00 Ha)

 CALCULATION OF EFFECTIVE MASSES
 NOTE : Additional infos (eff. mass eigenvalues, eigenvectors and, if degenerate, average mass) are available in stdout.

 K-point ( 0.044, 0.044, 0.000) | band =    15
 Effective mass tensor:
             -1.2652370820             -0.8186952038             -0.2514198468
             -0.8186952038             -2.2104801680              0.1451267047
             -0.2514198468              0.1451267047             -0.3525763006
 Effective mass tensor eigenvalues:
             -2.6831802425             -0.9367887981             -0.2083245100
 Angular average effective mass 1/(<1/m>)=  -0.4807405837
 Angular average effective mass for Frohlich model (<m**0.5>)**2=  -0.6510881043
 Effective masses along directions: (cart. coord. / red. coord. -> eff. mass)
    1:   1.000000  0.000000  0.000000 /   0.894427 -0.447214  0.000000 ->  -0.6905421380
    2:   0.000000  1.000000  0.000000 /   0.000000  1.000000  0.000000 ->  -1.3676295112
    3:   0.000000  0.000000  1.000000 /   0.000000  0.000000  1.000000 ->  -0.2462422138
    4:   0.577350  0.577350  0.577350 /   0.515587  0.188718  0.835796 ->  -0.7673539712
    5:   0.000000  0.707107  0.707107 /   0.000000  0.471207  0.882023 ->  -0.3184849144
    6:   0.707107  0.000000  0.707107 /   0.507815 -0.253908  0.823198 ->  -0.6819659830
    7:   0.707107  0.707107  0.000000 /   0.939071  0.343724  0.000000 ->  -2.1333774979

 K-point ( 0.500, 0.000, 0.500) | band =    16
 Effective mass tensor:
              0.7990166290              0.3499873662              0.5792934829
              0.3499873662              0.3948860288              0.3344552483
              0.5792934829              0.3344552483              0.7198513265
 Effective mass tensor eigenvalues:
              0.1769361491              0.1928207287              1.5439971066
 Angular average effective mass 1/(<1/m>)=   0.2611968485
 Angular average effective mass for Frohlich model (<m**0.5>)**2=   0.3109829642
 Effective masses along directions: (cart. coord. / red. coord. -> eff. mass)
    1:   1.000000  0.000000  0.000000 /   0.894427 -0.447214  0.000000 ->   0.3055499631
    2:   0.000000  1.000000  0.000000 /   0.000000  1.000000  0.000000 ->   0.2198588860
    3:   0.000000  0.000000  1.000000 /   0.000000  0.000000  1.000000 ->   0.2728936506
    4:   0.577350  0.577350  0.577350 /   0.515587  0.188718  0.835796 ->   1.1597737046
    5:   0.000000  0.707107  0.707107 /   0.000000  0.471207  0.882023 ->   0.3469646597
    6:   0.707107  0.000000  0.707107 /   0.507815 -0.253908  0.823198 ->   0.7417724677
    7:   0.707107  0.707107  0.000000 /   0.939071  0.343724  0.000000 ->   0.3563930667

 END OF EFFECTIVE MASSES SECTION

 ---- first-order wavefunction calculations are completed ----

 Total localisation tensor (bohr^2) in cartesian coordinates
  WARNING : still subject to testing - especially symmetries.
      direction              matrix element
   alpha     beta       real part   imaginary part
     1        1       5.5023781607    0.0000000000
     1        2      -2.4099890675    0.0000000000
     1        3       0.0000000000    0.0000000000
     2        1      -2.4099890675    0.0000000000
     2        2       4.1742235106    0.0000000000
     2        3       0.0000000000    0.0000000000
     3        1       0.0000000000    0.0000000000
     3        2       0.0000000000    0.0000000000
     3        3       4.6472904763    0.0000000000

 respfn : d/dk was computed, but no 2DTE, so no DDB output.

== END DATASET(S) ==============================================================

 -outvars: echo values of variables after computation  --------
            acell      1.0000000000E+00  1.0000000000E+00  1.0000000000E+00 Bohr
              amu      6.94100000E+00  1.38905500E+02  3.09737620E+01
             ecut      5.20000000E+01 Hartree
           etotal     -9.6698258922E+00
            fcart      0.0000000000E+00  0.0000000000E+00  0.0000000000E+00
                       0.0000000000E+00  0.0000000000E+00  0.0000000000E+00
                       0.0000000000E+00  0.0000000000E+00  0.0000000000E+00
                       0.0000000000E+00  0.0000000000E+00  0.0000000000E+00
                       0.0000000000E+00  0.0000000000E+00  0.0000000000E+00
                       0.0000000000E+00  0.0000000000E+00  0.0000000000E+00
-          fftalg         512
           irdden           1
           irdwfk           1
           istwfk        0    1
              ixc     -116133
              kpt      4.44444444E-02  4.44444444E-02  0.00000000E+00
                       5.00000000E-01  0.00000000E+00  5.00000000E-01
           kptopt           0
P           mkmem           2
P          mkqmem           2
P          mk1mem           2
            natom           6
            nband          24
           nbdbuf           4
            ngfft          54      54      90
             nkpt           2
            nstep        1000
             nsym          12
           ntypat           3
              occ      2.000000  2.000000  2.000000  2.000000  2.000000  2.000000
                       2.000000  2.000000  2.000000  2.000000  2.000000  2.000000
                       2.000000  2.000000  2.000000  0.000000  0.000000  0.000000
                       0.000000  0.000000  0.000000  0.000000  0.000000  0.000000
        optdriver           1
            prtwf          -1
            rfdir           1       1       1
           rfelfd           2
            rprim      7.9262150818E+00  0.0000000000E+00  0.0000000000E+00
                      -3.9631075409E+00  6.8643036167E+00  0.0000000000E+00
                       0.0000000000E+00  0.0000000000E+00  1.2848848174E+01
          spgroup         164
           strten      0.0000000000E+00  0.0000000000E+00  0.0000000000E+00
                       0.0000000000E+00  0.0000000000E+00  0.0000000000E+00
           symrel      1  0  0   0  1  0   0  0  1      -1  0  0   0 -1  0   0  0 -1
                      -1  0  0   1  1  0   0  0  1       1  0  0  -1 -1  0   0  0 -1
                       0  1  0  -1 -1  0   0  0  1       0 -1  0   1  1  0   0  0 -1
                       0 -1  0  -1  0  0   0  0  1       0  1  0   1  0  0   0  0 -1
                      -1 -1  0   1  0  0   0  0  1       1  1  0  -1  0  0   0  0 -1
                       1  1  0   0 -1  0   0  0  1      -1 -1  0   0  1  0   0  0 -1
           tolwfr      1.00000000E-20
            typat      1  1  1  2  3  3
           useylm           1
              wtk        0.50000    0.50000
           xangst      0.0000000000E+00  0.0000000000E+00  3.3996588051E+00
                       0.0000000000E+00  2.4216220179E+00  2.4500185125E+00
                       2.0971861858E+00  1.2108110089E+00  4.3492990978E+00
                       0.0000000000E+00  0.0000000000E+00  0.0000000000E+00
                       2.0971861858E+00  1.2108110089E+00  1.7748734710E+00
                       0.0000000000E+00  2.4216220179E+00  5.0244441392E+00
            xcart      0.0000000000E+00  0.0000000000E+00  6.4244240870E+00
                       0.0000000000E+00  4.5762024111E+00  4.6298640090E+00
                       3.9631075409E+00  2.2881012056E+00  8.2189841649E+00
                       0.0000000000E+00  0.0000000000E+00  0.0000000000E+00
                       3.9631075409E+00  2.2881012056E+00  3.3540247808E+00
                       0.0000000000E+00  4.5762024111E+00  9.4948233931E+00
             xred      0.0000000000E+00  0.0000000000E+00  5.0000000000E-01
                       3.3333333333E-01  6.6666666667E-01  3.6033300000E-01
                       6.6666666667E-01  3.3333333333E-01  6.3966700000E-01
                       0.0000000000E+00  0.0000000000E+00  0.0000000000E+00
                       6.6666666667E-01  3.3333333333E-01  2.6103700000E-01
                       3.3333333333E-01  6.6666666667E-01  7.3896300000E-01
            znucl        3.00000   57.00000   15.00000

- Timing analysis has been suppressed with timopt=0

 Suggested references for the acknowledgment of ABINIT usage.

 Calculation completed.
.Delivered  14 WARNINGs and   9 COMMENTs to log file.