.Version 9.5.1 of ABINIT

 ABINIT is a project of the Universite Catholique de Louvain,
 Corning Inc. and other collaborators, see ~abinit/doc/developers/contributors.txt .
 acknowledgments of the ABINIT effort.

.Starting date : Sun 25 Apr 2021.
- ( at 17h22 )

- input  file    -> /scratch/users/j/a/jabreu/flow_simple2/flow/w206/t1/run.abi
- output file    -> /scratch/users/j/a/jabreu/flow_simple2/flow/w206/t1/run.abo
- root for input  files -> /scratch/users/j/a/jabreu/flow_simple2/flow/w206/t1/indata/in
- root for output files -> /scratch/users/j/a/jabreu/flow_simple2/flow/w206/t1/outdata/out

 Symmetries : space group F-4 3 m (#216); Bravais cF (face-center cubic)
     intxc =       0      iscf =       7    lmnmax =      18     lnmax =       6
     mgfft =      36  mpssoang =       3    mqgrid =    3001     natom =       2
  nloc_mem =       1    nspden =       1   nspinor =       1    nsppol =       1
      nsym =      24    n1xccc =    2501    ntypat =       2    occopt =       1
   xclevel =       2
-    mband =          18        mffmem =           1         mkmem =           1
-   mkqmem =           1        mk1mem =           1           mpw =        1989
      nfft =       46656          nkpt =           1
  Rough estimation (10% accuracy) of disk space for files :

------------- Echo of variables that govern the present computation ------------
-
- outvars: echo of selected default values
-   iomode0 =  0 , fftalg0 =512 , wfoptalg0 =  0
-
- outvars: echo of global parameters not present in the input file
-  max_nthreads =    0
-
 -outvars: echo values of preprocessed input variables --------
            acell      1.0000000000E+00  1.0000000000E+00  1.0000000000E+00 Bohr
              amu      6.97230000E+01  1.40067400E+01
             ecut      4.20000000E+01 Hartree
-          fftalg         512
           irdden           1
           irdwfk           1
           istwfk        1
              ixc     -116133
           kptopt           0
P           mkmem           1
P          mkqmem           1
P          mk1mem           1
            natom           2
            nband          18
           nbdbuf           4
            ngfft          36      36      36
             nkpt           1
            nstep         100
             nsym          24
           ntypat           2
              occ      2.000000  2.000000  2.000000  2.000000  2.000000  2.000000
                       2.000000  2.000000  2.000000  0.000000  0.000000  0.000000
                       0.000000  0.000000  0.000000  0.000000  0.000000  0.000000
        optdriver           1
            prtwf          -1
            rfdir           1       1       1
           rfelfd           2
            rprim      5.2067770491E+00  0.0000000000E+00  3.0061341309E+00
                       1.7355923497E+00  4.9089964794E+00  3.0061341309E+00
                       0.0000000000E+00  0.0000000000E+00  6.0122682618E+00
          spgroup         216
           symrel      1  0  0   0  1  0   0  0  1       0 -1  1   0 -1  0   1 -1  0
                      -1  0  0  -1  0  1  -1  1  0       0  1 -1   1  0 -1   0  0 -1
                      -1  0  0  -1  1  0  -1  0  1       0 -1  1   1 -1  0   0 -1  0
                       1  0  0   0  0  1   0  1  0       0  1 -1   0  0 -1   1  0 -1
                      -1  0  1  -1  1  0  -1  0  0       0 -1  0   1 -1  0   0 -1  1
                       1  0 -1   0  0 -1   0  1 -1       0  1  0   0  0  1   1  0  0
                       1  0 -1   0  1 -1   0  0 -1       0 -1  0   0 -1  1   1 -1  0
                      -1  0  1  -1  0  0  -1  1  0       0  1  0   1  0  0   0  0  1
                       0  0 -1   0  1 -1   1  0 -1       1 -1  0   0 -1  1   0 -1  0
                       0  0  1   1  0  0   0  1  0      -1  1  0  -1  0  0  -1  0  1
                       0  0  1   0  1  0   1  0  0       1 -1  0   0 -1  0   0 -1  1
                       0  0 -1   1  0 -1   0  1 -1      -1  1  0  -1  0  1  -1  0  0
           tolwfr      1.00000000E-20
            typat      1  2
           useylm           1
           xangst      0.0000000000E+00  0.0000000000E+00  0.0000000000E+00
                       2.7553077446E+00  1.9482967905E+00  4.7723330041E+00
            xcart      0.0000000000E+00  0.0000000000E+00  0.0000000000E+00
                       5.2067770491E+00  3.6817473596E+00  9.0184023927E+00
             xred      0.0000000000E+00  0.0000000000E+00  0.0000000000E+00
                       7.5000000000E-01  7.5000000000E-01  7.5000000000E-01
            znucl       31.00000    7.00000

 chkinp: Checking input parameters for consistency.

== DATASET  1 ==================================================================
-   mpi_nproc: 1, omp_nthreads: -1 (-1 if OMP is not activated)

--- !DatasetInfo
iteration_state: {dtset: 1, }
dimensions: {natom: 2, nkpt: 1, mband: 18, nsppol: 1, nspinor: 1, nspden: 1, mpw: 1989, }
cutoff_energies: {ecut:  42.0, pawecutdg:  -1.0, }
electrons: {nelect:   1.80000000E+01, charge:   0.00000000E+00, occopt:   1.00000000E+00, tsmear:   1.00000000E-02, }
meta: {optdriver: 1, rfelfd: 2, }
...

 Real(R)+Recip(G) space primitive vectors, cartesian coordinates (Bohr,Bohr^-1):
 R(1)=  5.2067770  0.0000000  3.0061341  G(1)=  0.1920574 -0.0679025  0.0000000
 R(2)=  1.7355923  4.9089965  3.0061341  G(2)=  0.0000000  0.2037076  0.0000000
 R(3)=  0.0000000  0.0000000  6.0122683  G(3)= -0.0960287 -0.0679025  0.1663266
 Unit cell volume ucvol=  1.5367388E+02 bohr^3
 Angles (23,13,12)=  6.00000000E+01  6.00000000E+01  6.00000000E+01 degrees

 getcut: wavevector=  0.0000  0.0000  0.0000  ngfft=  36  36  36
         ecut(hartree)=     42.000   => boxcut(ratio)=   2.05246

--- Pseudopotential description ------------------------------------------------
- pspini: atom type   1  psp file is /scratch/users/j/a/jabreu/pseudos/PBEsol/Ga.psp8
- pspatm: opening atomic psp file    /scratch/users/j/a/jabreu/pseudos/PBEsol/Ga.psp8
- Ga    ONCVPSP-3.3.0  r_core=   1.66857   1.75011   1.90252
- 31.00000  13.00000    180112                znucl, zion, pspdat
    8 -116133    2    4       600   0.00000   pspcod,pspxc,lmax,lloc,mmax,r2well
    5.99000000000000    5.00000000000000    0.00000000000000   rchrg,fchrg,qchrg
     nproj     2     2     2
     extension_switch     1
  pspatm : epsatm=   24.50969055
         --- l  ekb(1:nproj) -->
             0    7.053021    1.156713
             1    6.846070    1.293139
             2   -8.368667   -2.819170
 pspatm: atomic psp has been read  and splines computed

- pspini: atom type   2  psp file is /scratch/users/j/a/jabreu/pseudos/PBEsol/N.psp8
- pspatm: opening atomic psp file    /scratch/users/j/a/jabreu/pseudos/PBEsol/N.psp8
- N     ONCVPSP-3.3.0  r_core=   1.20551   1.35824
-  7.00000   5.00000    180112                znucl, zion, pspdat
    8 -116133    1    4       600   0.00000   pspcod,pspxc,lmax,lloc,mmax,r2well
    5.99000000000000    4.00000000000000    0.00000000000000   rchrg,fchrg,qchrg
     nproj     2     2
     extension_switch     1
  pspatm : epsatm=    5.26508895
         --- l  ekb(1:nproj) -->
             0    7.464189    0.625868
             1   -4.309714   -1.012941
 pspatm: atomic psp has been read  and splines computed

   5.35946031E+02                                ecore*ucvol(ha*bohr**3)

-inwffil : will read wavefunctions from disk file /scratch/users/j/a/jabreu/flow_simple2/flow/w206/t1/indata/in_WFK

 ==>  initialize data related to q vector <==

 The list of irreducible perturbations for this q vector is:
    1)    idir= 1    ipert=   3
    2)    idir= 2    ipert=   3
    3)    idir= 3    ipert=   3

 Perturbation wavevector (in red.coord.)   0.000000  0.000000  0.000000
 Perturbation : derivative vs k along direction   1

 dfpt_looppert : COMMENT -
  In a d/dk calculation, iscf is set to -3 automatically.
 The set of symmetries contains only one element for this perturbation.
 symkpt : not enough symmetry to change the number of k points.

[...]

 Initialisation of the first-order wave-functions :
  ireadwf=   0

--- !BeginCycle
iteration_state: {dtset: 1, }
solver: {iscf: 7, nstep: 100, nline: 4, wfoptalg: 0, }
tolerances: {tolwfr: 1.00E-20, }
...

     iter   2DEtotal(Ha)        deltaE(Ha) residm    vres2
-ETOT  1  -88.596074408142     -8.860E+01 8.179E-02 0.000E+00
 ETOT  2  -88.635739722935     -3.967E-02 6.876E-05 0.000E+00
 ETOT  3  -88.635764140503     -2.442E-05 1.041E-07 0.000E+00
 ETOT  4  -88.635764170076     -2.957E-08 1.710E-10 0.000E+00
 ETOT  5  -88.635764170134     -5.797E-11 1.208E-12 0.000E+00
 ETOT  6  -88.635764170134     -2.842E-14 4.620E-15 0.000E+00
 ETOT  7  -88.635764170134     -1.137E-13 9.522E-16 0.000E+00
 ETOT  8  -88.635764170134     -4.263E-14 2.504E-17 0.000E+00
 ETOT  9  -88.635764170134     -2.842E-14 5.409E-18 0.000E+00
 ETOT 10  -88.635764170134      4.263E-14 1.409E-19 0.000E+00
 ETOT 11  -88.635764170134     -2.842E-14 3.498E-20 0.000E+00
 ETOT 12  -88.635764170134     -1.421E-14 9.776E-21 0.000E+00

 At SCF step   12   max residual=  9.78E-21 < tolwfr=  1.00E-20 =>converged.

 ----iterations are completed or convergence reached----

 dfpt_looppert: DFPT cycle converged with prtwf=-1. Will skip output of the 1st-order WFK file.
 dfpt_looppert : ek2=    5.8976201343E+01
          f-sum rule ratio=    2.0644226292E+00
 prteigrs : about to open file /scratch/users/j/a/jabreu/flow_simple2/flow/w206/t1/tmpdata/tmp_1WF1_EIG
 Expectation of eigenvalue derivatives (hartree) for nkpt=   1  k points:
  (in case of degenerate eigenvalues, averaged derivative)
 kpt#   1, nband= 18, wtk=  1.00000, kpt=  0.0000  0.0000  0.0000 (reduced coord)
  -0.00000    0.00000    0.00000    0.00000   -0.00000   -0.00000   -0.00000   -0.00000
  -0.00000   -0.00000    0.00000    0.00000    0.00000    0.00000   -0.00001   -0.00001
  -0.00001   -0.00000

 Eight components of 2nd-order total energy (hartree) are
 1,2,3: 0th-order hamiltonian combined with 1st-order wavefunctions
     kin0=   6.79914364E+01 eigvalue=   1.64005850E+00  local=  -2.15093606E+01
 4,5,6: 1st-order hamiltonian combined with 1st and 0th-order wfs
     kin1=  -1.21751805E+02  Hartree=   0.00000000E+00     xc=   0.00000000E+00
 7,8,9: eventually, occupation + non-local contributions
    edocc=   3.55988430E+01     enl0=   4.91478688E+00   enl1=  -5.55197237E+01
 1-9 gives the relaxation energy (to be shifted if some occ is /=2.0)
   erelax=  -8.86357642E+01
  No Ewald or frozen-wf contrib.: the relaxation energy is the total one
 2DEtotal=   -0.8863576417E+02 Ha. Also 2DEtotal=   -0.241190180256E+04 eV
    (  non-var. 2DEtotal :   -8.8635764170E+01 Ha)

 Perturbation wavevector (in red.coord.)   0.000000  0.000000  0.000000
 Perturbation : derivative vs k along direction   2
 The set of symmetries contains only one element for this perturbation.
 symkpt : not enough symmetry to change the number of k points.

[...]

 Perturbation wavevector (in red.coord.)   0.000000  0.000000  0.000000
 Perturbation : derivative vs k along direction   3
 The set of symmetries contains only one element for this perturbation.
 symkpt : not enough symmetry to change the number of k points.

-inwffil : will read wavefunctions from disk file /scratch/users/j/a/jabreu/flow_simple2/flow/w206/t1/indata/in_WFK

 Initialisation of the first-order wave-functions :
  ireadwf=   0

--- !BeginCycle
iteration_state: {dtset: 1, }
solver: {iscf: 7, nstep: 100, nline: 4, wfoptalg: 0, }
tolerances: {tolwfr: 1.00E-20, }
...

     iter   2DEtotal(Ha)        deltaE(Ha) residm    vres2
-ETOT  1  -88.593204513851     -8.859E+01 8.205E-02 0.000E+00
 ETOT  2  -88.635734981871     -4.253E-02 7.093E-05 0.000E+00
 ETOT  3  -88.635764597645     -2.962E-05 7.883E-08 0.000E+00
 ETOT  4  -88.635764633488     -3.584E-08 1.926E-10 0.000E+00
 ETOT  5  -88.635764633551     -6.389E-11 8.906E-13 0.000E+00
 ETOT  6  -88.635764633552     -1.847E-13 1.212E-14 0.000E+00
 ETOT  7  -88.635764633552      7.105E-14 2.171E-16 0.000E+00
 ETOT  8  -88.635764633552     -7.105E-14 2.742E-17 0.000E+00
 ETOT  9  -88.635764633552      4.263E-14 5.924E-19 0.000E+00
 ETOT 10  -88.635764633552      1.421E-14 6.683E-20 0.000E+00
 ETOT 11  -88.635764633552      1.421E-14 7.839E-21 0.000E+00

 At SCF step   11   max residual=  7.84E-21 < tolwfr=  1.00E-20 =>converged.

 ----iterations are completed or convergence reached----

 dfpt_looppert: DFPT cycle converged with prtwf=-1. Will skip output of the 1st-order WFK file.
 dfpt_looppert : ek2=    5.8976201344E+01
          f-sum rule ratio=    2.0644226575E+00
 prteigrs : about to open file /scratch/users/j/a/jabreu/flow_simple2/flow/w206/t1/tmpdata/tmp_1WF1_EIG
 Expectation of eigenvalue derivatives (hartree) for nkpt=   1  k points:
  (in case of degenerate eigenvalues, averaged derivative)
 kpt#   1, nband= 18, wtk=  1.00000, kpt=  0.0000  0.0000  0.0000 (reduced coord)
   0.00000   -0.00000   -0.00000   -0.00000    0.00000    0.00000   -0.00000   -0.00000
  -0.00000   -0.00000   -0.00000   -0.00000   -0.00000   -0.00000   -0.00000   -0.00000
  -0.00000    0.00000

 Eight components of 2nd-order total energy (hartree) are
 1,2,3: 0th-order hamiltonian combined with 1st-order wavefunctions
     kin0=   6.79914150E+01 eigvalue=   1.64005969E+00  local=  -2.15093553E+01
 4,5,6: 1st-order hamiltonian combined with 1st and 0th-order wfs
     kin1=  -1.21751806E+02  Hartree=   0.00000000E+00     xc=   0.00000000E+00
 7,8,9: eventually, occupation + non-local contributions
    edocc=   3.55988492E+01     enl0=   4.91479603E+00   enl1=  -5.55197230E+01
 1-9 gives the relaxation energy (to be shifted if some occ is /=2.0)
   erelax=  -8.86357646E+01
  No Ewald or frozen-wf contrib.: the relaxation energy is the total one
 2DEtotal=   -0.8863576463E+02 Ha. Also 2DEtotal=   -0.241190181517E+04 eV
    (  non-var. 2DEtotal :   -8.8635764633E+01 Ha)

 CALCULATION OF EFFECTIVE MASSES
 NOTE : Additional infos (eff. mass eigenvalues, eigenvectors and, if degenerate, average mass) are available in stdout.

 COMMENTS:
 - At k-point ( 0.000, 0.000, 0.000), bands     7 through     9
   are DEGENERATE (effective mass tensor is therefore not defined).
   See Section IIIB Eqs. (67)-(70) and Appendix E of PRB 93 205147 (2016).
 - Angular average effective mass for Frohlich model is to be averaged over degenerate bands. See later.
 - Associated theta integrals calculated with ntheta=   1000 points.

 K-point ( 0.000, 0.000, 0.000) | band =     7
 Transport equivalent effective mass tensor:
             -0.1461342279              0.0000000005             -0.0000000005
              0.0000000005             -0.1461342288             -0.0000000003
             -0.0000000005             -0.0000000003             -0.1461342262
 Transport equivalent effective mass tensor eigenvalues:
             -0.1461342290             -0.1461342279             -0.1461342260
 Angular average effective mass 1/(<1/m>)=  -0.1425736961
 Angular average effective mass for Frohlich model (<m**0.5>)**2=  -0.1428151471
 Effective masses along directions: (cart. coord. / red. coord. -> eff. mass)
    1:   1.000000  0.000000  0.000000 /   0.948683  0.316228  0.000000 ->  -0.1386111239
    2:   0.000000  1.000000  0.000000 /   0.000000  1.000000  0.000000 ->  -0.1332540634
    3:   0.000000  0.000000  1.000000 /   0.408248  0.408248  0.816497 ->  -0.1392033316
    4:   0.577350  0.577350  0.577350 /   0.585539  0.688047  0.428644 ->  -0.1385082629
    5:   0.000000  0.707107  0.707107 /   0.289489  0.762222  0.578977 ->  -0.1466004373
    6:   0.707107  0.000000  0.707107 /   0.731423  0.422287  0.535439 ->  -0.1389052018
    7:   0.707107  0.707107  0.000000 /   0.616798  0.787122  0.000000 ->  -0.1575517729

[...]

 K-point ( 0.000, 0.000, 0.000) | band =     9
 Transport equivalent effective mass tensor:
            -15.2753883220              0.0000167367             -0.0000000405
              0.0000167367            -15.2753831992             -0.0000000198
             -0.0000000405             -0.0000000198            -15.2753681527
 Transport equivalent effective mass tensor eigenvalues:
            -15.2754026922            -15.2753688315            -15.2753681502
 Angular average effective mass 1/(<1/m>)=  -1.9489862122
 Angular average effective mass for Frohlich model (<m**0.5>)**2=  -2.2860248056
 Effective masses along directions: (cart. coord. / red. coord. -> eff. mass)
    1:   1.000000  0.000000  0.000000 /   0.948683  0.316228  0.000000 ->  -2.0801401411
    2:   0.000000  1.000000  0.000000 /   0.000000  1.000000  0.000000 ->  -1.9553057359
    3:   0.000000  0.000000  1.000000 /   0.408248  0.408248  0.816497 ->  -5.2437423156
    4:   0.577350  0.577350  0.577350 /   0.585539  0.688047  0.428644 ->  -2.4844966439
    5:   0.000000  0.707107  0.707107 /   0.289489  0.762222  0.578977 ->  -1.7293536540
    6:   0.707107  0.000000  0.707107 /   0.731423  0.422287  0.535439 ->  -3.3076289429
    7:   0.707107  0.707107  0.000000 /   0.616798  0.787122  0.000000 ->  -0.9480169555

 Angular average effective mass for Frohlich model, averaged over degenerate bands.
 Value of     (<<m**0.5>>)**2 =     9.348085E-01
 Absolute Value of <<m**0.5>> =     9.668550E-01

 K-point ( 0.000, 0.000, 0.000) | band =    10
 Effective mass tensor:
              0.1566065979              0.0000000020             -0.0000000044
              0.0000000020              0.1566065977             -0.0000000039
             -0.0000000044             -0.0000000039              0.1566065978
 Effective mass tensor eigenvalues:
              0.1566065929              0.1566065958              0.1566066048
 Angular average effective mass 1/(<1/m>)=   0.1566065978
 Angular average effective mass for Frohlich model (<m**0.5>)**2=   0.1566065978
 Effective masses along directions: (cart. coord. / red. coord. -> eff. mass)
    1:   1.000000  0.000000  0.000000 /   0.948683  0.316228  0.000000 ->   0.1566065979
    2:   0.000000  1.000000  0.000000 /   0.000000  1.000000  0.000000 ->   0.1566065977
    3:   0.000000  0.000000  1.000000 /   0.408248  0.408248  0.816497 ->   0.1566065978
    4:   0.577350  0.577350  0.577350 /   0.585539  0.688047  0.428644 ->   0.1566065936
    5:   0.000000  0.707107  0.707107 /   0.289489  0.762222  0.578977 ->   0.1566065939
    6:   0.707107  0.000000  0.707107 /   0.731423  0.422287  0.535439 ->   0.1566065935
    7:   0.707107  0.707107  0.000000 /   0.616798  0.787122  0.000000 ->   0.1566065999

 END OF EFFECTIVE MASSES SECTION

 ---- first-order wavefunction calculations are completed ----

 Total localisation tensor (bohr^2) in cartesian coordinates
  WARNING : still subject to testing - especially symmetries.
      direction              matrix element
   alpha     beta       real part   imaginary part
     1        1       7.3353722681    0.0000000000
     1        2       2.0747565853    0.0000000000
     1        3       5.0820949826    0.0000000000
     2        1       2.0747565853    0.0000000000
     2        2       5.8682978030    0.0000000000
     2        3       3.5935838190    0.0000000000
     3        1       5.0820949826    0.0000000000
     3        2       3.5935838190    0.0000000000
     3        3      13.2036701010    0.0000000000

 respfn : d/dk was computed, but no 2DTE, so no DDB output.

== END DATASET(S) ==============================================================

 -outvars: echo values of variables after computation  --------
            acell      1.0000000000E+00  1.0000000000E+00  1.0000000000E+00 Bohr
              amu      6.97230000E+01  1.40067400E+01
             ecut      4.20000000E+01 Hartree
           etotal     -8.8635764634E+01
            fcart      0.0000000000E+00  0.0000000000E+00  0.0000000000E+00
                       0.0000000000E+00  0.0000000000E+00  0.0000000000E+00
-          fftalg         512
           irdden           1
           irdwfk           1
           istwfk        1
              ixc     -116133
           kptopt           0
P           mkmem           1
P          mkqmem           1
P          mk1mem           1
            natom           2
            nband          18
           nbdbuf           4
            ngfft          36      36      36
             nkpt           1
            nstep         100
             nsym          24
           ntypat           2
              occ      2.000000  2.000000  2.000000  2.000000  2.000000  2.000000
                       2.000000  2.000000  2.000000  0.000000  0.000000  0.000000
                       0.000000  0.000000  0.000000  0.000000  0.000000  0.000000
        optdriver           1
            prtwf          -1
            rfdir           1       1       1
           rfelfd           2
            rprim      5.2067770491E+00  0.0000000000E+00  3.0061341309E+00
                       1.7355923497E+00  4.9089964794E+00  3.0061341309E+00
                       0.0000000000E+00  0.0000000000E+00  6.0122682618E+00
          spgroup         216
           strten      0.0000000000E+00  0.0000000000E+00  0.0000000000E+00
                       0.0000000000E+00  0.0000000000E+00  0.0000000000E+00
           symrel      1  0  0   0  1  0   0  0  1       0 -1  1   0 -1  0   1 -1  0
                      -1  0  0  -1  0  1  -1  1  0       0  1 -1   1  0 -1   0  0 -1
                      -1  0  0  -1  1  0  -1  0  1       0 -1  1   1 -1  0   0 -1  0
                       1  0  0   0  0  1   0  1  0       0  1 -1   0  0 -1   1  0 -1
                      -1  0  1  -1  1  0  -1  0  0       0 -1  0   1 -1  0   0 -1  1
                       1  0 -1   0  0 -1   0  1 -1       0  1  0   0  0  1   1  0  0
                       1  0 -1   0  1 -1   0  0 -1       0 -1  0   0 -1  1   1 -1  0
                      -1  0  1  -1  0  0  -1  1  0       0  1  0   1  0  0   0  0  1
                       0  0 -1   0  1 -1   1  0 -1       1 -1  0   0 -1  1   0 -1  0
                       0  0  1   1  0  0   0  1  0      -1  1  0  -1  0  0  -1  0  1
                       0  0  1   0  1  0   1  0  0       1 -1  0   0 -1  0   0 -1  1
                       0  0 -1   1  0 -1   0  1 -1      -1  1  0  -1  0  1  -1  0  0
           tolwfr      1.00000000E-20
            typat      1  2
           useylm           1
           xangst      0.0000000000E+00  0.0000000000E+00  0.0000000000E+00
                       2.7553077446E+00  1.9482967905E+00  4.7723330041E+00
            xcart      0.0000000000E+00  0.0000000000E+00  0.0000000000E+00
                       5.2067770491E+00  3.6817473596E+00  9.0184023927E+00
             xred      0.0000000000E+00  0.0000000000E+00  0.0000000000E+00
                       7.5000000000E-01  7.5000000000E-01  7.5000000000E-01
            znucl       31.00000    7.00000

- Timing analysis has been suppressed with timopt=0

 Suggested references for the acknowledgment of ABINIT usage.

 Calculation completed.
.Delivered   6 WARNINGs and   5 COMMENTs to log file.