.Version 9.7.2 of ABINIT

 ABINIT is a project of the Universite Catholique de Louvain,
 Corning Inc. and other collaborators, see ~abinit/doc/developers/contributors.txt .
 acknowledgments of the ABINIT effort.

.Starting date : Wed  1 Dec 2021.
- ( at 21h15 )

- input  file    -> /scratch/users/j/a/jabreu/flow_simple_remain_atoms/flow/w156/t1/run.abi
- output file    -> /scratch/users/j/a/jabreu/flow_simple_remain_atoms/flow/w156/t1/run.abo
- root for input  files -> /scratch/users/j/a/jabreu/flow_simple_remain_atoms/flow/w156/t1/indata/in
- root for output files -> /scratch/users/j/a/jabreu/flow_simple_remain_atoms/flow/w156/t1/outdata/out

 Symmetries : space group P-3 m 1 (#164); Bravais hP (primitive hexag.)
     intxc =       0      iscf =       7    lmnmax =      18     lnmax =       6
     mgfft =      80  mpssoang =       3    mqgrid =    3981     natom =       5
  nloc_mem =       1    nspden =       1   nspinor =       1    nsppol =       1
      nsym =      12    n1xccc =    2501    ntypat =       3    occopt =       1
   xclevel =       2
-    mband =          39        mffmem =           1         mkmem =           1
-   mkqmem =           1        mk1mem =           1           mpw =       10359
      nfft =      200000          nkpt =           1
  Rough estimation (10% accuracy) of disk space for files :

------------- Echo of variables that govern the present computation ------------
-
- outvars: echo of selected default values
-   iomode0 =  0 , fftalg0 =512 , wfoptalg0 =  0
-
- outvars: echo of global parameters not present in the input file
-  max_nthreads =    0
-
 -outvars: echo values of preprocessed input variables --------
            acell      1.0000000000E+00  1.0000000000E+00  1.0000000000E+00 Bohr
              amu      1.37327000E+02  1.07868200E+02  3.20660000E+01
             ecut      4.30000000E+01 Hartree
-          fftalg         512
           irdden           1
           irdwfk           1
           istwfk        1
              ixc     -116133
           kptopt           0
P           mkmem           1
P          mkqmem           1
P          mk1mem           1
            natom           5
            nband          39
           nbdbuf           4
            ngfft          50      50      80
             nkpt           1
            nstep        2000
             nsym          12
           ntypat           3
              occ      2.000000  2.000000  2.000000  2.000000  2.000000  2.000000
                       2.000000  2.000000  2.000000  2.000000  2.000000  2.000000
                       2.000000  2.000000  2.000000  2.000000  2.000000  2.000000
                       2.000000  2.000000  2.000000  2.000000  2.000000  2.000000
                       2.000000  2.000000  2.000000  2.000000  2.000000  2.000000
                       0.000000  0.000000  0.000000  0.000000  0.000000  0.000000
                       0.000000  0.000000  0.000000
        optdriver           1
            prtwf          -1
            rfdir           1       1       1
           rfelfd           2
            rprim      8.1414400908E+00  0.0000000000E+00  0.0000000000E+00
                      -4.0707200454E+00  7.0506939420E+00  0.0000000000E+00
                       0.0000000000E+00  0.0000000000E+00  1.3485196363E+01
          spgroup         164
           symrel      1  0  0   0  1  0   0  0  1      -1  0  0   0 -1  0   0  0 -1
                      -1  0  0   1  1  0   0  0  1       1  0  0  -1 -1  0   0  0 -1
                       0  1  0  -1 -1  0   0  0  1       0 -1  0   1  1  0   0  0 -1
                       0 -1  0  -1  0  0   0  0  1       0  1  0   1  0  0   0  0 -1
                      -1 -1  0   1  0  0   0  0  1       1  1  0  -1  0  0   0  0 -1
                       1  1  0   0 -1  0   0  0  1      -1 -1  0   0  1  0   0  0 -1
           tolwfr      1.00000000E-20
            typat      1  2  2  3  3
           useylm           1
           xangst      0.0000000000E+00  0.0000000000E+00  0.0000000000E+00
                      -4.7000377687E-16  2.4873776926E+00  2.6575823880E+00
                       2.1541322706E+00  1.2436888463E+00  4.4784761809E+00
                      -4.7000377687E-16  2.4873776926E+00  5.2853217790E+00
                       2.1541322706E+00  1.2436888463E+00  1.8507367898E+00
            xcart      0.0000000000E+00  0.0000000000E+00  0.0000000000E+00
                      -8.8817841970E-16  4.7004626280E+00  5.0221028888E+00
                       4.0707200454E+00  2.3502313140E+00  8.4630934745E+00
                      -8.8817841970E-16  4.7004626280E+00  9.9878106865E+00
                       4.0707200454E+00  2.3502313140E+00  3.4973856768E+00
             xred      0.0000000000E+00  0.0000000000E+00  0.0000000000E+00
                       3.3333333333E-01  6.6666666667E-01  3.7241600000E-01
                       6.6666666667E-01  3.3333333333E-01  6.2758400000E-01
                       3.3333333333E-01  6.6666666667E-01  7.4065000000E-01
                       6.6666666667E-01  3.3333333333E-01  2.5935000000E-01
            znucl       56.00000   47.00000   16.00000

 chkinp: Checking input parameters for consistency.

== DATASET  1 ==================================================================
-   mpi_nproc: 1, omp_nthreads: -1 (-1 if OMP is not activated)

--- !DatasetInfo
iteration_state: {dtset: 1, }
dimensions: {natom: 5, nkpt: 1, mband: 39, nsppol: 1, nspinor: 1, nspden: 1, mpw: 10359, }
cutoff_energies: {ecut:  43.0, pawecutdg:  -1.0, }
electrons: {nelect:   6.00000000E+01, charge:   0.00000000E+00, occopt:   1.00000000E+00, tsmear:   1.00000000E-02, }
meta: {optdriver: 1, rfelfd: 2, }
...

 Real(R)+Recip(G) space primitive vectors, cartesian coordinates (Bohr,Bohr^-1):
 R(1)=  8.1414401  0.0000000  0.0000000  G(1)=  0.1228284  0.0709150  0.0000000
 R(2)= -4.0707200  7.0506939  0.0000000  G(2)=  0.0000000  0.1418300  0.0000000
 R(3)=  0.0000000  0.0000000 13.4851964  G(3)=  0.0000000  0.0000000  0.0741554
 Unit cell volume ucvol=  7.7408806E+02 bohr^3
 Angles (23,13,12)=  9.00000000E+01  9.00000000E+01  1.20000000E+02 degrees

 getcut: wavevector=  0.0000  0.0000  0.0000  ngfft=  50  50  80
         ecut(hartree)=     43.000   => boxcut(ratio)=   2.00971

--- Pseudopotential description ------------------------------------------------
- pspini: atom type   1  psp file is /scratch/users/j/a/jabreu/pseudos/PBEsol/Ba.psp8
- pspatm: opening atomic psp file    /scratch/users/j/a/jabreu/pseudos/PBEsol/Ba.psp8
- Ba    ONCVPSP-3.3.0  r_core=   2.15444   1.91218   2.15444
- 56.00000  10.00000    180112                znucl, zion, pspdat
    8 -116133    2    4       600   0.00000   pspcod,pspxc,lmax,lloc,mmax,r2well
    5.99000000000000    5.00000000000000    0.00000000000000   rchrg,fchrg,qchrg
     nproj     2     2     2
     extension_switch     1
  pspatm : epsatm=   26.37418029
         --- l  ekb(1:nproj) -->
             0    6.652372    0.677024
             1    5.027722    0.408462
             2    2.543237    0.416854
 pspatm: atomic psp has been read  and splines computed

- pspini: atom type   2  psp file is /scratch/users/j/a/jabreu/pseudos/PBEsol/Ag.psp8
- pspatm: opening atomic psp file    /scratch/users/j/a/jabreu/pseudos/PBEsol/Ag.psp8
- Ag    ONCVPSP-3.3.0  r_core=   1.41384   1.46535   1.61207
- 47.00000  19.00000    180112                znucl, zion, pspdat
    8 -116133    2    4       600   0.00000   pspcod,pspxc,lmax,lloc,mmax,r2well
    5.99000000000000    7.00000000000000    0.00000000000000   rchrg,fchrg,qchrg
     nproj     2     2     2
     extension_switch     1
  pspatm : epsatm=   27.64581383
         --- l  ekb(1:nproj) -->
             0    9.559407   -0.398585
             1    3.418858   -0.136622
             2   -1.644397   -0.401551
 pspatm: atomic psp has been read  and splines computed

- pspini: atom type   3  psp file is /scratch/users/j/a/jabreu/pseudos/PBEsol/S.psp8
- pspatm: opening atomic psp file    /scratch/users/j/a/jabreu/pseudos/PBEsol/S.psp8
- S     ONCVPSP-3.3.0  r_core=   1.45376   1.45376   1.61851
- 16.00000   6.00000    180112                znucl, zion, pspdat
    8 -116133    2    4       600   0.00000   pspcod,pspxc,lmax,lloc,mmax,r2well
    5.99000000000000    6.00000000000000    0.00000000000000   rchrg,fchrg,qchrg
     nproj     2     2     2
     extension_switch     1
  pspatm : epsatm=    8.71840985
         --- l  ekb(1:nproj) -->
             0    6.834532    0.579453
             1    3.282851    0.896984
             2   -3.496974   -0.974265
 pspatm: atomic psp has been read  and splines computed

   5.94615766E+03                                ecore*ucvol(ha*bohr**3)

 ==>  initialize data related to q vector <==

 The list of irreducible perturbations for this q vector is:
    1)    idir= 1    ipert=   6
    2)    idir= 2    ipert=   6
    3)    idir= 3    ipert=   6

 Perturbation wavevector (in red.coord.)   0.000000  0.000000  0.000000
 Perturbation : derivative vs k along direction   1

 dfpt_looppert : COMMENT -
  In a d/dk calculation, iscf is set to -3 automatically.
 The set of symmetries contains only one element for this perturbation.
 symkpt : not enough symmetry to change the number of k points.

 Initialisation of the first-order wave-functions :
  ireadwf=   0

--- !BeginCycle
iteration_state: {dtset: 1, }
solver: {iscf: 7, nstep: 2000, nline: 4, wfoptalg: 0, }
tolerances: {tolwfr: 1.00E-20, }
...

     iter   2DEtotal(Ha)        deltaE(Ha) residm    vres2
-ETOT  1  -65.879567847543     -6.588E+01 7.081E-02 0.000E+00
 ETOT  2  -65.955175294738     -7.561E-02 4.692E-04 0.000E+00
 ETOT  3  -65.955721161536     -5.459E-04 7.249E-06 0.000E+00
 ETOT  4  -65.955728259156     -7.098E-06 6.819E-08 0.000E+00
 ETOT  5  -65.955728363866     -1.047E-07 1.535E-09 0.000E+00
 ETOT  6  -65.955728365522     -1.656E-09 1.656E-11 0.000E+00
 ETOT  7  -65.955728365550     -2.743E-11 3.966E-13 0.000E+00
 ETOT  8  -65.955728365550     -4.547E-13 7.589E-15 0.000E+00
 ETOT  9  -65.955728365550      9.948E-14 1.522E-16 0.000E+00
 ETOT 10  -65.955728365550     -1.847E-13 4.179E-18 0.000E+00
 ETOT 11  -65.955728365550      1.421E-14 8.625E-20 0.000E+00
 ETOT 12  -65.955728365550      0.000E+00 9.968E-21 0.000E+00

 At SCF step   12   max residual=  9.97E-21 < tolwfr=  1.00E-20 =>converged.

 ----iterations are completed or convergence reached----

 dfpt_looppert: DFPT cycle converged with prtwf=-1. Will skip output of the 1st-order WFK file.
 dfpt_looppert : ek2=    9.5296567165E+01
          f-sum rule ratio=    1.3775340252E+00
 prteigrs : about to open file /scratch/users/j/a/jabreu/flow_simple_remain_atoms/flow/w156/t1/tmpdata/tmp_1WF1_EIG
 Expectation of eigenvalue derivatives (hartree) for nkpt=   1  k points:
  (in case of degenerate eigenvalues, averaged derivative)
 kpt#   1, nband= 39, wtk=  1.00000, kpt=  0.0000  0.0000  0.0000 (reduced coord)
   0.00000    0.00000    0.00000   -0.00000   -0.00000   -0.00000   -0.00000   -0.00000
  -0.00000    0.00000   -0.00000    0.00000    0.00000    0.00000    0.00000    0.00000
  -0.00000   -0.00000   -0.00000    0.00000    0.00000    0.00000    0.00000    0.00000
   0.00000    0.00000    0.00000    0.00000    0.00000    0.00000    0.00000    0.00000
   0.00000    0.00000    0.00000    0.00000    0.00000    0.00059    0.00000

 Eight components of 2nd-order total energy (hartree) are
 1,2,3: 0th-order hamiltonian combined with 1st-order wavefunctions
     kin0=   7.05014956E+01 eigvalue=  -3.16374825E+00  local=  -3.46170924E+01
 4,5,6: 1st-order hamiltonian combined with 1st and 0th-order wfs
     kin1=  -1.31274264E+02  Hartree=   0.00000000E+00     xc=   0.00000000E+00
 7,8,9: eventually, occupation + non-local contributions
    edocc=   3.02007591E+01     enl0=   3.03431430E+00   enl1=  -6.37192977E-01
 1-9 gives the relaxation energy (to be shifted if some occ is /=2.0)
   erelax=  -6.59557284E+01
  No Ewald or frozen-wf contrib.: the relaxation energy is the total one
 2DEtotal=   -0.6595572837E+02 Ha. Also 2DEtotal=   -0.179474664232E+04 eV
    (  non-var. 2DEtotal :   -6.5955728365E+01 Ha)

 Perturbation wavevector (in red.coord.)   0.000000  0.000000  0.000000
 Perturbation : derivative vs k along direction   2
 The set of symmetries contains only one element for this perturbation.
 symkpt : not enough symmetry to change the number of k points.

[...]

 Perturbation wavevector (in red.coord.)   0.000000  0.000000  0.000000
 Perturbation : derivative vs k along direction   3
 The set of symmetries contains only one element for this perturbation.
 symkpt : not enough symmetry to change the number of k points.

 Initialisation of the first-order wave-functions :
  ireadwf=   0

--- !BeginCycle
iteration_state: {dtset: 1, }
solver: {iscf: 7, nstep: 2000, nline: 4, wfoptalg: 0, }
tolerances: {tolwfr: 1.00E-20, }
...

     iter   2DEtotal(Ha)        deltaE(Ha) residm    vres2
-ETOT  1  -15.355128974246     -1.536E+01 1.046E-02 0.000E+00
 ETOT  2  -15.365478216282     -1.035E-02 1.192E-04 0.000E+00
 ETOT  3  -15.365517015781     -3.880E-05 6.654E-07 0.000E+00
 ETOT  4  -15.365517338985     -3.232E-07 5.872E-09 0.000E+00
 ETOT  5  -15.365517342557     -3.572E-09 2.017E-10 0.000E+00
 ETOT  6  -15.365517342601     -4.319E-11 1.327E-12 0.000E+00
 ETOT  7  -15.365517342601     -5.631E-13 8.596E-14 0.000E+00
 ETOT  8  -15.365517342601     -5.329E-15 6.459E-16 0.000E+00
 ETOT  9  -15.365517342601      3.553E-15 4.607E-17 0.000E+00
 ETOT 10  -15.365517342601     -1.066E-14 3.818E-19 0.000E+00
 ETOT 11  -15.365517342601      1.599E-14 2.533E-20 0.000E+00
 ETOT 12  -15.365517342601      3.553E-15 9.922E-21 0.000E+00

 At SCF step   12   max residual=  9.92E-21 < tolwfr=  1.00E-20 =>converged.

 ----iterations are completed or convergence reached----

 dfpt_looppert: DFPT cycle converged with prtwf=-1. Will skip output of the 1st-order WFK file.
 dfpt_looppert : ek2=    2.6051122029E+01
          f-sum rule ratio=    1.1562114500E+00
 prteigrs : about to open file /scratch/users/j/a/jabreu/flow_simple_remain_atoms/flow/w156/t1/tmpdata/tmp_1WF1_EIG
 Expectation of eigenvalue derivatives (hartree) for nkpt=   1  k points:
  (in case of degenerate eigenvalues, averaged derivative)
 kpt#   1, nband= 39, wtk=  1.00000, kpt=  0.0000  0.0000  0.0000 (reduced coord)
  -0.00000   -0.00000    0.00000   -0.00000    0.00000    0.00000    0.00000    0.00000
  -0.00000   -0.00000    0.00000    0.00000    0.00000    0.00000   -0.00000   -0.00000
   0.00000    0.00000   -0.00000   -0.00000   -0.00000   -0.00000    0.00000    0.00000
   0.00000    0.00000    0.00000    0.00000    0.00000    0.00000   -0.00000   -0.00000
  -0.00000    0.00000    0.00000   -0.00000   -0.00000   -0.00004    0.00000

 Eight components of 2nd-order total energy (hartree) are
 1,2,3: 0th-order hamiltonian combined with 1st-order wavefunctions
     kin0=   1.78394041E+01 eigvalue=  -4.59841255E-01  local=  -8.77649902E+00
 4,5,6: 1st-order hamiltonian combined with 1st and 0th-order wfs
     kin1=  -3.01206056E+01  Hartree=   0.00000000E+00     xc=   0.00000000E+00
 7,8,9: eventually, occupation + non-local contributions
    edocc=   5.77091038E+00     enl0=   9.91543142E-01   enl1=  -6.10429111E-01
 1-9 gives the relaxation energy (to be shifted if some occ is /=2.0)
   erelax=  -1.53655173E+01
  No Ewald or frozen-wf contrib.: the relaxation energy is the total one
 2DEtotal=   -0.1536551734E+02 Ha. Also 2DEtotal=   -0.418116990617E+03 eV
    (  non-var. 2DEtotal :   -1.5365517342E+01 Ha)

 CALCULATION OF EFFECTIVE MASSES
 NOTE : Additional infos (eff. mass eigenvalues, eigenvectors and, if degenerate, average mass) are available in stdout.

 COMMENTS:
 - At k-point ( 0.000, 0.000, 0.000), bands    29 through    30
   are DEGENERATE (effective mass tensor is therefore not defined).
   See Section IIIB Eqs. (67)-(70) and Appendix E of PRB 93 205147 (2016).
 - Angular average effective mass for Frohlich model is to be averaged over degenerate bands. See later.
 - Associated theta integrals calculated with ntheta=   1000 points.

 K-point ( 0.000, 0.000, 0.000) | band =    29
 Transport equivalent effective mass tensor:
             -0.1438424874             -0.0000001349              0.0000000057
             -0.0000001349             -0.1438427278              0.0000012913
              0.0000000057              0.0000012913             -1.0724997827
 Transport equivalent effective mass tensor eigenvalues:
             -1.0724997827             -0.1438427883             -0.1438424269
 Angular average effective mass 1/(<1/m>)=  -0.1859989467
 Angular average effective mass for Frohlich model (<m**0.5>)**2=  -0.2183532771
 Effective masses along directions: (cart. coord. / red. coord. -> eff. mass)
    1:   1.000000  0.000000  0.000000 /   0.894427 -0.447214  0.000000 ->  -0.1326642871
    2:   0.000000  1.000000  0.000000 /   0.000000  1.000000  0.000000 ->  -0.1326643649
    3:   0.000000  0.000000  1.000000 /   0.000000  0.000000  1.000000 ->  -1.0266642513
    4:   0.577350  0.577350  0.577350 /   0.507835  0.185881  0.841161 ->  -0.1752160568
    5:   0.000000  0.707107  0.707107 /   0.000000  0.463338  0.886182 ->  -0.2664283132
    6:   0.707107  0.000000  0.707107 /   0.500404 -0.250202  0.828852 ->  -0.2308536234
    7:   0.707107  0.707107  0.000000 /   0.939071  0.343724  0.000000 ->  -0.1326644526

 K-point ( 0.000, 0.000, 0.000) | band =    30
 Transport equivalent effective mass tensor:
             -1.9257794843             -0.0000004865              0.0000005860
             -0.0000004865             -1.9257754939             -0.0000010730
              0.0000005860             -0.0000010730             -3.1885550326
 Transport equivalent effective mass tensor eigenvalues:
             -3.1885550326             -1.9257795428             -1.9257754354
 Angular average effective mass 1/(<1/m>)=  -1.0173271604
 Angular average effective mass for Frohlich model (<m**0.5>)**2=  -1.0770335292
 Effective masses along directions: (cart. coord. / red. coord. -> eff. mass)
    1:   1.000000  0.000000  0.000000 /   0.894427 -0.447214  0.000000 ->  -0.9735543347
    2:   0.000000  1.000000  0.000000 /   0.000000  1.000000  0.000000 ->  -0.9735543344
    3:   0.000000  0.000000  1.000000 /   0.000000  0.000000  1.000000 ->  -1.0266642514
    4:   0.577350  0.577350  0.577350 /   0.507835  0.185881  0.841161 ->  -1.5335074841
    5:   0.000000  0.707107  0.707107 /   0.000000  0.463338  0.886182 ->  -0.6652617879
    6:   0.707107  0.000000  0.707107 /   0.500404 -0.250202  0.828852 ->  -1.0813467132
    7:   0.707107  0.707107  0.000000 /   0.939071  0.343724  0.000000 ->  -0.9735543342

 Angular average effective mass for Frohlich model, averaged over degenerate bands.
 Value of     (<<m**0.5>>)**2 =     5.663203E-01
 Absolute Value of <<m**0.5>> =     7.525426E-01

 K-point ( 0.000, 0.000, 0.000) | band =    31
 Effective mass tensor:
              0.1359182294              0.0000000001              0.0000000009
              0.0000000001              0.1359182297              0.0000000001
              0.0000000009              0.0000000001              0.1851031299
 Effective mass tensor eigenvalues:
              0.1359182294              0.1359182297              0.1851031299
 Angular average effective mass 1/(<1/m>)=   0.1491266886
 Angular average effective mass for Frohlich model (<m**0.5>)**2=   0.1500233908
 Effective masses along directions: (cart. coord. / red. coord. -> eff. mass)
    1:   1.000000  0.000000  0.000000 /   0.894427 -0.447214  0.000000 ->   0.1359182294
    2:   0.000000  1.000000  0.000000 /   0.000000  1.000000  0.000000 ->   0.1359182297
    3:   0.000000  0.000000  1.000000 /   0.000000  0.000000  1.000000 ->   0.1851031299
    4:   0.577350  0.577350  0.577350 /   0.507835  0.185881  0.841161 ->   0.1491266892
    5:   0.000000  0.707107  0.707107 /   0.000000  0.463338  0.886182 ->   0.1567427773
    6:   0.707107  0.000000  0.707107 /   0.500404 -0.250202  0.828852 ->   0.1567427779
    7:   0.707107  0.707107  0.000000 /   0.939071  0.343724  0.000000 ->   0.1359182297

 END OF EFFECTIVE MASSES SECTION

 ---- first-order wavefunction calculations are completed ----

 Total localisation tensor (bohr^2) in cartesian coordinates
  WARNING : still subject to testing - especially symmetries.
      direction              matrix element
   alpha     beta       real part   imaginary part
     1        1       7.3927517167    0.0000000000
     1        2      -2.5609250156    0.0000000000
     1        3       0.0000000000    0.0000000000
     2        1      -2.5609250156    0.0000000000
     2        2       4.4356522414    0.0000000000
     2        3       0.0000000000    0.0000000000
     3        1       0.0000000000    0.0000000000
     3        2       0.0000000000    0.0000000000
     3        3       2.5850987161    0.0000000000

 respfn : d/dk was computed, but no 2DTE, so no DDB output.

== END DATASET(S) ==============================================================

 -outvars: echo values of variables after computation  --------
            acell      1.0000000000E+00  1.0000000000E+00  1.0000000000E+00 Bohr
              amu      1.37327000E+02  1.07868200E+02  3.20660000E+01
             ecut      4.30000000E+01 Hartree
           etotal     -1.5365517343E+01
            fcart      0.0000000000E+00  0.0000000000E+00  0.0000000000E+00
                       0.0000000000E+00  0.0000000000E+00  0.0000000000E+00
                       0.0000000000E+00  0.0000000000E+00  0.0000000000E+00
                       0.0000000000E+00  0.0000000000E+00  0.0000000000E+00
                       0.0000000000E+00  0.0000000000E+00  0.0000000000E+00
-          fftalg         512
           irdden           1
           irdwfk           1
           istwfk        1
              ixc     -116133
           kptopt           0
P           mkmem           1
P          mkqmem           1
P          mk1mem           1
            natom           5
            nband          39
           nbdbuf           4
            ngfft          50      50      80
             nkpt           1
            nstep        2000
             nsym          12
           ntypat           3
              occ      2.000000  2.000000  2.000000  2.000000  2.000000  2.000000
                       2.000000  2.000000  2.000000  2.000000  2.000000  2.000000
                       2.000000  2.000000  2.000000  2.000000  2.000000  2.000000
                       2.000000  2.000000  2.000000  2.000000  2.000000  2.000000
                       2.000000  2.000000  2.000000  2.000000  2.000000  2.000000
                       0.000000  0.000000  0.000000  0.000000  0.000000  0.000000
                       0.000000  0.000000  0.000000
        optdriver           1
            prtwf          -1
            rfdir           1       1       1
           rfelfd           2
            rprim      8.1414400908E+00  0.0000000000E+00  0.0000000000E+00
                      -4.0707200454E+00  7.0506939420E+00  0.0000000000E+00
                       0.0000000000E+00  0.0000000000E+00  1.3485196363E+01
          spgroup         164
           strten      0.0000000000E+00  0.0000000000E+00  0.0000000000E+00
                       0.0000000000E+00  0.0000000000E+00  0.0000000000E+00
           symrel      1  0  0   0  1  0   0  0  1      -1  0  0   0 -1  0   0  0 -1
                      -1  0  0   1  1  0   0  0  1       1  0  0  -1 -1  0   0  0 -1
                       0  1  0  -1 -1  0   0  0  1       0 -1  0   1  1  0   0  0 -1
                       0 -1  0  -1  0  0   0  0  1       0  1  0   1  0  0   0  0 -1
                      -1 -1  0   1  0  0   0  0  1       1  1  0  -1  0  0   0  0 -1
                       1  1  0   0 -1  0   0  0  1      -1 -1  0   0  1  0   0  0 -1
           tolwfr      1.00000000E-20
            typat      1  2  2  3  3
           useylm           1
           xangst      0.0000000000E+00  0.0000000000E+00  0.0000000000E+00
                      -4.7000377687E-16  2.4873776926E+00  2.6575823880E+00
                       2.1541322706E+00  1.2436888463E+00  4.4784761809E+00
                      -4.7000377687E-16  2.4873776926E+00  5.2853217790E+00
                       2.1541322706E+00  1.2436888463E+00  1.8507367898E+00
            xcart      0.0000000000E+00  0.0000000000E+00  0.0000000000E+00
                      -8.8817841970E-16  4.7004626280E+00  5.0221028888E+00
                       4.0707200454E+00  2.3502313140E+00  8.4630934745E+00
                      -8.8817841970E-16  4.7004626280E+00  9.9878106865E+00
                       4.0707200454E+00  2.3502313140E+00  3.4973856768E+00
             xred      0.0000000000E+00  0.0000000000E+00  0.0000000000E+00
                       3.3333333333E-01  6.6666666667E-01  3.7241600000E-01
                       6.6666666667E-01  3.3333333333E-01  6.2758400000E-01
                       3.3333333333E-01  6.6666666667E-01  7.4065000000E-01
                       6.6666666667E-01  3.3333333333E-01  2.5935000000E-01
            znucl       56.00000   47.00000   16.00000

- Timing analysis has been suppressed with timopt=0

 Suggested references for the acknowledgment of ABINIT usage.

 Calculation completed.
.Delivered   2 WARNINGs and   5 COMMENTs to log file.