.Version 9.5.2 of ABINIT

 ABINIT is a project of the Universite Catholique de Louvain,
 Corning Inc. and other collaborators, see ~abinit/doc/developers/contributors.txt .
 acknowledgments of the ABINIT effort.

.Starting date : Mon 24 May 2021.
- ( at 17h26 )

- input  file    -> /scratch/users/j/a/jabreu/flow_simple_10atoms/flow/w358/t1/run.abi
- output file    -> /scratch/users/j/a/jabreu/flow_simple_10atoms/flow/w358/t1/run.abo
- root for input  files -> /scratch/users/j/a/jabreu/flow_simple_10atoms/flow/w358/t1/indata/in
- root for output files -> /scratch/users/j/a/jabreu/flow_simple_10atoms/flow/w358/t1/outdata/out

 Symmetries : space group Ib a m (# 72); Bravais oI (body-center ortho.)
     intxc =       0      iscf =       7    lmnmax =      18     lnmax =       6
     mgfft =      96  mpssoang =       3    mqgrid =    3396     natom =      10
  nloc_mem =       1    nspden =       1   nspinor =       1    nsppol =       1
      nsym =       8    n1xccc =    2501    ntypat =       3    occopt =       1
   xclevel =       2
-    mband =          71        mffmem =           1         mkmem =           2
-   mkqmem =           2        mk1mem =           2           mpw =       26516
      nfft =      884736          nkpt =           2
  Rough estimation (10% accuracy) of disk space for files :

------------- Echo of variables that govern the present computation ------------
-
- outvars: echo of selected default values
-   iomode0 =  0 , fftalg0 =512 , wfoptalg0 =  0
-
- outvars: echo of global parameters not present in the input file
-  max_nthreads =    0
-
 -outvars: echo values of preprocessed input variables --------
            acell      1.0000000000E+00  1.0000000000E+00  1.0000000000E+00 Bohr
              amu      3.90983000E+01  7.26100000E+01  7.49215900E+01
             ecut      4.20000000E+01 Hartree
-          fftalg         512
           irdden           1
           irdwfk           1
              ixc     -116133
              kpt      5.00000000E-01  5.00000000E-01 -5.00000000E-01
                       3.45190538E-01  6.54809461E-01 -3.45190538E-01
           kptopt           0
P           mkmem           2
P          mkqmem           2
P          mk1mem           2
            natom          10
            nband          71
           nbdbuf           4
            ngfft          96      96      96
             nkpt           2
            nstep        2000
             nsym           8
           ntypat           3
              occ      2.000000  2.000000  2.000000  2.000000  2.000000  2.000000
                       2.000000  2.000000  2.000000  2.000000  2.000000  2.000000
                       2.000000  2.000000  2.000000  2.000000  2.000000  2.000000
                       2.000000  2.000000  2.000000  2.000000  2.000000  2.000000
                       2.000000  2.000000  2.000000  2.000000  2.000000  2.000000
                       2.000000  2.000000  2.000000  2.000000  2.000000  2.000000
                       2.000000  2.000000  2.000000  2.000000  2.000000  2.000000
                       2.000000  2.000000  2.000000  2.000000  2.000000  2.000000
                       2.000000  2.000000  2.000000  2.000000  2.000000  2.000000
                       2.000000  2.000000  2.000000  2.000000  2.000000  2.000000
                       2.000000  2.000000  0.000000  0.000000  0.000000  0.000000
                       0.000000  0.000000  0.000000  0.000000  0.000000
        optdriver           1
            prtwf          -1
            rfdir           1       1       1
           rfelfd           2
            rprim      1.1891467614E+01  0.0000000000E+00 -9.8823359314E+00
                      -2.3259028759E+00  1.1104515898E+01 -1.0504640306E+01
                       0.0000000000E+00  0.0000000000E+00  1.5461809903E+01
          spgroup          72
           symrel      1  0  0   0  1  0   0  0  1      -1  0  0   0 -1  0   0  0 -1
                       0  0  1  -1 -1 -1   1  0  0       0  0 -1   1  1  1  -1  0  0
                      -1 -1 -1   0  0  1   0  1  0       1  1  1   0  0 -1   0 -1  0
                       0  1  0   1  0  0  -1 -1 -1       0 -1  0  -1  0  0   1  1  1
            tnons      0.0000000  0.0000000  0.0000000     0.0000000 -0.0000000  0.0000000
                       0.0000000  0.5000000  0.5000000     0.0000000  0.5000000  0.5000000
                       0.0000000  0.0000000  0.0000000     0.0000000 -0.0000000 -0.0000000
                       0.0000000  0.5000000  0.5000000     0.0000000  0.5000000  0.5000000
           tolwfr      1.00000000E-20
            typat      1  1  1  1  2  2  3  3  3  3
           useylm           1
              wtk        0.50000    0.50000
           xangst     -2.8997547746E-01  2.1053687647E+00  3.3297612727E+00
                       5.3518543242E+00  3.7708879610E+00 -5.9360470453E+00
                       1.7601303635E+00  8.3275959814E-01 -1.0396053269E+00
                       3.3017484832E+00  5.0434971276E+00 -1.5666804457E+00
                       2.2232357255E+00  4.4071925443E+00 -4.7383562960E+00
                       2.8386431212E+00  1.4690641814E+00  2.1320705233E+00
                       4.7573706974E+00  6.1798682201E-01  8.4780994920E-01
                       3.0450814927E-01  5.2582699037E+00 -3.4540957219E+00
                       3.0772806074E+00  2.3201415408E+00 -3.7534710972E+00
                       1.9845982393E+00  3.5561151849E+00  1.1471853245E+00
            xcart     -5.4797423766E-01  3.9785703740E+00  6.2923368932E+00
                       1.0113538976E+01  7.1259455241E+00 -1.1217503228E+01
                       3.3261643451E+00  1.5736875750E+00 -1.9645693542E+00
                       6.2394003930E+00  9.5308283231E+00 -2.9605969802E+00
                       4.2013066501E+00  8.3283869236E+00 -8.9541957195E+00
                       5.3642580880E+00  2.7761289745E+00  4.0290293851E+00
                       8.9901277307E+00  1.1678258473E+00  1.6021286167E+00
                       5.7543700736E-01  9.9366900508E+00 -6.5272949511E+00
                       5.8152175820E+00  4.3844321017E+00 -7.0930324214E+00
                       3.7503471561E+00  6.7200837964E+00  2.1678660870E+00
             xred      2.3997000000E-02  3.5828400000E-01  6.6571300000E-01
                       9.7600300000E-01  6.4171600000E-01  3.3428700000E-01
                       3.0742900000E-01  1.4171600000E-01  1.6571300000E-01
                       6.9257100000E-01  8.5828400000E-01  8.3428700000E-01
                       5.0000000000E-01  7.5000000000E-01  2.5000000000E-01
                       5.0000000000E-01  2.5000000000E-01  7.5000000000E-01
                       7.7658500000E-01  1.0516675000E-01  6.7141825000E-01
                       2.2341500000E-01  8.9483325000E-01  3.2858175000E-01
                       5.6625150000E-01  3.9483325000E-01  1.7141825000E-01
                       4.3374850000E-01  6.0516675000E-01  8.2858175000E-01
            znucl       19.00000   32.00000   33.00000

 chkinp: Checking input parameters for consistency.

== DATASET  1 ==================================================================
-   mpi_nproc: 1, omp_nthreads: -1 (-1 if OMP is not activated)

--- !DatasetInfo
iteration_state: {dtset: 1, }
dimensions: {natom: 10, nkpt: 2, mband: 71, nsppol: 1, nspinor: 1, nspden: 1, mpw: 26516, }
cutoff_energies: {ecut:  42.0, pawecutdg:  -1.0, }
electrons: {nelect:   1.24000000E+02, charge:   0.00000000E+00, occopt:   1.00000000E+00, tsmear:   1.00000000E-02, }
meta: {optdriver: 1, rfelfd: 2, }
...

 Real(R)+Recip(G) space primitive vectors, cartesian coordinates (Bohr,Bohr^-1):
 R(1)= 11.8914676  0.0000000 -9.8823359  G(1)=  0.0840939  0.0176139  0.0000000
 R(2)= -2.3259029 11.1045159-10.5046403  G(2)=  0.0000000  0.0900535  0.0000000
 R(3)=  0.0000000  0.0000000 15.4618099  G(3)=  0.0537482  0.0724395  0.0646755
 Unit cell volume ucvol=  2.0417164E+03 bohr^3
 Angles (23,13,12)=  1.32796202E+02  1.29728081E+02  7.14254976E+01 degrees

 getcut: wavevector=  0.0000  0.0000  0.0000  ngfft=  96  96  96
         ecut(hartree)=     42.000   => boxcut(ratio)=   2.12851

--- Pseudopotential description ------------------------------------------------
- pspini: atom type   1  psp file is /scratch/users/j/a/jabreu/pseudos/PBEsol/K.psp8
- pspatm: opening atomic psp file    /scratch/users/j/a/jabreu/pseudos/PBEsol/K.psp8
- K     ONCVPSP-3.3.0  r_core=   1.36296   1.46408   1.61068
- 19.00000   9.00000    180112                znucl, zion, pspdat
    8 -116133    2    4       400   0.00000   pspcod,pspxc,lmax,lloc,mmax,r2well
    3.99000000000000    5.00000000000000    0.00000000000000   rchrg,fchrg,qchrg
     nproj     2     2     2
     extension_switch     1
  pspatm : epsatm=    8.32487830
         --- l  ekb(1:nproj) -->
             0   10.921326    0.816676
             1    4.431000    0.560368
             2   -3.384038   -1.043186
 pspatm: atomic psp has been read  and splines computed

- pspini: atom type   2  psp file is /scratch/users/j/a/jabreu/pseudos/PBEsol/Ge.psp8
- pspatm: opening atomic psp file    /scratch/users/j/a/jabreu/pseudos/PBEsol/Ge.psp8
- Ge    ONCVPSP-3.3.0  r_core=   1.91022   1.82122   1.91022
- 32.00000  14.00000    180112                znucl, zion, pspdat
    8 -116133    2    4       600   0.00000   pspcod,pspxc,lmax,lloc,mmax,r2well
    5.99000000000000    5.00000000000000    0.00000000000000   rchrg,fchrg,qchrg
     nproj     2     2     2
     extension_switch     1
  pspatm : epsatm=   30.86751540
         --- l  ekb(1:nproj) -->
             0    6.339734    0.583066
             1    3.813259    0.738801
             2   -9.332373   -3.602819
 pspatm: atomic psp has been read  and splines computed

- pspini: atom type   3  psp file is /scratch/users/j/a/jabreu/pseudos/PBEsol/As.psp8
- pspatm: opening atomic psp file    /scratch/users/j/a/jabreu/pseudos/PBEsol/As.psp8
- As    ONCVPSP-3.3.0  r_core=   1.76603   1.70395   1.80867
- 33.00000  15.00000    180112                znucl, zion, pspdat
    8 -116133    2    4       600   0.00000   pspcod,pspxc,lmax,lloc,mmax,r2well
    5.99000000000000    5.00000000000000    0.00000000000000   rchrg,fchrg,qchrg
     nproj     2     2     2
     extension_switch     1
  pspatm : epsatm=   28.79155382
         --- l  ekb(1:nproj) -->
             0    8.270760    0.868950
             1    4.919053    0.756587
             2  -10.048665   -4.076802
 pspatm: atomic psp has been read  and splines computed

   2.60648942E+04                                ecore*ucvol(ha*bohr**3)

 ==>  initialize data related to q vector <==

 The list of irreducible perturbations for this q vector is:
    1)    idir= 1    ipert=  11
    2)    idir= 2    ipert=  11
    3)    idir= 3    ipert=  11

 Perturbation wavevector (in red.coord.)   0.000000  0.000000  0.000000
 Perturbation : derivative vs k along direction   1

 dfpt_looppert : COMMENT -
  In a d/dk calculation, iscf is set to -3 automatically.
 The set of symmetries contains only one element for this perturbation.
 symkpt : not enough symmetry to change the number of k points.

[...]
 prteigrs : prtvol=0 or 1, do not print more k-points.

 Eight components of 2nd-order total energy (hartree) are
 1,2,3: 0th-order hamiltonian combined with 1st-order wavefunctions
     kin0=   9.11309923E+01 eigvalue=   1.17040425E+01  local=  -3.98616619E+01
 4,5,6: 1st-order hamiltonian combined with 1st and 0th-order wfs
     kin1=  -7.37892089E+01  Hartree=   0.00000000E+00     xc=   0.00000000E+00
 7,8,9: eventually, occupation + non-local contributions
    edocc=   6.37289995E+00     enl0=   6.94157431E+00   enl1=  -7.87864854E+01
 1-9 gives the relaxation energy (to be shifted if some occ is /=2.0)
   erelax=  -7.62878472E+01
  No Ewald or frozen-wf contrib.: the relaxation energy is the total one
 2DEtotal=   -0.7628784716E+02 Ha. Also 2DEtotal=   -0.207589789291E+04 eV
    (  non-var. 2DEtotal :   -7.6287847159E+01 Ha)

 Perturbation wavevector (in red.coord.)   0.000000  0.000000  0.000000
 Perturbation : derivative vs k along direction   2
 The set of symmetries contains only one element for this perturbation.
 symkpt : not enough symmetry to change the number of k points.

[...]

 Perturbation wavevector (in red.coord.)   0.000000  0.000000  0.000000
 Perturbation : derivative vs k along direction   3
 The set of symmetries contains only one element for this perturbation.
 symkpt : not enough symmetry to change the number of k points.

 Initialisation of the first-order wave-functions :
  ireadwf=   0

--- !BeginCycle
iteration_state: {dtset: 1, }
solver: {iscf: 7, nstep: 2000, nline: 4, wfoptalg: 0, }
tolerances: {tolwfr: 1.00E-20, }
...

     iter   2DEtotal(Ha)        deltaE(Ha) residm    vres2
-ETOT  1  -126.78145681519     -1.268E+02 1.262E-01 0.000E+00
 ETOT  2  -127.06067136909     -2.792E-01 2.219E-02 0.000E+00
 ETOT  3  -127.06654874522     -5.877E-03 3.023E-03 0.000E+00
 ETOT  4  -127.06682949460     -2.807E-04 1.674E-03 0.000E+00
 ETOT  5  -127.06684695969     -1.747E-05 3.255E-04 0.000E+00
 ETOT  6  -127.06684815329     -1.194E-06 1.961E-04 0.000E+00
 ETOT  7  -127.06684824019     -8.690E-08 3.866E-05 0.000E+00
 ETOT  8  -127.06684824666     -6.471E-09 2.402E-05 0.000E+00
 ETOT  9  -127.06684824715     -4.913E-10 4.632E-06 0.000E+00
 ETOT 10  -127.06684824719     -3.766E-11 2.986E-06 0.000E+00
 ETOT 11  -127.06684824719     -2.885E-12 5.633E-07 0.000E+00
 ETOT 12  -127.06684824719     -3.695E-13 3.753E-07 0.000E+00
 ETOT 13  -127.06684824719      4.263E-14 7.045E-08 0.000E+00
 ETOT 14  -127.06684824719      7.105E-14 4.755E-08 0.000E+00
 ETOT 15  -127.06684824719     -5.684E-14 9.003E-09 0.000E+00
 ETOT 16  -127.06684824719      7.105E-14 6.060E-09 0.000E+00
 ETOT 17  -127.06684824719     -4.263E-14 1.162E-09 0.000E+00
 ETOT 18  -127.06684824719     -1.421E-14 7.756E-10 0.000E+00
 ETOT 19  -127.06684824719     -4.263E-14 1.505E-10 0.000E+00
 ETOT 20  -127.06684824719      1.421E-14 9.960E-11 0.000E+00
 ETOT 21  -127.06684824719     -1.421E-14 1.952E-11 0.000E+00
 ETOT 22  -127.06684824719      0.000E+00 1.282E-11 0.000E+00
 ETOT 23  -127.06684824719      0.000E+00 2.534E-12 0.000E+00
 ETOT 24  -127.06684824719      0.000E+00 1.652E-12 0.000E+00
 ETOT 25  -127.06684824719      0.000E+00 3.289E-13 0.000E+00
 ETOT 26  -127.06684824719      0.000E+00 2.132E-13 0.000E+00
 ETOT 27  -127.06684824719      0.000E+00 4.269E-14 0.000E+00
 ETOT 28  -127.06684824719      0.000E+00 2.754E-14 0.000E+00
 ETOT 29  -127.06684824719      0.000E+00 5.541E-15 0.000E+00
 ETOT 30  -127.06684824719      0.000E+00 3.559E-15 0.000E+00
 ETOT 31  -127.06684824719      0.000E+00 7.190E-16 0.000E+00
 ETOT 32  -127.06684824719      4.263E-14 4.601E-16 0.000E+00
 ETOT 33  -127.06684824719     -4.263E-14 9.329E-17 0.000E+00
 ETOT 34  -127.06684824719      2.842E-14 5.950E-17 0.000E+00
 ETOT 35  -127.06684824719     -2.842E-14 1.210E-17 0.000E+00
 ETOT 36  -127.06684824719      4.263E-14 7.695E-18 0.000E+00
 ETOT 37  -127.06684824719     -4.263E-14 1.570E-18 0.000E+00
 ETOT 38  -127.06684824719      0.000E+00 9.955E-19 0.000E+00
 ETOT 39  -127.06684824719      0.000E+00 2.036E-19 0.000E+00
 ETOT 40  -127.06684824719     -2.842E-14 1.288E-19 0.000E+00
 ETOT 41  -127.06684824719      2.842E-14 2.640E-20 0.000E+00
 ETOT 42  -127.06684824719      2.842E-14 9.968E-21 0.000E+00

 At SCF step   42   max residual=  9.97E-21 < tolwfr=  1.00E-20 =>converged.

 ----iterations are completed or convergence reached----

 dfpt_looppert: DFPT cycle converged with prtwf=-1. Will skip output of the 1st-order WFK file.
 dfpt_looppert : ek2=    1.2061361884E+02
          f-sum rule ratio=    1.0158327675E+00
 prteigrs : about to open file /scratch/users/j/a/jabreu/flow_simple_10atoms/flow/w358/t1/tmpdata/tmp_1WF1_EIG
 Expectation of eigenvalue derivatives (hartree) for nkpt=   2  k points:
  (in case of degenerate eigenvalues, averaged derivative)
 kpt#   1, nband= 71, wtk=  0.50000, kpt=  0.5000  0.5000 -0.5000 (reduced coord)
  -0.00000   -0.00000    0.00000   -0.00000    0.00000    0.00000    0.00000   -0.00000
  -0.00000   -0.00000   -0.00000    0.00000    0.00000   -0.00000    0.00000   -0.00000
  -0.00000    0.00000    0.00000    0.00000    0.00000   -0.00000   -0.00000    0.00000
   0.00000   -0.00000    0.00000    0.00000   -0.00000    0.00000    0.00000   -0.00000
   0.00000    0.00000    0.00000    0.00000    0.00000   -0.00000   -0.00000   -0.00000
   0.00000    0.00000    0.00000   -0.00000    0.00000   -0.00000    0.00000    0.00000
   0.00000   -0.00000   -0.00000    0.00000    0.00000   -0.00000   -0.00000    0.00000
   0.00000    0.00000    0.00000   -0.00000   -0.00000    0.00000   -0.00000    0.00000
   0.00000    0.00000   -0.00000    0.00000    0.00000   -0.00000   -0.00000
 prteigrs : prtvol=0 or 1, do not print more k-points.

 Eight components of 2nd-order total energy (hartree) are
 1,2,3: 0th-order hamiltonian combined with 1st-order wavefunctions
     kin0=   1.46791880E+02 eigvalue=   2.00397188E+01  local=  -6.36849786E+01
 4,5,6: 1st-order hamiltonian combined with 1st and 0th-order wfs
     kin1=  -1.22523266E+02  Hartree=   0.00000000E+00     xc=   0.00000000E+00
 7,8,9: eventually, occupation + non-local contributions
    edocc=   1.20408690E+01     enl0=   1.18793588E+01   enl1=  -1.31610430E+02
 1-9 gives the relaxation energy (to be shifted if some occ is /=2.0)
   erelax=  -1.27066848E+02
  No Ewald or frozen-wf contrib.: the relaxation energy is the total one
 2DEtotal=   -0.1270668482E+03 Ha. Also 2DEtotal=   -0.345766478353E+04 eV
    (  non-var. 2DEtotal :   -1.2706684825E+02 Ha)

 CALCULATION OF EFFECTIVE MASSES
 NOTE : Additional infos (eff. mass eigenvalues, eigenvectors and, if degenerate, average mass) are available in stdout.

 K-point ( 0.500, 0.500,-0.500) | band =    62
 Effective mass tensor:
             -3.1229790342             -0.1767466442             -0.8623723510
             -0.1767466442             -0.6463590743              0.3766980557
             -0.8623723510              0.3766980557             -1.6896398458
 Effective mass tensor eigenvalues:
             -3.5276039504             -1.4901973706             -0.4411766334
 Angular average effective mass 1/(<1/m>)=  -0.9313309757
 Angular average effective mass for Frohlich model (<m**0.5>)**2=  -1.1476154625
 Effective masses along directions: (cart. coord. / red. coord. -> eff. mass)
    1:   1.000000  0.000000  0.000000 /   0.981403 -0.191957  0.000000 ->  -2.4407051668
    2:   0.000000  1.000000  0.000000 /   0.000000  1.000000  0.000000 ->  -0.5116207165
    3:   0.000000  0.000000  1.000000 /  -0.467379 -0.496810  0.731257 ->  -1.1669893698
    4:   0.577350  0.577350  0.577350 /   0.128076 -0.110029  0.985642 ->  -0.9114759433
    5:   0.000000  0.707107  0.707107 /  -0.538255  0.032673  0.842149 ->  -0.5053781739
    6:   0.707107  0.000000  0.707107 /   0.099500 -0.635419  0.765730 ->  -2.7452934576
    7:   0.707107  0.707107  0.000000 /   0.804523  0.593921  0.000000 ->  -1.0949248683

 K-point ( 0.345, 0.655,-0.345) | band =    63
 Effective mass tensor:
              1.1013107654              0.2372437899             -0.4577341713
              0.2372437899              1.2201664817             -0.5052840143
             -0.4577341713             -0.5052840143              1.8617194626
 Effective mass tensor eigenvalues:
              0.8864722394              0.9448367916              2.3518876788
 Angular average effective mass 1/(<1/m>)=   1.1487029986
 Angular average effective mass for Frohlich model (<m**0.5>)**2=   1.2058067117
 Effective masses along directions: (cart. coord. / red. coord. -> eff. mass)
    1:   1.000000  0.000000  0.000000 /   0.981403 -0.191957  0.000000 ->   0.9769768611
    2:   0.000000  1.000000  0.000000 /   0.000000  1.000000  0.000000 ->   1.0701121253
    3:   0.000000  0.000000  1.000000 /  -0.467379 -0.496810  0.731257 ->   1.5300019878
    4:   0.577350  0.577350  0.577350 /   0.128076 -0.110029  0.985642 ->   0.9096140461
    5:   0.000000  0.707107  0.707107 /  -0.538255  0.032673  0.842149 ->   0.9790459217
    6:   0.707107  0.000000  0.707107 /   0.099500 -0.635419  0.765730 ->   0.9422831875
    7:   0.707107  0.707107  0.000000 /   0.804523  0.593921  0.000000 ->   1.1465037036

 END OF EFFECTIVE MASSES SECTION

 ---- first-order wavefunction calculations are completed ----

 Total localisation tensor (bohr^2) in cartesian coordinates
  WARNING : still subject to testing - especially symmetries.
      direction              matrix element
   alpha     beta       real part   imaginary part
     1        1       1.0086513989    0.0000000000
     1        2      -0.2262508226    0.0000000000
     1        3      -0.5848226303    0.0000000000
     2        1      -0.2262508226    0.0000000000
     2        2       1.0801851970    0.0000000000
     2        3      -1.0218326546    0.0000000000
     3        1      -0.5848226303    0.0000000000
     3        2      -1.0218326546    0.0000000000
     3        3       4.6938930995    0.0000000000

 respfn : d/dk was computed, but no 2DTE, so no DDB output.

== END DATASET(S) ==============================================================

 -outvars: echo values of variables after computation  --------
            acell      1.0000000000E+00  1.0000000000E+00  1.0000000000E+00 Bohr
              amu      3.90983000E+01  7.26100000E+01  7.49215900E+01
             ecut      4.20000000E+01 Hartree
           etotal     -1.2706684825E+02
            fcart      0.0000000000E+00  0.0000000000E+00  0.0000000000E+00
                       0.0000000000E+00  0.0000000000E+00  0.0000000000E+00
                       0.0000000000E+00  0.0000000000E+00  0.0000000000E+00
                       0.0000000000E+00  0.0000000000E+00  0.0000000000E+00
                       0.0000000000E+00  0.0000000000E+00  0.0000000000E+00
                       0.0000000000E+00  0.0000000000E+00  0.0000000000E+00
                       0.0000000000E+00  0.0000000000E+00  0.0000000000E+00
                       0.0000000000E+00  0.0000000000E+00  0.0000000000E+00
                       0.0000000000E+00  0.0000000000E+00  0.0000000000E+00
                       0.0000000000E+00  0.0000000000E+00  0.0000000000E+00
-          fftalg         512
           irdden           1
           irdwfk           1
              ixc     -116133
              kpt      5.00000000E-01  5.00000000E-01 -5.00000000E-01
                       3.45190538E-01  6.54809461E-01 -3.45190538E-01
           kptopt           0
P           mkmem           2
P          mkqmem           2
P          mk1mem           2
            natom          10
            nband          71
           nbdbuf           4
            ngfft          96      96      96
             nkpt           2
            nstep        2000
             nsym           8
           ntypat           3
              occ      2.000000  2.000000  2.000000  2.000000  2.000000  2.000000
                       2.000000  2.000000  2.000000  2.000000  2.000000  2.000000
                       2.000000  2.000000  2.000000  2.000000  2.000000  2.000000
                       2.000000  2.000000  2.000000  2.000000  2.000000  2.000000
                       2.000000  2.000000  2.000000  2.000000  2.000000  2.000000
                       2.000000  2.000000  2.000000  2.000000  2.000000  2.000000
                       2.000000  2.000000  2.000000  2.000000  2.000000  2.000000
                       2.000000  2.000000  2.000000  2.000000  2.000000  2.000000
                       2.000000  2.000000  2.000000  2.000000  2.000000  2.000000
                       2.000000  2.000000  2.000000  2.000000  2.000000  2.000000
                       2.000000  2.000000  0.000000  0.000000  0.000000  0.000000
                       0.000000  0.000000  0.000000  0.000000  0.000000
        optdriver           1
            prtwf          -1
            rfdir           1       1       1
           rfelfd           2
            rprim      1.1891467614E+01  0.0000000000E+00 -9.8823359314E+00
                      -2.3259028759E+00  1.1104515898E+01 -1.0504640306E+01
                       0.0000000000E+00  0.0000000000E+00  1.5461809903E+01
          spgroup          72
           strten      0.0000000000E+00  0.0000000000E+00  0.0000000000E+00
                       0.0000000000E+00  0.0000000000E+00  0.0000000000E+00
           symrel      1  0  0   0  1  0   0  0  1      -1  0  0   0 -1  0   0  0 -1
                       0  0  1  -1 -1 -1   1  0  0       0  0 -1   1  1  1  -1  0  0
                      -1 -1 -1   0  0  1   0  1  0       1  1  1   0  0 -1   0 -1  0
                       0  1  0   1  0  0  -1 -1 -1       0 -1  0  -1  0  0   1  1  1
            tnons      0.0000000  0.0000000  0.0000000     0.0000000 -0.0000000  0.0000000
                       0.0000000  0.5000000  0.5000000     0.0000000  0.5000000  0.5000000
                       0.0000000  0.0000000  0.0000000     0.0000000 -0.0000000 -0.0000000
                       0.0000000  0.5000000  0.5000000     0.0000000  0.5000000  0.5000000
           tolwfr      1.00000000E-20
            typat      1  1  1  1  2  2  3  3  3  3
           useylm           1
              wtk        0.50000    0.50000
           xangst     -2.8997547746E-01  2.1053687647E+00  3.3297612727E+00
                       5.3518543242E+00  3.7708879610E+00 -5.9360470453E+00
                       1.7601303635E+00  8.3275959814E-01 -1.0396053269E+00
                       3.3017484832E+00  5.0434971276E+00 -1.5666804457E+00
                       2.2232357255E+00  4.4071925443E+00 -4.7383562960E+00
                       2.8386431212E+00  1.4690641814E+00  2.1320705233E+00
                       4.7573706974E+00  6.1798682201E-01  8.4780994920E-01
                       3.0450814927E-01  5.2582699037E+00 -3.4540957219E+00
                       3.0772806074E+00  2.3201415408E+00 -3.7534710972E+00
                       1.9845982393E+00  3.5561151849E+00  1.1471853245E+00
            xcart     -5.4797423766E-01  3.9785703740E+00  6.2923368932E+00
                       1.0113538976E+01  7.1259455241E+00 -1.1217503228E+01
                       3.3261643451E+00  1.5736875750E+00 -1.9645693542E+00
                       6.2394003930E+00  9.5308283231E+00 -2.9605969802E+00
                       4.2013066501E+00  8.3283869236E+00 -8.9541957195E+00
                       5.3642580880E+00  2.7761289745E+00  4.0290293851E+00
                       8.9901277307E+00  1.1678258473E+00  1.6021286167E+00
                       5.7543700736E-01  9.9366900508E+00 -6.5272949511E+00
                       5.8152175820E+00  4.3844321017E+00 -7.0930324214E+00
                       3.7503471561E+00  6.7200837964E+00  2.1678660870E+00
             xred      2.3997000000E-02  3.5828400000E-01  6.6571300000E-01
                       9.7600300000E-01  6.4171600000E-01  3.3428700000E-01
                       3.0742900000E-01  1.4171600000E-01  1.6571300000E-01
                       6.9257100000E-01  8.5828400000E-01  8.3428700000E-01
                       5.0000000000E-01  7.5000000000E-01  2.5000000000E-01
                       5.0000000000E-01  2.5000000000E-01  7.5000000000E-01
                       7.7658500000E-01  1.0516675000E-01  6.7141825000E-01
                       2.2341500000E-01  8.9483325000E-01  3.2858175000E-01
                       5.6625150000E-01  3.9483325000E-01  1.7141825000E-01
                       4.3374850000E-01  6.0516675000E-01  8.2858175000E-01
            znucl       19.00000   32.00000   33.00000

- Timing analysis has been suppressed with timopt=0

 Suggested references for the acknowledgment of ABINIT usage.

 Calculation completed.
.Delivered   2 WARNINGs and   7 COMMENTs to log file.