.Version 9.5.2 of ABINIT

 ABINIT is a project of the Universite Catholique de Louvain,
 Corning Inc. and other collaborators, see ~abinit/doc/developers/contributors.txt .
 acknowledgments of the ABINIT effort.

.Starting date : Mon 24 May 2021.
- ( at 12h00 )

- input  file    -> /scratch/users/j/a/jabreu/flow_simple_10atoms/flow/w374/t1/run.abi
- output file    -> /scratch/users/j/a/jabreu/flow_simple_10atoms/flow/w374/t1/run.abo
- root for input  files -> /scratch/users/j/a/jabreu/flow_simple_10atoms/flow/w374/t1/indata/in
- root for output files -> /scratch/users/j/a/jabreu/flow_simple_10atoms/flow/w374/t1/outdata/out

 Symmetries : space group Ib a m (# 72); Bravais oI (body-center ortho.)
     intxc =       0      iscf =       7    lmnmax =      32     lnmax =       8
     mgfft =      72  mpssoang =       4    mqgrid =    3001     natom =      10
  nloc_mem =       1    nspden =       1   nspinor =       1    nsppol =       1
      nsym =       8    n1xccc =    2501    ntypat =       3    occopt =       1
   xclevel =       2
-    mband =          41        mffmem =           1         mkmem =           2
-   mkqmem =           2        mk1mem =           2           mpw =       12111
      nfft =      373248          nkpt =           2
  Rough estimation (10% accuracy) of disk space for files :

------------- Echo of variables that govern the present computation ------------
-
- outvars: echo of selected default values
-   iomode0 =  0 , fftalg0 =512 , wfoptalg0 =  0
-
- outvars: echo of global parameters not present in the input file
-  max_nthreads =    0
-
 -outvars: echo values of preprocessed input variables --------
            acell      1.0000000000E+00  1.0000000000E+00  1.0000000000E+00 Bohr
              amu      1.32905430E+02  2.80855000E+01  3.09737620E+01
             ecut      2.40000000E+01 Hartree
-          fftalg         512
           irdden           1
           irdwfk           1
              ixc     -116133
              kpt      5.00000000E-01  5.00000000E-01 -5.00000000E-01
                      -2.34967879E-01  2.34967879E-01  2.34967879E-01
           kptopt           0
P           mkmem           2
P          mkqmem           2
P          mk1mem           2
            natom          10
            nband          41
           nbdbuf           4
            ngfft          72      72      72
             nkpt           2
            nstep        2000
             nsym           8
           ntypat           3
              occ      2.000000  2.000000  2.000000  2.000000  2.000000  2.000000
                       2.000000  2.000000  2.000000  2.000000  2.000000  2.000000
                       2.000000  2.000000  2.000000  2.000000  2.000000  2.000000
                       2.000000  2.000000  2.000000  2.000000  2.000000  2.000000
                       2.000000  2.000000  2.000000  2.000000  2.000000  2.000000
                       2.000000  2.000000  0.000000  0.000000  0.000000  0.000000
                       0.000000  0.000000  0.000000  0.000000  0.000000
        optdriver           1
            prtwf          -1
            rfdir           1       1       1
           rfelfd           2
            rprim      1.2583316528E+01  0.0000000000E+00 -1.0053035272E+01
                      -2.0135768416E+00  1.0642433072E+01 -1.1920046126E+01
                       0.0000000000E+00  0.0000000000E+00  1.6106004254E+01
          spgroup          72
           symrel      1  0  0   0  1  0   0  0  1      -1  0  0   0 -1  0   0  0 -1
                       0  0  1  -1 -1 -1   1  0  0       0  0 -1   1  1  1  -1  0  0
                      -1 -1 -1   0  0  1   0  1  0       1  1  1   0  0 -1   0 -1  0
                       0  1  0   1  0  0  -1 -1 -1       0 -1  0  -1  0  0   1  1  1
            tnons      0.0000000  0.0000000  0.0000000     0.0000000  0.0000000  0.0000000
                       0.0000000  0.5000000  0.5000000     0.0000000  0.5000000  0.5000000
                       0.0000000  0.0000000  0.0000000    -0.0000000  0.0000000  0.0000000
                       0.0000000  0.5000000  0.5000000     0.0000000  0.5000000  0.5000000
           tolwfr      1.00000000E-20
            typat      1  1  1  1  2  2  3  3  3  3
           useylm           1
              wtk        0.50000    0.50000
           xangst      3.2436549249E-01  4.8032713072E+00 -3.5329376098E+00
                       5.2688998504E+00  8.2846171847E-01  4.2821410410E-01
                       2.5027407617E+00  3.6443282313E+00  4.6144064130E-01
                       3.0905245812E+00  1.9874047944E+00 -3.5661641470E+00
                      -2.6638474308E-01  1.4079332564E+00  5.5377840938E-01
                      -7.9915422924E-01  4.2237997692E+00  1.6613352281E+00
                      -7.7778077138E-03  2.3167541734E+00  2.6290437894E+00
                       1.5163979605E+00  4.9911233940E-01 -5.3951467929E-01
                       4.0768673825E+00  5.1326206862E+00 -2.5652088264E+00
                       5.6010431506E+00  3.3149788522E+00 -5.7337672951E+00
            xcart      6.1296194777E-01  9.0768673125E+00 -6.6762845271E+00
                       9.9567777389E+00  1.5655657595E+00  8.0920738299E-01
                       4.7294946213E+00  6.8867822955E+00  8.7199643863E-01
                       5.8402450654E+00  3.7556507765E+00 -6.7390735827E+00
                      -5.0339421040E-01  2.6606082680E+00  1.0464895320E+00
                      -1.5101826312E+00  7.9818248040E+00  3.1394685961E+00
                      -1.4697926493E-02  4.3780309050E+00  4.9681727534E+00
                       2.8655768538E+00  9.4318563101E-01 -1.0195349885E+00
                       7.7041628329E+00  9.6992474410E+00 -4.8475421556E+00
                       1.0584437613E+01  6.2644021670E+00 -1.0835249897E+01
             xred      1.8519200000E-01  8.5289400000E-01  3.3229800000E-01
                       8.1480800000E-01  1.4710600000E-01  6.6770200000E-01
                       4.7940400000E-01  6.4710600000E-01  8.3229800000E-01
                       5.2059600000E-01  3.5289400000E-01  1.6770200000E-01
                       6.9388939039E-18  2.5000000000E-01  2.5000000000E-01
                       0.0000000000E+00  7.5000000000E-01  7.5000000000E-01
                       6.4660000000E-02  4.1137500000E-01  6.5328500000E-01
                       2.4191000000E-01  8.8625000000E-02  1.5328500000E-01
                       7.5809000000E-01  9.1137500000E-01  8.4671500000E-01
                       9.3534000000E-01  5.8862500000E-01  3.4671500000E-01
            znucl       55.00000   14.00000   15.00000

 chkinp: Checking input parameters for consistency.

== DATASET  1 ==================================================================
-   mpi_nproc: 1, omp_nthreads: -1 (-1 if OMP is not activated)

--- !DatasetInfo
iteration_state: {dtset: 1, }
dimensions: {natom: 10, nkpt: 2, mband: 41, nsppol: 1, nspinor: 1, nspden: 1, mpw: 12111, }
cutoff_energies: {ecut:  24.0, pawecutdg:  -1.0, }
electrons: {nelect:   6.40000000E+01, charge:   0.00000000E+00, occopt:   1.00000000E+00, tsmear:   1.00000000E-02, }
meta: {optdriver: 1, rfelfd: 2, }
...

 Real(R)+Recip(G) space primitive vectors, cartesian coordinates (Bohr,Bohr^-1):
 R(1)= 12.5833165  0.0000000-10.0530353  G(1)=  0.0794703  0.0150360  0.0000000
 R(2)= -2.0135768 10.6424331-11.9200461  G(2)=  0.0000000  0.0939635  0.0000000
 R(3)=  0.0000000  0.0000000 16.1060043  G(3)=  0.0496037  0.0789275  0.0620886
 Unit cell volume ucvol=  2.1568694E+03 bohr^3
 Angles (23,13,12)=  1.37739894E+02  1.28621979E+02  6.86367897E+01 degrees

 getcut: wavevector=  0.0000  0.0000  0.0000  ngfft=  72  72  72
         ecut(hartree)=     24.000   => boxcut(ratio)=   2.02752

--- Pseudopotential description ------------------------------------------------
- pspini: atom type   1  psp file is /scratch/users/j/a/jabreu/pseudos/PBEsol/Cs.psp8
- pspatm: opening atomic psp file    /scratch/users/j/a/jabreu/pseudos/PBEsol/Cs.psp8
- Cs    ONCVPSP-3.3.0  r_core=   2.27353   1.85623   2.01788   1.90105
- 55.00000   9.00000    180112                znucl, zion, pspdat
    8 -116133    3    4       600   0.00000   pspcod,pspxc,lmax,lloc,mmax,r2well
    5.99000000000000    5.00000000000000    0.00000000000000   rchrg,fchrg,qchrg
     nproj     2     2     2     2
     extension_switch     1
  pspatm : epsatm=   22.12462445
         --- l  ekb(1:nproj) -->
             0    6.214110    0.767882
             1    6.311966    0.793598
             2    3.769790    0.913105
             3   -9.247129   -2.432478
 pspatm: atomic psp has been read  and splines computed

- pspini: atom type   2  psp file is /scratch/users/j/a/jabreu/pseudos/PBEsol/Si.psp8
- pspatm: opening atomic psp file    /scratch/users/j/a/jabreu/pseudos/PBEsol/Si.psp8
- Si    ONCVPSP-3.3.0  r_core=   1.60303   1.72197   1.91712
- 14.00000   4.00000    180112                znucl, zion, pspdat
    8 -116133    2    4       600   0.00000   pspcod,pspxc,lmax,lloc,mmax,r2well
    5.99000000000000    4.00000000000000    0.00000000000000   rchrg,fchrg,qchrg
     nproj     2     2     2
     extension_switch     1
  pspatm : epsatm=    7.86468782
         --- l  ekb(1:nproj) -->
             0    5.384426    0.843824
             1    2.663259    0.615854
             2   -2.267219   -0.458043
 pspatm: atomic psp has been read  and splines computed

- pspini: atom type   3  psp file is /scratch/users/j/a/jabreu/pseudos/PBEsol/P.psp8
- pspatm: opening atomic psp file    /scratch/users/j/a/jabreu/pseudos/PBEsol/P.psp8
- P     ONCVPSP-3.3.0  r_core=   1.46089   1.55067   1.70594
- 15.00000   5.00000    180112                znucl, zion, pspdat
    8 -116133    2    4       600   0.00000   pspcod,pspxc,lmax,lloc,mmax,r2well
    5.99000000000000    5.00000000000000    0.00000000000000   rchrg,fchrg,qchrg
     nproj     2     2     2
     extension_switch     1
  pspatm : epsatm=    7.31221086
         --- l  ekb(1:nproj) -->
             0    6.742364    1.063650
             1    3.449117    0.910422
             2   -3.077645   -0.799176
 pspatm: atomic psp has been read  and splines computed

   8.54250988E+03                                ecore*ucvol(ha*bohr**3)

 ==>  initialize data related to q vector <==

 The list of irreducible perturbations for this q vector is:
    1)    idir= 1    ipert=  11
    2)    idir= 2    ipert=  11
    3)    idir= 3    ipert=  11

 Perturbation wavevector (in red.coord.)   0.000000  0.000000  0.000000
 Perturbation : derivative vs k along direction   1

 dfpt_looppert : COMMENT -
  In a d/dk calculation, iscf is set to -3 automatically.
 The set of symmetries contains only one element for this perturbation.
 symkpt : not enough symmetry to change the number of k points.

 Initialisation of the first-order wave-functions :
  ireadwf=   0

--- !BeginCycle
iteration_state: {dtset: 1, }
solver: {iscf: 7, nstep: 2000, nline: 4, wfoptalg: 0, }
tolerances: {tolwfr: 1.00E-20, }
...

     iter   2DEtotal(Ha)        deltaE(Ha) residm    vres2
-ETOT  1  -18.543365287919     -1.854E+01 5.226E-02 0.000E+00
[...]
 ETOT 17  -18.561318614527      1.776E-14 9.235E-14 0.000E+00
 ETOT 18  -18.561318614527     -1.421E-14 2.611E-14 0.000E+00
 ETOT 19  -18.561318614527     -3.553E-15 3.860E-15 0.000E+00
 ETOT 20  -18.561318614527      1.066E-14 1.089E-15 0.000E+00
 ETOT 21  -18.561318614527     -1.066E-14 1.621E-16 0.000E+00
 ETOT 22  -18.561318614527      0.000E+00 4.573E-17 0.000E+00
 ETOT 23  -18.561318614527      0.000E+00 6.840E-18 0.000E+00
 ETOT 24  -18.561318614527      3.553E-15 1.930E-18 0.000E+00
 ETOT 25  -18.561318614527     -7.105E-15 2.896E-19 0.000E+00
 ETOT 26  -18.561318614527      7.105E-15 8.174E-20 0.000E+00
 ETOT 27  -18.561318614527      7.105E-15 1.230E-20 0.000E+00
 ETOT 28  -18.561318614527     -1.421E-14 9.935E-21 0.000E+00

 At SCF step   28   max residual=  9.93E-21 < tolwfr=  1.00E-20 =>converged.

 ----iterations are completed or convergence reached----

 dfpt_looppert: DFPT cycle converged with prtwf=-1. Will skip output of the 1st-order WFK file.
 dfpt_looppert : ek2=    3.3056311070E+01
          f-sum rule ratio=    1.0598206421E+00
 prteigrs : about to open file /scratch/users/j/a/jabreu/flow_simple_10atoms/flow/w374/t1/tmpdata/tmp_1WF1_EIG
 Expectation of eigenvalue derivatives (hartree) for nkpt=   2  k points:
  (in case of degenerate eigenvalues, averaged derivative)
 kpt#   1, nband= 41, wtk=  0.50000, kpt=  0.5000  0.5000 -0.5000 (reduced coord)
  -0.00000   -0.00000    0.00000    0.00000    0.00000   -0.00000   -0.00000   -0.00000
   0.00000   -0.00000    0.00000   -0.00000   -0.00000   -0.00000   -0.00000    0.00000
  -0.00000    0.00000   -0.00000    0.00000   -0.00000    0.00000    0.00000    0.00000
  -0.00000   -0.00000    0.00000    0.00000    0.00000    0.00000    0.00000   -0.00000
  -0.00000   -0.00000    0.00000    0.00000    0.00000   -0.00000    0.00000    0.00000
   0.00003
 prteigrs : prtvol=0 or 1, do not print more k-points.

 Eight components of 2nd-order total energy (hartree) are
 1,2,3: 0th-order hamiltonian combined with 1st-order wavefunctions
     kin0=   2.47841688E+01 eigvalue=  -5.14507165E-01  local=  -1.62851078E+01
 4,5,6: 1st-order hamiltonian combined with 1st and 0th-order wfs
     kin1=  -3.50337608E+01  Hartree=   0.00000000E+00     xc=   0.00000000E+00
 7,8,9: eventually, occupation + non-local contributions
    edocc=   5.56772936E+00     enl0=   5.00903540E+00   enl1=  -2.08887640E+00
 1-9 gives the relaxation energy (to be shifted if some occ is /=2.0)
   erelax=  -1.85613186E+01
  No Ewald or frozen-wf contrib.: the relaxation energy is the total one
 2DEtotal=   -0.1856131861E+02 Ha. Also 2DEtotal=   -0.505079165768E+03 eV
    (  non-var. 2DEtotal :   -1.8561318615E+01 Ha)

 Perturbation wavevector (in red.coord.)   0.000000  0.000000  0.000000
 Perturbation : derivative vs k along direction   2
 The set of symmetries contains only one element for this perturbation.
 symkpt : not enough symmetry to change the number of k points.

[...]

 Perturbation wavevector (in red.coord.)   0.000000  0.000000  0.000000
 Perturbation : derivative vs k along direction   3
 The set of symmetries contains only one element for this perturbation.
 symkpt : not enough symmetry to change the number of k points.

 Initialisation of the first-order wave-functions :
  ireadwf=   0

--- !BeginCycle
iteration_state: {dtset: 1, }
solver: {iscf: 7, nstep: 2000, nline: 4, wfoptalg: 0, }
tolerances: {tolwfr: 1.00E-20, }
...

     iter   2DEtotal(Ha)        deltaE(Ha) residm    vres2
-ETOT  1  -35.563661049863     -3.556E+01 8.141E-02 0.000E+00
 ETOT  2  -35.593342225125     -2.968E-02 4.833E-03 0.000E+00
 ETOT  3  -35.594978232173     -1.636E-03 3.870E-04 0.000E+00
 ETOT  4  -35.595086411452     -1.082E-04 5.659E-05 0.000E+00
 ETOT  5  -35.595094103003     -7.692E-06 6.384E-06 0.000E+00
 ETOT  6  -35.595094686082     -5.831E-07 9.048E-07 0.000E+00
 ETOT  7  -35.595094731883     -4.580E-08 1.043E-07 0.000E+00
 ETOT  8  -35.595094735621     -3.738E-09 1.722E-08 0.000E+00
 ETOT  9  -35.595094735936     -3.142E-10 2.152E-09 0.000E+00
 ETOT 10  -35.595094735963     -2.721E-11 3.756E-10 0.000E+00
 ETOT 11  -35.595094735965     -2.473E-12 4.605E-11 0.000E+00
 ETOT 12  -35.595094735966     -1.990E-13 8.213E-12 0.000E+00
 ETOT 13  -35.595094735966     -7.105E-15 9.890E-13 0.000E+00
 ETOT 14  -35.595094735966      4.263E-14 1.797E-13 0.000E+00
 ETOT 15  -35.595094735965      1.421E-14 2.134E-14 0.000E+00
 ETOT 16  -35.595094735966     -3.553E-14 3.934E-15 0.000E+00
 ETOT 17  -35.595094735966      7.105E-15 8.512E-16 0.000E+00
 ETOT 18  -35.595094735966      0.000E+00 1.397E-16 0.000E+00
 ETOT 19  -35.595094735966      1.421E-14 3.539E-17 0.000E+00
 ETOT 20  -35.595094735965      1.421E-14 5.705E-18 0.000E+00
 ETOT 21  -35.595094735966     -2.132E-14 1.501E-18 0.000E+00
 ETOT 22  -35.595094735966      0.000E+00 2.383E-19 0.000E+00
 ETOT 23  -35.595094735966      0.000E+00 6.430E-20 0.000E+00
 ETOT 24  -35.595094735966      1.421E-14 1.008E-20 0.000E+00
 ETOT 25  -35.595094735966     -1.421E-14 9.990E-21 0.000E+00

 At SCF step   25   max residual=  9.99E-21 < tolwfr=  1.00E-20 =>converged.

 ----iterations are completed or convergence reached----

 dfpt_looppert: DFPT cycle converged with prtwf=-1. Will skip output of the 1st-order WFK file.
 dfpt_looppert : ek2=    6.3393251022E+01
          f-sum rule ratio=    1.0616780564E+00
 prteigrs : about to open file /scratch/users/j/a/jabreu/flow_simple_10atoms/flow/w374/t1/tmpdata/tmp_1WF1_EIG
 Expectation of eigenvalue derivatives (hartree) for nkpt=   2  k points:
  (in case of degenerate eigenvalues, averaged derivative)
 kpt#   1, nband= 41, wtk=  0.50000, kpt=  0.5000  0.5000 -0.5000 (reduced coord)
  -0.00000    0.00000   -0.00000    0.00000   -0.00000    0.00000   -0.00000    0.00000
   0.00000    0.00000    0.00000    0.00000   -0.00000    0.00000    0.00000    0.00000
   0.00000    0.00000    0.00000   -0.00000   -0.00000    0.00000    0.00000   -0.00000
  -0.00000   -0.00000    0.00000    0.00000    0.00000   -0.00000   -0.00000   -0.00000
  -0.00000   -0.00000    0.00000   -0.00000    0.00000   -0.00000   -0.00000   -0.00000
   0.00009
 prteigrs : prtvol=0 or 1, do not print more k-points.

 Eight components of 2nd-order total energy (hartree) are
 1,2,3: 0th-order hamiltonian combined with 1st-order wavefunctions
     kin0=   4.01907442E+01 eigvalue=   7.67868163E-02  local=  -2.68872959E+01
 4,5,6: 1st-order hamiltonian combined with 1st and 0th-order wfs
     kin1=  -6.73032235E+01  Hartree=   0.00000000E+00     xc=   0.00000000E+00
 7,8,9: eventually, occupation + non-local contributions
    edocc=   1.39112449E+01     enl0=   8.30361469E+00   enl1=  -3.88696594E+00
 1-9 gives the relaxation energy (to be shifted if some occ is /=2.0)
   erelax=  -3.55950947E+01
  No Ewald or frozen-wf contrib.: the relaxation energy is the total one
 2DEtotal=   -0.3559509474E+02 Ha. Also 2DEtotal=   -0.968591786393E+03 eV
    (  non-var. 2DEtotal :   -3.5595094736E+01 Ha)

 CALCULATION OF EFFECTIVE MASSES
 NOTE : Additional infos (eff. mass eigenvalues, eigenvectors and, if degenerate, average mass) are available in stdout.

 K-point ( 0.500, 0.500,-0.500) | band =    32
 Effective mass tensor:
             -1.3128233036             -0.1328403023             -0.1096506298
             -0.1328403023             -0.5165222216              0.2761572438
             -0.1096506298              0.2761572438             -1.1376193771
 Effective mass tensor eigenvalues:
             -1.3655686402             -1.2186279298             -0.3827683323
 Angular average effective mass 1/(<1/m>)=  -0.7202125482
 Angular average effective mass for Frohlich model (<m**0.5>)**2=  -0.8051179956
 Effective masses along directions: (cart. coord. / red. coord. -> eff. mass)
    1:   1.000000  0.000000  0.000000 /   0.987438 -0.158009  0.000000 ->  -1.2456856516
    2:   0.000000  1.000000  0.000000 /   0.000000  1.000000  0.000000 ->  -0.4299597584
    3:   0.000000  0.000000  1.000000 /  -0.448441 -0.531724  0.718450 ->  -0.9644436592
    4:   0.577350  0.577350  0.577350 /   0.152129 -0.197878  0.968350 ->  -0.6686103446
    5:   0.000000  0.707107  0.707107 /  -0.528303 -0.067141  0.846397 ->  -0.4398754512
    6:   0.707107  0.000000  0.707107 /   0.117981 -0.649693  0.750986 ->  -1.2931414549
    7:   0.707107  0.707107  0.000000 /   0.824720  0.565542  0.000000 ->  -0.7815575737

 K-point (-0.235, 0.235, 0.235) | band =    33
 Effective mass tensor:
              0.7470929628              0.2277508477             -0.3640806294
              0.2277508477              0.5296036261             -0.4734797393
             -0.3640806294             -0.4734797393              1.3288743447
 Effective mass tensor eigenvalues:
              0.3002717209              0.5719663808              1.7333328320
 Angular average effective mass 1/(<1/m>)=   0.5304481953
 Angular average effective mass for Frohlich model (<m**0.5>)**2=   0.6031599569
 Effective masses along directions: (cart. coord. / red. coord. -> eff. mass)
    1:   1.000000  0.000000  0.000000 /   0.987438 -0.158009  0.000000 ->   0.6207168179
    2:   0.000000  1.000000  0.000000 /   0.000000  1.000000  0.000000 ->   0.3460575210
    3:   0.000000  0.000000  1.000000 /  -0.448441 -0.531724  0.718450 ->   0.8659050172
    4:   0.577350  0.577350  0.577350 /   0.152129 -0.197878  0.968350 ->   0.4183644793
    5:   0.000000  0.707107  0.707107 /  -0.528303 -0.067141  0.846397 ->   0.3410654375
    6:   0.707107  0.000000  0.707107 /   0.117981 -0.649693  0.750986 ->   0.5993680431
    7:   0.707107  0.707107  0.000000 /   0.824720  0.565542  0.000000 ->   0.5516403952

 END OF EFFECTIVE MASSES SECTION

 ---- first-order wavefunction calculations are completed ----

 Total localisation tensor (bohr^2) in cartesian coordinates
  WARNING : still subject to testing - especially symmetries.
      direction              matrix element
   alpha     beta       real part   imaginary part
     1        1       1.9003511277    0.0000000000
     1        2      -0.3942105604    0.0000000000
     1        3      -1.0171013329    0.0000000000
     2        1      -0.3942105604    0.0000000000
     2        2       2.0835358346    0.0000000000
     2        3      -2.3336621509    0.0000000000
     3        1      -1.0171013329    0.0000000000
     3        2      -2.3336621509    0.0000000000
     3        3      10.3660769911    0.0000000000

 respfn : d/dk was computed, but no 2DTE, so no DDB output.

== END DATASET(S) ==============================================================

 -outvars: echo values of variables after computation  --------
            acell      1.0000000000E+00  1.0000000000E+00  1.0000000000E+00 Bohr
              amu      1.32905430E+02  2.80855000E+01  3.09737620E+01
             ecut      2.40000000E+01 Hartree
           etotal     -3.5595094736E+01
            fcart      0.0000000000E+00  0.0000000000E+00  0.0000000000E+00
                       0.0000000000E+00  0.0000000000E+00  0.0000000000E+00
                       0.0000000000E+00  0.0000000000E+00  0.0000000000E+00
                       0.0000000000E+00  0.0000000000E+00  0.0000000000E+00
                       0.0000000000E+00  0.0000000000E+00  0.0000000000E+00
                       0.0000000000E+00  0.0000000000E+00  0.0000000000E+00
                       0.0000000000E+00  0.0000000000E+00  0.0000000000E+00
                       0.0000000000E+00  0.0000000000E+00  0.0000000000E+00
                       0.0000000000E+00  0.0000000000E+00  0.0000000000E+00
                       0.0000000000E+00  0.0000000000E+00  0.0000000000E+00
-          fftalg         512
           irdden           1
           irdwfk           1
              ixc     -116133
              kpt      5.00000000E-01  5.00000000E-01 -5.00000000E-01
                      -2.34967879E-01  2.34967879E-01  2.34967879E-01
           kptopt           0
P           mkmem           2
P          mkqmem           2
P          mk1mem           2
            natom          10
            nband          41
           nbdbuf           4
            ngfft          72      72      72
             nkpt           2
            nstep        2000
             nsym           8
           ntypat           3
              occ      2.000000  2.000000  2.000000  2.000000  2.000000  2.000000
                       2.000000  2.000000  2.000000  2.000000  2.000000  2.000000
                       2.000000  2.000000  2.000000  2.000000  2.000000  2.000000
                       2.000000  2.000000  2.000000  2.000000  2.000000  2.000000
                       2.000000  2.000000  2.000000  2.000000  2.000000  2.000000
                       2.000000  2.000000  0.000000  0.000000  0.000000  0.000000
                       0.000000  0.000000  0.000000  0.000000  0.000000
        optdriver           1
            prtwf          -1
            rfdir           1       1       1
           rfelfd           2
            rprim      1.2583316528E+01  0.0000000000E+00 -1.0053035272E+01
                      -2.0135768416E+00  1.0642433072E+01 -1.1920046126E+01
                       0.0000000000E+00  0.0000000000E+00  1.6106004254E+01
          spgroup          72
           strten      0.0000000000E+00  0.0000000000E+00  0.0000000000E+00
                       0.0000000000E+00  0.0000000000E+00  0.0000000000E+00
           symrel      1  0  0   0  1  0   0  0  1      -1  0  0   0 -1  0   0  0 -1
                       0  0  1  -1 -1 -1   1  0  0       0  0 -1   1  1  1  -1  0  0
                      -1 -1 -1   0  0  1   0  1  0       1  1  1   0  0 -1   0 -1  0
                       0  1  0   1  0  0  -1 -1 -1       0 -1  0  -1  0  0   1  1  1
            tnons      0.0000000  0.0000000  0.0000000     0.0000000  0.0000000  0.0000000
                       0.0000000  0.5000000  0.5000000     0.0000000  0.5000000  0.5000000
                       0.0000000  0.0000000  0.0000000    -0.0000000  0.0000000  0.0000000
                       0.0000000  0.5000000  0.5000000     0.0000000  0.5000000  0.5000000
           tolwfr      1.00000000E-20
            typat      1  1  1  1  2  2  3  3  3  3
           useylm           1
              wtk        0.50000    0.50000
           xangst      3.2436549249E-01  4.8032713072E+00 -3.5329376098E+00
                       5.2688998504E+00  8.2846171847E-01  4.2821410410E-01
                       2.5027407617E+00  3.6443282313E+00  4.6144064130E-01
                       3.0905245812E+00  1.9874047944E+00 -3.5661641470E+00
                      -2.6638474308E-01  1.4079332564E+00  5.5377840938E-01
                      -7.9915422924E-01  4.2237997692E+00  1.6613352281E+00
                      -7.7778077138E-03  2.3167541734E+00  2.6290437894E+00
                       1.5163979605E+00  4.9911233940E-01 -5.3951467929E-01
                       4.0768673825E+00  5.1326206862E+00 -2.5652088264E+00
                       5.6010431506E+00  3.3149788522E+00 -5.7337672951E+00
            xcart      6.1296194777E-01  9.0768673125E+00 -6.6762845271E+00
                       9.9567777389E+00  1.5655657595E+00  8.0920738299E-01
                       4.7294946213E+00  6.8867822955E+00  8.7199643863E-01
                       5.8402450654E+00  3.7556507765E+00 -6.7390735827E+00
                      -5.0339421040E-01  2.6606082680E+00  1.0464895320E+00
                      -1.5101826312E+00  7.9818248040E+00  3.1394685961E+00
                      -1.4697926493E-02  4.3780309050E+00  4.9681727534E+00
                       2.8655768538E+00  9.4318563101E-01 -1.0195349885E+00
                       7.7041628329E+00  9.6992474410E+00 -4.8475421556E+00
                       1.0584437613E+01  6.2644021670E+00 -1.0835249897E+01
             xred      1.8519200000E-01  8.5289400000E-01  3.3229800000E-01
                       8.1480800000E-01  1.4710600000E-01  6.6770200000E-01
                       4.7940400000E-01  6.4710600000E-01  8.3229800000E-01
                       5.2059600000E-01  3.5289400000E-01  1.6770200000E-01
                       6.9388939039E-18  2.5000000000E-01  2.5000000000E-01
                       0.0000000000E+00  7.5000000000E-01  7.5000000000E-01
                       6.4660000000E-02  4.1137500000E-01  6.5328500000E-01
                       2.4191000000E-01  8.8625000000E-02  1.5328500000E-01
                       7.5809000000E-01  9.1137500000E-01  8.4671500000E-01
                       9.3534000000E-01  5.8862500000E-01  3.4671500000E-01
            znucl       55.00000   14.00000   15.00000

- Timing analysis has been suppressed with timopt=0

 Suggested references for the acknowledgment of ABINIT usage.

 Calculation completed.
.Delivered   2 WARNINGs and   5 COMMENTs to log file.