.Version 9.5.1 of ABINIT

 ABINIT is a project of the Universite Catholique de Louvain,
 Corning Inc. and other collaborators, see ~abinit/doc/developers/contributors.txt .
 acknowledgments of the ABINIT effort.

.Starting date : Wed  5 May 2021.
- ( at 20h07 )

- input  file    -> /scratch/users/j/a/jabreu/flow_simple_7atoms/flow/w189/t1/run.abi
- output file    -> /scratch/users/j/a/jabreu/flow_simple_7atoms/flow/w189/t1/run.abo
- root for input  files -> /scratch/users/j/a/jabreu/flow_simple_7atoms/flow/w189/t1/indata/in
- root for output files -> /scratch/users/j/a/jabreu/flow_simple_7atoms/flow/w189/t1/outdata/out

 Symmetries : space group I4/m m m (#139); Bravais tI (body-center tetrag.)
     intxc =       0      iscf =       7    lmnmax =      18     lnmax =       6
     mgfft =      96  mpssoang =       3    mqgrid =    3001     natom =       7
  nloc_mem =       1    nspden =       1   nspinor =       1    nsppol =       1
      nsym =      16    n1xccc =    2501    ntypat =       3    occopt =       1
   xclevel =       2
-    mband =          47        mffmem =           1         mkmem =           2
-   mkqmem =           2        mk1mem =           2           mpw =       14539
      nfft =      884736          nkpt =           2
  Rough estimation (10% accuracy) of disk space for files :

------------- Echo of variables that govern the present computation ------------
-
- outvars: echo of selected default values
-   iomode0 =  0 , fftalg0 =512 , wfoptalg0 =  0
-
- outvars: echo of global parameters not present in the input file
-  max_nthreads =    0
-
 -outvars: echo values of preprocessed input variables --------
            acell      1.0000000000E+00  1.0000000000E+00  1.0000000000E+00 Bohr
              amu      4.00780000E+01  7.49215900E+01  1.59994000E+01
             ecut      4.40000000E+01 Hartree
-          fftalg         512
           irdden           1
           irdwfk           1
           istwfk        1    0
              ixc     -116133
              kpt      0.00000000E+00  0.00000000E+00  0.00000000E+00
                       5.00000000E-01  5.00000000E-01 -5.00000000E-01
           kptopt           0
P           mkmem           2
P          mkqmem           2
P          mk1mem           2
            natom           7
            nband          47
           nbdbuf           4
            ngfft          96      96      96
             nkpt           2
            nstep        2000
             nsym          16
           ntypat           3
              occ      2.000000  2.000000  2.000000  2.000000  2.000000  2.000000
                       2.000000  2.000000  2.000000  2.000000  2.000000  2.000000
                       2.000000  2.000000  2.000000  2.000000  2.000000  2.000000
                       2.000000  2.000000  2.000000  2.000000  2.000000  2.000000
                       2.000000  2.000000  2.000000  2.000000  2.000000  2.000000
                       2.000000  2.000000  2.000000  2.000000  2.000000  2.000000
                       2.000000  2.000000  0.000000  0.000000  0.000000  0.000000
                       0.000000  0.000000  0.000000  0.000000  0.000000
        optdriver           1
            prtwf          -1
            rfdir           1       1       1
           rfelfd           2
            rprim      8.1776474276E+00  0.0000000000E+00 -1.3309684178E+01
                      -6.5337422830E-01  8.1515041292E+00 -1.3309684178E+01
                       0.0000000000E+00  0.0000000000E+00  1.5621191067E+01
          spgroup         139
           symrel      1  0  0   0  1  0   0  0  1      -1  0  0   0 -1  0   0  0 -1
                       0  0  1  -1 -1 -1   1  0  0       0  0 -1   1  1  1  -1  0  0
                       0  1  0   1  0  0  -1 -1 -1       0 -1  0  -1  0  0   1  1  1
                      -1 -1 -1   0  0  1   0  1  0       1  1  1   0  0 -1   0 -1  0
                       0  1  0   1  0  0   0  0  1       0 -1  0  -1  0  0   0  0 -1
                       0  0  1  -1 -1 -1   0  1  0       0  0 -1   1  1  1   0 -1  0
                       1  0  0   0  1  0  -1 -1 -1      -1  0  0   0 -1  0   1  1  1
                      -1 -1 -1   0  0  1   1  0  0       1  1  1   0  0 -1  -1  0  0
           tolwfr      1.00000000E-20
            typat      1  1  1  1  2  2  3
           useylm           1
              wtk        0.50000    0.50000
           xangst      2.6723203385E+00  2.8950876313E+00 -9.4541329867E+00
                       1.3093535498E+00  1.4185025696E+00 -4.6322300542E+00
                       2.1637123193E+00  0.0000000000E+00  6.1159838171E-01
                      -1.7287537515E-01  2.1567951004E+00  6.1159838171E-01
                       3.4360332620E+00  3.7224644269E+00 -1.2155996022E+01
                       5.4564062630E-01  5.9112577395E-01 -1.9303670184E+00
                       1.9908369441E+00  2.1567951004E+00 -7.0431815204E+00
            xcart      5.0499535791E+00  5.4709227538E+00 -1.7865722169E+01
                       2.4743196202E+00  2.6805813754E+00 -8.7536461869E+00
                       4.0888237138E+00  0.0000000000E+00  1.1557534448E+00
                      -3.2668711415E-01  4.0757520646E+00  1.1557534448E+00
                       6.4931618486E+00  7.0344383063E+00 -2.2971503355E+01
                       1.0311113507E+00  1.1170658229E+00 -3.6478650007E+00
                       3.7621365997E+00  4.0757520646E+00 -1.3309684178E+01
             xred      6.7115500000E-01  6.7115500000E-01  0.0000000000E+00
                       3.2884500000E-01  3.2884500000E-01  0.0000000000E+00
                       5.0000000000E-01  0.0000000000E+00  5.0000000000E-01
                       6.9388939039E-18  5.0000000000E-01  5.0000000000E-01
                       8.6296200000E-01  8.6296200000E-01  0.0000000000E+00
                       1.3703800000E-01  1.3703800000E-01 -1.3877787808E-17
                       5.0000000000E-01  5.0000000000E-01  1.1102230246E-16
            znucl       20.00000   33.00000    8.00000

 chkinp: Checking input parameters for consistency.

== DATASET  1 ==================================================================
-   mpi_nproc: 1, omp_nthreads: -1 (-1 if OMP is not activated)

--- !DatasetInfo
iteration_state: {dtset: 1, }
dimensions: {natom: 7, nkpt: 2, mband: 47, nsppol: 1, nspinor: 1, nspden: 1, mpw: 14539, }
cutoff_energies: {ecut:  44.0, pawecutdg:  -1.0, }
electrons: {nelect:   7.60000000E+01, charge:   0.00000000E+00, occopt:   1.00000000E+00, tsmear:   1.00000000E-02, }
meta: {optdriver: 1, rfelfd: 2, }
...

 Real(R)+Recip(G) space primitive vectors, cartesian coordinates (Bohr,Bohr^-1):
 R(1)=  8.1776474  0.0000000-13.3096842  G(1)=  0.1222846  0.0098016  0.0000000
 R(2)= -0.6533742  8.1515041-13.3096842  G(2)=  0.0000000  0.1226767  0.0000000
 R(3)=  0.0000000  0.0000000 15.6211911  G(3)=  0.1041898  0.1128752  0.0640156
 Unit cell volume ucvol=  1.0413106E+03 bohr^3
 Angles (23,13,12)=  1.48432880E+02  1.48432880E+02  4.52467526E+01 degrees

 getcut: wavevector=  0.0000  0.0000  0.0000  ngfft=  96  96  96
         ecut(hartree)=     44.000   => boxcut(ratio)=   2.05813

--- Pseudopotential description ------------------------------------------------
- pspini: atom type   1  psp file is /scratch/users/j/a/jabreu/pseudos/PBEsol/Ca.psp8
- pspatm: opening atomic psp file    /scratch/users/j/a/jabreu/pseudos/PBEsol/Ca.psp8
- Ca    ONCVPSP-3.3.0  r_core=   1.45885   1.45885   1.85192
- 20.00000  10.00000    180112                znucl, zion, pspdat
    8 -116133    2    4       400   0.00000   pspcod,pspxc,lmax,lloc,mmax,r2well
    3.99000000000000    6.00000000000000    0.00000000000000   rchrg,fchrg,qchrg
     nproj     2     2     2
     extension_switch     1
  pspatm : epsatm=   12.46045226
         --- l  ekb(1:nproj) -->
             0   10.054847    0.973777
             1    2.998958    0.458102
             2   -3.447298   -1.091650
 pspatm: atomic psp has been read  and splines computed

- pspini: atom type   2  psp file is /scratch/users/j/a/jabreu/pseudos/PBEsol/As.psp8
- pspatm: opening atomic psp file    /scratch/users/j/a/jabreu/pseudos/PBEsol/As.psp8
- As    ONCVPSP-3.3.0  r_core=   1.76603   1.70395   1.80867
- 33.00000  15.00000    180112                znucl, zion, pspdat
    8 -116133    2    4       600   0.00000   pspcod,pspxc,lmax,lloc,mmax,r2well
    5.99000000000000    5.00000000000000    0.00000000000000   rchrg,fchrg,qchrg
     nproj     2     2     2
     extension_switch     1
  pspatm : epsatm=   28.79155382
         --- l  ekb(1:nproj) -->
             0    8.270760    0.868950
             1    4.919053    0.756587
             2  -10.048665   -4.076802
 pspatm: atomic psp has been read  and splines computed

- pspini: atom type   3  psp file is /scratch/users/j/a/jabreu/pseudos/PBEsol/O.psp8
- pspatm: opening atomic psp file    /scratch/users/j/a/jabreu/pseudos/PBEsol/O.psp8
- O     ONCVPSP-3.3.0  r_core=   1.35509   1.45563   1.26150
-  8.00000   6.00000    180112                znucl, zion, pspdat
    8 -116133    2    4       600   0.00000   pspcod,pspxc,lmax,lloc,mmax,r2well
    5.99000000000000    4.00000000000000    0.00000000000000   rchrg,fchrg,qchrg
     nproj     2     2     1
     extension_switch     1
  pspatm : epsatm=    6.22910522
         --- l  ekb(1:nproj) -->
             0    6.050032    0.820363
             1   -4.739617   -1.153841
             2   -1.335834
 pspatm: atomic psp has been read  and splines computed

   8.63770566E+03                                ecore*ucvol(ha*bohr**3)

-inwffil : will read wavefunctions from disk file /scratch/users/j/a/jabreu/flow_simple_7atoms/flow/w189/t1/indata/in_WFK

 ==>  initialize data related to q vector <==

 The list of irreducible perturbations for this q vector is:
    1)    idir= 1    ipert=   8
    2)    idir= 2    ipert=   8
    3)    idir= 3    ipert=   8

 Perturbation wavevector (in red.coord.)   0.000000  0.000000  0.000000
 Perturbation : derivative vs k along direction   1

 dfpt_looppert : COMMENT -
  In a d/dk calculation, iscf is set to -3 automatically.
 The set of symmetries contains only one element for this perturbation.
 symkpt : not enough symmetry to change the number of k points.

[...]

 Initialisation of the first-order wave-functions :
  ireadwf=   0

--- !BeginCycle
iteration_state: {dtset: 1, }
solver: {iscf: 7, nstep: 2000, nline: 4, wfoptalg: 0, }
tolerances: {tolwfr: 1.00E-20, }
...

     iter   2DEtotal(Ha)        deltaE(Ha) residm    vres2
-ETOT  1  -82.890148092243     -8.289E+01 2.723E-01 0.000E+00
 ETOT  2  -83.467111360024     -5.770E-01 6.673E-02 0.000E+00
 ETOT  3  -83.507475404991     -4.036E-02 3.387E-02 0.000E+00
 ETOT  4  -83.511427408576     -3.952E-03 9.869E-03 0.000E+00
 ETOT  5  -83.511882441874     -4.550E-04 6.082E-03 0.000E+00
 ETOT  6  -83.511939853716     -5.741E-05 2.229E-03 0.000E+00
 ETOT  7  -83.511947530514     -7.677E-06 1.384E-03 0.000E+00
 ETOT  8  -83.511948591985     -1.061E-06 5.270E-04 0.000E+00
 ETOT  9  -83.511948742716     -1.507E-07 3.290E-04 0.000E+00
 ETOT 10  -83.511948764309     -2.159E-08 1.252E-04 0.000E+00
[...]
  -0.00000    0.00000    0.00000   -0.00000    0.00000    0.00000   -0.00000   -0.00000
  -0.00000   -0.00000    0.00000    0.00000   -0.00000    0.00000    0.00000    0.00000
   0.00000    0.00000    0.00000    0.00000   -0.00000   -0.00000    0.00000   -0.00000
  -0.00000   -0.00000    0.00000    0.00000    0.00000   -0.00000    0.00000    0.00000
   0.00000   -0.00000   -0.00000   -0.00000   -0.00000    0.00000    0.00000    0.00000
   0.00000   -0.00000    0.00000    0.00000    0.00000   -0.00001   -0.00012
 prteigrs : prtvol=0 or 1, do not print more k-points.

 Eight components of 2nd-order total energy (hartree) are
 1,2,3: 0th-order hamiltonian combined with 1st-order wavefunctions
     kin0=   1.20736504E+02 eigvalue=   6.51257694E+00  local=  -6.47613068E+01
 4,5,6: 1st-order hamiltonian combined with 1st and 0th-order wfs
     kin1=  -1.17398761E+02  Hartree=   0.00000000E+00     xc=   0.00000000E+00
 7,8,9: eventually, occupation + non-local contributions
    edocc=   2.02171451E+01     enl0=   8.07029840E-01   enl1=  -4.96251366E+01
 1-9 gives the relaxation energy (to be shifted if some occ is /=2.0)
   erelax=  -8.35119488E+01
  No Ewald or frozen-wf contrib.: the relaxation energy is the total one
 2DEtotal=   -0.8351194877E+02 Ha. Also 2DEtotal=   -0.227247569483E+04 eV
    (  non-var. 2DEtotal :   -8.3511948768E+01 Ha)

 Perturbation wavevector (in red.coord.)   0.000000  0.000000  0.000000
 Perturbation : derivative vs k along direction   2
 The set of symmetries contains only one element for this perturbation.
 symkpt : not enough symmetry to change the number of k points.

[...]

 Perturbation wavevector (in red.coord.)   0.000000  0.000000  0.000000
 Perturbation : derivative vs k along direction   3
 The set of symmetries contains only one element for this perturbation.
 symkpt : not enough symmetry to change the number of k points.

-inwffil : will read wavefunctions from disk file /scratch/users/j/a/jabreu/flow_simple_7atoms/flow/w189/t1/indata/in_WFK

 Initialisation of the first-order wave-functions :
  ireadwf=   0

--- !BeginCycle
iteration_state: {dtset: 1, }
solver: {iscf: 7, nstep: 2000, nline: 4, wfoptalg: 0, }
tolerances: {tolwfr: 1.00E-20, }
...

     iter   2DEtotal(Ha)        deltaE(Ha) residm    vres2
-ETOT  1  -154.74405486165     -1.547E+02 3.865E-01 0.000E+00
 ETOT  2  -155.47681957933     -7.328E-01 3.912E-02 0.000E+00
 ETOT  3  -155.52971275685     -5.289E-02 1.341E-02 0.000E+00
 ETOT  4  -155.53516338325     -5.451E-03 1.355E-03 0.000E+00
 ETOT  5  -155.53581675791     -6.534E-04 1.364E-03 0.000E+00
 ETOT  6  -155.53590102568     -8.427E-05 2.508E-04 0.000E+00
 ETOT  7  -155.53591247224     -1.145E-05 2.747E-04 0.000E+00
 ETOT  8  -155.53591406337     -1.591E-06 5.758E-05 0.000E+00
 ETOT  9  -155.53591428872     -2.253E-07 5.734E-05 0.000E+00
 ETOT 10  -155.53591432074     -3.202E-08 1.209E-05 0.000E+00
 ETOT 11  -155.53591432554     -4.792E-09 1.201E-05 0.000E+00
 ETOT 12  -155.53591432626     -7.215E-10 2.517E-06 0.000E+00
 ETOT 13  -155.53591432637     -1.088E-10 2.528E-06 0.000E+00
 ETOT 14  -155.53591432638     -1.648E-11 5.273E-07 0.000E+00
 ETOT 15  -155.53591432639     -2.530E-12 5.346E-07 0.000E+00
 ETOT 16  -155.53591432639     -1.705E-13 1.113E-07 0.000E+00
 ETOT 17  -155.53591432639     -3.695E-13 1.136E-07 0.000E+00
 ETOT 18  -155.53591432639     -5.684E-14 2.364E-08 0.000E+00
 ETOT 19  -155.53591432639      2.842E-13 2.422E-08 0.000E+00
 ETOT 20  -155.53591432639     -1.421E-13 5.048E-09 0.000E+00
 ETOT 21  -155.53591432639      8.527E-14 5.185E-09 0.000E+00
 ETOT 22  -155.53591432639      0.000E+00 1.084E-09 0.000E+00
 ETOT 23  -155.53591432639      8.527E-14 1.115E-09 0.000E+00
 ETOT 24  -155.53591432639     -8.527E-14 2.338E-10 0.000E+00
 ETOT 25  -155.53591432639      8.527E-14 2.408E-10 0.000E+00
 ETOT 26  -155.53591432639      0.000E+00 5.067E-11 0.000E+00
 ETOT 27  -155.53591432639      8.527E-14 5.222E-11 0.000E+00
 ETOT 28  -155.53591432639     -1.137E-13 1.103E-11 0.000E+00
 ETOT 29  -155.53591432639      0.000E+00 1.137E-11 0.000E+00
 ETOT 30  -155.53591432639      0.000E+00 2.411E-12 0.000E+00
 ETOT 31  -155.53591432639      0.000E+00 2.484E-12 0.000E+00
 ETOT 32  -155.53591432639      0.000E+00 5.287E-13 0.000E+00
 ETOT 33  -155.53591432639      0.000E+00 5.443E-13 0.000E+00
 ETOT 34  -155.53591432639      1.137E-13 1.162E-13 0.000E+00
 ETOT 35  -155.53591432639     -5.684E-14 1.196E-13 0.000E+00
 ETOT 36  -155.53591432639     -5.684E-14 2.560E-14 0.000E+00
 ETOT 37  -155.53591432639      0.000E+00 2.631E-14 0.000E+00
 ETOT 38  -155.53591432639     -5.684E-14 5.648E-15 0.000E+00
 ETOT 39  -155.53591432639      8.527E-14 5.799E-15 0.000E+00
 ETOT 40  -155.53591432639     -2.842E-14 1.247E-15 0.000E+00
 ETOT 41  -155.53591432639      2.842E-14 1.280E-15 0.000E+00
 ETOT 42  -155.53591432639      0.000E+00 2.757E-16 0.000E+00
 ETOT 43  -155.53591432639      0.000E+00 2.826E-16 0.000E+00
 ETOT 44  -155.53591432639     -2.842E-14 6.096E-17 0.000E+00
 ETOT 45  -155.53591432639      0.000E+00 6.246E-17 0.000E+00
 ETOT 46  -155.53591432639      0.000E+00 1.349E-17 0.000E+00
 ETOT 47  -155.53591432639      1.137E-13 1.381E-17 0.000E+00
 ETOT 48  -155.53591432639     -1.137E-13 2.985E-18 0.000E+00
 ETOT 49  -155.53591432639      5.684E-14 3.056E-18 0.000E+00
 ETOT 50  -155.53591432639     -5.684E-14 6.609E-19 0.000E+00
 ETOT 51  -155.53591432639      0.000E+00 6.765E-19 0.000E+00
 ETOT 52  -155.53591432639     -5.684E-14 1.464E-19 0.000E+00
 ETOT 53  -155.53591432639      1.137E-13 1.498E-19 0.000E+00
 ETOT 54  -155.53591432639      0.000E+00 3.241E-20 0.000E+00
 ETOT 55  -155.53591432639     -5.684E-14 3.318E-20 0.000E+00
 ETOT 56  -155.53591432639      0.000E+00 9.980E-21 0.000E+00

 At SCF step   56   max residual=  9.98E-21 < tolwfr=  1.00E-20 =>converged.

 ----iterations are completed or convergence reached----

 dfpt_looppert: DFPT cycle converged with prtwf=-1. Will skip output of the 1st-order WFK file.
 dfpt_looppert : ek2=    1.6618582901E+02
          f-sum rule ratio=    1.3224755476E+00
 prteigrs : about to open file /scratch/users/j/a/jabreu/flow_simple_7atoms/flow/w189/t1/tmpdata/tmp_1WF1_EIG
 Expectation of eigenvalue derivatives (hartree) for nkpt=   2  k points:
  (in case of degenerate eigenvalues, averaged derivative)
 kpt#   1, nband= 47, wtk=  0.50000, kpt=  0.0000  0.0000  0.0000 (reduced coord)
  -0.00000    0.00000   -0.00000   -0.00000    0.00000    0.00000   -0.00000   -0.00000
  -0.00000   -0.00000   -0.00000   -0.00000   -0.00000   -0.00000   -0.00000    0.00000
   0.00000    0.00000    0.00000    0.00000    0.00000    0.00000    0.00000   -0.00000
  -0.00000   -0.00000    0.00000    0.00000    0.00000   -0.00000    0.00000    0.00000
   0.00000   -0.00000   -0.00000   -0.00000   -0.00000    0.00000   -0.00000    0.00000
   0.00000   -0.00000    0.00000    0.00000    0.00000   -0.00000   -0.00000
 prteigrs : prtvol=0 or 1, do not print more k-points.

 Eight components of 2nd-order total energy (hartree) are
 1,2,3: 0th-order hamiltonian combined with 1st-order wavefunctions
     kin0=   2.22568089E+02 eigvalue=   1.17665546E+01  local=  -1.19659050E+02
 4,5,6: 1st-order hamiltonian combined with 1st and 0th-order wfs
     kin1=  -2.19776695E+02  Hartree=   0.00000000E+00     xc=   0.00000000E+00
 7,8,9: eventually, occupation + non-local contributions
    edocc=   3.93011034E+01     enl0=   1.55921795E+00   enl1=  -9.12951334E+01
 1-9 gives the relaxation energy (to be shifted if some occ is /=2.0)
   erelax=  -1.55535914E+02
  No Ewald or frozen-wf contrib.: the relaxation energy is the total one
 2DEtotal=   -0.1555359143E+03 Ha. Also 2DEtotal=   -0.423234746875E+04 eV
    (  non-var. 2DEtotal :   -1.5553591433E+02 Ha)

 CALCULATION OF EFFECTIVE MASSES
 NOTE : Additional infos (eff. mass eigenvalues, eigenvectors and, if degenerate, average mass) are available in stdout.

 K-point ( 0.000, 0.000, 0.000) | band =    38
 Effective mass tensor:
             -1.4511461402              0.1022564786             -0.3339264503
              0.1022564786             -1.4347536484             -0.3617628869
             -0.3339264503             -0.3617628869             -0.3641696711
 Effective mass tensor eigenvalues:
             -1.5455343374             -1.5455343271             -0.1590007952
 Angular average effective mass 1/(<1/m>)=  -0.3956046967
 Angular average effective mass for Frohlich model (<m**0.5>)**2=  -0.5764630669
 Effective masses along directions: (cart. coord. / red. coord. -> eff. mass)
    1:   1.000000  0.000000  0.000000 /   0.996823 -0.079644  0.000000 ->  -0.9698179520
    2:   0.000000  1.000000  0.000000 /   0.000000  1.000000  0.000000 ->  -0.9108897636
    3:   0.000000  0.000000  1.000000 /  -0.544129 -0.544129  0.638629 ->  -0.1833389443
    4:   0.577350  0.577350  0.577350 /  -0.294278 -0.333242  0.895740 ->  -1.0894872325
    5:   0.000000  0.707107  0.707107 /  -0.628981 -0.243762  0.738216 ->  -0.5543318783
    6:   0.707107  0.000000  0.707107 /  -0.237909 -0.647294  0.724161 ->  -0.5308149429
    7:   0.707107  0.707107  0.000000 /   0.737066  0.675820  0.000000 ->  -0.6754068522

 K-point ( 0.500, 0.500,-0.500) | band =    39
 Effective mass tensor:
              0.2419268048              0.0631438238             -0.2062010484
              0.0631438238              0.2520492428             -0.2233901739
             -0.2062010484             -0.2233901739              0.9131396098
 Effective mass tensor eigenvalues:
              0.1836416868              0.1836416873              1.0398322834
 Angular average effective mass 1/(<1/m>)=   0.2531118638
 Angular average effective mass for Frohlich model (<m**0.5>)**2=   0.2883671422
 Effective masses along directions: (cart. coord. / red. coord. -> eff. mass)
    1:   1.000000  0.000000  0.000000 /   0.996823 -0.079644  0.000000 ->   0.1945464889
    2:   0.000000  1.000000  0.000000 /   0.000000  1.000000  0.000000 ->   0.1965737018
    3:   0.000000  0.000000  1.000000 /  -0.544129 -0.544129  0.638629 ->   0.6153252076
    4:   0.577350  0.577350  0.577350 /  -0.294278 -0.333242  0.895740 ->   0.1911986730
    5:   0.000000  0.707107  0.707107 /  -0.628981 -0.243762  0.738216 ->   0.2209455577
    6:   0.707107  0.000000  0.707107 /  -0.237909 -0.647294  0.724161 ->   0.2240901130
    7:   0.707107  0.707107  0.000000 /   0.737066  0.675820  0.000000 ->   0.2090745080

 END OF EFFECTIVE MASSES SECTION

 ---- first-order wavefunction calculations are completed ----

 Total localisation tensor (bohr^2) in cartesian coordinates
  WARNING : still subject to testing - especially symmetries.
      direction              matrix element
   alpha     beta       real part   imaginary part
     1        1       2.7862758032    0.0000000000
     1        2      -0.2204973746    0.0000000000
     1        3      -4.1460648833    0.0000000000
     2        1      -0.2204973746    0.0000000000
     2        2       2.7509276949    0.0000000000
     2        3      -4.4916837721    0.0000000000
     3        1      -4.1460648833    0.0000000000
     3        2      -4.4916837721    0.0000000000
     3        3      34.1348527432    0.0000000000

 respfn : d/dk was computed, but no 2DTE, so no DDB output.

== END DATASET(S) ==============================================================

 -outvars: echo values of variables after computation  --------
            acell      1.0000000000E+00  1.0000000000E+00  1.0000000000E+00 Bohr
              amu      4.00780000E+01  7.49215900E+01  1.59994000E+01
             ecut      4.40000000E+01 Hartree
           etotal     -1.5553591433E+02
            fcart      0.0000000000E+00  0.0000000000E+00  0.0000000000E+00
                       0.0000000000E+00  0.0000000000E+00  0.0000000000E+00
                       0.0000000000E+00  0.0000000000E+00  0.0000000000E+00
                       0.0000000000E+00  0.0000000000E+00  0.0000000000E+00
                       0.0000000000E+00  0.0000000000E+00  0.0000000000E+00
                       0.0000000000E+00  0.0000000000E+00  0.0000000000E+00
                       0.0000000000E+00  0.0000000000E+00  0.0000000000E+00
-          fftalg         512
           irdden           1
           irdwfk           1
           istwfk        1    0
              ixc     -116133
              kpt      0.00000000E+00  0.00000000E+00  0.00000000E+00
                       5.00000000E-01  5.00000000E-01 -5.00000000E-01
           kptopt           0
P           mkmem           2
P          mkqmem           2
P          mk1mem           2
            natom           7
            nband          47
           nbdbuf           4
            ngfft          96      96      96
             nkpt           2
            nstep        2000
             nsym          16
           ntypat           3
              occ      2.000000  2.000000  2.000000  2.000000  2.000000  2.000000
                       2.000000  2.000000  2.000000  2.000000  2.000000  2.000000
                       2.000000  2.000000  2.000000  2.000000  2.000000  2.000000
                       2.000000  2.000000  2.000000  2.000000  2.000000  2.000000
                       2.000000  2.000000  2.000000  2.000000  2.000000  2.000000
                       2.000000  2.000000  2.000000  2.000000  2.000000  2.000000
                       2.000000  2.000000  0.000000  0.000000  0.000000  0.000000
                       0.000000  0.000000  0.000000  0.000000  0.000000
        optdriver           1
            prtwf          -1
            rfdir           1       1       1
           rfelfd           2
            rprim      8.1776474276E+00  0.0000000000E+00 -1.3309684178E+01
                      -6.5337422830E-01  8.1515041292E+00 -1.3309684178E+01
                       0.0000000000E+00  0.0000000000E+00  1.5621191067E+01
          spgroup         139
           strten      0.0000000000E+00  0.0000000000E+00  0.0000000000E+00
                       0.0000000000E+00  0.0000000000E+00  0.0000000000E+00
           symrel      1  0  0   0  1  0   0  0  1      -1  0  0   0 -1  0   0  0 -1
                       0  0  1  -1 -1 -1   1  0  0       0  0 -1   1  1  1  -1  0  0
                       0  1  0   1  0  0  -1 -1 -1       0 -1  0  -1  0  0   1  1  1
                      -1 -1 -1   0  0  1   0  1  0       1  1  1   0  0 -1   0 -1  0
                       0  1  0   1  0  0   0  0  1       0 -1  0  -1  0  0   0  0 -1
                       0  0  1  -1 -1 -1   0  1  0       0  0 -1   1  1  1   0 -1  0
                       1  0  0   0  1  0  -1 -1 -1      -1  0  0   0 -1  0   1  1  1
                      -1 -1 -1   0  0  1   1  0  0       1  1  1   0  0 -1  -1  0  0
           tolwfr      1.00000000E-20
            typat      1  1  1  1  2  2  3
           useylm           1
              wtk        0.50000    0.50000
           xangst      2.6723203385E+00  2.8950876313E+00 -9.4541329867E+00
                       1.3093535498E+00  1.4185025696E+00 -4.6322300542E+00
                       2.1637123193E+00  0.0000000000E+00  6.1159838171E-01
                      -1.7287537515E-01  2.1567951004E+00  6.1159838171E-01
                       3.4360332620E+00  3.7224644269E+00 -1.2155996022E+01
                       5.4564062630E-01  5.9112577395E-01 -1.9303670184E+00
                       1.9908369441E+00  2.1567951004E+00 -7.0431815204E+00
            xcart      5.0499535791E+00  5.4709227538E+00 -1.7865722169E+01
                       2.4743196202E+00  2.6805813754E+00 -8.7536461869E+00
                       4.0888237138E+00  0.0000000000E+00  1.1557534448E+00
                      -3.2668711415E-01  4.0757520646E+00  1.1557534448E+00
                       6.4931618486E+00  7.0344383063E+00 -2.2971503355E+01
                       1.0311113507E+00  1.1170658229E+00 -3.6478650007E+00
                       3.7621365997E+00  4.0757520646E+00 -1.3309684178E+01
             xred      6.7115500000E-01  6.7115500000E-01  0.0000000000E+00
                       3.2884500000E-01  3.2884500000E-01  0.0000000000E+00
                       5.0000000000E-01  0.0000000000E+00  5.0000000000E-01
                       6.9388939039E-18  5.0000000000E-01  5.0000000000E-01
                       8.6296200000E-01  8.6296200000E-01  0.0000000000E+00
                       1.3703800000E-01  1.3703800000E-01 -1.3877787808E-17
                       5.0000000000E-01  5.0000000000E-01  1.1102230246E-16
            znucl       20.00000   33.00000    8.00000

- Timing analysis has been suppressed with timopt=0

 Suggested references for the acknowledgment of ABINIT usage.

 Calculation completed.
.Delivered  14 WARNINGs and   9 COMMENTs to log file.