.Version 9.5.2 of ABINIT

 ABINIT is a project of the Universite Catholique de Louvain,
 Corning Inc. and other collaborators, see ~abinit/doc/developers/contributors.txt .
 acknowledgments of the ABINIT effort.

.Starting date : Mon 24 May 2021.
- ( at 11h36 )

- input  file    -> /scratch/users/j/a/jabreu/flow_simple_10atoms/flow/w347/t1/run.abi
- output file    -> /scratch/users/j/a/jabreu/flow_simple_10atoms/flow/w347/t1/run.abo
- root for input  files -> /scratch/users/j/a/jabreu/flow_simple_10atoms/flow/w347/t1/indata/in
- root for output files -> /scratch/users/j/a/jabreu/flow_simple_10atoms/flow/w347/t1/outdata/out

 Symmetries : space group Cm m m (# 65); Bravais oC (1-face-center ortho.)
     intxc =       0      iscf =       7    lmnmax =      32     lnmax =       8
     mgfft =      72  mpssoang =       4    mqgrid =    3241     natom =      10
  nloc_mem =       1    nspden =       1   nspinor =       1    nsppol =       1
      nsym =       8    n1xccc =    2501    ntypat =       3    occopt =       1
   xclevel =       2
-    mband =          59        mffmem =           1         mkmem =           2
-   mkqmem =           2        mk1mem =           2           mpw =       10464
      nfft =      186624          nkpt =           2
  Rough estimation (10% accuracy) of disk space for files :

------------- Echo of variables that govern the present computation ------------
-
- outvars: echo of selected default values
-   iomode0 =  0 , fftalg0 =512 , wfoptalg0 =  0
-
- outvars: echo of global parameters not present in the input file
-  max_nthreads =    0
-
 -outvars: echo values of preprocessed input variables --------
            acell      1.0000000000E+00  1.0000000000E+00  1.0000000000E+00 Bohr
              amu      2.43050000E+01  1.95080000E+02  1.59994000E+01
             ecut      4.40000000E+01 Hartree
-          fftalg         512
           irdden           1
           irdwfk           1
              ixc     -116133
              kpt     -5.00000000E-01  5.00000000E-01  5.00000000E-01
                      -2.25000000E-01  2.25000000E-01  5.00000000E-01
           kptopt           0
P           mkmem           2
P          mkqmem           2
P          mk1mem           2
            natom          10
            nband          59
           nbdbuf           4
            ngfft          72      72      36
             nkpt           2
            nstep        2000
             nsym           8
           ntypat           3
              occ      2.000000  2.000000  2.000000  2.000000  2.000000  2.000000
                       2.000000  2.000000  2.000000  2.000000  2.000000  2.000000
                       2.000000  2.000000  2.000000  2.000000  2.000000  2.000000
                       2.000000  2.000000  2.000000  2.000000  2.000000  2.000000
                       2.000000  2.000000  2.000000  2.000000  2.000000  2.000000
                       2.000000  2.000000  2.000000  2.000000  2.000000  2.000000
                       2.000000  2.000000  2.000000  2.000000  2.000000  2.000000
                       2.000000  2.000000  2.000000  2.000000  2.000000  2.000000
                       2.000000  2.000000  0.000000  0.000000  0.000000  0.000000
                       0.000000  0.000000  0.000000  0.000000  0.000000
        optdriver           1
            prtwf          -1
            rfdir           1       1       1
           rfelfd           2
            rprim      1.1466190352E+01  0.0000000000E+00  0.0000000000E+00
                      -3.7021417138E+00  1.0852081271E+01  0.0000000000E+00
                       0.0000000000E+00  0.0000000000E+00  6.0142174010E+00
          spgroup          65
           symrel      1  0  0   0  1  0   0  0  1      -1  0  0   0 -1  0   0  0 -1
                       0 -1  0  -1  0  0   0  0 -1       0  1  0   1  0  0   0  0  1
                      -1  0  0   0 -1  0   0  0  1       1  0  0   0  1  0   0  0 -1
                       0  1  0   1  0  0   0  0 -1       0 -1  0  -1  0  0   0  0  1
           tolwfr      1.00000000E-20
            typat      1  2  2  2  3  3  3  3  3  3
           useylm           1
              wtk        0.50000    0.50000
           xangst      0.0000000000E+00  0.0000000000E+00  0.0000000000E+00
                       3.0338233017E+00  0.0000000000E+00  1.5912933881E+00
                       2.0542787928E+00  2.8713370372E+00  0.0000000000E+00
                      -9.7954450896E-01  2.8713370372E+00  1.5912933881E+00
                       3.9502561349E+00  3.3640067887E+00  0.0000000000E+00
                       1.5830145067E-01  2.3786672857E+00  0.0000000000E+00
                       1.9083990740E+00  4.8248397051E+00  0.0000000000E+00
                       2.2001585115E+00  9.1783436929E-01  0.0000000000E+00
                       4.8762944223E+00  8.5234491414E-01  1.5912933881E+00
                      -7.6773683678E-01  4.8903291602E+00  1.5912933881E+00
            xcart      0.0000000000E+00  0.0000000000E+00  0.0000000000E+00
                       5.7330951758E+00  0.0000000000E+00  3.0071087005E+00
                       3.8820243190E+00  5.4260406355E+00  0.0000000000E+00
                      -1.8510708569E+00  5.4260406355E+00  3.0071087005E+00
                       7.4649022497E+00  6.3570515398E+00  0.0000000000E+00
                       2.9914638821E-01  4.4950297312E+00  0.0000000000E+00
                       3.6063516022E+00  9.1176256777E+00  0.0000000000E+00
                       4.1576970357E+00  1.7344555933E+00  0.0000000000E+00
                       9.2148610015E+00  1.6106984585E+00  3.0071087005E+00
                      -1.4508123636E+00  9.2413828125E+00  3.0071087005E+00
             xred      0.0000000000E+00  0.0000000000E+00  0.0000000000E+00
                       5.0000000000E-01  0.0000000000E+00  5.0000000000E-01
                       5.0000000000E-01  5.0000000000E-01  0.0000000000E+00
                       0.0000000000E+00  5.0000000000E-01  5.0000000000E-01
                       8.4017300000E-01  5.8579100000E-01  0.0000000000E+00
                       1.5982700000E-01  4.1420900000E-01  0.0000000000E+00
                       5.8579100000E-01  8.4017300000E-01  0.0000000000E+00
                       4.1420900000E-01  1.5982700000E-01  0.0000000000E+00
                       8.5157700000E-01  1.4842300000E-01  5.0000000000E-01
                       1.4842300000E-01  8.5157700000E-01  5.0000000000E-01
            znucl       12.00000   78.00000    8.00000

 chkinp: Checking input parameters for consistency.

== DATASET  1 ==================================================================
-   mpi_nproc: 1, omp_nthreads: -1 (-1 if OMP is not activated)

--- !DatasetInfo
iteration_state: {dtset: 1, }
dimensions: {natom: 10, nkpt: 2, mband: 59, nsppol: 1, nspinor: 1, nspden: 1, mpw: 10464, }
cutoff_energies: {ecut:  44.0, pawecutdg:  -1.0, }
electrons: {nelect:   1.00000000E+02, charge:   0.00000000E+00, occopt:   1.00000000E+00, tsmear:   1.00000000E-02, }
meta: {optdriver: 1, rfelfd: 2, }
...

 Real(R)+Recip(G) space primitive vectors, cartesian coordinates (Bohr,Bohr^-1):
 R(1)= 11.4661904  0.0000000  0.0000000  G(1)=  0.0872129  0.0297523  0.0000000
 R(2)= -3.7021417 10.8520813  0.0000000  G(2)=  0.0000000  0.0921482  0.0000000
 R(3)=  0.0000000  0.0000000  6.0142174  G(3)=  0.0000000  0.0000000  0.1662727
 Unit cell volume ucvol=  7.4836128E+02 bohr^3
 Angles (23,13,12)=  9.00000000E+01  9.00000000E+01  1.08836858E+02 degrees

 getcut: wavevector=  0.0000  0.0000  0.0000  ngfft=  72  72  36
         ecut(hartree)=     44.000   => boxcut(ratio)=   2.00462

--- Pseudopotential description ------------------------------------------------
- pspini: atom type   1  psp file is /scratch/users/j/a/jabreu/pseudos/PBEsol/Mg.psp8
- pspatm: opening atomic psp file    /scratch/users/j/a/jabreu/pseudos/PBEsol/Mg.psp8
- Mg    ONCVPSP-3.3.0  r_core=   1.16056   1.56380
- 12.00000  10.00000    180112                znucl, zion, pspdat
    8 -116133    1    4       400   0.00000   pspcod,pspxc,lmax,lloc,mmax,r2well
    3.99000000000000    0.00000000000000    0.00000000000000   rchrg,fchrg,qchrg
     nproj     2     2
     extension_switch     1
  pspatm : epsatm=    9.18164846
         --- l  ekb(1:nproj) -->
             0    2.230603   -0.826587
             1   -6.503151   -2.501445
 pspatm: atomic psp has been read  and splines computed

- pspini: atom type   2  psp file is /scratch/users/j/a/jabreu/pseudos/PBEsol/Pt.psp8
- pspatm: opening atomic psp file    /scratch/users/j/a/jabreu/pseudos/PBEsol/Pt.psp8
- Pt    ONCVPSP-3.3.0  r_core=   1.45722   1.45722   1.45722   1.91724
- 78.00000  18.00000    180112                znucl, zion, pspdat
    8 -116133    3    4       500   0.00000   pspcod,pspxc,lmax,lloc,mmax,r2well
    4.99000000000000    5.00000000000000    0.00000000000000   rchrg,fchrg,qchrg
     nproj     2     2     2     2
     extension_switch     1
  pspatm : epsatm=   26.54019552
         --- l  ekb(1:nproj) -->
             0   18.149684    1.747248
             1    8.048135    1.208190
             2    2.365973    0.348456
             3    3.491561    0.381218
 pspatm: atomic psp has been read  and splines computed

- pspini: atom type   3  psp file is /scratch/users/j/a/jabreu/pseudos/PBEsol/O.psp8
- pspatm: opening atomic psp file    /scratch/users/j/a/jabreu/pseudos/PBEsol/O.psp8
- O     ONCVPSP-3.3.0  r_core=   1.35509   1.45563   1.26150
-  8.00000   6.00000    180112                znucl, zion, pspdat
    8 -116133    2    4       600   0.00000   pspcod,pspxc,lmax,lloc,mmax,r2well
    5.99000000000000    4.00000000000000    0.00000000000000   rchrg,fchrg,qchrg
     nproj     2     2     1
     extension_switch     1
  pspatm : epsatm=    6.22910522
         --- l  ekb(1:nproj) -->
             0    6.050032    0.820363
             1   -4.739617   -1.153841
             2   -1.335834
 pspatm: atomic psp has been read  and splines computed

   1.26176866E+04                                ecore*ucvol(ha*bohr**3)

 ==>  initialize data related to q vector <==

 The list of irreducible perturbations for this q vector is:
    1)    idir= 1    ipert=  11
    2)    idir= 2    ipert=  11
    3)    idir= 3    ipert=  11

 Perturbation wavevector (in red.coord.)   0.000000  0.000000  0.000000
 Perturbation : derivative vs k along direction   1

 dfpt_looppert : COMMENT -
  In a d/dk calculation, iscf is set to -3 automatically.
 The set of symmetries contains only one element for this perturbation.
 symkpt : not enough symmetry to change the number of k points.

 Initialisation of the first-order wave-functions :
  ireadwf=   0

--- !BeginCycle
iteration_state: {dtset: 1, }
solver: {iscf: 7, nstep: 2000, nline: 4, wfoptalg: 0, }
tolerances: {tolwfr: 1.00E-20, }
...

     iter   2DEtotal(Ha)        deltaE(Ha) residm    vres2
-ETOT  1  -34.784735034057     -3.478E+01 5.194E-02 0.000E+00
 ETOT  2  -34.826265382894     -4.153E-02 2.361E-03 0.000E+00
 ETOT  3  -34.826544144102     -2.788E-04 1.139E-04 0.000E+00
 ETOT  4  -34.826547936641     -3.793E-06 6.810E-06 0.000E+00
 ETOT  5  -34.826548004703     -6.806E-08 7.482E-07 0.000E+00
 ETOT  6  -34.826548006142     -1.439E-09 5.487E-08 0.000E+00
 ETOT  7  -34.826548006176     -3.334E-11 6.106E-09 0.000E+00
 ETOT  8  -34.826548006176     -8.811E-13 4.799E-10 0.000E+00
 ETOT  9  -34.826548006176     -1.421E-14 5.355E-11 0.000E+00
 ETOT 10  -34.826548006176     -7.105E-15 4.532E-12 0.000E+00
 ETOT 11  -34.826548006176      0.000E+00 4.453E-13 0.000E+00
 ETOT 12  -34.826548006176     -7.105E-15 4.664E-14 0.000E+00
 ETOT 13  -34.826548006176      0.000E+00 4.351E-15 0.000E+00
 ETOT 14  -34.826548006176      0.000E+00 4.837E-16 0.000E+00
 ETOT 15  -34.826548006176     -1.421E-14 4.459E-17 0.000E+00
 ETOT 16  -34.826548006176      1.421E-14 5.021E-18 0.000E+00
 ETOT 17  -34.826548006176      0.000E+00 4.615E-19 0.000E+00
 ETOT 18  -34.826548006176      0.000E+00 5.255E-20 0.000E+00
 ETOT 19  -34.826548006176      0.000E+00 9.932E-21 0.000E+00

 At SCF step   19   max residual=  9.93E-21 < tolwfr=  1.00E-20 =>converged.

 ----iterations are completed or convergence reached----

 dfpt_looppert: DFPT cycle converged with prtwf=-1. Will skip output of the 1st-order WFK file.
 dfpt_looppert : ek2=    6.7044577352E+01
          f-sum rule ratio=    9.7233335529E-01
 prteigrs : about to open file /scratch/users/j/a/jabreu/flow_simple_10atoms/flow/w347/t1/tmpdata/tmp_1WF1_EIG
 Expectation of eigenvalue derivatives (hartree) for nkpt=   2  k points:
  (in case of degenerate eigenvalues, averaged derivative)
 kpt#   1, nband= 59, wtk=  0.50000, kpt= -0.5000  0.5000  0.5000 (reduced coord)
  -0.00000   -0.00000    0.00000   -0.00000   -0.00000   -0.00000    0.00000    0.00000
  -0.00000    0.00000    0.00000    0.00000   -0.00000   -0.00000    0.00000   -0.00000
   0.00000   -0.00000    0.00000   -0.00000   -0.00000   -0.00000    0.00000    0.00000
  -0.00000   -0.00000    0.00000    0.00000    0.00000    0.00000   -0.00000    0.00000
   0.00000   -0.00000   -0.00000   -0.00000    0.00000    0.00000   -0.00000   -0.00000
   0.00000    0.00000   -0.00000    0.00000   -0.00000    0.00000    0.00000    0.00000
   0.00000    0.00000   -0.00000   -0.00000   -0.00000    0.00000   -0.00000   -0.00000
   0.00000    0.00016    0.00003
 prteigrs : prtvol=0 or 1, do not print more k-points.

 Eight components of 2nd-order total energy (hartree) are
 1,2,3: 0th-order hamiltonian combined with 1st-order wavefunctions
     kin0=   5.50881162E+01 eigvalue=  -2.15282242E+00  local=  -2.45195295E+01
 4,5,6: 1st-order hamiltonian combined with 1st and 0th-order wfs
     kin1=  -6.51896789E+01  Hartree=   0.00000000E+00     xc=   0.00000000E+00
 7,8,9: eventually, occupation + non-local contributions
    edocc=   5.90050198E+00     enl0=   5.10281734E-01   enl1=  -4.46341716E+00
 1-9 gives the relaxation energy (to be shifted if some occ is /=2.0)
   erelax=  -3.48265480E+01
  No Ewald or frozen-wf contrib.: the relaxation energy is the total one
 2DEtotal=   -0.3482654801E+02 Ha. Also 2DEtotal=   -0.947678566315E+03 eV
    (  non-var. 2DEtotal :   -3.4826548006E+01 Ha)

 Perturbation wavevector (in red.coord.)   0.000000  0.000000  0.000000
 Perturbation : derivative vs k along direction   2
 The set of symmetries contains only one element for this perturbation.
 symkpt : not enough symmetry to change the number of k points.

[...]

 Perturbation wavevector (in red.coord.)   0.000000  0.000000  0.000000
 Perturbation : derivative vs k along direction   3
 The set of symmetries contains only one element for this perturbation.
 symkpt : not enough symmetry to change the number of k points.

 Initialisation of the first-order wave-functions :
  ireadwf=   0

--- !BeginCycle
iteration_state: {dtset: 1, }
solver: {iscf: 7, nstep: 2000, nline: 4, wfoptalg: 0, }
tolerances: {tolwfr: 1.00E-20, }
...

     iter   2DEtotal(Ha)        deltaE(Ha) residm    vres2
-ETOT  1  -117.32581385265     -1.173E+02 2.441E-01 0.000E+00
 ETOT  2  -117.42412288843     -9.831E-02 9.264E-03 0.000E+00
 ETOT  3  -117.42463475632     -5.119E-04 1.409E-04 0.000E+00
 ETOT  4  -117.42464008930     -5.333E-06 1.945E-05 0.000E+00
 ETOT  5  -117.42464016687     -7.756E-08 6.243E-07 0.000E+00
 ETOT  6  -117.42464016827     -1.405E-09 9.491E-08 0.000E+00
 ETOT  7  -117.42464016830     -2.856E-11 3.456E-09 0.000E+00
 ETOT  8  -117.42464016830     -6.679E-13 5.127E-10 0.000E+00
 ETOT  9  -117.42464016830      1.563E-13 1.956E-11 0.000E+00
 ETOT 10  -117.42464016830     -1.421E-13 2.869E-12 0.000E+00
 ETOT 11  -117.42464016830     -1.421E-14 1.127E-13 0.000E+00
 ETOT 12  -117.42464016830      1.421E-14 1.649E-14 0.000E+00
 ETOT 13  -117.42464016830     -4.263E-14 6.613E-16 0.000E+00
 ETOT 14  -117.42464016830      0.000E+00 9.688E-17 0.000E+00
 ETOT 15  -117.42464016830      0.000E+00 3.952E-18 0.000E+00
 ETOT 16  -117.42464016830      0.000E+00 5.807E-19 0.000E+00
 ETOT 17  -117.42464016830      4.263E-14 2.405E-20 0.000E+00
 ETOT 18  -117.42464016830     -1.421E-14 9.997E-21 0.000E+00

 At SCF step   18   max residual=  1.00E-20 < tolwfr=  1.00E-20 =>converged.

 ----iterations are completed or convergence reached----

 dfpt_looppert: DFPT cycle converged with prtwf=-1. Will skip output of the 1st-order WFK file.
 dfpt_looppert : ek2=    2.1828881671E+02
          f-sum rule ratio=    1.0010827569E+00
 prteigrs : about to open file /scratch/users/j/a/jabreu/flow_simple_10atoms/flow/w347/t1/tmpdata/tmp_1WF1_EIG
 Expectation of eigenvalue derivatives (hartree) for nkpt=   2  k points:
  (in case of degenerate eigenvalues, averaged derivative)
 kpt#   1, nband= 59, wtk=  0.50000, kpt= -0.5000  0.5000  0.5000 (reduced coord)
   0.00000   -0.00000    0.00000   -0.00000    0.00000    0.00000   -0.00000   -0.00000
   0.00000    0.00000   -0.00000    0.00000   -0.00000    0.00000    0.00000    0.00000
  -0.00000   -0.00000    0.00000    0.00000   -0.00000    0.00000   -0.00000    0.00000
   0.00000    0.00000    0.00000   -0.00000   -0.00000    0.00000    0.00000   -0.00000
   0.00000    0.00000   -0.00000    0.00000    0.00000    0.00000   -0.00000    0.00000
  -0.00000    0.00000   -0.00000   -0.00000   -0.00000   -0.00000    0.00000   -0.00000
  -0.00000   -0.00000   -0.00000   -0.00000    0.00000    0.00000    0.00000   -0.00000
  -0.00000    0.00021    0.00009
 prteigrs : prtvol=0 or 1, do not print more k-points.

 Eight components of 2nd-order total energy (hartree) are
 1,2,3: 0th-order hamiltonian combined with 1st-order wavefunctions
     kin0=   1.76070878E+02 eigvalue=  -7.02515111E+00  local=  -7.77361343E+01
 4,5,6: 1st-order hamiltonian combined with 1st and 0th-order wfs
     kin1=  -2.18525170E+02  Hartree=   0.00000000E+00     xc=   0.00000000E+00
 7,8,9: eventually, occupation + non-local contributions
    edocc=   2.45396176E+01     enl0=   1.57542969E+00   enl1=  -1.63241099E+01
 1-9 gives the relaxation energy (to be shifted if some occ is /=2.0)
   erelax=  -1.17424640E+02
  No Ewald or frozen-wf contrib.: the relaxation energy is the total one
 2DEtotal=   -0.1174246402E+03 Ha. Also 2DEtotal=   -0.319528695824E+04 eV
    (  non-var. 2DEtotal :   -1.1742464017E+02 Ha)

 CALCULATION OF EFFECTIVE MASSES
 NOTE : Additional infos (eff. mass eigenvalues, eigenvectors and, if degenerate, average mass) are available in stdout.

 K-point (-0.500, 0.500, 0.500) | band =    50
 Effective mass tensor:
            -11.9472043056              4.2737378858              0.0000000927
              4.2737378858             -9.0312697362              0.0000000957
              0.0000000927              0.0000000957             -0.2871490879
 Effective mass tensor eigenvalues:
            -15.0048216032             -5.9736524386             -0.2871490879
 Angular average effective mass 1/(<1/m>)=  -0.8071983771
 Angular average effective mass for Frohlich model (<m**0.5>)**2=  -1.7192022399
 Effective masses along directions: (cart. coord. / red. coord. -> eff. mass)
    1:   1.000000  0.000000  0.000000 /   0.951627 -0.307256  0.000000 ->  -9.9248047926
    2:   0.000000  1.000000  0.000000 /   0.000000  1.000000  0.000000 ->  -7.5024739569
    3:   0.000000  0.000000  1.000000 /   0.000000  0.000000  1.000000 ->  -0.2871490879
    4:   0.577350  0.577350  0.577350 /   0.775228  0.483407  0.406620 ->  -0.7870051978
    5:   0.000000  0.707107  0.707107 /   0.000000  0.874660  0.484736 ->  -0.5531277881
    6:   0.707107  0.000000  0.707107 /   0.851452 -0.274912  0.446601 ->  -0.5581495177
    7:   0.707107  0.707107  0.000000 /   0.848544  0.529124  0.000000 ->  -6.0715126678

 K-point (-0.225, 0.225, 0.500) | band =    51
 Effective mass tensor:
              1.6242859350              0.0935115040              0.0000030130
              0.0935115040              1.6880845483              0.0000039872
              0.0000030130              0.0000039872              0.8745090327
 Effective mass tensor eigenvalues:
              0.8745090326              1.5573825740              1.7549879094
 Angular average effective mass 1/(<1/m>)=   1.2736656379
 Angular average effective mass for Frohlich model (<m**0.5>)**2=   1.3124010621
 Effective masses along directions: (cart. coord. / red. coord. -> eff. mass)
    1:   1.000000  0.000000  0.000000 /   0.951627 -0.307256  0.000000 ->   1.6191058619
    2:   0.000000  1.000000  0.000000 /   0.000000  1.000000  0.000000 ->   1.6827010126
    3:   0.000000  0.000000  1.000000 /   0.000000  0.000000  1.000000 ->   0.8745090327
    4:   0.577350  0.577350  0.577350 /   0.775228  0.483407  0.406620 ->   1.3117791007
    5:   0.000000  0.707107  0.707107 /   0.000000  0.874660  0.484736 ->   1.1508961704
    6:   0.707107  0.000000  0.707107 /   0.851452 -0.274912  0.446601 ->   1.1356411730
    7:   0.707107  0.707107  0.000000 /   0.848544  0.529124  0.000000 ->   1.7490455759

 END OF EFFECTIVE MASSES SECTION

 ---- first-order wavefunction calculations are completed ----

 Total localisation tensor (bohr^2) in cartesian coordinates
  WARNING : still subject to testing - especially symmetries.
      direction              matrix element
   alpha     beta       real part   imaginary part
     1        1       0.7805993188    0.0000000000
     1        2      -0.2160103243    0.0000000000
     1        3       0.0000000000    0.0000000000
     2        1      -0.2160103243    0.0000000000
     2        2       0.6331906705    0.0000000000
     2        3       0.0000000000    0.0000000000
     3        1       0.0000000000    0.0000000000
     3        2       0.0000000000    0.0000000000
     3        3       0.9230683879    0.0000000000

 respfn : d/dk was computed, but no 2DTE, so no DDB output.

== END DATASET(S) ==============================================================

 -outvars: echo values of variables after computation  --------
            acell      1.0000000000E+00  1.0000000000E+00  1.0000000000E+00 Bohr
              amu      2.43050000E+01  1.95080000E+02  1.59994000E+01
             ecut      4.40000000E+01 Hartree
           etotal     -1.1742464017E+02
            fcart      0.0000000000E+00  0.0000000000E+00  0.0000000000E+00
                       0.0000000000E+00  0.0000000000E+00  0.0000000000E+00
                       0.0000000000E+00  0.0000000000E+00  0.0000000000E+00
                       0.0000000000E+00  0.0000000000E+00  0.0000000000E+00
                       0.0000000000E+00  0.0000000000E+00  0.0000000000E+00
                       0.0000000000E+00  0.0000000000E+00  0.0000000000E+00
                       0.0000000000E+00  0.0000000000E+00  0.0000000000E+00
                       0.0000000000E+00  0.0000000000E+00  0.0000000000E+00
                       0.0000000000E+00  0.0000000000E+00  0.0000000000E+00
                       0.0000000000E+00  0.0000000000E+00  0.0000000000E+00
-          fftalg         512
           irdden           1
           irdwfk           1
              ixc     -116133
              kpt     -5.00000000E-01  5.00000000E-01  5.00000000E-01
                      -2.25000000E-01  2.25000000E-01  5.00000000E-01
           kptopt           0
P           mkmem           2
P          mkqmem           2
P          mk1mem           2
            natom          10
            nband          59
           nbdbuf           4
            ngfft          72      72      36
             nkpt           2
            nstep        2000
             nsym           8
           ntypat           3
              occ      2.000000  2.000000  2.000000  2.000000  2.000000  2.000000
                       2.000000  2.000000  2.000000  2.000000  2.000000  2.000000
                       2.000000  2.000000  2.000000  2.000000  2.000000  2.000000
                       2.000000  2.000000  2.000000  2.000000  2.000000  2.000000
                       2.000000  2.000000  2.000000  2.000000  2.000000  2.000000
                       2.000000  2.000000  2.000000  2.000000  2.000000  2.000000
                       2.000000  2.000000  2.000000  2.000000  2.000000  2.000000
                       2.000000  2.000000  2.000000  2.000000  2.000000  2.000000
                       2.000000  2.000000  0.000000  0.000000  0.000000  0.000000
                       0.000000  0.000000  0.000000  0.000000  0.000000
        optdriver           1
            prtwf          -1
            rfdir           1       1       1
           rfelfd           2
            rprim      1.1466190352E+01  0.0000000000E+00  0.0000000000E+00
                      -3.7021417138E+00  1.0852081271E+01  0.0000000000E+00
                       0.0000000000E+00  0.0000000000E+00  6.0142174010E+00
          spgroup          65
           strten      0.0000000000E+00  0.0000000000E+00  0.0000000000E+00
                       0.0000000000E+00  0.0000000000E+00  0.0000000000E+00
           symrel      1  0  0   0  1  0   0  0  1      -1  0  0   0 -1  0   0  0 -1
                       0 -1  0  -1  0  0   0  0 -1       0  1  0   1  0  0   0  0  1
                      -1  0  0   0 -1  0   0  0  1       1  0  0   0  1  0   0  0 -1
                       0  1  0   1  0  0   0  0 -1       0 -1  0  -1  0  0   0  0  1
           tolwfr      1.00000000E-20
            typat      1  2  2  2  3  3  3  3  3  3
           useylm           1
              wtk        0.50000    0.50000
           xangst      0.0000000000E+00  0.0000000000E+00  0.0000000000E+00
                       3.0338233017E+00  0.0000000000E+00  1.5912933881E+00
                       2.0542787928E+00  2.8713370372E+00  0.0000000000E+00
                      -9.7954450896E-01  2.8713370372E+00  1.5912933881E+00
                       3.9502561349E+00  3.3640067887E+00  0.0000000000E+00
                       1.5830145067E-01  2.3786672857E+00  0.0000000000E+00
                       1.9083990740E+00  4.8248397051E+00  0.0000000000E+00
                       2.2001585115E+00  9.1783436929E-01  0.0000000000E+00
                       4.8762944223E+00  8.5234491414E-01  1.5912933881E+00
                      -7.6773683678E-01  4.8903291602E+00  1.5912933881E+00
            xcart      0.0000000000E+00  0.0000000000E+00  0.0000000000E+00
                       5.7330951758E+00  0.0000000000E+00  3.0071087005E+00
                       3.8820243190E+00  5.4260406355E+00  0.0000000000E+00
                      -1.8510708569E+00  5.4260406355E+00  3.0071087005E+00
                       7.4649022497E+00  6.3570515398E+00  0.0000000000E+00
                       2.9914638821E-01  4.4950297312E+00  0.0000000000E+00
                       3.6063516022E+00  9.1176256777E+00  0.0000000000E+00
                       4.1576970357E+00  1.7344555933E+00  0.0000000000E+00
                       9.2148610015E+00  1.6106984585E+00  3.0071087005E+00
                      -1.4508123636E+00  9.2413828125E+00  3.0071087005E+00
             xred      0.0000000000E+00  0.0000000000E+00  0.0000000000E+00
                       5.0000000000E-01  0.0000000000E+00  5.0000000000E-01
                       5.0000000000E-01  5.0000000000E-01  0.0000000000E+00
                       0.0000000000E+00  5.0000000000E-01  5.0000000000E-01
                       8.4017300000E-01  5.8579100000E-01  0.0000000000E+00
                       1.5982700000E-01  4.1420900000E-01  0.0000000000E+00
                       5.8579100000E-01  8.4017300000E-01  0.0000000000E+00
                       4.1420900000E-01  1.5982700000E-01  0.0000000000E+00
                       8.5157700000E-01  1.4842300000E-01  5.0000000000E-01
                       1.4842300000E-01  8.5157700000E-01  5.0000000000E-01
            znucl       12.00000   78.00000    8.00000

- Timing analysis has been suppressed with timopt=0

 Suggested references for the acknowledgment of ABINIT usage.

 Calculation completed.
.Delivered   2 WARNINGs and   5 COMMENTs to log file.