.Version 9.5.1 of ABINIT

 ABINIT is a project of the Universite Catholique de Louvain,
 Corning Inc. and other collaborators, see ~abinit/doc/developers/contributors.txt .
 acknowledgments of the ABINIT effort.

.Starting date : Tue 27 Apr 2021.
- ( at 18h42 )

- input  file    -> /scratch/users/j/a/jabreu/flow_simple_4atoms/flow/w238/t1/run.abi
- output file    -> /scratch/users/j/a/jabreu/flow_simple_4atoms/flow/w238/t1/run.abo
- root for input  files -> /scratch/users/j/a/jabreu/flow_simple_4atoms/flow/w238/t1/indata/in
- root for output files -> /scratch/users/j/a/jabreu/flow_simple_4atoms/flow/w238/t1/outdata/out

 Symmetries : space group R-3 m (#166); Bravais hR (rhombohedral)
     intxc =       0      iscf =       7    lmnmax =      18     lnmax =       6
     mgfft =      72  mpssoang =       3    mqgrid =    3001     natom =       4
  nloc_mem =       1    nspden =       1   nspinor =       1    nsppol =       1
      nsym =      12    n1xccc =    2501    ntypat =       3    occopt =       1
   xclevel =       2
-    mband =          26        mffmem =           1         mkmem =           2
-   mkqmem =           2        mk1mem =           2           mpw =        5866
      nfft =      373248          nkpt =           2
  Rough estimation (10% accuracy) of disk space for files :

------------- Echo of variables that govern the present computation ------------
-
- outvars: echo of selected default values
-   iomode0 =  0 , fftalg0 =512 , wfoptalg0 =  0
-
- outvars: echo of global parameters not present in the input file
-  max_nthreads =    0
-
 -outvars: echo values of preprocessed input variables --------
            acell      1.0000000000E+00  1.0000000000E+00  1.0000000000E+00 Bohr
              amu      3.90983000E+01  2.04383300E+02  1.59994000E+01
             ecut      4.40000000E+01 Hartree
-          fftalg         512
           irdden           1
           irdwfk           1
           istwfk        1    1
              ixc     -116133
              kpt      5.00000000E-01  5.00000000E-01  5.00000000E-01
                       0.00000000E+00  0.00000000E+00  0.00000000E+00
           kptopt           0
P           mkmem           2
P          mkqmem           2
P          mk1mem           2
            natom           4
            nband          26
           nbdbuf           4
            ngfft          72      72      72
             nkpt           2
            nstep         100
             nsym          12
           ntypat           3
              occ      2.000000  2.000000  2.000000  2.000000  2.000000  2.000000
                       2.000000  2.000000  2.000000  2.000000  2.000000  2.000000
                       2.000000  2.000000  2.000000  2.000000  2.000000  0.000000
                       0.000000  0.000000  0.000000  0.000000  0.000000  0.000000
                       0.000000  0.000000
        optdriver           1
            prtwf          -1
            rfdir           1       1       1
           rfelfd           2
            rprim      6.2753091640E+00  0.0000000000E+00  1.0280679736E+01
                       2.8897512366E+00  5.5703539289E+00  1.0280679736E+01
                       0.0000000000E+00  0.0000000000E+00  1.2044578902E+01
          spgroup         166
           symrel      1  0  0   0  1  0   0  0  1      -1  0  0   0 -1  0   0  0 -1
                       0  1  0   1  0  0   0  0  1       0 -1  0  -1  0  0   0  0 -1
                       0  0  1   1  0  0   0  1  0       0  0 -1  -1  0  0   0 -1  0
                       1  0  0   0  0  1   0  1  0      -1  0  0   0  0 -1   0 -1  0
                       0  1  0   0  0  1   1  0  0       0 -1  0   0  0 -1  -1  0  0
                       0  0  1   0  1  0   1  0  0       0  0 -1   0 -1  0  -1  0  0
           tolwfr      1.00000000E-20
            typat      1  2  3  3
           useylm           1
              wtk        0.50000    0.50000
           xangst      2.4249705397E+00  1.4738521715E+00  8.6271597261E+00
                       0.0000000000E+00  0.0000000000E+00  0.0000000000E+00
                       1.2965783982E+00  7.8803633134E-01  4.6127525080E+00
                       3.5533626811E+00  2.1596680116E+00  1.2641566944E+01
            xcart      4.5825302003E+00  2.7851769645E+00  1.6302969187E+01
                       0.0000000000E+00  0.0000000000E+00  0.0000000000E+00
                       2.4501780824E+00  1.4891728490E+00  8.7168389589E+00
                       6.7148823182E+00  4.0811810799E+00  2.3889099415E+01
             xred      5.0000000000E-01  5.0000000000E-01  5.0000000000E-01
                       0.0000000000E+00  0.0000000000E+00  0.0000000000E+00
                       2.6733900000E-01  2.6733900000E-01  2.6733900000E-01
                       7.3266100000E-01  7.3266100000E-01  7.3266100000E-01
            znucl       19.00000   81.00000    8.00000

 chkinp: Checking input parameters for consistency.

== DATASET  1 ==================================================================
-   mpi_nproc: 1, omp_nthreads: -1 (-1 if OMP is not activated)

--- !DatasetInfo
iteration_state: {dtset: 1, }
dimensions: {natom: 4, nkpt: 2, mband: 26, nsppol: 1, nspinor: 1, nspden: 1, mpw: 5866, }
cutoff_energies: {ecut:  44.0, pawecutdg:  -1.0, }
electrons: {nelect:   3.40000000E+01, charge:   0.00000000E+00, occopt:   1.00000000E+00, tsmear:   1.00000000E-02, }
meta: {optdriver: 1, rfelfd: 2, }
...

 Real(R)+Recip(G) space primitive vectors, cartesian coordinates (Bohr,Bohr^-1):
 R(1)=  6.2753092  0.0000000 10.2806797  G(1)=  0.1593547 -0.0826690  0.0000000
 R(2)=  2.8897512  5.5703539 10.2806797  G(2)=  0.0000000  0.1795218  0.0000000
 R(3)=  0.0000000  0.0000000 12.0445789  G(3)= -0.1360176 -0.0826690  0.0830249
 Unit cell volume ucvol=  4.2102660E+02 bohr^3
 Angles (23,13,12)=  3.13998191E+01  3.13998191E+01  3.13998191E+01 degrees

 getcut: wavevector=  0.0000  0.0000  0.0000  ngfft=  72  72  72
         ecut(hartree)=     44.000   => boxcut(ratio)=   2.00222

--- Pseudopotential description ------------------------------------------------
- pspini: atom type   1  psp file is /scratch/users/j/a/jabreu/pseudos/PBEsol/K.psp8
- pspatm: opening atomic psp file    /scratch/users/j/a/jabreu/pseudos/PBEsol/K.psp8
- K     ONCVPSP-3.3.0  r_core=   1.36296   1.46408   1.61068
- 19.00000   9.00000    180112                znucl, zion, pspdat
    8 -116133    2    4       400   0.00000   pspcod,pspxc,lmax,lloc,mmax,r2well
    3.99000000000000    5.00000000000000    0.00000000000000   rchrg,fchrg,qchrg
     nproj     2     2     2
     extension_switch     1
  pspatm : epsatm=    8.32487830
         --- l  ekb(1:nproj) -->
             0   10.921326    0.816676
             1    4.431000    0.560368
             2   -3.384038   -1.043186
 pspatm: atomic psp has been read  and splines computed

- pspini: atom type   2  psp file is /scratch/users/j/a/jabreu/pseudos/PBEsol/Tl.psp8
- pspatm: opening atomic psp file    /scratch/users/j/a/jabreu/pseudos/PBEsol/Tl.psp8
- Tl    ONCVPSP-3.3.0  r_core=   2.10510   2.60929   2.00701
- 81.00000  13.00000    180112                znucl, zion, pspdat
    8 -116133    2    4       600   0.00000   pspcod,pspxc,lmax,lloc,mmax,r2well
    5.99000000000000    7.00000000000000    0.00000000000000   rchrg,fchrg,qchrg
     nproj     2     2     2
     extension_switch     1
  pspatm : epsatm=   37.24354552
         --- l  ekb(1:nproj) -->
             0    6.297242    0.908324
             1    4.393460    0.899003
             2   -2.697741   -0.589563
 pspatm: atomic psp has been read  and splines computed

- pspini: atom type   3  psp file is /scratch/users/j/a/jabreu/pseudos/PBEsol/O.psp8
- pspatm: opening atomic psp file    /scratch/users/j/a/jabreu/pseudos/PBEsol/O.psp8
- O     ONCVPSP-3.3.0  r_core=   1.35509   1.45563   1.26150
-  8.00000   6.00000    180112                znucl, zion, pspdat
    8 -116133    2    4       600   0.00000   pspcod,pspxc,lmax,lloc,mmax,r2well
    5.99000000000000    4.00000000000000    0.00000000000000   rchrg,fchrg,qchrg
     nproj     2     2     1
     extension_switch     1
  pspatm : epsatm=    6.22910522
         --- l  ekb(1:nproj) -->
             0    6.050032    0.820363
             1   -4.739617   -1.153841
             2   -1.335834
 pspatm: atomic psp has been read  and splines computed

   1.97290556E+03                                ecore*ucvol(ha*bohr**3)

-inwffil : will read wavefunctions from disk file /scratch/users/j/a/jabreu/flow_simple_4atoms/flow/w238/t1/indata/in_WFK

 ==>  initialize data related to q vector <==

 The list of irreducible perturbations for this q vector is:
    1)    idir= 1    ipert=   5
    2)    idir= 2    ipert=   5
    3)    idir= 3    ipert=   5

 Perturbation wavevector (in red.coord.)   0.000000  0.000000  0.000000
 Perturbation : derivative vs k along direction   1

 dfpt_looppert : COMMENT -
  In a d/dk calculation, iscf is set to -3 automatically.
 The set of symmetries contains only one element for this perturbation.
 symkpt : not enough symmetry to change the number of k points.

[...]

 Initialisation of the first-order wave-functions :
  ireadwf=   0

--- !BeginCycle
iteration_state: {dtset: 1, }
solver: {iscf: 7, nstep: 100, nline: 4, wfoptalg: 0, }
tolerances: {tolwfr: 1.00E-20, }
...

     iter   2DEtotal(Ha)        deltaE(Ha) residm    vres2
-ETOT  1  -72.205950685385     -7.221E+01 7.773E-02 0.000E+00
 ETOT  2  -72.242032246833     -3.608E-02 2.090E-03 0.000E+00
 ETOT  3  -72.242128692905     -9.645E-05 8.115E-05 0.000E+00
 ETOT  4  -72.242129651926     -9.590E-07 7.079E-06 0.000E+00
 ETOT  5  -72.242129667454     -1.553E-08 8.801E-07 0.000E+00
 ETOT  6  -72.242129667748     -2.947E-10 5.768E-08 0.000E+00
 ETOT  7  -72.242129667754     -5.969E-12 7.496E-09 0.000E+00
 ETOT  8  -72.242129667754     -2.274E-13 5.254E-10 0.000E+00
 ETOT  9  -72.242129667754      2.842E-14 1.200E-10 0.000E+00
 ETOT 10  -72.242129667754     -1.421E-14 6.914E-12 0.000E+00
 ETOT 11  -72.242129667754      4.263E-14 1.986E-12 0.000E+00
 ETOT 12  -72.242129667754      0.000E+00 1.137E-13 0.000E+00
 ETOT 13  -72.242129667754     -1.421E-14 3.307E-14 0.000E+00
 ETOT 14  -72.242129667754     -1.421E-14 1.878E-15 0.000E+00
 ETOT 15  -72.242129667754      1.421E-14 5.514E-16 0.000E+00
 ETOT 16  -72.242129667754      0.000E+00 3.105E-17 0.000E+00
 ETOT 17  -72.242129667754      1.421E-14 9.199E-18 0.000E+00
 ETOT 18  -72.242129667754      0.000E+00 5.137E-19 0.000E+00
 ETOT 19  -72.242129667754     -1.421E-14 1.535E-19 0.000E+00
 ETOT 20  -72.242129667754      1.421E-14 9.988E-21 0.000E+00

 At SCF step   20   max residual=  9.99E-21 < tolwfr=  1.00E-20 =>converged.

 ----iterations are completed or convergence reached----

 dfpt_looppert: DFPT cycle converged with prtwf=-1. Will skip output of the 1st-order WFK file.
 dfpt_looppert : ek2=    8.6517322166E+01
          f-sum rule ratio=    1.2514805786E+00
 prteigrs : about to open file /scratch/users/j/a/jabreu/flow_simple_4atoms/flow/w238/t1/tmpdata/tmp_1WF1_EIG
 Expectation of eigenvalue derivatives (hartree) for nkpt=   2  k points:
  (in case of degenerate eigenvalues, averaged derivative)
 kpt#   1, nband= 26, wtk=  0.50000, kpt=  0.5000  0.5000  0.5000 (reduced coord)
  -0.00000   -0.00000    0.00000    0.00000    0.00000    0.00000   -0.00000   -0.00000
   0.00000    0.00000    0.00000   -0.00000    0.00000    0.00000    0.00000   -0.00000
  -0.00000   -0.00000    0.00000   -0.00000    0.00000    0.00000    0.00000    0.00000
   0.00002    0.00039
 prteigrs : prtvol=0 or 1, do not print more k-points.

 Eight components of 2nd-order total energy (hartree) are
 1,2,3: 0th-order hamiltonian combined with 1st-order wavefunctions
     kin0=   7.42934849E+01 eigvalue=   1.51697955E+00  local=  -3.35558614E+01
 4,5,6: 1st-order hamiltonian combined with 1st and 0th-order wfs
     kin1=  -1.08274748E+02  Hartree=   0.00000000E+00     xc=   0.00000000E+00
 7,8,9: eventually, occupation + non-local contributions
    edocc=   2.42023421E+01     enl0=   5.78518456E+00   enl1=  -3.62095109E+01
 1-9 gives the relaxation energy (to be shifted if some occ is /=2.0)
   erelax=  -7.22421297E+01
  No Ewald or frozen-wf contrib.: the relaxation energy is the total one
 2DEtotal=   -0.7224212967E+02 Ha. Also 2DEtotal=   -0.196580832125E+04 eV
    (  non-var. 2DEtotal :   -7.2242129668E+01 Ha)

 Perturbation wavevector (in red.coord.)   0.000000  0.000000  0.000000
 Perturbation : derivative vs k along direction   2
 The set of symmetries contains only one element for this perturbation.
 symkpt : not enough symmetry to change the number of k points.

[...]

 Perturbation wavevector (in red.coord.)   0.000000  0.000000  0.000000
 Perturbation : derivative vs k along direction   3
 The set of symmetries contains only one element for this perturbation.
 symkpt : not enough symmetry to change the number of k points.

-inwffil : will read wavefunctions from disk file /scratch/users/j/a/jabreu/flow_simple_4atoms/flow/w238/t1/indata/in_WFK

 Initialisation of the first-order wave-functions :
  ireadwf=   0

--- !BeginCycle
iteration_state: {dtset: 1, }
solver: {iscf: 7, nstep: 100, nline: 4, wfoptalg: 0, }
tolerances: {tolwfr: 1.00E-20, }
...

     iter   2DEtotal(Ha)        deltaE(Ha) residm    vres2
-ETOT  1  -72.204792377494     -7.220E+01 7.177E-02 0.000E+00
 ETOT  2  -72.242883973772     -3.809E-02 3.610E-03 0.000E+00
 ETOT  3  -72.242988896356     -1.049E-04 1.213E-04 0.000E+00
 ETOT  4  -72.242989933933     -1.038E-06 1.673E-05 0.000E+00
 ETOT  5  -72.242989950856     -1.692E-08 1.063E-06 0.000E+00
 ETOT  6  -72.242989951189     -3.326E-10 1.348E-07 0.000E+00
 ETOT  7  -72.242989951196     -7.176E-12 1.124E-08 0.000E+00
 ETOT  8  -72.242989951196     -1.279E-13 1.423E-09 0.000E+00
 ETOT  9  -72.242989951196     -4.263E-14 1.285E-10 0.000E+00
 ETOT 10  -72.242989951196      2.842E-14 1.472E-11 0.000E+00
 ETOT 11  -72.242989951196     -5.684E-14 1.511E-12 0.000E+00
 ETOT 12  -72.242989951196      1.421E-14 1.613E-13 0.000E+00
 ETOT 13  -72.242989951196      4.263E-14 2.351E-14 0.000E+00
 ETOT 14  -72.242989951196     -1.421E-14 1.888E-15 0.000E+00
 ETOT 15  -72.242989951196     -2.842E-14 3.816E-16 0.000E+00
 ETOT 16  -72.242989951196      2.842E-14 2.453E-17 0.000E+00
 ETOT 17  -72.242989951196      0.000E+00 6.202E-18 0.000E+00
 ETOT 18  -72.242989951196      0.000E+00 3.990E-19 0.000E+00
 ETOT 19  -72.242989951196      1.421E-14 1.009E-19 0.000E+00
 ETOT 20  -72.242989951196      1.421E-14 9.847E-21 0.000E+00

 At SCF step   20   max residual=  9.85E-21 < tolwfr=  1.00E-20 =>converged.

 ----iterations are completed or convergence reached----

 dfpt_looppert: DFPT cycle converged with prtwf=-1. Will skip output of the 1st-order WFK file.
 dfpt_looppert : ek2=    8.6517322167E+01
          f-sum rule ratio=    1.2514949292E+00
 prteigrs : about to open file /scratch/users/j/a/jabreu/flow_simple_4atoms/flow/w238/t1/tmpdata/tmp_1WF1_EIG
 Expectation of eigenvalue derivatives (hartree) for nkpt=   2  k points:
  (in case of degenerate eigenvalues, averaged derivative)
 kpt#   1, nband= 26, wtk=  0.50000, kpt=  0.5000  0.5000  0.5000 (reduced coord)
  -0.00000    0.00000    0.00000   -0.00000   -0.00000   -0.00000   -0.00000   -0.00000
  -0.00000   -0.00000   -0.00000   -0.00000   -0.00000   -0.00000   -0.00000   -0.00000
  -0.00000   -0.00000    0.00000    0.00000    0.00000    0.00000   -0.00000   -0.00000
  -0.00000   -0.00027
 prteigrs : prtvol=0 or 1, do not print more k-points.

 Eight components of 2nd-order total energy (hartree) are
 1,2,3: 0th-order hamiltonian combined with 1st-order wavefunctions
     kin0=   7.47239191E+01 eigvalue=   1.53608136E+00  local=  -3.38461146E+01
 4,5,6: 1st-order hamiltonian combined with 1st and 0th-order wfs
     kin1=  -1.08275990E+02  Hartree=   0.00000000E+00     xc=   0.00000000E+00
 7,8,9: eventually, occupation + non-local contributions
    edocc=   2.39771794E+01     enl0=   5.85192479E+00   enl1=  -3.62099899E+01
 1-9 gives the relaxation energy (to be shifted if some occ is /=2.0)
   erelax=  -7.22429900E+01
  No Ewald or frozen-wf contrib.: the relaxation energy is the total one
 2DEtotal=   -0.7224298995E+02 Ha. Also 2DEtotal=   -0.196583173076E+04 eV
    (  non-var. 2DEtotal :   -7.2242989951E+01 Ha)

 CALCULATION OF EFFECTIVE MASSES
 NOTE : Additional infos (eff. mass eigenvalues, eigenvectors and, if degenerate, average mass) are available in stdout.

 COMMENTS:
 - At k-point ( 0.500, 0.500, 0.500), bands    16 through    17
   are DEGENERATE (effective mass tensor is therefore not defined).
   See Section IIIB Eqs. (67)-(70) and Appendix E of PRB 93 205147 (2016).
 - Angular average effective mass for Frohlich model is to be averaged over degenerate bands. See later.
 - Associated theta integrals calculated with ntheta=   1000 points.

 K-point ( 0.500, 0.500, 0.500) | band =    16
 Transport equivalent effective mass tensor:
             -0.7371702226             -0.1404934025             -0.8225451473
             -0.1404934025             -0.5912533890             -0.4997733279
             -0.8225451473             -0.4997733279             -3.4310599635
 Transport equivalent effective mass tensor eigenvalues:
             -3.7477384467             -0.5059106437             -0.5058344848
 Angular average effective mass 1/(<1/m>)=  -0.6178689373
 Angular average effective mass for Frohlich model (<m**0.5>)**2=  -0.7249546120
 Effective masses along directions: (cart. coord. / red. coord. -> eff. mass)
    1:   1.000000  0.000000  0.000000 /   0.908320  0.418277  0.000000 ->  -0.4663860645
    2:   0.000000  1.000000  0.000000 /   0.000000  1.000000  0.000000 ->  -0.4383179893
    3:   0.000000  0.000000  1.000000 /   0.544526  0.544526  0.637952 ->  -1.6684205556
    4:   0.577350  0.577350  0.577350 /   0.596486  0.675200  0.433947 ->  -1.0584689697
    5:   0.000000  0.707107  0.707107 /   0.458840  0.707452  0.537565 ->  -0.8414018463
    6:   0.707107  0.000000  0.707107 /   0.680084  0.541012  0.494765 ->  -1.0469229166
    7:   0.707107  0.707107  0.000000 /   0.595752  0.803168  0.000000 ->  -0.5017906872

 K-point ( 0.500, 0.500, 0.500) | band =    17
 Transport equivalent effective mass tensor:
             -9.0306066243             -0.6351362275             -3.7227938330
             -0.6351362275             -8.3696474263             -2.2607477689
             -3.7227938330             -2.2607477689            -21.2122386728
 Transport equivalent effective mass tensor eigenvalues:
            -22.6461127130             -7.9842095981             -7.9821704123
 Angular average effective mass 1/(<1/m>)=  -2.9408945968
 Angular average effective mass for Frohlich model (<m**0.5>)**2=  -3.3229472789
 Effective masses along directions: (cart. coord. / red. coord. -> eff. mass)
    1:   1.000000  0.000000  0.000000 /   0.908320  0.418277  0.000000 ->  -2.7176980369
    2:   0.000000  1.000000  0.000000 /   0.000000  1.000000  0.000000 ->  -3.0691356388
    3:   0.000000  0.000000  1.000000 /   0.544526  0.544526  0.637952 ->  -6.3796276530
    4:   0.577350  0.577350  0.577350 /   0.596486  0.675200  0.433947 ->  -2.6450480158
    5:   0.000000  0.707107  0.707107 /   0.458840  0.707452  0.537565 ->  -5.9758454020
    6:   0.707107  0.000000  0.707107 /   0.680084  0.541012  0.494765 ->  -7.0099462638
    7:   0.707107  0.707107  0.000000 /   0.595752  0.803168  0.000000 ->  -2.1032424656

 Angular average effective mass for Frohlich model, averaged over degenerate bands.
 Value of     (<<m**0.5>>)**2 =     1.788021E+00
 Absolute Value of <<m**0.5>> =     1.337169E+00

 K-point ( 0.000, 0.000, 0.000) | band =    18
 Effective mass tensor:
              0.2839565843              0.0020636275              0.0120793943
              0.0020636275              0.2818154971              0.0073416263
              0.0120793943              0.0073416263              0.3235353185
 Effective mass tensor eigenvalues:
              0.2805612404              0.2805612642              0.3281848953
 Angular average effective mass 1/(<1/m>)=   0.2948220125
 Angular average effective mass for Frohlich model (<m**0.5>)**2=   0.2952918541
 Effective masses along directions: (cart. coord. / red. coord. -> eff. mass)
    1:   1.000000  0.000000  0.000000 /   0.908320  0.418277  0.000000 ->   0.2834942224
    2:   0.000000  1.000000  0.000000 /   0.000000  1.000000  0.000000 ->   0.2816376061
    3:   0.000000  0.000000  1.000000 /   0.544526  0.544526  0.637952 ->   0.3228347446
    4:   0.577350  0.577350  0.577350 /   0.596486  0.675200  0.433947 ->   0.3089929707
    5:   0.000000  0.707107  0.707107 /   0.458840  0.707452  0.537565 ->   0.3082256172
    6:   0.707107  0.000000  0.707107 /   0.680084  0.541012  0.494765 ->   0.3143374060
    7:   0.707107  0.707107  0.000000 /   0.595752  0.803168  0.000000 ->   0.2843637012

 END OF EFFECTIVE MASSES SECTION

 ---- first-order wavefunction calculations are completed ----

 Total localisation tensor (bohr^2) in cartesian coordinates
  WARNING : still subject to testing - especially symmetries.
      direction              matrix element
   alpha     beta       real part   imaginary part
     1        1       2.7289068625    0.0000000000
     1        2       0.9203254565    0.0000000000
     1        3       5.3870788421    0.0000000000
     2        1       0.9203254565    0.0000000000
     2        2       1.7740414667    0.0000000000
     2        3       3.2741819264    0.0000000000
     3        1       5.3870788421    0.0000000000
     3        2       3.2741819264    0.0000000000
     3        3      20.3800911759    0.0000000000

 respfn : d/dk was computed, but no 2DTE, so no DDB output.

== END DATASET(S) ==============================================================

 -outvars: echo values of variables after computation  --------
            acell      1.0000000000E+00  1.0000000000E+00  1.0000000000E+00 Bohr
              amu      3.90983000E+01  2.04383300E+02  1.59994000E+01
             ecut      4.40000000E+01 Hartree
           etotal     -7.2242989951E+01
            fcart      0.0000000000E+00  0.0000000000E+00  0.0000000000E+00
                       0.0000000000E+00  0.0000000000E+00  0.0000000000E+00
                       0.0000000000E+00  0.0000000000E+00  0.0000000000E+00
                       0.0000000000E+00  0.0000000000E+00  0.0000000000E+00
-          fftalg         512
           irdden           1
           irdwfk           1
           istwfk        1    1
              ixc     -116133
              kpt      5.00000000E-01  5.00000000E-01  5.00000000E-01
                       0.00000000E+00  0.00000000E+00  0.00000000E+00
           kptopt           0
P           mkmem           2
P          mkqmem           2
P          mk1mem           2
            natom           4
            nband          26
           nbdbuf           4
            ngfft          72      72      72
             nkpt           2
            nstep         100
             nsym          12
           ntypat           3
              occ      2.000000  2.000000  2.000000  2.000000  2.000000  2.000000
                       2.000000  2.000000  2.000000  2.000000  2.000000  2.000000
                       2.000000  2.000000  2.000000  2.000000  2.000000  0.000000
                       0.000000  0.000000  0.000000  0.000000  0.000000  0.000000
                       0.000000  0.000000
        optdriver           1
            prtwf          -1
            rfdir           1       1       1
           rfelfd           2
            rprim      6.2753091640E+00  0.0000000000E+00  1.0280679736E+01
                       2.8897512366E+00  5.5703539289E+00  1.0280679736E+01
                       0.0000000000E+00  0.0000000000E+00  1.2044578902E+01
          spgroup         166
           strten      0.0000000000E+00  0.0000000000E+00  0.0000000000E+00
                       0.0000000000E+00  0.0000000000E+00  0.0000000000E+00
           symrel      1  0  0   0  1  0   0  0  1      -1  0  0   0 -1  0   0  0 -1
                       0  1  0   1  0  0   0  0  1       0 -1  0  -1  0  0   0  0 -1
                       0  0  1   1  0  0   0  1  0       0  0 -1  -1  0  0   0 -1  0
                       1  0  0   0  0  1   0  1  0      -1  0  0   0  0 -1   0 -1  0
                       0  1  0   0  0  1   1  0  0       0 -1  0   0  0 -1  -1  0  0
                       0  0  1   0  1  0   1  0  0       0  0 -1   0 -1  0  -1  0  0
           tolwfr      1.00000000E-20
            typat      1  2  3  3
           useylm           1
              wtk        0.50000    0.50000
           xangst      2.4249705397E+00  1.4738521715E+00  8.6271597261E+00
                       0.0000000000E+00  0.0000000000E+00  0.0000000000E+00
                       1.2965783982E+00  7.8803633134E-01  4.6127525080E+00
                       3.5533626811E+00  2.1596680116E+00  1.2641566944E+01
            xcart      4.5825302003E+00  2.7851769645E+00  1.6302969187E+01
                       0.0000000000E+00  0.0000000000E+00  0.0000000000E+00
                       2.4501780824E+00  1.4891728490E+00  8.7168389589E+00
                       6.7148823182E+00  4.0811810799E+00  2.3889099415E+01
             xred      5.0000000000E-01  5.0000000000E-01  5.0000000000E-01
                       0.0000000000E+00  0.0000000000E+00  0.0000000000E+00
                       2.6733900000E-01  2.6733900000E-01  2.6733900000E-01
                       7.3266100000E-01  7.3266100000E-01  7.3266100000E-01
            znucl       19.00000   81.00000    8.00000

- Timing analysis has been suppressed with timopt=0

 Suggested references for the acknowledgment of ABINIT usage.

 Calculation completed.
.Delivered  14 WARNINGs and   9 COMMENTs to log file.