.Version 9.5.2 of ABINIT

 ABINIT is a project of the Universite Catholique de Louvain,
 Corning Inc. and other collaborators, see ~abinit/doc/developers/contributors.txt .
 acknowledgments of the ABINIT effort.

.Starting date : Wed 26 May 2021.
- ( at 02h26 )

- input  file    -> /scratch/users/j/a/jabreu/flow_simple_11atoms/flow/w233/t1/run.abi
- output file    -> /scratch/users/j/a/jabreu/flow_simple_11atoms/flow/w233/t1/run.abo
- root for input  files -> /scratch/users/j/a/jabreu/flow_simple_11atoms/flow/w233/t1/indata/in
- root for output files -> /scratch/users/j/a/jabreu/flow_simple_11atoms/flow/w233/t1/outdata/out

 Symmetries : space group C2/m (# 12); Bravais mC (1-face-center monocl.)
     intxc =       0      iscf =       7    lmnmax =      18     lnmax =       6
     mgfft =      90  mpssoang =       3    mqgrid =    4182     natom =      12
  nloc_mem =       1    nspden =       1   nspinor =       1    nsppol =       1
      nsym =       4    n1xccc =    2501    ntypat =       3    occopt =       1
   xclevel =       2
-    mband =          61        mffmem =           1         mkmem =           2
-   mkqmem =           2        mk1mem =           2           mpw =       26208
      nfft =      576000          nkpt =           2
  Rough estimation (10% accuracy) of disk space for files :

------------- Echo of variables that govern the present computation ------------
-
- outvars: echo of selected default values
-   iomode0 =  0 , fftalg0 =512 , wfoptalg0 =  0
-
- outvars: echo of global parameters not present in the input file
-  max_nthreads =    0
-
 -outvars: echo values of preprocessed input variables --------
            acell      1.0000000000E+00  1.0000000000E+00  1.0000000000E+00 Bohr
              amu      8.54678000E+01  1.27600000E+02  1.59994000E+01
             ecut      4.40000000E+01 Hartree
-          fftalg         512
           irdden           1
           irdwfk           1
           istwfk        1    0
              ixc     -116133
              kpt      5.00000000E-01  0.00000000E+00  5.00000000E-01
                       2.62232986E-01 -2.62232986E-01  0.00000000E+00
           kptopt           0
P           mkmem           2
P          mkqmem           2
P          mk1mem           2
            natom          12
            nband          61
           nbdbuf           4
            ngfft          80      80      90
             nkpt           2
            nstep        2000
             nsym           4
           ntypat           3
              occ      2.000000  2.000000  2.000000  2.000000  2.000000  2.000000
                       2.000000  2.000000  2.000000  2.000000  2.000000  2.000000
                       2.000000  2.000000  2.000000  2.000000  2.000000  2.000000
                       2.000000  2.000000  2.000000  2.000000  2.000000  2.000000
                       2.000000  2.000000  2.000000  2.000000  2.000000  2.000000
                       2.000000  2.000000  2.000000  2.000000  2.000000  2.000000
                       2.000000  2.000000  2.000000  2.000000  2.000000  2.000000
                       2.000000  2.000000  2.000000  2.000000  2.000000  2.000000
                       2.000000  2.000000  2.000000  2.000000  0.000000  0.000000
                       0.000000  0.000000  0.000000  0.000000  0.000000  0.000000
                       0.000000
        optdriver           1
            prtwf          -1
            rfdir           1       1       1
           rfelfd           2
            rprim      1.2508769558E+01  0.0000000000E+00  1.2751472121E+00
                       6.5716211101E+00  1.0643453943E+01  1.2751472121E+00
                       0.0000000000E+00  0.0000000000E+00  1.4098931882E+01
          spgroup          12
           symrel      1  0  0   0  1  0   0  0  1      -1  0  0   0 -1  0   0  0 -1
                       0 -1  0  -1  0  0   0  0 -1       0  1  0   1  0  0   0  0  1
           tolwfr      1.00000000E-20
            typat      1  1  1  1  2  2  3  3  3  3  3  3
           useylm           1
              wtk        0.50000    0.50000
           xangst      0.0000000000E+00  0.0000000000E+00  3.7304167087E+00
                       6.9080620405E+00  3.8534661812E+00  3.6108540094E+00
                       0.0000000000E+00  0.0000000000E+00  0.0000000000E+00
                       3.1888458319E+00  1.7788070660E+00  5.1995370924E+00
                       6.6486219928E+00  3.7087449201E+00  7.1909807588E+00
                       3.4482858797E+00  1.9235283271E+00  1.6194103431E+00
                       6.9032436414E+00  2.1849728190E+00  6.1188307250E+00
                       4.6110638100E+00  9.0634541095E-01  2.6915603768E+00
                       3.1936642311E+00  3.4473004283E+00  2.6915603768E+00
                       5.4858440625E+00  4.7259278363E+00  6.1188307250E+00
                       1.8257329784E+00  1.0184332808E+00  1.8738996559E+00
                       8.2711748940E+00  4.6138399664E+00  6.9364914459E+00
            xcart      0.0000000000E+00  0.0000000000E+00  7.0494659410E+00
                       1.3054345366E+01  7.2819957448E+00  6.8235251837E+00
                       0.0000000000E+00  0.0000000000E+00  0.0000000000E+00
                       6.0260453023E+00  3.3614581981E+00  9.8257011224E+00
                       1.2564074727E+01  7.0085121958E+00  1.3588984261E+01
                       6.5163159405E+00  3.6349417471E+00  3.0602420451E+00
                       1.3045239911E+01  4.1290002357E+00  1.1562914324E+01
                       8.7136477821E+00  1.7127446085E+00  5.0863119823E+00
                       6.0351507571E+00  6.5144537072E+00  5.0863119823E+00
                       1.0366742886E+01  8.9307093344E+00  1.1562914324E+01
                       3.4501353210E+00  1.9245599854E+00  3.5411571502E+00
                       1.5630255347E+01  8.7188939575E+00  1.3108069156E+01
             xred      0.0000000000E+00  0.0000000000E+00  5.0000000000E-01
                       6.8417600000E-01  6.8417600000E-01  3.6021700000E-01
                       0.0000000000E+00  0.0000000000E+00  0.0000000000E+00
                       3.1582400000E-01  3.1582400000E-01  6.3978300000E-01
                       6.5848100000E-01  6.5848100000E-01  8.4472100000E-01
                       3.4151900000E-01  3.4151900000E-01  1.5527900000E-01
                       8.3908000000E-01  3.8793800000E-01  7.0915200000E-01
                       6.1206200000E-01  1.6092000000E-01  2.9084800000E-01
                       1.6092000000E-01  6.1206200000E-01  2.9084800000E-01
                       3.8793800000E-01  8.3908000000E-01  7.0915200000E-01
                       1.8082100000E-01  1.8082100000E-01  2.1845700000E-01
                       8.1917900000E-01  8.1917900000E-01  7.8154300000E-01
            znucl       37.00000   52.00000    8.00000

 chkinp: Checking input parameters for consistency.

== DATASET  1 ==================================================================
-   mpi_nproc: 1, omp_nthreads: -1 (-1 if OMP is not activated)

--- !DatasetInfo
iteration_state: {dtset: 1, }
dimensions: {natom: 12, nkpt: 2, mband: 61, nsppol: 1, nspinor: 1, nspden: 1, mpw: 26208, }
cutoff_energies: {ecut:  44.0, pawecutdg:  -1.0, }
electrons: {nelect:   1.04000000E+02, charge:   0.00000000E+00, occopt:   1.00000000E+00, tsmear:   1.00000000E-02, }
meta: {optdriver: 1, rfelfd: 2, }
...

 Real(R)+Recip(G) space primitive vectors, cartesian coordinates (Bohr,Bohr^-1):
 R(1)= 12.5087696  0.0000000  1.2751472  G(1)=  0.0799439 -0.0493600  0.0000000
 R(2)=  6.5716211 10.6434539  1.2751472  G(2)=  0.0000000  0.0939545  0.0000000
 R(3)=  0.0000000  0.0000000 14.0989319  G(3)= -0.0072304 -0.0040332  0.0709274
 Unit cell volume ucvol=  1.8770826E+03 bohr^3
 Angles (23,13,12)=  8.41793601E+01  8.41793601E+01  5.79781424E+01 degrees

 getcut: wavevector=  0.0000  0.0000  0.0000  ngfft=  80  80  90
         ecut(hartree)=     44.000   => boxcut(ratio)=   2.13094

--- Pseudopotential description ------------------------------------------------
- pspini: atom type   1  psp file is /scratch/users/j/a/jabreu/pseudos/PBEsol/Rb.psp8
- pspatm: opening atomic psp file    /scratch/users/j/a/jabreu/pseudos/PBEsol/Rb.psp8
- Rb    ONCVPSP-3.3.0  r_core=   1.71227   1.75361   1.90633
- 37.00000   9.00000    180112                znucl, zion, pspdat
    8 -116133    2    4       600   0.00000   pspcod,pspxc,lmax,lloc,mmax,r2well
    5.99000000000000    7.00000000000000    0.00000000000000   rchrg,fchrg,qchrg
     nproj     2     2     2
     extension_switch     1
  pspatm : epsatm=   34.48400912
         --- l  ekb(1:nproj) -->
             0    8.196957   -0.477221
             1    3.231347   -0.378736
             2   -1.047201    0.996637
 pspatm: atomic psp has been read  and splines computed

- pspini: atom type   2  psp file is /scratch/users/j/a/jabreu/pseudos/PBEsol/Te.psp8
- pspatm: opening atomic psp file    /scratch/users/j/a/jabreu/pseudos/PBEsol/Te.psp8
- Te    ONCVPSP-3.3.0  r_core=   2.26547   1.91704   1.80604
- 52.00000  16.00000    180112                znucl, zion, pspdat
    8 -116133    2    4       600   0.00000   pspcod,pspxc,lmax,lloc,mmax,r2well
    5.99000000000000    5.00000000000000    0.00000000000000   rchrg,fchrg,qchrg
     nproj     2     2     2
     extension_switch     1
  pspatm : epsatm=   36.82679836
         --- l  ekb(1:nproj) -->
             0    6.345999    0.785432
             1    5.709019    1.070069
             2   -6.035173   -1.870937
 pspatm: atomic psp has been read  and splines computed

- pspini: atom type   3  psp file is /scratch/users/j/a/jabreu/pseudos/PBEsol/O.psp8
- pspatm: opening atomic psp file    /scratch/users/j/a/jabreu/pseudos/PBEsol/O.psp8
- O     ONCVPSP-3.3.0  r_core=   1.35509   1.45563   1.26150
-  8.00000   6.00000    180112                znucl, zion, pspdat
    8 -116133    2    4       600   0.00000   pspcod,pspxc,lmax,lloc,mmax,r2well
    5.99000000000000    4.00000000000000    0.00000000000000   rchrg,fchrg,qchrg
     nproj     2     2     1
     extension_switch     1
  pspatm : epsatm=    6.22910522
         --- l  ekb(1:nproj) -->
             0    6.050032    0.820363
             1   -4.739617   -1.153841
             2   -1.335834
 pspatm: atomic psp has been read  and splines computed

   2.58922835E+04                                ecore*ucvol(ha*bohr**3)

 ==>  initialize data related to q vector <==

 The list of irreducible perturbations for this q vector is:
    1)    idir= 1    ipert=  13
    2)    idir= 2    ipert=  13
    3)    idir= 3    ipert=  13

 Perturbation wavevector (in red.coord.)   0.000000  0.000000  0.000000
 Perturbation : derivative vs k along direction   1

 dfpt_looppert : COMMENT -
  In a d/dk calculation, iscf is set to -3 automatically.
 The set of symmetries contains only one element for this perturbation.
 symkpt : not enough symmetry to change the number of k points.

 Initialisation of the first-order wave-functions :
  ireadwf=   0

--- !BeginCycle
iteration_state: {dtset: 1, }
solver: {iscf: 7, nstep: 2000, nline: 4, wfoptalg: 0, }
tolerances: {tolwfr: 1.00E-20, }
...

[...]
 dfpt_looppert : ek2=    7.2486628666E+01
          f-sum rule ratio=    9.8144111282E-01
 prteigrs : about to open file /scratch/users/j/a/jabreu/flow_simple_11atoms/flow/w233/t1/tmpdata/tmp_1WF1_EIG
 Expectation of eigenvalue derivatives (hartree) for nkpt=   2  k points:
  (in case of degenerate eigenvalues, averaged derivative)
 kpt#   1, nband= 61, wtk=  0.50000, kpt=  0.5000  0.0000  0.5000 (reduced coord)
  -0.00000   -0.00000   -0.00000    0.00000    0.00000   -0.00000   -0.00000    0.00000
  -0.00000   -0.00000   -0.00000    0.00000    0.00000    0.00000    0.00000   -0.00000
  -0.00000   -0.00000    0.00000    0.00000   -0.00000    0.00000   -0.00000    0.00000
   0.00000   -0.00000   -0.00000   -0.00000   -0.00000    0.00000   -0.00000    0.00000
   0.00000    0.00000    0.00000    0.00000    0.00000   -0.00000   -0.00000   -0.00000
   0.00000   -0.00000    0.00000    0.00000   -0.00000   -0.00000    0.00000    0.00000
   0.00000   -0.00000    0.00000   -0.00000    0.00000    0.00000    0.00000    0.00000
  -0.00000   -0.00000   -0.00000    0.00000   -0.00000
 prteigrs : prtvol=0 or 1, do not print more k-points.

 Eight components of 2nd-order total energy (hartree) are
 1,2,3: 0th-order hamiltonian combined with 1st-order wavefunctions
     kin0=   6.83603342E+01 eigvalue=   1.07500512E+01  local=  -3.49423013E+01
 4,5,6: 1st-order hamiltonian combined with 1st and 0th-order wfs
     kin1=  -7.11413575E+01  Hartree=   0.00000000E+00     xc=   0.00000000E+00
 7,8,9: eventually, occupation + non-local contributions
    edocc=   4.94466049E+00     enl0=   2.24272107E+00   enl1=  -3.15695736E+01
 1-9 gives the relaxation energy (to be shifted if some occ is /=2.0)
   erelax=  -5.13554656E+01
  No Ewald or frozen-wf contrib.: the relaxation energy is the total one
 2DEtotal=   -0.5135546557E+02 Ha. Also 2DEtotal=   -0.139745328705E+04 eV
    (  non-var. 2DEtotal :   -5.1355465574E+01 Ha)

 Perturbation wavevector (in red.coord.)   0.000000  0.000000  0.000000
 Perturbation : derivative vs k along direction   2
 The set of symmetries contains only one element for this perturbation.
 symkpt : not enough symmetry to change the number of k points.

[...]

 Perturbation wavevector (in red.coord.)   0.000000  0.000000  0.000000
 Perturbation : derivative vs k along direction   3
 The set of symmetries contains only one element for this perturbation.
 symkpt : not enough symmetry to change the number of k points.

 Initialisation of the first-order wave-functions :
  ireadwf=   0

--- !BeginCycle
iteration_state: {dtset: 1, }
solver: {iscf: 7, nstep: 2000, nline: 4, wfoptalg: 0, }
tolerances: {tolwfr: 1.00E-20, }
...

     iter   2DEtotal(Ha)        deltaE(Ha) residm    vres2
-ETOT  1  -29.981084070455     -2.998E+01 7.996E-02 0.000E+00
 ETOT  2  -30.027249136776     -4.617E-02 7.851E-03 0.000E+00
 ETOT  3  -30.027754802617     -5.057E-04 9.613E-04 0.000E+00
 ETOT  4  -30.027766106619     -1.130E-05 1.546E-04 0.000E+00
 ETOT  5  -30.027766404235     -2.976E-07 2.305E-05 0.000E+00
 ETOT  6  -30.027766413039     -8.804E-09 4.449E-06 0.000E+00
 ETOT  7  -30.027766413317     -2.785E-10 6.958E-07 0.000E+00
 ETOT  8  -30.027766413327     -9.358E-12 1.411E-07 0.000E+00
 ETOT  9  -30.027766413327     -3.268E-13 2.269E-08 0.000E+00
 ETOT 10  -30.027766413327     -1.776E-14 4.652E-09 0.000E+00
 ETOT 11  -30.027766413327      7.105E-15 7.658E-10 0.000E+00
 ETOT 12  -30.027766413327     -3.197E-14 1.569E-10 0.000E+00
 ETOT 13  -30.027766413327      1.421E-14 2.637E-11 0.000E+00
 ETOT 14  -30.027766413327      1.066E-14 5.388E-12 0.000E+00
 ETOT 15  -30.027766413327     -1.776E-14 9.223E-13 0.000E+00
 ETOT 16  -30.027766413327      0.000E+00 1.882E-13 0.000E+00
 ETOT 17  -30.027766413327      0.000E+00 3.275E-14 0.000E+00
 ETOT 18  -30.027766413327     -7.105E-15 6.685E-15 0.000E+00
 ETOT 19  -30.027766413327      1.421E-14 1.181E-15 0.000E+00
 ETOT 20  -30.027766413327     -1.066E-14 2.417E-16 0.000E+00
 ETOT 21  -30.027766413327      3.553E-15 4.335E-17 0.000E+00
 ETOT 22  -30.027766413327      3.553E-15 8.916E-18 0.000E+00
 ETOT 23  -30.027766413327      0.000E+00 1.623E-18 0.000E+00
 ETOT 24  -30.027766413327     -7.105E-15 3.368E-19 0.000E+00
 ETOT 25  -30.027766413327      3.553E-15 6.246E-20 0.000E+00
 ETOT 26  -30.027766413327      7.105E-15 1.314E-20 0.000E+00
 ETOT 27  -30.027766413327     -7.105E-15 9.960E-21 0.000E+00

 At SCF step   27   max residual=  9.96E-21 < tolwfr=  1.00E-20 =>converged.

 ----iterations are completed or convergence reached----

 dfpt_looppert: DFPT cycle converged with prtwf=-1. Will skip output of the 1st-order WFK file.
 dfpt_looppert : ek2=    4.1872426185E+01
          f-sum rule ratio=    1.0013777672E+00
 prteigrs : about to open file /scratch/users/j/a/jabreu/flow_simple_11atoms/flow/w233/t1/tmpdata/tmp_1WF1_EIG
 Expectation of eigenvalue derivatives (hartree) for nkpt=   2  k points:
  (in case of degenerate eigenvalues, averaged derivative)
 kpt#   1, nband= 61, wtk=  0.50000, kpt=  0.5000  0.0000  0.5000 (reduced coord)
   0.00000    0.00000   -0.00000    0.00000   -0.00000    0.00000    0.00000    0.00000
   0.00000   -0.00000   -0.00000   -0.00000   -0.00000   -0.00000    0.00000   -0.00000
  -0.00000    0.00000    0.00000   -0.00000    0.00000   -0.00000    0.00000   -0.00000
   0.00000    0.00000    0.00000    0.00000   -0.00000    0.00000   -0.00000    0.00000
   0.00000   -0.00000   -0.00000    0.00000    0.00000    0.00000   -0.00000    0.00000
   0.00000    0.00000   -0.00000   -0.00000    0.00000   -0.00000   -0.00000   -0.00000
   0.00000    0.00000   -0.00000   -0.00000   -0.00000    0.00000   -0.00000   -0.00000
   0.00000   -0.00000   -0.00000   -0.00000   -0.00000
 prteigrs : prtvol=0 or 1, do not print more k-points.

 Eight components of 2nd-order total energy (hartree) are
 1,2,3: 0th-order hamiltonian combined with 1st-order wavefunctions
     kin0=   4.00764169E+01 eigvalue=   6.14253114E+00  local=  -2.03643877E+01
 4,5,6: 1st-order hamiltonian combined with 1st and 0th-order wfs
     kin1=  -4.19301166E+01  Hartree=   0.00000000E+00     xc=   0.00000000E+00
 7,8,9: eventually, occupation + non-local contributions
    edocc=   2.93357482E+00     enl0=   1.23963124E+00   enl1=  -1.81254162E+01
 1-9 gives the relaxation energy (to be shifted if some occ is /=2.0)
   erelax=  -3.00277664E+01
  No Ewald or frozen-wf contrib.: the relaxation energy is the total one
 2DEtotal=   -0.3002776641E+02 Ha. Also 2DEtotal=   -0.817097078331E+03 eV
    (  non-var. 2DEtotal :   -3.0027766413E+01 Ha)

 CALCULATION OF EFFECTIVE MASSES
 NOTE : Additional infos (eff. mass eigenvalues, eigenvectors and, if degenerate, average mass) are available in stdout.

 K-point ( 0.500, 0.000, 0.500) | band =    52
 Effective mass tensor:
             -2.1552123988              2.3054997272             -0.0688379380
              2.3054997272            -26.3763258591             -7.6308350293
             -0.0688379380             -7.6308350293             -4.5759344588
 Effective mass tensor eigenvalues:
            -28.9590560281             -2.8366051347             -1.3118115540
 Angular average effective mass 1/(<1/m>)=  -2.6101250642
 Angular average effective mass for Frohlich model (<m**0.5>)**2=  -3.4744541533
 Effective masses along directions: (cart. coord. / red. coord. -> eff. mass)
    1:   1.000000  0.000000  0.000000 /   0.885266  0.465084  0.000000 ->  -1.7250679548
    2:   0.000000  1.000000  0.000000 /   0.000000  1.000000  0.000000 -> -10.9318481461
    3:   0.000000  0.000000  1.000000 /   0.089712  0.089712  0.991919 ->  -2.0911443536
    4:   0.577350  0.577350  0.577350 /   0.509934  0.684043  0.521588 ->  -4.3698705358
    5:   0.000000  0.707107  0.707107 /   0.068906  0.644052  0.761872 ->  -7.6481781469
    6:   0.707107  0.000000  0.707107 /   0.649529  0.369757  0.664373 ->  -2.8666709396
    7:   0.707107  0.707107  0.000000 /   0.587825  0.808988  0.000000 ->  -2.2812408548

 K-point ( 0.262,-0.262, 0.000) | band =    53
 Effective mass tensor:
              0.9319338389             -0.1575894716              0.0707536870
             -0.1575894716              1.1265357341              0.0394677815
              0.0707536870              0.0394677815              1.9786165164
 Effective mass tensor eigenvalues:
              0.8382710559              1.2144425508              1.9843724827
 Angular average effective mass 1/(<1/m>)=   1.1903381359
 Angular average effective mass for Frohlich model (<m**0.5>)**2=   1.2332706276
 Effective masses along directions: (cart. coord. / red. coord. -> eff. mass)
    1:   1.000000  0.000000  0.000000 /   0.885266  0.465084  0.000000 ->   0.9069464585
    2:   0.000000  1.000000  0.000000 /   0.000000  1.000000  0.000000 ->   1.0985468773
    3:   0.000000  0.000000  1.000000 /   0.089712  0.089712  0.991919 ->   1.9708397630
    4:   0.577350  0.577350  0.577350 /   0.509934  0.684043  0.521588 ->   1.1114268488
    5:   0.000000  0.707107  0.707107 /   0.068906  0.644052  0.761872 ->   1.4596002849
    6:   0.707107  0.000000  0.707107 /   0.649529  0.369757  0.664373 ->   1.3115357391
    7:   0.707107  0.707107  0.000000 /   0.587825  0.808988  0.000000 ->   0.8604529319

 END OF EFFECTIVE MASSES SECTION

 ---- first-order wavefunction calculations are completed ----

 Total localisation tensor (bohr^2) in cartesian coordinates
  WARNING : still subject to testing - especially symmetries.
      direction              matrix element
   alpha     beta       real part   imaginary part
     1        1       1.2742900542    0.0000000000
     1        2       0.4586487821    0.0000000000
     1        3       0.1559822821    0.0000000000
     2        1       0.4586487821    0.0000000000
     2        2       0.7428315033    0.0000000000
     2        3       0.0889955014    0.0000000000
     3        1       0.1559822821    0.0000000000
     3        2       0.0889955014    0.0000000000
     3        3       0.7396752767    0.0000000000

 respfn : d/dk was computed, but no 2DTE, so no DDB output.

== END DATASET(S) ==============================================================

 -outvars: echo values of variables after computation  --------
            acell      1.0000000000E+00  1.0000000000E+00  1.0000000000E+00 Bohr
              amu      8.54678000E+01  1.27600000E+02  1.59994000E+01
             ecut      4.40000000E+01 Hartree
           etotal     -3.0027766413E+01
            fcart      0.0000000000E+00  0.0000000000E+00  0.0000000000E+00
                       0.0000000000E+00  0.0000000000E+00  0.0000000000E+00
                       0.0000000000E+00  0.0000000000E+00  0.0000000000E+00
                       0.0000000000E+00  0.0000000000E+00  0.0000000000E+00
                       0.0000000000E+00  0.0000000000E+00  0.0000000000E+00
                       0.0000000000E+00  0.0000000000E+00  0.0000000000E+00
                       0.0000000000E+00  0.0000000000E+00  0.0000000000E+00
                       0.0000000000E+00  0.0000000000E+00  0.0000000000E+00
                       0.0000000000E+00  0.0000000000E+00  0.0000000000E+00
                       0.0000000000E+00  0.0000000000E+00  0.0000000000E+00
                       0.0000000000E+00  0.0000000000E+00  0.0000000000E+00
                       0.0000000000E+00  0.0000000000E+00  0.0000000000E+00
-          fftalg         512
           irdden           1
           irdwfk           1
           istwfk        1    0
              ixc     -116133
              kpt      5.00000000E-01  0.00000000E+00  5.00000000E-01
                       2.62232986E-01 -2.62232986E-01  0.00000000E+00
           kptopt           0
P           mkmem           2
P          mkqmem           2
P          mk1mem           2
            natom          12
            nband          61
           nbdbuf           4
            ngfft          80      80      90
             nkpt           2
            nstep        2000
             nsym           4
           ntypat           3
              occ      2.000000  2.000000  2.000000  2.000000  2.000000  2.000000
                       2.000000  2.000000  2.000000  2.000000  2.000000  2.000000
                       2.000000  2.000000  2.000000  2.000000  2.000000  2.000000
                       2.000000  2.000000  2.000000  2.000000  2.000000  2.000000
                       2.000000  2.000000  2.000000  2.000000  2.000000  2.000000
                       2.000000  2.000000  2.000000  2.000000  2.000000  2.000000
                       2.000000  2.000000  2.000000  2.000000  2.000000  2.000000
                       2.000000  2.000000  2.000000  2.000000  2.000000  2.000000
                       2.000000  2.000000  2.000000  2.000000  0.000000  0.000000
                       0.000000  0.000000  0.000000  0.000000  0.000000  0.000000
                       0.000000
        optdriver           1
            prtwf          -1
            rfdir           1       1       1
           rfelfd           2
            rprim      1.2508769558E+01  0.0000000000E+00  1.2751472121E+00
                       6.5716211101E+00  1.0643453943E+01  1.2751472121E+00
                       0.0000000000E+00  0.0000000000E+00  1.4098931882E+01
          spgroup          12
           strten      0.0000000000E+00  0.0000000000E+00  0.0000000000E+00
                       0.0000000000E+00  0.0000000000E+00  0.0000000000E+00
           symrel      1  0  0   0  1  0   0  0  1      -1  0  0   0 -1  0   0  0 -1
                       0 -1  0  -1  0  0   0  0 -1       0  1  0   1  0  0   0  0  1
           tolwfr      1.00000000E-20
            typat      1  1  1  1  2  2  3  3  3  3  3  3
           useylm           1
              wtk        0.50000    0.50000
           xangst      0.0000000000E+00  0.0000000000E+00  3.7304167087E+00
                       6.9080620405E+00  3.8534661812E+00  3.6108540094E+00
                       0.0000000000E+00  0.0000000000E+00  0.0000000000E+00
                       3.1888458319E+00  1.7788070660E+00  5.1995370924E+00
                       6.6486219928E+00  3.7087449201E+00  7.1909807588E+00
                       3.4482858797E+00  1.9235283271E+00  1.6194103431E+00
                       6.9032436414E+00  2.1849728190E+00  6.1188307250E+00
                       4.6110638100E+00  9.0634541095E-01  2.6915603768E+00
                       3.1936642311E+00  3.4473004283E+00  2.6915603768E+00
                       5.4858440625E+00  4.7259278363E+00  6.1188307250E+00
                       1.8257329784E+00  1.0184332808E+00  1.8738996559E+00
                       8.2711748940E+00  4.6138399664E+00  6.9364914459E+00
            xcart      0.0000000000E+00  0.0000000000E+00  7.0494659410E+00
                       1.3054345366E+01  7.2819957448E+00  6.8235251837E+00
                       0.0000000000E+00  0.0000000000E+00  0.0000000000E+00
                       6.0260453023E+00  3.3614581981E+00  9.8257011224E+00
                       1.2564074727E+01  7.0085121958E+00  1.3588984261E+01
                       6.5163159405E+00  3.6349417471E+00  3.0602420451E+00
                       1.3045239911E+01  4.1290002357E+00  1.1562914324E+01
                       8.7136477821E+00  1.7127446085E+00  5.0863119823E+00
                       6.0351507571E+00  6.5144537072E+00  5.0863119823E+00
                       1.0366742886E+01  8.9307093344E+00  1.1562914324E+01
                       3.4501353210E+00  1.9245599854E+00  3.5411571502E+00
                       1.5630255347E+01  8.7188939575E+00  1.3108069156E+01
             xred      0.0000000000E+00  0.0000000000E+00  5.0000000000E-01
                       6.8417600000E-01  6.8417600000E-01  3.6021700000E-01
                       0.0000000000E+00  0.0000000000E+00  0.0000000000E+00
                       3.1582400000E-01  3.1582400000E-01  6.3978300000E-01
                       6.5848100000E-01  6.5848100000E-01  8.4472100000E-01
                       3.4151900000E-01  3.4151900000E-01  1.5527900000E-01
                       8.3908000000E-01  3.8793800000E-01  7.0915200000E-01
                       6.1206200000E-01  1.6092000000E-01  2.9084800000E-01
                       1.6092000000E-01  6.1206200000E-01  2.9084800000E-01
                       3.8793800000E-01  8.3908000000E-01  7.0915200000E-01
                       1.8082100000E-01  1.8082100000E-01  2.1845700000E-01
                       8.1917900000E-01  8.1917900000E-01  7.8154300000E-01
            znucl       37.00000   52.00000    8.00000

- Timing analysis has been suppressed with timopt=0

 Suggested references for the acknowledgment of ABINIT usage.

 Calculation completed.
.Delivered   2 WARNINGs and   5 COMMENTs to log file.