.Version 9.5.2 of ABINIT

 ABINIT is a project of the Universite Catholique de Louvain,
 Corning Inc. and other collaborators, see ~abinit/doc/developers/contributors.txt .
 acknowledgments of the ABINIT effort.

.Starting date : Wed 26 May 2021.
- ( at 03h02 )

- input  file    -> /scratch/users/j/a/jabreu/flow_simple_11atoms/flow/w279/t1/run.abi
- output file    -> /scratch/users/j/a/jabreu/flow_simple_11atoms/flow/w279/t1/run.abo
- root for input  files -> /scratch/users/j/a/jabreu/flow_simple_11atoms/flow/w279/t1/indata/in
- root for output files -> /scratch/users/j/a/jabreu/flow_simple_11atoms/flow/w279/t1/outdata/out

 Symmetries : space group Cm c m (# 63); Bravais oC (1-face-center ortho.)
     intxc =       0      iscf =       7    lmnmax =      18     lnmax =       6
     mgfft =      90  mpssoang =       3    mqgrid =    4347     natom =      12
  nloc_mem =       1    nspden =       1   nspinor =       1    nsppol =       1
      nsym =       8    n1xccc =    2501    ntypat =       3    occopt =       1
   xclevel =       2
-    mband =          59        mffmem =           1         mkmem =           2
-   mkqmem =           2        mk1mem =           2           mpw =       18506
      nfft =      324000          nkpt =           2
  Rough estimation (10% accuracy) of disk space for files :

------------- Echo of variables that govern the present computation ------------
-
- outvars: echo of selected default values
-   iomode0 =  0 , fftalg0 =512 , wfoptalg0 =  0
-
- outvars: echo of global parameters not present in the input file
-  max_nthreads =    0
-
 -outvars: echo values of preprocessed input variables --------
            acell      1.0000000000E+00  1.0000000000E+00  1.0000000000E+00 Bohr
              amu      1.12411000E+02  3.20660000E+01  1.59994000E+01
             ecut      5.10000000E+01 Hartree
-          fftalg         512
           irdden           1
           irdwfk           1
           istwfk        0    1
              ixc     -116133
              kpt     -5.00000000E-01  5.00000000E-01  0.00000000E+00
                       0.00000000E+00  0.00000000E+00  0.00000000E+00
           kptopt           0
P           mkmem           2
P          mkqmem           2
P          mk1mem           2
            natom          12
            nband          59
           nbdbuf           4
            ngfft          60      60      90
             nkpt           2
            nstep        2000
             nsym           8
           ntypat           3
              occ      2.000000  2.000000  2.000000  2.000000  2.000000  2.000000
                       2.000000  2.000000  2.000000  2.000000  2.000000  2.000000
                       2.000000  2.000000  2.000000  2.000000  2.000000  2.000000
                       2.000000  2.000000  2.000000  2.000000  2.000000  2.000000
                       2.000000  2.000000  2.000000  2.000000  2.000000  2.000000
                       2.000000  2.000000  2.000000  2.000000  2.000000  2.000000
                       2.000000  2.000000  2.000000  2.000000  2.000000  2.000000
                       2.000000  2.000000  2.000000  2.000000  2.000000  2.000000
                       2.000000  2.000000  0.000000  0.000000  0.000000  0.000000
                       0.000000  0.000000  0.000000  0.000000  0.000000
        optdriver           1
            prtwf          -1
            rfdir           1       1       1
           rfelfd           2
            rprim      9.2942239172E+00  0.0000000000E+00  0.0000000000E+00
                      -3.8381242512E+00  8.4647150250E+00  0.0000000000E+00
                       0.0000000000E+00  0.0000000000E+00  1.3519636150E+01
          spgroup          63
           symrel      1  0  0   0  1  0   0  0  1      -1  0  0   0 -1  0   0  0 -1
                       0 -1  0  -1  0  0   0  0 -1       0  1  0   1  0  0   0  0  1
                      -1  0  0   0 -1  0   0  0  1       1  0  0   0  1  0   0  0 -1
                       0  1  0   1  0  0   0  0 -1       0 -1  0  -1  0  0   0  0  1
            tnons      0.0000000  0.0000000  0.0000000     0.0000000  0.0000000  0.0000000
                       0.0000000  0.0000000  0.5000000     0.0000000  0.0000000  0.5000000
                       0.0000000  0.0000000  0.5000000     0.0000000  0.0000000  0.5000000
                       0.0000000  0.0000000  0.0000000     0.0000000  0.0000000  0.0000000
           tolwfr      1.00000000E-20
            typat      1  1  2  2  3  3  3  3  3  3  3  3
           useylm           1
              wtk        0.50000    0.50000
           xangst      0.0000000000E+00  0.0000000000E+00  3.5771416594E+00
                       0.0000000000E+00  0.0000000000E+00  0.0000000000E+00
                       2.4410396238E+00  1.5967617247E+00  5.3657124891E+00
                       4.4620396721E-01  2.8825725438E+00  1.7885708297E+00
                       1.8522667101E+00  3.4258486005E+00  1.7885708297E+00
                       1.0349768810E+00  1.0534856679E+00  5.3657124891E+00
                       2.3551834492E+00  3.1016836588E+00  5.3657124891E+00
                       5.3206014185E-01  1.3776506096E+00  1.7885708297E+00
                      -2.1469210327E-01  3.3085661914E+00  5.5184564379E-01
                       3.1019356943E+00  1.1707680771E+00  4.1289873032E+00
                       3.1019356943E+00  1.1707680771E+00  6.6024376750E+00
                      -2.1469210327E-01  3.3085661914E+00  3.0252960156E+00
            xcart      0.0000000000E+00  0.0000000000E+00  6.7598180748E+00
                       0.0000000000E+00  0.0000000000E+00  0.0000000000E+00
                       4.6128963686E+00  3.0174423591E+00  1.0139727112E+01
                       8.4320329743E-01  5.4472726659E+00  3.3799090374E+00
                       3.5002768071E+00  6.4739156277E+00  3.3799090374E+00
                       1.9558228589E+00  1.9907993973E+00  1.0139727112E+01
                       4.4506517117E+00  5.8613326661E+00  1.0139727112E+01
                       1.0054479543E+00  2.6033823589E+00  3.3799090374E+00
                      -4.0570927808E-01  6.2522839942E+00  1.0428371344E+00
                       5.8618089441E+00  2.2124310308E+00  7.8026552091E+00
                       5.8618089441E+00  2.2124310308E+00  1.2476799015E+01
                      -4.0570927808E-01  6.2522839942E+00  5.7169809404E+00
             xred      0.0000000000E+00  0.0000000000E+00  5.0000000000E-01
                       0.0000000000E+00  0.0000000000E+00  0.0000000000E+00
                       6.4352700000E-01  3.5647300000E-01  7.5000000000E-01
                       3.5647300000E-01  6.4352700000E-01  2.5000000000E-01
                       6.9244300000E-01  7.6481200000E-01  2.5000000000E-01
                       3.0755700000E-01  2.3518800000E-01  7.5000000000E-01
                       7.6481200000E-01  6.9244300000E-01  7.5000000000E-01
                       2.3518800000E-01  3.0755700000E-01  2.5000000000E-01
                       2.6137100000E-01  7.3862900000E-01  7.7135000000E-02
                       7.3862900000E-01  2.6137100000E-01  5.7713500000E-01
                       7.3862900000E-01  2.6137100000E-01  9.2286500000E-01
                       2.6137100000E-01  7.3862900000E-01  4.2286500000E-01
            znucl       48.00000   16.00000    8.00000

 chkinp: Checking input parameters for consistency.

== DATASET  1 ==================================================================
-   mpi_nproc: 1, omp_nthreads: -1 (-1 if OMP is not activated)

--- !DatasetInfo
iteration_state: {dtset: 1, }
dimensions: {natom: 12, nkpt: 2, mband: 59, nsppol: 1, nspinor: 1, nspden: 1, mpw: 18506, }
cutoff_energies: {ecut:  51.0, pawecutdg:  -1.0, }
electrons: {nelect:   1.00000000E+02, charge:   0.00000000E+00, occopt:   1.00000000E+00, tsmear:   1.00000000E-02, }
meta: {optdriver: 1, rfelfd: 2, }
...

 Real(R)+Recip(G) space primitive vectors, cartesian coordinates (Bohr,Bohr^-1):
 R(1)=  9.2942239  0.0000000  0.0000000  G(1)=  0.1075937  0.0487858  0.0000000
 R(2)= -3.8381243  8.4647150  0.0000000  G(2)=  0.0000000  0.1181375  0.0000000
 R(3)=  0.0000000  0.0000000 13.5196361  G(3)=  0.0000000  0.0000000  0.0739665
 Unit cell volume ucvol=  1.0636298E+03 bohr^3
 Angles (23,13,12)=  9.00000000E+01  9.00000000E+01  1.14390789E+02 degrees

 getcut: wavevector=  0.0000  0.0000  0.0000  ngfft=  60  60  90
         ecut(hartree)=     51.000   => boxcut(ratio)=   2.00832

--- Pseudopotential description ------------------------------------------------
- pspini: atom type   1  psp file is /scratch/users/j/a/jabreu/pseudos/PBEsol/Cd.psp8
- pspatm: opening atomic psp file    /scratch/users/j/a/jabreu/pseudos/PBEsol/Cd.psp8
- Cd    ONCVPSP-3.3.0  r_core=   1.25838   1.30423   1.35174
- 48.00000  20.00000    180112                znucl, zion, pspdat
    8 -116133    2    4       600   0.00000   pspcod,pspxc,lmax,lloc,mmax,r2well
    5.99000000000000    6.00000000000000    0.00000000000000   rchrg,fchrg,qchrg
     nproj     2     2     2
     extension_switch     1
  pspatm : epsatm=   23.26728021
         --- l  ekb(1:nproj) -->
             0   63.701523    3.700425
             1    8.703569    1.290373
             2    0.983656   -0.721725
 pspatm: atomic psp has been read  and splines computed

- pspini: atom type   2  psp file is /scratch/users/j/a/jabreu/pseudos/PBEsol/S.psp8
- pspatm: opening atomic psp file    /scratch/users/j/a/jabreu/pseudos/PBEsol/S.psp8
- S     ONCVPSP-3.3.0  r_core=   1.45376   1.45376   1.61851
- 16.00000   6.00000    180112                znucl, zion, pspdat
    8 -116133    2    4       600   0.00000   pspcod,pspxc,lmax,lloc,mmax,r2well
    5.99000000000000    6.00000000000000    0.00000000000000   rchrg,fchrg,qchrg
     nproj     2     2     2
     extension_switch     1
  pspatm : epsatm=    8.71840985
         --- l  ekb(1:nproj) -->
             0    6.834532    0.579453
             1    3.282851    0.896984
             2   -3.496974   -0.974265
 pspatm: atomic psp has been read  and splines computed

- pspini: atom type   3  psp file is /scratch/users/j/a/jabreu/pseudos/PBEsol/O.psp8
- pspatm: opening atomic psp file    /scratch/users/j/a/jabreu/pseudos/PBEsol/O.psp8
- O     ONCVPSP-3.3.0  r_core=   1.35509   1.45563   1.26150
-  8.00000   6.00000    180112                znucl, zion, pspdat
    8 -116133    2    4       600   0.00000   pspcod,pspxc,lmax,lloc,mmax,r2well
    5.99000000000000    4.00000000000000    0.00000000000000   rchrg,fchrg,qchrg
     nproj     2     2     1
     extension_switch     1
  pspatm : epsatm=    6.22910522
         --- l  ekb(1:nproj) -->
             0    6.050032    0.820363
             1   -4.739617   -1.153841
             2   -1.335834
 pspatm: atomic psp has been read  and splines computed

   1.13804222E+04                                ecore*ucvol(ha*bohr**3)

 ==>  initialize data related to q vector <==

 The list of irreducible perturbations for this q vector is:
    1)    idir= 1    ipert=  13
    2)    idir= 2    ipert=  13
    3)    idir= 3    ipert=  13

[...]
 The set of symmetries contains only one element for this perturbation.
 symkpt : not enough symmetry to change the number of k points.

[...]

 Perturbation wavevector (in red.coord.)   0.000000  0.000000  0.000000
 Perturbation : derivative vs k along direction   3
 The set of symmetries contains only one element for this perturbation.
 symkpt : not enough symmetry to change the number of k points.

 Initialisation of the first-order wave-functions :
  ireadwf=   0

--- !BeginCycle
iteration_state: {dtset: 1, }
solver: {iscf: 7, nstep: 2000, nline: 4, wfoptalg: 0, }
tolerances: {tolwfr: 1.00E-20, }
...

     iter   2DEtotal(Ha)        deltaE(Ha) residm    vres2
-ETOT  1  -22.080324513274     -2.208E+01 4.899E-02 0.000E+00
 ETOT  2  -22.117537963173     -3.721E-02 9.210E-02 0.000E+00
 ETOT  3  -22.118157015222     -6.191E-04 3.144E-03 0.000E+00
 ETOT  4  -22.118176845495     -1.983E-05 4.977E-03 0.000E+00
 ETOT  5  -22.118177735517     -8.900E-07 3.286E-04 0.000E+00
 ETOT  6  -22.118177783890     -4.837E-08 8.676E-04 0.000E+00
 ETOT  7  -22.118177786781     -2.890E-09 5.327E-05 0.000E+00
 ETOT  8  -22.118177786965     -1.843E-10 1.700E-04 0.000E+00
 ETOT  9  -22.118177786977     -1.212E-11 1.015E-05 0.000E+00
 ETOT 10  -22.118177786978     -8.349E-13 3.403E-05 0.000E+00
 ETOT 11  -22.118177786978     -6.750E-14 2.011E-06 0.000E+00
 ETOT 12  -22.118177786978     -1.066E-14 6.849E-06 0.000E+00
 ETOT 13  -22.118177786978      2.132E-14 4.029E-07 0.000E+00
 ETOT 14  -22.118177786978     -3.553E-15 1.382E-06 0.000E+00
 ETOT 15  -22.118177786978      1.421E-14 8.105E-08 0.000E+00
 ETOT 16  -22.118177786978     -1.066E-14 2.789E-07 0.000E+00
 ETOT 17  -22.118177786978      7.105E-15 1.633E-08 0.000E+00
 ETOT 18  -22.118177786978     -3.553E-15 5.635E-08 0.000E+00
 ETOT 19  -22.118177786978      0.000E+00 3.293E-09 0.000E+00
 ETOT 20  -22.118177786978     -3.553E-15 1.139E-08 0.000E+00
 ETOT 21  -22.118177786978      0.000E+00 6.645E-10 0.000E+00
 ETOT 22  -22.118177786978      0.000E+00 2.303E-09 0.000E+00
 ETOT 23  -22.118177786978      0.000E+00 1.341E-10 0.000E+00
 ETOT 24  -22.118177786978      7.105E-15 4.659E-10 0.000E+00
 ETOT 25  -22.118177786978     -7.105E-15 2.709E-11 0.000E+00
 ETOT 26  -22.118177786978      0.000E+00 9.426E-11 0.000E+00
 ETOT 27  -22.118177786978     -3.553E-15 5.474E-12 0.000E+00
 ETOT 28  -22.118177786978      7.105E-15 1.908E-11 0.000E+00
 ETOT 29  -22.118177786978     -7.105E-15 1.106E-12 0.000E+00
 ETOT 30  -22.118177786978      1.776E-14 3.862E-12 0.000E+00
 ETOT 31  -22.118177786978     -1.066E-14 2.237E-13 0.000E+00
 ETOT 32  -22.118177786978      3.553E-15 7.820E-13 0.000E+00
 ETOT 33  -22.118177786978     -3.553E-15 4.524E-14 0.000E+00
 ETOT 34  -22.118177786978      3.553E-15 1.584E-13 0.000E+00
 ETOT 35  -22.118177786978      0.000E+00 9.150E-15 0.000E+00
 ETOT 36  -22.118177786978      0.000E+00 3.208E-14 0.000E+00
 ETOT 37  -22.118177786978     -7.105E-15 1.851E-15 0.000E+00
 ETOT 38  -22.118177786978     -3.553E-15 6.498E-15 0.000E+00
 ETOT 39  -22.118177786978      0.000E+00 3.746E-16 0.000E+00
 ETOT 40  -22.118177786978      0.000E+00 1.317E-15 0.000E+00
 ETOT 41  -22.118177786978     -3.553E-15 7.583E-17 0.000E+00
 ETOT 42  -22.118177786978      7.105E-15 2.668E-16 0.000E+00
 ETOT 43  -22.118177786978     -3.553E-15 1.535E-17 0.000E+00
 ETOT 44  -22.118177786978      0.000E+00 5.406E-17 0.000E+00
 ETOT 45  -22.118177786978     -3.553E-15 3.108E-18 0.000E+00
 ETOT 46  -22.118177786978      0.000E+00 1.096E-17 0.000E+00
 ETOT 47  -22.118177786978      7.105E-15 6.294E-19 0.000E+00
 ETOT 48  -22.118177786978      0.000E+00 2.221E-18 0.000E+00
 ETOT 49  -22.118177786978     -3.553E-15 1.275E-19 0.000E+00
 ETOT 50  -22.118177786978     -3.553E-15 4.500E-19 0.000E+00
 ETOT 51  -22.118177786978      1.066E-14 2.582E-20 0.000E+00
 ETOT 52  -22.118177786978     -3.553E-15 9.124E-20 0.000E+00
 ETOT 53  -22.118177786978      7.105E-15 9.935E-21 0.000E+00

 At SCF step   53   max residual=  9.93E-21 < tolwfr=  1.00E-20 =>converged.

 ----iterations are completed or convergence reached----

 dfpt_looppert: DFPT cycle converged with prtwf=-1. Will skip output of the 1st-order WFK file.
 dfpt_looppert : ek2=    4.3197610573E+01
          f-sum rule ratio=    1.0116408277E+00
 prteigrs : about to open file /scratch/users/j/a/jabreu/flow_simple_11atoms/flow/w279/t1/tmpdata/tmp_1WF1_EIG
 Expectation of eigenvalue derivatives (hartree) for nkpt=   2  k points:
  (in case of degenerate eigenvalues, averaged derivative)
 kpt#   1, nband= 59, wtk=  0.50000, kpt= -0.5000  0.5000  0.0000 (reduced coord)
  -0.00000   -0.00000   -0.00000   -0.00000    0.00000   -0.00000    0.00000    0.00000
  -0.00000    0.00000    0.00000    0.00000    0.00000   -0.00000   -0.00000   -0.00000
   0.00000    0.00000   -0.00000    0.00000    0.00000    0.00000   -0.00000   -0.00000
  -0.00000   -0.00000    0.00000   -0.00000    0.00000    0.00000   -0.00000   -0.00000
   0.00000    0.00000    0.00000    0.00000   -0.00000    0.00000   -0.00000   -0.00000
  -0.00000   -0.00000    0.00000    0.00000   -0.00000   -0.00000    0.00000   -0.00000
   0.00000   -0.00000   -0.00000   -0.00000    0.00000    0.00000    0.00000   -0.00000
  -0.00000   -0.00000    0.00000
 prteigrs : prtvol=0 or 1, do not print more k-points.

 Eight components of 2nd-order total energy (hartree) are
 1,2,3: 0th-order hamiltonian combined with 1st-order wavefunctions
     kin0=   3.54484978E+01 eigvalue=   9.26405651E-01  local=  -1.72423850E+01
 4,5,6: 1st-order hamiltonian combined with 1st and 0th-order wfs
     kin1=  -4.37004665E+01  Hartree=   0.00000000E+00     xc=   0.00000000E+00
 7,8,9: eventually, occupation + non-local contributions
    edocc=   3.57934623E+00     enl0=  -5.93686908E-01   enl1=  -5.35889060E-01
 1-9 gives the relaxation energy (to be shifted if some occ is /=2.0)
   erelax=  -2.21181778E+01
  No Ewald or frozen-wf contrib.: the relaxation energy is the total one
 2DEtotal=   -0.2211817779E+02 Ha. Also 2DEtotal=   -0.601866226045E+03 eV
    (  non-var. 2DEtotal :   -2.2118177787E+01 Ha)

 CALCULATION OF EFFECTIVE MASSES
 NOTE : Additional infos (eff. mass eigenvalues, eigenvectors and, if degenerate, average mass) are available in stdout.

 K-point (-0.500, 0.500, 0.000) | band =    50
 Effective mass tensor:
             -1.7934210163              0.4703036682             -0.0000000420
              0.4703036682             -1.3669249362             -0.0000000675
             -0.0000000420             -0.0000000675             -1.6058414612
 Effective mass tensor eigenvalues:
             -2.0965645592             -1.6058414612             -1.0637813934
 Angular average effective mass 1/(<1/m>)=  -1.4707756823
 Angular average effective mass for Frohlich model (<m**0.5>)**2=  -1.5063294893
 Effective masses along directions: (cart. coord. / red. coord. -> eff. mass)
    1:   1.000000  0.000000  0.000000 /   0.924289 -0.381693  0.000000 ->  -1.6316085170
    2:   0.000000  1.000000  0.000000 /   0.000000  1.000000  0.000000 ->  -1.2435933045
    3:   0.000000  0.000000  1.000000 /   0.000000  0.000000  1.000000 ->  -1.6058414612
    4:   0.577350  0.577350  0.577350 /   0.545241  0.271417  0.793123 ->  -1.2187775935
    5:   0.000000  0.707107  0.707107 /   0.000000  0.530672  0.847577 ->  -1.4016911868
    6:   0.707107  0.000000  0.707107 /   0.551613 -0.227793  0.802392 ->  -1.6186225136
    7:   0.707107  0.707107  0.000000 /   0.895216  0.445632  0.000000 ->  -1.0876916711

 K-point ( 0.000, 0.000, 0.000) | band =    51
 Effective mass tensor:
              0.4309507609             -0.0175270619              0.0000002851
             -0.0175270619              0.4150539961             -0.0000001829
              0.0000002851             -0.0000001829              0.4571890456
 Effective mass tensor eigenvalues:
              0.4037572575              0.4422474995              0.4571890456
 Angular average effective mass 1/(<1/m>)=   0.4332009885
 Angular average effective mass for Frohlich model (<m**0.5>)**2=   0.4335646130
 Effective masses along directions: (cart. coord. / red. coord. -> eff. mass)
    1:   1.000000  0.000000  0.000000 /   0.924289 -0.381693  0.000000 ->   0.4302106213
    2:   0.000000  1.000000  0.000000 /   0.000000  1.000000  0.000000 ->   0.4143411585
    3:   0.000000  0.000000  1.000000 /   0.000000  0.000000  1.000000 ->   0.4571890456
    4:   0.577350  0.577350  0.577350 /   0.545241  0.271417  0.793123 ->   0.4212592172
    5:   0.000000  0.707107  0.707107 /   0.000000  0.530672  0.847577 ->   0.4347116449
    6:   0.707107  0.000000  0.707107 /   0.551613 -0.227793  0.802392 ->   0.4432900161
    7:   0.707107  0.707107  0.000000 /   0.895216  0.445632  0.000000 ->   0.4053319056

 END OF EFFECTIVE MASSES SECTION

 ---- first-order wavefunction calculations are completed ----

 Total localisation tensor (bohr^2) in cartesian coordinates
  WARNING : still subject to testing - especially symmetries.
      direction              matrix element
   alpha     beta       real part   imaginary part
     1        1       0.8393304920    0.0000000000
     1        2      -0.2696829582    0.0000000000
     1        3       0.0000000000    0.0000000000
     2        1      -0.2696829582    0.0000000000
     2        2       0.5947669328    0.0000000000
     2        3       0.0000000000    0.0000000000
     3        1       0.0000000000    0.0000000000
     3        2       0.0000000000    0.0000000000
     3        3       0.5474096687    0.0000000000

 respfn : d/dk was computed, but no 2DTE, so no DDB output.

== END DATASET(S) ==============================================================

 -outvars: echo values of variables after computation  --------
            acell      1.0000000000E+00  1.0000000000E+00  1.0000000000E+00 Bohr
              amu      1.12411000E+02  3.20660000E+01  1.59994000E+01
             ecut      5.10000000E+01 Hartree
           etotal     -2.2118177787E+01
            fcart      0.0000000000E+00  0.0000000000E+00  0.0000000000E+00
                       0.0000000000E+00  0.0000000000E+00  0.0000000000E+00
                       0.0000000000E+00  0.0000000000E+00  0.0000000000E+00
                       0.0000000000E+00  0.0000000000E+00  0.0000000000E+00
                       0.0000000000E+00  0.0000000000E+00  0.0000000000E+00
                       0.0000000000E+00  0.0000000000E+00  0.0000000000E+00
                       0.0000000000E+00  0.0000000000E+00  0.0000000000E+00
                       0.0000000000E+00  0.0000000000E+00  0.0000000000E+00
                       0.0000000000E+00  0.0000000000E+00  0.0000000000E+00
                       0.0000000000E+00  0.0000000000E+00  0.0000000000E+00
                       0.0000000000E+00  0.0000000000E+00  0.0000000000E+00
                       0.0000000000E+00  0.0000000000E+00  0.0000000000E+00
-          fftalg         512
           irdden           1
           irdwfk           1
           istwfk        0    1
              ixc     -116133
              kpt     -5.00000000E-01  5.00000000E-01  0.00000000E+00
                       0.00000000E+00  0.00000000E+00  0.00000000E+00
           kptopt           0
P           mkmem           2
P          mkqmem           2
P          mk1mem           2
            natom          12
            nband          59
           nbdbuf           4
            ngfft          60      60      90
             nkpt           2
            nstep        2000
             nsym           8
           ntypat           3
              occ      2.000000  2.000000  2.000000  2.000000  2.000000  2.000000
                       2.000000  2.000000  2.000000  2.000000  2.000000  2.000000
                       2.000000  2.000000  2.000000  2.000000  2.000000  2.000000
                       2.000000  2.000000  2.000000  2.000000  2.000000  2.000000
                       2.000000  2.000000  2.000000  2.000000  2.000000  2.000000
                       2.000000  2.000000  2.000000  2.000000  2.000000  2.000000
                       2.000000  2.000000  2.000000  2.000000  2.000000  2.000000
                       2.000000  2.000000  2.000000  2.000000  2.000000  2.000000
                       2.000000  2.000000  0.000000  0.000000  0.000000  0.000000
                       0.000000  0.000000  0.000000  0.000000  0.000000
        optdriver           1
            prtwf          -1
            rfdir           1       1       1
           rfelfd           2
            rprim      9.2942239172E+00  0.0000000000E+00  0.0000000000E+00
                      -3.8381242512E+00  8.4647150250E+00  0.0000000000E+00
                       0.0000000000E+00  0.0000000000E+00  1.3519636150E+01
          spgroup          63
           strten      0.0000000000E+00  0.0000000000E+00  0.0000000000E+00
                       0.0000000000E+00  0.0000000000E+00  0.0000000000E+00
           symrel      1  0  0   0  1  0   0  0  1      -1  0  0   0 -1  0   0  0 -1
                       0 -1  0  -1  0  0   0  0 -1       0  1  0   1  0  0   0  0  1
                      -1  0  0   0 -1  0   0  0  1       1  0  0   0  1  0   0  0 -1
                       0  1  0   1  0  0   0  0 -1       0 -1  0  -1  0  0   0  0  1
            tnons      0.0000000  0.0000000  0.0000000     0.0000000  0.0000000  0.0000000
                       0.0000000  0.0000000  0.5000000     0.0000000  0.0000000  0.5000000
                       0.0000000  0.0000000  0.5000000     0.0000000  0.0000000  0.5000000
                       0.0000000  0.0000000  0.0000000     0.0000000  0.0000000  0.0000000
           tolwfr      1.00000000E-20
            typat      1  1  2  2  3  3  3  3  3  3  3  3
           useylm           1
              wtk        0.50000    0.50000
           xangst      0.0000000000E+00  0.0000000000E+00  3.5771416594E+00
                       0.0000000000E+00  0.0000000000E+00  0.0000000000E+00
                       2.4410396238E+00  1.5967617247E+00  5.3657124891E+00
                       4.4620396721E-01  2.8825725438E+00  1.7885708297E+00
                       1.8522667101E+00  3.4258486005E+00  1.7885708297E+00
                       1.0349768810E+00  1.0534856679E+00  5.3657124891E+00
                       2.3551834492E+00  3.1016836588E+00  5.3657124891E+00
                       5.3206014185E-01  1.3776506096E+00  1.7885708297E+00
                      -2.1469210327E-01  3.3085661914E+00  5.5184564379E-01
                       3.1019356943E+00  1.1707680771E+00  4.1289873032E+00
                       3.1019356943E+00  1.1707680771E+00  6.6024376750E+00
                      -2.1469210327E-01  3.3085661914E+00  3.0252960156E+00
            xcart      0.0000000000E+00  0.0000000000E+00  6.7598180748E+00
                       0.0000000000E+00  0.0000000000E+00  0.0000000000E+00
                       4.6128963686E+00  3.0174423591E+00  1.0139727112E+01
                       8.4320329743E-01  5.4472726659E+00  3.3799090374E+00
                       3.5002768071E+00  6.4739156277E+00  3.3799090374E+00
                       1.9558228589E+00  1.9907993973E+00  1.0139727112E+01
                       4.4506517117E+00  5.8613326661E+00  1.0139727112E+01
                       1.0054479543E+00  2.6033823589E+00  3.3799090374E+00
                      -4.0570927808E-01  6.2522839942E+00  1.0428371344E+00
                       5.8618089441E+00  2.2124310308E+00  7.8026552091E+00
                       5.8618089441E+00  2.2124310308E+00  1.2476799015E+01
                      -4.0570927808E-01  6.2522839942E+00  5.7169809404E+00
             xred      0.0000000000E+00  0.0000000000E+00  5.0000000000E-01
                       0.0000000000E+00  0.0000000000E+00  0.0000000000E+00
                       6.4352700000E-01  3.5647300000E-01  7.5000000000E-01
                       3.5647300000E-01  6.4352700000E-01  2.5000000000E-01
                       6.9244300000E-01  7.6481200000E-01  2.5000000000E-01
                       3.0755700000E-01  2.3518800000E-01  7.5000000000E-01
                       7.6481200000E-01  6.9244300000E-01  7.5000000000E-01
                       2.3518800000E-01  3.0755700000E-01  2.5000000000E-01
                       2.6137100000E-01  7.3862900000E-01  7.7135000000E-02
                       7.3862900000E-01  2.6137100000E-01  5.7713500000E-01
                       7.3862900000E-01  2.6137100000E-01  9.2286500000E-01
                       2.6137100000E-01  7.3862900000E-01  4.2286500000E-01
            znucl       48.00000   16.00000    8.00000

- Timing analysis has been suppressed with timopt=0

 Suggested references for the acknowledgment of ABINIT usage.

 Calculation completed.
.Delivered   2 WARNINGs and   5 COMMENTs to log file.