.Version 9.5.1 of ABINIT

 ABINIT is a project of the Universite Catholique de Louvain,
 Corning Inc. and other collaborators, see ~abinit/doc/developers/contributors.txt .
 acknowledgments of the ABINIT effort.

.Starting date : Tue 27 Apr 2021.
- ( at 18h40 )

- input  file    -> /scratch/users/j/a/jabreu/flow_simple_4atoms/flow/w230/t1/run.abi
- output file    -> /scratch/users/j/a/jabreu/flow_simple_4atoms/flow/w230/t1/run.abo
- root for input  files -> /scratch/users/j/a/jabreu/flow_simple_4atoms/flow/w230/t1/indata/in
- root for output files -> /scratch/users/j/a/jabreu/flow_simple_4atoms/flow/w230/t1/outdata/out

 Symmetries : space group R-3 m (#166); Bravais hR (rhombohedral)
     intxc =       0      iscf =       7    lmnmax =      18     lnmax =       6
     mgfft =      64  mpssoang =       3    mqgrid =    3001     natom =       4
  nloc_mem =       1    nspden =       1   nspinor =       1    nsppol =       1
      nsym =      12    n1xccc =    2501    ntypat =       3    occopt =       1
   xclevel =       2
-    mband =          28        mffmem =           1         mkmem =           2
-   mkqmem =           2        mk1mem =           2           mpw =        4034
      nfft =      262144          nkpt =           2
  Rough estimation (10% accuracy) of disk space for files :

------------- Echo of variables that govern the present computation ------------
-
- outvars: echo of selected default values
-   iomode0 =  0 , fftalg0 =512 , wfoptalg0 =  0
-
- outvars: echo of global parameters not present in the input file
-  max_nthreads =    0
-
 -outvars: echo values of preprocessed input variables --------
            acell      1.0000000000E+00  1.0000000000E+00  1.0000000000E+00 Bohr
              amu      2.29897680E+01  1.02905500E+02  1.59994000E+01
             ecut      4.40000000E+01 Hartree
-          fftalg         512
           irdden           1
           irdwfk           1
              ixc     -116133
              kpt      8.33333333E-02 -6.93889390E-18  0.00000000E+00
                       5.94646475E-01  5.94646475E-01  3.10707050E-01
           kptopt           0
P           mkmem           2
P          mkqmem           2
P          mk1mem           2
            natom           4
            nband          28
           nbdbuf           4
            ngfft          64      64      64
             nkpt           2
            nstep         100
             nsym          12
           ntypat           3
              occ      2.000000  2.000000  2.000000  2.000000  2.000000  2.000000
                       2.000000  2.000000  2.000000  2.000000  2.000000  2.000000
                       2.000000  2.000000  2.000000  2.000000  2.000000  2.000000
                       2.000000  0.000000  0.000000  0.000000  0.000000  0.000000
                       0.000000  0.000000  0.000000  0.000000
        optdriver           1
            prtwf          -1
            rfdir           1       1       1
           rfelfd           2
            rprim      5.6445145667E+00  0.0000000000E+00  8.4700520561E+00
                       2.5636989724E+00  5.0287167621E+00  8.4700520561E+00
                       0.0000000000E+00  0.0000000000E+00  1.0178522807E+01
          spgroup         166
           symrel      1  0  0   0  1  0   0  0  1      -1  0  0   0 -1  0   0  0 -1
                       0  1  0   1  0  0   0  0  1       0 -1  0  -1  0  0   0  0 -1
                       0  0  1   1  0  0   0  1  0       0  0 -1  -1  0  0   0 -1  0
                       1  0  0   0  0  1   0  1  0      -1  0  0   0  0 -1   0 -1  0
                       0  1  0   0  0  1   1  0  0       0 -1  0   0  0 -1  -1  0  0
                       0  0  1   0  1  0   1  0  0       0  0 -1   0 -1  0  -1  0  0
           tolwfr      1.00000000E-20
            typat      1  2  3  3
           useylm           1
              wtk        0.50000    0.50000
           xangst      0.0000000000E+00  0.0000000000E+00  0.0000000000E+00
                       2.1717997641E+00  1.3305411495E+00  7.1752796469E+00
                       3.3352546157E+00  2.0433253487E+00  1.1019148707E+01
                       1.0083449125E+00  6.1775695029E-01  3.3314105873E+00
            xcart      0.0000000000E+00  0.0000000000E+00  0.0000000000E+00
                       4.1041067696E+00  2.5143583811E+00  1.3559313459E+01
                       6.3027178071E+00  3.8613253094E+00  2.0823173273E+01
                       1.9054957320E+00  1.1673914527E+00  6.2954536461E+00
             xred      0.0000000000E+00  0.0000000000E+00  0.0000000000E+00
                       5.0000000000E-01  5.0000000000E-01  5.0000000000E-01
                       7.6785500000E-01  7.6785500000E-01  7.6785500000E-01
                       2.3214500000E-01  2.3214500000E-01  2.3214500000E-01
            znucl       11.00000   45.00000    8.00000

 chkinp: Checking input parameters for consistency.

== DATASET  1 ==================================================================
-   mpi_nproc: 1, omp_nthreads: -1 (-1 if OMP is not activated)

--- !DatasetInfo
iteration_state: {dtset: 1, }
dimensions: {natom: 4, nkpt: 2, mband: 28, nsppol: 1, nspinor: 1, nspden: 1, mpw: 4034, }
cutoff_energies: {ecut:  44.0, pawecutdg:  -1.0, }
electrons: {nelect:   3.80000000E+01, charge:   0.00000000E+00, occopt:   1.00000000E+00, tsmear:   1.00000000E-02, }
meta: {optdriver: 1, rfelfd: 2, }
...

 Real(R)+Recip(G) space primitive vectors, cartesian coordinates (Bohr,Bohr^-1):
 R(1)=  5.6445146  0.0000000  8.4700521  G(1)=  0.1771632 -0.0903199  0.0000000
 R(2)=  2.5636990  5.0287168  8.4700521  G(2)=  0.0000000  0.1988579  0.0000000
 R(3)=  0.0000000  0.0000000 10.1785228  G(3)= -0.1474262 -0.0903199  0.0982461
 Unit cell volume ucvol=  2.8891396E+02 bohr^3
 Angles (23,13,12)=  3.36798252E+01  3.36798252E+01  3.36798252E+01 degrees

 getcut: wavevector=  0.0000  0.0000  0.0000  ngfft=  64  64  64
         ecut(hartree)=     44.000   => boxcut(ratio)=   2.10637

--- Pseudopotential description ------------------------------------------------
- pspini: atom type   1  psp file is /scratch/users/j/a/jabreu/pseudos/PBEsol/Na.psp8
- pspatm: opening atomic psp file    /scratch/users/j/a/jabreu/pseudos/PBEsol/Na.psp8
- Na    ONCVPSP-3.3.0  r_core=   1.20708   1.55069
- 11.00000   9.00000    180112                znucl, zion, pspdat
    8 -116133    1    4       400   0.00000   pspcod,pspxc,lmax,lloc,mmax,r2well
    3.99000000000000    0.00000000000000    0.00000000000000   rchrg,fchrg,qchrg
     nproj     2     2
     extension_switch     1
  pspatm : epsatm=    9.32878306
         --- l  ekb(1:nproj) -->
             0    2.657905   -0.678300
             1   -6.761319   -2.404728
 pspatm: atomic psp has been read  and splines computed

- pspini: atom type   2  psp file is /scratch/users/j/a/jabreu/pseudos/PBEsol/Rh.psp8
- pspatm: opening atomic psp file    /scratch/users/j/a/jabreu/pseudos/PBEsol/Rh.psp8
- Rh    ONCVPSP-3.3.0  r_core=   1.40787   1.40787   1.35838
- 45.00000  17.00000    180112                znucl, zion, pspdat
    8 -116133    2    4       600   0.00000   pspcod,pspxc,lmax,lloc,mmax,r2well
    5.99000000000000    7.00000000000000    0.00000000000000   rchrg,fchrg,qchrg
     nproj     2     2     2
     extension_switch     1
  pspatm : epsatm=   21.51201928
         --- l  ekb(1:nproj) -->
             0   16.263264    1.496972
             1    7.329212    1.051636
             2    0.393200    0.129871
 pspatm: atomic psp has been read  and splines computed

- pspini: atom type   3  psp file is /scratch/users/j/a/jabreu/pseudos/PBEsol/O.psp8
- pspatm: opening atomic psp file    /scratch/users/j/a/jabreu/pseudos/PBEsol/O.psp8
- O     ONCVPSP-3.3.0  r_core=   1.35509   1.45563   1.26150
-  8.00000   6.00000    180112                znucl, zion, pspdat
    8 -116133    2    4       600   0.00000   pspcod,pspxc,lmax,lloc,mmax,r2well
    5.99000000000000    4.00000000000000    0.00000000000000   rchrg,fchrg,qchrg
     nproj     2     2     1
     extension_switch     1
  pspatm : epsatm=    6.22910522
         --- l  ekb(1:nproj) -->
             0    6.050032    0.820363
             1   -4.739617   -1.153841
             2   -1.335834
 pspatm: atomic psp has been read  and splines computed

   1.64536249E+03                                ecore*ucvol(ha*bohr**3)

-inwffil : will read wavefunctions from disk file /scratch/users/j/a/jabreu/flow_simple_4atoms/flow/w230/t1/indata/in_WFK

 ==>  initialize data related to q vector <==

 The list of irreducible perturbations for this q vector is:
    1)    idir= 1    ipert=   5
    2)    idir= 2    ipert=   5
    3)    idir= 3    ipert=   5

 Perturbation wavevector (in red.coord.)   0.000000  0.000000  0.000000
 Perturbation : derivative vs k along direction   1

 dfpt_looppert : COMMENT -
  In a d/dk calculation, iscf is set to -3 automatically.
 The set of symmetries contains only one element for this perturbation.
 symkpt : not enough symmetry to change the number of k points.

[...]

 Initialisation of the first-order wave-functions :
  ireadwf=   0

--- !BeginCycle
iteration_state: {dtset: 1, }
solver: {iscf: 7, nstep: 100, nline: 4, wfoptalg: 0, }
tolerances: {tolwfr: 1.00E-20, }
...

     iter   2DEtotal(Ha)        deltaE(Ha) residm    vres2
-ETOT  1  -62.652621855732     -6.265E+01 5.798E-02 0.000E+00
 ETOT  2  -62.682418624988     -2.980E-02 4.602E-04 0.000E+00
 ETOT  3  -62.682443018977     -2.439E-05 1.826E-06 0.000E+00
 ETOT  4  -62.682443081114     -6.214E-08 3.568E-08 0.000E+00
 ETOT  5  -62.682443081336     -2.213E-10 2.343E-10 0.000E+00
 ETOT  6  -62.682443081336     -8.740E-13 5.515E-12 0.000E+00
 ETOT  7  -62.682443081336      3.553E-14 4.271E-14 0.000E+00
 ETOT  8  -62.682443081336      3.553E-14 1.053E-15 0.000E+00
 ETOT  9  -62.682443081336     -1.421E-14 8.272E-18 0.000E+00
 ETOT 10  -62.682443081336      0.000E+00 2.093E-19 0.000E+00
 ETOT 11  -62.682443081336      4.263E-14 9.172E-21 0.000E+00

 At SCF step   11   max residual=  9.17E-21 < tolwfr=  1.00E-20 =>converged.

 ----iterations are completed or convergence reached----

 dfpt_looppert: DFPT cycle converged with prtwf=-1. Will skip output of the 1st-order WFK file.
 dfpt_looppert : ek2=    1.1864760577E+02
          f-sum rule ratio=    1.0145105714E+00
 prteigrs : about to open file /scratch/users/j/a/jabreu/flow_simple_4atoms/flow/w230/t1/tmpdata/tmp_1WF1_EIG
 Expectation of eigenvalue derivatives (hartree) for nkpt=   2  k points:
  (in case of degenerate eigenvalues, averaged derivative)
 kpt#   1, nband= 28, wtk=  0.50000, kpt=  0.0833  0.0000  0.0000 (reduced coord)
   0.00066    0.00090   -0.00867   -0.00198    0.00146    0.00446   -0.01323   -0.00227
   0.06270   -0.03387    0.08417    0.02681    0.05724   -0.37319   -0.19286    0.01927
   0.14146    0.19767    0.00122   -0.19413   -0.04154    0.27830    0.23788    0.06622
  -0.51554   -0.41204    0.15394   -0.05950
 prteigrs : prtvol=0 or 1, do not print more k-points.

 Eight components of 2nd-order total energy (hartree) are
 1,2,3: 0th-order hamiltonian combined with 1st-order wavefunctions
     kin0=   7.28083799E+01 eigvalue=  -1.23134678E-01  local=  -2.84087628E+01
 4,5,6: 1st-order hamiltonian combined with 1st and 0th-order wfs
     kin1=  -1.20369250E+02  Hartree=   0.00000000E+00     xc=   0.00000000E+00
 7,8,9: eventually, occupation + non-local contributions
    edocc=   1.93028544E+01     enl0=  -8.96893792E-01   enl1=  -4.99563583E+00
 1-9 gives the relaxation energy (to be shifted if some occ is /=2.0)
   erelax=  -6.26824431E+01
  No Ewald or frozen-wf contrib.: the relaxation energy is the total one
 2DEtotal=   -0.6268244308E+02 Ha. Also 2DEtotal=   -0.170567601997E+04 eV
    (  non-var. 2DEtotal :   -6.2682443081E+01 Ha)

 Perturbation wavevector (in red.coord.)   0.000000  0.000000  0.000000
 Perturbation : derivative vs k along direction   2
 The set of symmetries contains only one element for this perturbation.
 symkpt : not enough symmetry to change the number of k points.

[...]

 Perturbation wavevector (in red.coord.)   0.000000  0.000000  0.000000
 Perturbation : derivative vs k along direction   3
 The set of symmetries contains only one element for this perturbation.
 symkpt : not enough symmetry to change the number of k points.

-inwffil : will read wavefunctions from disk file /scratch/users/j/a/jabreu/flow_simple_4atoms/flow/w230/t1/indata/in_WFK

 Initialisation of the first-order wave-functions :
  ireadwf=   0

--- !BeginCycle
iteration_state: {dtset: 1, }
solver: {iscf: 7, nstep: 100, nline: 4, wfoptalg: 0, }
tolerances: {tolwfr: 1.00E-20, }
...

     iter   2DEtotal(Ha)        deltaE(Ha) residm    vres2
-ETOT  1  -64.053351352870     -6.405E+01 9.966E-02 0.000E+00
 ETOT  2  -64.083294801283     -2.994E-02 4.146E-04 0.000E+00
 ETOT  3  -64.083324365947     -2.956E-05 1.649E-06 0.000E+00
 ETOT  4  -64.083324447372     -8.142E-08 2.205E-08 0.000E+00
 ETOT  5  -64.083324447656     -2.845E-10 2.753E-10 0.000E+00
 ETOT  6  -64.083324447657     -1.080E-12 4.017E-12 0.000E+00
 ETOT  7  -64.083324447657      1.421E-14 5.500E-14 0.000E+00
 ETOT  8  -64.083324447657      1.421E-14 8.586E-16 0.000E+00
 ETOT  9  -64.083324447657     -2.842E-14 1.230E-17 0.000E+00
 ETOT 10  -64.083324447657      0.000E+00 1.983E-19 0.000E+00
 ETOT 11  -64.083324447657      0.000E+00 9.053E-21 0.000E+00

 At SCF step   11   max residual=  9.05E-21 < tolwfr=  1.00E-20 =>converged.

 ----iterations are completed or convergence reached----

 dfpt_looppert: DFPT cycle converged with prtwf=-1. Will skip output of the 1st-order WFK file.
 dfpt_looppert : ek2=    1.1864760577E+02
          f-sum rule ratio=    1.0421234546E+00
 prteigrs : about to open file /scratch/users/j/a/jabreu/flow_simple_4atoms/flow/w230/t1/tmpdata/tmp_1WF1_EIG
 Expectation of eigenvalue derivatives (hartree) for nkpt=   2  k points:
  (in case of degenerate eigenvalues, averaged derivative)
 kpt#   1, nband= 28, wtk=  0.50000, kpt=  0.0833  0.0000  0.0000 (reduced coord)
  -0.00033   -0.00045    0.00434    0.00099   -0.00073   -0.00251    0.00662    0.00113
  -0.02963    0.01519   -0.04074   -0.00973   -0.02860    0.18977    0.09565   -0.02424
  -0.07041   -0.09775   -0.00018    0.08880    0.02091   -0.11784   -0.12415   -0.04063
   0.23280    0.23720   -0.06531    0.00355
 prteigrs : prtvol=0 or 1, do not print more k-points.

 Eight components of 2nd-order total energy (hartree) are
 1,2,3: 0th-order hamiltonian combined with 1st-order wavefunctions
     kin0=   7.58798324E+01 eigvalue=  -6.00627591E-01  local=  -2.99036795E+01
 4,5,6: 1st-order hamiltonian combined with 1st and 0th-order wfs
     kin1=  -1.23645453E+02  Hartree=   0.00000000E+00     xc=   0.00000000E+00
 7,8,9: eventually, occupation + non-local contributions
    edocc=   1.95036837E+01     enl0=  -7.95884684E-01   enl1=  -4.52119610E+00
 1-9 gives the relaxation energy (to be shifted if some occ is /=2.0)
   erelax=  -6.40833244E+01
  No Ewald or frozen-wf contrib.: the relaxation energy is the total one
 2DEtotal=   -0.6408332445E+02 Ha. Also 2DEtotal=   -0.174379594057E+04 eV
    (  non-var. 2DEtotal :   -6.4083324448E+01 Ha)

 CALCULATION OF EFFECTIVE MASSES
 NOTE : Additional infos (eff. mass eigenvalues, eigenvectors and, if degenerate, average mass) are available in stdout.

--- !WARNING
src_file: m_efmas.F90
src_line: 0
message: |

    Band(s)    19,
    are not band extrema, but saddle points;
    the transport equivalent formalism breaks down in these conditions.
    The associated tensor(s) will therefore not be printed.
...

 K-point ( 0.083,-0.000, 0.000) | band =    19
 Effective mass tensor:
     *** SADDLE POINT: TRANSPORT EQV. EFF. MASS NOT DEFINED (see WARNING above) ***
 Angular average effective mass 1/(<1/m>)= -21.3957360980
 Angular average effective mass for Frohlich model (<m**0.5>)**2= -58.6425528011
 Effective masses along directions: (cart. coord. / red. coord. -> eff. mass)
    1:   1.000000  0.000000  0.000000 /   0.910487  0.413537  0.000000 -> -13.9011926139
    2:   0.000000  1.000000  0.000000 /   0.000000  1.000000  0.000000 -> -20.0200266949
    3:   0.000000  0.000000  1.000000 /   0.538843  0.538843  0.647531 -> -54.5595524542
    4:   0.577350  0.577350  0.577350 /   0.596010  0.678263  0.429804 -> **************
    5:   0.000000  0.707107  0.707107 /   0.447931  0.713870  0.538282 -> -16.4464880987
    6:   0.707107  0.000000  0.707107 /   0.685006  0.535488  0.493983 -> 146.3492321887
    7:   0.707107  0.707107  0.000000 /   0.596626  0.802519  0.000000 -> -63.6845827058

 K-point ( 0.595, 0.595, 0.311) | band =    20
 Effective mass tensor:
              1.3476761573             -0.7791659429              0.4850223238
             -0.7791659429              2.1421309511              0.2971436025
              0.4850223238              0.2971436025              1.9707746745
 Effective mass tensor eigenvalues:
              0.6291652813              2.2119335220              2.6194829797
 Angular average effective mass 1/(<1/m>)=   1.2380040760
 Angular average effective mass for Frohlich model (<m**0.5>)**2=   1.4188255857
 Effective masses along directions: (cart. coord. / red. coord. -> eff. mass)
    1:   1.000000  0.000000  0.000000 /   0.910487  0.413537  0.000000 ->   0.8819599046
    2:   0.000000  1.000000  0.000000 /   0.000000  1.000000  0.000000 ->   1.5059409833
    3:   0.000000  0.000000  1.000000 /   0.538843  0.538843  0.647531 ->   1.5990269953
    4:   0.577350  0.577350  0.577350 /   0.596010  0.678263  0.429804 ->   1.3509207706
    5:   0.000000  0.707107  0.707107 /   0.447931  0.713870  0.538282 ->   2.3191529734
    6:   0.707107  0.000000  0.707107 /   0.685006  0.535488  0.493983 ->   1.8829122190
    7:   0.707107  0.707107  0.000000 /   0.596626  0.802519  0.000000 ->   0.7354577826

 END OF EFFECTIVE MASSES SECTION

 ---- first-order wavefunction calculations are completed ----

 Total localisation tensor (bohr^2) in cartesian coordinates
  WARNING : still subject to testing - especially symmetries.
      direction              matrix element
   alpha     beta       real part   imaginary part
     1        1       0.9448979084    0.0000000000
     1        2       0.3232719783    0.0000000000
     1        3       1.7150872586    0.0000000000
     2        1       0.3232719783    0.0000000000
     2        2       0.6341006622    0.0000000000
     2        3       1.0680389991    0.0000000000
     3        1       1.7150872586    0.0000000000
     3        2       1.0680389991    0.0000000000
     3        3       6.5430179330    0.0000000000

 respfn : d/dk was computed, but no 2DTE, so no DDB output.

== END DATASET(S) ==============================================================

 -outvars: echo values of variables after computation  --------
            acell      1.0000000000E+00  1.0000000000E+00  1.0000000000E+00 Bohr
              amu      2.29897680E+01  1.02905500E+02  1.59994000E+01
             ecut      4.40000000E+01 Hartree
           etotal     -6.4083324448E+01
            fcart      0.0000000000E+00  0.0000000000E+00  0.0000000000E+00
                       0.0000000000E+00  0.0000000000E+00  0.0000000000E+00
                       0.0000000000E+00  0.0000000000E+00  0.0000000000E+00
                       0.0000000000E+00  0.0000000000E+00  0.0000000000E+00
-          fftalg         512
           irdden           1
           irdwfk           1
              ixc     -116133
              kpt      8.33333333E-02 -6.93889390E-18  0.00000000E+00
                       5.94646475E-01  5.94646475E-01  3.10707050E-01
           kptopt           0
P           mkmem           2
P          mkqmem           2
P          mk1mem           2
            natom           4
            nband          28
           nbdbuf           4
            ngfft          64      64      64
             nkpt           2
            nstep         100
             nsym          12
           ntypat           3
              occ      2.000000  2.000000  2.000000  2.000000  2.000000  2.000000
                       2.000000  2.000000  2.000000  2.000000  2.000000  2.000000
                       2.000000  2.000000  2.000000  2.000000  2.000000  2.000000
                       2.000000  0.000000  0.000000  0.000000  0.000000  0.000000
                       0.000000  0.000000  0.000000  0.000000
        optdriver           1
            prtwf          -1
            rfdir           1       1       1
           rfelfd           2
            rprim      5.6445145667E+00  0.0000000000E+00  8.4700520561E+00
                       2.5636989724E+00  5.0287167621E+00  8.4700520561E+00
                       0.0000000000E+00  0.0000000000E+00  1.0178522807E+01
          spgroup         166
           strten      0.0000000000E+00  0.0000000000E+00  0.0000000000E+00
                       0.0000000000E+00  0.0000000000E+00  0.0000000000E+00
           symrel      1  0  0   0  1  0   0  0  1      -1  0  0   0 -1  0   0  0 -1
                       0  1  0   1  0  0   0  0  1       0 -1  0  -1  0  0   0  0 -1
                       0  0  1   1  0  0   0  1  0       0  0 -1  -1  0  0   0 -1  0
                       1  0  0   0  0  1   0  1  0      -1  0  0   0  0 -1   0 -1  0
                       0  1  0   0  0  1   1  0  0       0 -1  0   0  0 -1  -1  0  0
                       0  0  1   0  1  0   1  0  0       0  0 -1   0 -1  0  -1  0  0
           tolwfr      1.00000000E-20
            typat      1  2  3  3
           useylm           1
              wtk        0.50000    0.50000
           xangst      0.0000000000E+00  0.0000000000E+00  0.0000000000E+00
                       2.1717997641E+00  1.3305411495E+00  7.1752796469E+00
                       3.3352546157E+00  2.0433253487E+00  1.1019148707E+01
                       1.0083449125E+00  6.1775695029E-01  3.3314105873E+00
            xcart      0.0000000000E+00  0.0000000000E+00  0.0000000000E+00
                       4.1041067696E+00  2.5143583811E+00  1.3559313459E+01
                       6.3027178071E+00  3.8613253094E+00  2.0823173273E+01
                       1.9054957320E+00  1.1673914527E+00  6.2954536461E+00
             xred      0.0000000000E+00  0.0000000000E+00  0.0000000000E+00
                       5.0000000000E-01  5.0000000000E-01  5.0000000000E-01
                       7.6785500000E-01  7.6785500000E-01  7.6785500000E-01
                       2.3214500000E-01  2.3214500000E-01  2.3214500000E-01
            znucl       11.00000   45.00000    8.00000

- Timing analysis has been suppressed with timopt=0

 Suggested references for the acknowledgment of ABINIT usage.

 Calculation completed.
.Delivered  15 WARNINGs and   9 COMMENTs to log file.