.Version 9.5.2 of ABINIT

 ABINIT is a project of the Universite Catholique de Louvain,
 Corning Inc. and other collaborators, see ~abinit/doc/developers/contributors.txt .
 acknowledgments of the ABINIT effort.

.Starting date : Wed 26 May 2021.
- ( at 02h52 )

- input  file    -> /scratch/users/j/a/jabreu/flow_simple_11atoms/flow/w266/t1/run.abi
- output file    -> /scratch/users/j/a/jabreu/flow_simple_11atoms/flow/w266/t1/run.abo
- root for input  files -> /scratch/users/j/a/jabreu/flow_simple_11atoms/flow/w266/t1/indata/in
- root for output files -> /scratch/users/j/a/jabreu/flow_simple_11atoms/flow/w266/t1/outdata/out

 Symmetries : space group I4_1/a m d (#141); Bravais tI (body-center tetrag.)
     intxc =       0      iscf =       7    lmnmax =      18     lnmax =       6
     mgfft =      72  mpssoang =       3    mqgrid =    3001     natom =      12
  nloc_mem =       1    nspden =       1   nspinor =       1    nsppol =       1
      nsym =      16    n1xccc =    2501    ntypat =       3    occopt =       1
   xclevel =       2
-    mband =          59        mffmem =           1         mkmem =           2
-   mkqmem =           2        mk1mem =           2           mpw =       14709
      nfft =      373248          nkpt =           2
  Rough estimation (10% accuracy) of disk space for files :

------------- Echo of variables that govern the present computation ------------
-
- outvars: echo of selected default values
-   iomode0 =  0 , fftalg0 =512 , wfoptalg0 =  0
-
- outvars: echo of global parameters not present in the input file
-  max_nthreads =    0
-
 -outvars: echo values of preprocessed input variables --------
            acell      1.0000000000E+00  1.0000000000E+00  1.0000000000E+00 Bohr
              amu      8.89058500E+01  7.49215900E+01  1.59994000E+01
             ecut      4.40000000E+01 Hartree
-          fftalg         512
           irdden           1
           irdwfk           1
           istwfk        0    1
              ixc     -116133
              kpt      8.29578499E-02  8.29578499E-02 -8.29578499E-02
                       0.00000000E+00  0.00000000E+00  0.00000000E+00
           kptopt           0
P           mkmem           2
P          mkqmem           2
P          mk1mem           2
            natom          12
            nband          59
           nbdbuf           4
            ngfft          72      72      72
             nkpt           2
            nstep        2000
             nsym          16
           ntypat           3
              occ      2.000000  2.000000  2.000000  2.000000  2.000000  2.000000
                       2.000000  2.000000  2.000000  2.000000  2.000000  2.000000
                       2.000000  2.000000  2.000000  2.000000  2.000000  2.000000
                       2.000000  2.000000  2.000000  2.000000  2.000000  2.000000
                       2.000000  2.000000  2.000000  2.000000  2.000000  2.000000
                       2.000000  2.000000  2.000000  2.000000  2.000000  2.000000
                       2.000000  2.000000  2.000000  2.000000  2.000000  2.000000
                       2.000000  2.000000  2.000000  2.000000  2.000000  2.000000
                       2.000000  2.000000  0.000000  0.000000  0.000000  0.000000
                       0.000000  0.000000  0.000000  0.000000  0.000000
        optdriver           1
            prtwf          -1
            rfdir           1       1       1
           rfelfd           2
            rprim      1.0674889544E+01  0.0000000000E+00 -3.1574929634E+00
                      -5.9573367653E+00  8.8579571821E+00 -3.1574929634E+00
                       0.0000000000E+00  0.0000000000E+00  1.1132072071E+01
          spgroup         141
           symrel      1  0  0   0  1  0   0  0  1      -1  0  0   0 -1  0   0  0 -1
                      -1 -1 -1   0  0  1   0  1  0       1  1  1   0  0 -1   0 -1  0
                       0  1  0   1  0  0  -1 -1 -1       0 -1  0  -1  0  0   1  1  1
                       0  0  1  -1 -1 -1   1  0  0       0  0 -1   1  1  1  -1  0  0
                       0  1  0   1  0  0   0  0  1       0 -1  0  -1  0  0   0  0 -1
                      -1 -1 -1   0  0  1   1  0  0       1  1  1   0  0 -1  -1  0  0
                       1  0  0   0  1  0  -1 -1 -1      -1  0  0   0 -1  0   1  1  1
                       0  0  1  -1 -1 -1   0  1  0       0  0 -1   1  1  1   0 -1  0
            tnons      0.0000000  0.0000000  0.0000000     0.2500000 -0.2500000  0.5000000
                       0.2500000 -0.2500000  0.5000000     0.0000000 -0.0000000  0.0000000
                       0.0000000 -0.0000000  0.0000000     0.2500000 -0.2500000  0.5000000
                       0.2500000 -0.2500000  0.5000000     0.0000000  0.0000000  0.0000000
                       0.2500000 -0.2500000  0.5000000     0.0000000  0.0000000  0.0000000
                       0.0000000  0.0000000  0.0000000     0.2500000 -0.2500000  0.5000000
                       0.2500000 -0.2500000  0.5000000     0.0000000 -0.0000000  0.0000000
                       0.0000000 -0.0000000  0.0000000     0.2500000 -0.2500000  0.5000000
           tolwfr      1.00000000E-20
            typat      1  1  2  2  3  3  3  3  3  3  3  3
           useylm           1
              wtk        0.50000    0.50000
           xangst      3.4485594781E+00  1.1718572639E+00  1.2745460996E+00
                       1.2482107054E+00  2.3437145277E+00 -1.6708733125E+00
                      -9.5213806736E-01  3.5155717916E+00  1.2745460996E+00
                       0.0000000000E+00  0.0000000000E+00  0.0000000000E+00
                       4.6343588128E+00  2.3568393291E-02 -3.1278242870E-01
                      -3.6639144578E-01  2.6868577717E+00  2.6326369834E+00
                       3.2283139153E+00  2.6868577717E+00 -5.7280990757E-01
                       2.6282612022E+00  3.0064326224E+00  2.3726095046E+00
                       5.0631616293E+00  8.2871401986E-01  2.8618746279E+00
                       6.2411370683E-02  3.4920033983E+00 -8.3544784202E-02
                       2.0685089813E+00  5.0913916914E-01  3.1219021068E+00
                       1.4684562682E+00  8.2871401986E-01  1.7648269467E-01
            xcart      6.5168329666E+00  2.2144892955E+00  2.4085430720E+00
                       2.3587763893E+00  4.4289785910E+00 -3.1574929634E+00
                      -1.7992801880E+00  6.6434678866E+00  2.4085430720E+00
                       0.0000000000E+00  0.0000000000E+00  0.0000000000E+00
                       8.7576689577E+00  4.4537808712E-02 -5.9107312943E-01
                      -6.9237948995E-01  5.0774253466E+00  4.9749629060E+00
                       6.1006291709E+00  5.0774253466E+00 -1.0824538515E+00
                       4.9666938778E+00  5.6813342934E+00  4.4835821839E+00
                       9.5679888459E+00  1.5660425400E+00  5.4081592734E+00
                       1.1794039817E-01  6.5989300779E+00 -1.5787676197E-01
                       3.9089154781E+00  9.6213359321E-01  5.8995399955E+00
                       2.7749801850E+00  1.5660425400E+00  3.3350396012E-01
             xred      7.5000000000E-01  2.5000000000E-01  5.0000000000E-01
                       5.0000000000E-01  5.0000000000E-01 -6.9388939039E-17
                       2.5000000000E-01  7.5000000000E-01  5.0000000000E-01
                       0.0000000000E+00  0.0000000000E+00  0.0000000000E+00
                       8.2320500000E-01  5.0280000000E-03  1.8182300000E-01
                       2.5502800000E-01  5.7320500000E-01  6.8182300000E-01
                       8.9138200000E-01  5.7320500000E-01  3.1817700000E-01
                       8.2320500000E-01  6.4138200000E-01  8.1817700000E-01
                       9.9497200000E-01  1.7679500000E-01  8.1817700000E-01
                       4.2679500000E-01  7.4497200000E-01  3.1817700000E-01
                       4.2679500000E-01  1.0861800000E-01  6.8182300000E-01
                       3.5861800000E-01  1.7679500000E-01  1.8182300000E-01
            znucl       39.00000   33.00000    8.00000

 chkinp: Checking input parameters for consistency.

== DATASET  1 ==================================================================
-   mpi_nproc: 1, omp_nthreads: -1 (-1 if OMP is not activated)

--- !DatasetInfo
iteration_state: {dtset: 1, }
dimensions: {natom: 12, nkpt: 2, mband: 59, nsppol: 1, nspinor: 1, nspden: 1, mpw: 14709, }
cutoff_energies: {ecut:  44.0, pawecutdg:  -1.0, }
electrons: {nelect:   1.00000000E+02, charge:   0.00000000E+00, occopt:   1.00000000E+00, tsmear:   1.00000000E-02, }
meta: {optdriver: 1, rfelfd: 2, }
...

 Real(R)+Recip(G) space primitive vectors, cartesian coordinates (Bohr,Bohr^-1):
 R(1)= 10.6748895  0.0000000 -3.1574930  G(1)=  0.0936778  0.0630021  0.0000000
 R(2)= -5.9573368  8.8579572 -3.1574930  G(2)=  0.0000000  0.1128928  0.0000000
 R(3)=  0.0000000  0.0000000 11.1320721  G(3)=  0.0265707  0.0498907  0.0898305
 Unit cell volume ucvol=  1.0526233E+03 bohr^3
 Angles (23,13,12)=  1.06477529E+02  1.06477529E+02  1.15640393E+02 degrees

 getcut: wavevector=  0.0000  0.0000  0.0000  ngfft=  72  72  72
         ecut(hartree)=     44.000   => boxcut(ratio)=   2.16622

--- Pseudopotential description ------------------------------------------------
- pspini: atom type   1  psp file is /scratch/users/j/a/jabreu/pseudos/PBEsol/Y.psp8
- pspatm: opening atomic psp file    /scratch/users/j/a/jabreu/pseudos/PBEsol/Y.psp8
- Y     ONCVPSP-3.3.0  r_core=   1.60520   1.51226   1.56736
- 39.00000  11.00000    180112                znucl, zion, pspdat
    8 -116133    2    4       600   0.00000   pspcod,pspxc,lmax,lloc,mmax,r2well
    5.99000000000000    4.00000000000000    0.00000000000000   rchrg,fchrg,qchrg
     nproj     2     2     2
     extension_switch     1
  pspatm : epsatm=   18.54790046
         --- l  ekb(1:nproj) -->
             0   10.130768    0.866504
             1    5.598307    0.427135
             2    1.217602    0.315447
 pspatm: atomic psp has been read  and splines computed

- pspini: atom type   2  psp file is /scratch/users/j/a/jabreu/pseudos/PBEsol/As.psp8
- pspatm: opening atomic psp file    /scratch/users/j/a/jabreu/pseudos/PBEsol/As.psp8
- As    ONCVPSP-3.3.0  r_core=   1.76603   1.70395   1.80867
- 33.00000  15.00000    180112                znucl, zion, pspdat
    8 -116133    2    4       600   0.00000   pspcod,pspxc,lmax,lloc,mmax,r2well
    5.99000000000000    5.00000000000000    0.00000000000000   rchrg,fchrg,qchrg
     nproj     2     2     2
     extension_switch     1
  pspatm : epsatm=   28.79155382
         --- l  ekb(1:nproj) -->
             0    8.270760    0.868950
             1    4.919053    0.756587
             2  -10.048665   -4.076802
 pspatm: atomic psp has been read  and splines computed

- pspini: atom type   3  psp file is /scratch/users/j/a/jabreu/pseudos/PBEsol/O.psp8
- pspatm: opening atomic psp file    /scratch/users/j/a/jabreu/pseudos/PBEsol/O.psp8
- O     ONCVPSP-3.3.0  r_core=   1.35509   1.45563   1.26150
-  8.00000   6.00000    180112                znucl, zion, pspdat
    8 -116133    2    4       600   0.00000   pspcod,pspxc,lmax,lloc,mmax,r2well
[...]
 ETOT 10  -68.626765371090     -3.268E-13 8.808E-05 0.000E+00
 ETOT 11  -68.626765371090      1.421E-14 5.817E-05 0.000E+00
 ETOT 12  -68.626765371090      0.000E+00 2.000E-05 0.000E+00
 ETOT 13  -68.626765371090     -1.421E-14 1.325E-05 0.000E+00
 ETOT 14  -68.626765371090      2.842E-14 4.560E-06 0.000E+00
 ETOT 15  -68.626765371090      0.000E+00 3.034E-06 0.000E+00
 ETOT 16  -68.626765371090     -2.842E-14 1.043E-06 0.000E+00
 ETOT 17  -68.626765371090      0.000E+00 6.973E-07 0.000E+00
 ETOT 18  -68.626765371090      0.000E+00 2.395E-07 0.000E+00
 ETOT 19  -68.626765371090      0.000E+00 1.607E-07 0.000E+00
 ETOT 20  -68.626765371090      0.000E+00 5.514E-08 0.000E+00
 ETOT 21  -68.626765371090      2.842E-14 3.715E-08 0.000E+00
 ETOT 22  -68.626765371090     -2.842E-14 1.272E-08 0.000E+00
 ETOT 23  -68.626765371090      0.000E+00 8.603E-09 0.000E+00
 ETOT 24  -68.626765371090      1.421E-14 2.942E-09 0.000E+00
 ETOT 25  -68.626765371090     -1.421E-14 1.996E-09 0.000E+00
 ETOT 26  -68.626765371090      0.000E+00 6.817E-10 0.000E+00
 ETOT 27  -68.626765371090      0.000E+00 4.637E-10 0.000E+00
 ETOT 28  -68.626765371090      5.684E-14 1.582E-10 0.000E+00
 ETOT 29  -68.626765371090     -4.263E-14 1.079E-10 0.000E+00
 ETOT 30  -68.626765371090     -2.842E-14 3.678E-11 0.000E+00
 ETOT 31  -68.626765371090      2.842E-14 2.514E-11 0.000E+00
 ETOT 32  -68.626765371090      0.000E+00 8.565E-12 0.000E+00
 ETOT 33  -68.626765371090      2.842E-14 5.864E-12 0.000E+00
 ETOT 34  -68.626765371090      0.000E+00 1.998E-12 0.000E+00
 ETOT 35  -68.626765371090     -1.421E-14 1.370E-12 0.000E+00
 ETOT 36  -68.626765371090      0.000E+00 4.667E-13 0.000E+00
 ETOT 37  -68.626765371090      0.000E+00 3.202E-13 0.000E+00
 ETOT 38  -68.626765371090      0.000E+00 1.092E-13 0.000E+00
 ETOT 39  -68.626765371090      0.000E+00 7.495E-14 0.000E+00
 ETOT 40  -68.626765371090     -2.842E-14 2.557E-14 0.000E+00
 ETOT 41  -68.626765371090      1.421E-14 1.756E-14 0.000E+00
 ETOT 42  -68.626765371090      0.000E+00 5.997E-15 0.000E+00
 ETOT 43  -68.626765371090      1.421E-14 4.118E-15 0.000E+00
 ETOT 44  -68.626765371090     -1.421E-14 1.408E-15 0.000E+00
 ETOT 45  -68.626765371090      0.000E+00 9.665E-16 0.000E+00
 ETOT 46  -68.626765371090      0.000E+00 3.309E-16 0.000E+00
 ETOT 47  -68.626765371090      1.421E-14 2.270E-16 0.000E+00
 ETOT 48  -68.626765371090     -1.421E-14 7.783E-17 0.000E+00
 ETOT 49  -68.626765371090      0.000E+00 5.336E-17 0.000E+00
 ETOT 50  -68.626765371090      0.000E+00 1.832E-17 0.000E+00
 ETOT 51  -68.626765371090      0.000E+00 1.255E-17 0.000E+00
 ETOT 52  -68.626765371090      0.000E+00 4.316E-18 0.000E+00
 ETOT 53  -68.626765371090      1.421E-14 2.954E-18 0.000E+00
 ETOT 54  -68.626765371090      0.000E+00 1.017E-18 0.000E+00
 ETOT 55  -68.626765371090      0.000E+00 6.955E-19 0.000E+00
 ETOT 56  -68.626765371090     -1.421E-14 2.399E-19 0.000E+00
 ETOT 57  -68.626765371090      2.842E-14 1.638E-19 0.000E+00
 ETOT 58  -68.626765371090     -1.421E-14 5.659E-20 0.000E+00
 ETOT 59  -68.626765371090      2.842E-14 3.860E-20 0.000E+00
 ETOT 60  -68.626765371090     -5.684E-14 1.336E-20 0.000E+00
 ETOT 61  -68.626765371090      0.000E+00 9.859E-21 0.000E+00

 At SCF step   61   max residual=  9.86E-21 < tolwfr=  1.00E-20 =>converged.

 ----iterations are completed or convergence reached----

 dfpt_looppert: DFPT cycle converged with prtwf=-1. Will skip output of the 1st-order WFK file.
 dfpt_looppert : ek2=    8.8941807786E+01
          f-sum rule ratio=    1.0668344925E+00
 prteigrs : about to open file /scratch/users/j/a/jabreu/flow_simple_11atoms/flow/w266/t1/tmpdata/tmp_1WF1_EIG
 Expectation of eigenvalue derivatives (hartree) for nkpt=   2  k points:
  (in case of degenerate eigenvalues, averaged derivative)
 kpt#   1, nband= 59, wtk=  0.50000, kpt=  0.0830  0.0830 -0.0830 (reduced coord)
   0.00000   -0.00000   -0.00000   -0.00000    0.00000    0.00000    0.00000   -0.00000
  -0.00000   -0.00000    0.00000   -0.00000    0.00000   -0.00000   -0.00000   -0.00000
   0.00000    0.00000   -0.00000    0.00000    0.00000   -0.00000    0.00000    0.00000
   0.00000    0.00000    0.00000   -0.00000    0.00000    0.00000    0.00000   -0.00000
   0.00000    0.00000   -0.00000   -0.00000    0.00000   -0.00000    0.00000    0.00000
  -0.00000   -0.00000    0.00000    0.00000   -0.00000   -0.00000    0.00000   -0.00000
  -0.00000   -0.00000   -0.00000    0.00000   -0.00000   -0.00000   -0.00000   -0.00000
   0.00000   -0.00000   -0.00000
 prteigrs : prtvol=0 or 1, do not print more k-points.

 Eight components of 2nd-order total energy (hartree) are
 1,2,3: 0th-order hamiltonian combined with 1st-order wavefunctions
     kin0=   9.62640890E+01 eigvalue=   5.77571866E+00  local=  -4.42026109E+01
 4,5,6: 1st-order hamiltonian combined with 1st and 0th-order wfs
     kin1=  -9.48861884E+01  Hartree=   0.00000000E+00     xc=   0.00000000E+00
 7,8,9: eventually, occupation + non-local contributions
    edocc=   7.99543107E+00     enl0=   2.79413757E+00   enl1=  -4.23673424E+01
 1-9 gives the relaxation energy (to be shifted if some occ is /=2.0)
   erelax=  -6.86267654E+01
  No Ewald or frozen-wf contrib.: the relaxation energy is the total one
 2DEtotal=   -0.6862676537E+02 Ha. Also 2DEtotal=   -0.186742925558E+04 eV
    (  non-var. 2DEtotal :   -6.8626765371E+01 Ha)

 CALCULATION OF EFFECTIVE MASSES
 NOTE : Additional infos (eff. mass eigenvalues, eigenvectors and, if degenerate, average mass) are available in stdout.

 K-point ( 0.083, 0.083,-0.083) | band =    50
 Effective mass tensor:
             -3.0384664552             -1.5818021302              1.1276932128
             -1.5818021302             -5.1661190962              2.1174237299
              1.1276932128              2.1174237299             -3.7055803177
 Effective mass tensor eigenvalues:
             -7.5180988654             -2.1960335019             -2.1960335017
 Angular average effective mass 1/(<1/m>)=  -2.8742645260
 Angular average effective mass for Frohlich model (<m**0.5>)**2=  -3.1009983667
 Effective masses along directions: (cart. coord. / red. coord. -> eff. mass)
    1:   1.000000  0.000000  0.000000 /   0.873224 -0.487320  0.000000 ->  -2.4731610593
    2:   0.000000  1.000000  0.000000 /   0.000000  1.000000  0.000000 ->  -3.6301558492
    3:   0.000000  0.000000  1.000000 /  -0.263250 -0.263250  0.928116 ->  -2.7477496812
    4:   0.577350  0.577350  0.577350 /   0.559537 -0.019120  0.828585 ->  -2.4091797342
    5:   0.000000  0.707107  0.707107 /  -0.244783  0.441926  0.863008 ->  -2.2323759364
    6:   0.707107  0.000000  0.707107 /   0.463090 -0.561496  0.685763 ->  -2.2102321522
    7:   0.707107  0.707107  0.000000 /   0.965009  0.262216  0.000000 ->  -4.0967353622

 K-point ( 0.000, 0.000, 0.000) | band =    51
 Effective mass tensor:
              0.4865159463             -0.0212434487              0.0151448101
             -0.0212434487              0.4579417782              0.0284367947
              0.0151448101              0.0284367947              0.4775566722
 Effective mass tensor eigenvalues:
              0.4263549188              0.4978297389              0.4978297390
 Angular average effective mass 1/(<1/m>)=   0.4714830167
 Angular average effective mass for Frohlich model (<m**0.5>)**2=   0.4722583307
 Effective masses along directions: (cart. coord. / red. coord. -> eff. mass)
    1:   1.000000  0.000000  0.000000 /   0.873224 -0.487320  0.000000 ->   0.4849607760
    2:   0.000000  1.000000  0.000000 /   0.000000  1.000000  0.000000 ->   0.4552394626
    3:   0.000000  0.000000  1.000000 /  -0.263250 -0.263250  0.928116 ->   0.4752325532
    4:   0.577350  0.577350  0.577350 /   0.559537 -0.019120  0.828585 ->   0.4876134364
    5:   0.000000  0.707107  0.707107 /  -0.244783  0.441926  0.863008 ->   0.4959178352
    6:   0.707107  0.000000  0.707107 /   0.463090 -0.561496  0.685763 ->   0.4970735341
    7:   0.707107  0.707107  0.000000 /   0.965009  0.262216  0.000000 ->   0.4485471195

 END OF EFFECTIVE MASSES SECTION

 ---- first-order wavefunction calculations are completed ----

 Total localisation tensor (bohr^2) in cartesian coordinates
  WARNING : still subject to testing - especially symmetries.
      direction              matrix element
   alpha     beta       real part   imaginary part
     1        1       1.3277714319    0.0000000000
     1        2      -0.4688491129    0.0000000000
     1        3      -0.1323446926    0.0000000000
     2        1      -0.4688491129    0.0000000000
     2        2       0.6971312065    0.0000000000
     2        3      -0.2484982523    0.0000000000
     3        1      -0.1323446926    0.0000000000
     3        2      -0.2484982523    0.0000000000
     3        3       1.1379432404    0.0000000000

 respfn : d/dk was computed, but no 2DTE, so no DDB output.

== END DATASET(S) ==============================================================

 -outvars: echo values of variables after computation  --------
            acell      1.0000000000E+00  1.0000000000E+00  1.0000000000E+00 Bohr
              amu      8.89058500E+01  7.49215900E+01  1.59994000E+01
             ecut      4.40000000E+01 Hartree
           etotal     -6.8626765371E+01
            fcart      0.0000000000E+00  0.0000000000E+00  0.0000000000E+00
                       0.0000000000E+00  0.0000000000E+00  0.0000000000E+00
                       0.0000000000E+00  0.0000000000E+00  0.0000000000E+00
                       0.0000000000E+00  0.0000000000E+00  0.0000000000E+00
                       0.0000000000E+00  0.0000000000E+00  0.0000000000E+00
                       0.0000000000E+00  0.0000000000E+00  0.0000000000E+00
                       0.0000000000E+00  0.0000000000E+00  0.0000000000E+00
                       0.0000000000E+00  0.0000000000E+00  0.0000000000E+00
                       0.0000000000E+00  0.0000000000E+00  0.0000000000E+00
                       0.0000000000E+00  0.0000000000E+00  0.0000000000E+00
                       0.0000000000E+00  0.0000000000E+00  0.0000000000E+00
                       0.0000000000E+00  0.0000000000E+00  0.0000000000E+00
-          fftalg         512
           irdden           1
           irdwfk           1
           istwfk        0    1
              ixc     -116133
              kpt      8.29578499E-02  8.29578499E-02 -8.29578499E-02
                       0.00000000E+00  0.00000000E+00  0.00000000E+00
           kptopt           0
P           mkmem           2
P          mkqmem           2
P          mk1mem           2
            natom          12
            nband          59
           nbdbuf           4
            ngfft          72      72      72
             nkpt           2
            nstep        2000
             nsym          16
           ntypat           3
              occ      2.000000  2.000000  2.000000  2.000000  2.000000  2.000000
                       2.000000  2.000000  2.000000  2.000000  2.000000  2.000000
                       2.000000  2.000000  2.000000  2.000000  2.000000  2.000000
                       2.000000  2.000000  2.000000  2.000000  2.000000  2.000000
                       2.000000  2.000000  2.000000  2.000000  2.000000  2.000000
                       2.000000  2.000000  2.000000  2.000000  2.000000  2.000000
                       2.000000  2.000000  2.000000  2.000000  2.000000  2.000000
                       2.000000  2.000000  2.000000  2.000000  2.000000  2.000000
                       2.000000  2.000000  0.000000  0.000000  0.000000  0.000000
                       0.000000  0.000000  0.000000  0.000000  0.000000
        optdriver           1
            prtwf          -1
            rfdir           1       1       1
           rfelfd           2
            rprim      1.0674889544E+01  0.0000000000E+00 -3.1574929634E+00
                      -5.9573367653E+00  8.8579571821E+00 -3.1574929634E+00
                       0.0000000000E+00  0.0000000000E+00  1.1132072071E+01
          spgroup         141
           strten      0.0000000000E+00  0.0000000000E+00  0.0000000000E+00
                       0.0000000000E+00  0.0000000000E+00  0.0000000000E+00
           symrel      1  0  0   0  1  0   0  0  1      -1  0  0   0 -1  0   0  0 -1
                      -1 -1 -1   0  0  1   0  1  0       1  1  1   0  0 -1   0 -1  0
                       0  1  0   1  0  0  -1 -1 -1       0 -1  0  -1  0  0   1  1  1
                       0  0  1  -1 -1 -1   1  0  0       0  0 -1   1  1  1  -1  0  0
                       0  1  0   1  0  0   0  0  1       0 -1  0  -1  0  0   0  0 -1
                      -1 -1 -1   0  0  1   1  0  0       1  1  1   0  0 -1  -1  0  0
                       1  0  0   0  1  0  -1 -1 -1      -1  0  0   0 -1  0   1  1  1
                       0  0  1  -1 -1 -1   0  1  0       0  0 -1   1  1  1   0 -1  0
            tnons      0.0000000  0.0000000  0.0000000     0.2500000 -0.2500000  0.5000000
                       0.2500000 -0.2500000  0.5000000     0.0000000 -0.0000000  0.0000000
                       0.0000000 -0.0000000  0.0000000     0.2500000 -0.2500000  0.5000000
                       0.2500000 -0.2500000  0.5000000     0.0000000  0.0000000  0.0000000
                       0.2500000 -0.2500000  0.5000000     0.0000000  0.0000000  0.0000000
                       0.0000000  0.0000000  0.0000000     0.2500000 -0.2500000  0.5000000
                       0.2500000 -0.2500000  0.5000000     0.0000000 -0.0000000  0.0000000
                       0.0000000 -0.0000000  0.0000000     0.2500000 -0.2500000  0.5000000
           tolwfr      1.00000000E-20
            typat      1  1  2  2  3  3  3  3  3  3  3  3
           useylm           1
              wtk        0.50000    0.50000
           xangst      3.4485594781E+00  1.1718572639E+00  1.2745460996E+00
                       1.2482107054E+00  2.3437145277E+00 -1.6708733125E+00
                      -9.5213806736E-01  3.5155717916E+00  1.2745460996E+00
                       0.0000000000E+00  0.0000000000E+00  0.0000000000E+00
                       4.6343588128E+00  2.3568393291E-02 -3.1278242870E-01
                      -3.6639144578E-01  2.6868577717E+00  2.6326369834E+00
                       3.2283139153E+00  2.6868577717E+00 -5.7280990757E-01
                       2.6282612022E+00  3.0064326224E+00  2.3726095046E+00
                       5.0631616293E+00  8.2871401986E-01  2.8618746279E+00
                       6.2411370683E-02  3.4920033983E+00 -8.3544784202E-02
                       2.0685089813E+00  5.0913916914E-01  3.1219021068E+00
                       1.4684562682E+00  8.2871401986E-01  1.7648269467E-01
            xcart      6.5168329666E+00  2.2144892955E+00  2.4085430720E+00
                       2.3587763893E+00  4.4289785910E+00 -3.1574929634E+00
                      -1.7992801880E+00  6.6434678866E+00  2.4085430720E+00
                       0.0000000000E+00  0.0000000000E+00  0.0000000000E+00
                       8.7576689577E+00  4.4537808712E-02 -5.9107312943E-01
                      -6.9237948995E-01  5.0774253466E+00  4.9749629060E+00
                       6.1006291709E+00  5.0774253466E+00 -1.0824538515E+00
                       4.9666938778E+00  5.6813342934E+00  4.4835821839E+00
                       9.5679888459E+00  1.5660425400E+00  5.4081592734E+00
                       1.1794039817E-01  6.5989300779E+00 -1.5787676197E-01
                       3.9089154781E+00  9.6213359321E-01  5.8995399955E+00
                       2.7749801850E+00  1.5660425400E+00  3.3350396012E-01
             xred      7.5000000000E-01  2.5000000000E-01  5.0000000000E-01
                       5.0000000000E-01  5.0000000000E-01 -6.9388939039E-17
                       2.5000000000E-01  7.5000000000E-01  5.0000000000E-01
                       0.0000000000E+00  0.0000000000E+00  0.0000000000E+00
                       8.2320500000E-01  5.0280000000E-03  1.8182300000E-01
                       2.5502800000E-01  5.7320500000E-01  6.8182300000E-01
                       8.9138200000E-01  5.7320500000E-01  3.1817700000E-01
                       8.2320500000E-01  6.4138200000E-01  8.1817700000E-01
                       9.9497200000E-01  1.7679500000E-01  8.1817700000E-01
                       4.2679500000E-01  7.4497200000E-01  3.1817700000E-01
                       4.2679500000E-01  1.0861800000E-01  6.8182300000E-01
                       3.5861800000E-01  1.7679500000E-01  1.8182300000E-01
            znucl       39.00000   33.00000    8.00000

- Timing analysis has been suppressed with timopt=0

 Suggested references for the acknowledgment of ABINIT usage.

 Calculation completed.
.Delivered   2 WARNINGs and   5 COMMENTs to log file.