.Version 9.5.1 of ABINIT

 ABINIT is a project of the Universite Catholique de Louvain,
 Corning Inc. and other collaborators, see ~abinit/doc/developers/contributors.txt .
 acknowledgments of the ABINIT effort.

.Starting date : Wed 19 May 2021.
- ( at 01h46 )

- input  file    -> /scratch/users/j/a/jabreu/flow_simple_8atoms/flow/w478/t1/run.abi
- output file    -> /scratch/users/j/a/jabreu/flow_simple_8atoms/flow/w478/t1/run.abo
- root for input  files -> /scratch/users/j/a/jabreu/flow_simple_8atoms/flow/w478/t1/indata/in
- root for output files -> /scratch/users/j/a/jabreu/flow_simple_8atoms/flow/w478/t1/outdata/out

 Symmetries : space group Cm c m (# 63); Bravais oC (1-face-center ortho.)
     intxc =       0      iscf =       7    lmnmax =      18     lnmax =       6
     mgfft =      72  mpssoang =       3    mqgrid =    3171     natom =       8
  nloc_mem =       1    nspden =       1   nspinor =       1    nsppol =       1
      nsym =       8    n1xccc =    2501    ntypat =       3    occopt =       1
   xclevel =       2
-    mband =          61        mffmem =           1         mkmem =           1
-   mkqmem =           1        mk1mem =           1           mpw =       16888
      nfft =      331776          nkpt =           1
  Rough estimation (10% accuracy) of disk space for files :

------------- Echo of variables that govern the present computation ------------
-
- outvars: echo of selected default values
-   iomode0 =  0 , fftalg0 =512 , wfoptalg0 =  0
-
- outvars: echo of global parameters not present in the input file
-  max_nthreads =    0
-
 -outvars: echo values of preprocessed input variables --------
            acell      1.0000000000E+00  1.0000000000E+00  1.0000000000E+00 Bohr
              amu      2.29897680E+01  1.07868200E+02  7.49215900E+01
             ecut      4.40000000E+01 Hartree
-          fftalg         512
           irdden           1
           irdwfk           1
              ixc     -116133
              kpt     -5.00000000E-01  5.00000000E-01  0.00000000E+00
           kptopt           0
P           mkmem           1
P          mkqmem           1
P          mk1mem           1
            natom           8
            nband          61
           nbdbuf           4
            ngfft          72      72      64
             nkpt           1
            nstep        2000
             nsym           8
           ntypat           3
              occ      2.000000  2.000000  2.000000  2.000000  2.000000  2.000000
                       2.000000  2.000000  2.000000  2.000000  2.000000  2.000000
                       2.000000  2.000000  2.000000  2.000000  2.000000  2.000000
                       2.000000  2.000000  2.000000  2.000000  2.000000  2.000000
                       2.000000  2.000000  2.000000  2.000000  2.000000  2.000000
                       2.000000  2.000000  2.000000  2.000000  2.000000  2.000000
                       2.000000  2.000000  2.000000  2.000000  2.000000  2.000000
                       2.000000  2.000000  2.000000  2.000000  2.000000  2.000000
                       2.000000  2.000000  2.000000  2.000000  0.000000  0.000000
                       0.000000  0.000000  0.000000  0.000000  0.000000  0.000000
                       0.000000
        optdriver           1
            prtwf          -1
            rfdir           1       1       1
           rfelfd           2
            rprim      1.0804640397E+01  0.0000000000E+00  0.0000000000E+00
                      -1.9929824444E+00  1.0619240796E+01  0.0000000000E+00
                       0.0000000000E+00  0.0000000000E+00  1.0535032774E+01
          spgroup          63
           symrel      1  0  0   0  1  0   0  0  1      -1  0  0   0 -1  0   0  0 -1
                       0 -1  0  -1  0  0   0  0 -1       0  1  0   1  0  0   0  0  1
                      -1  0  0   0 -1  0   0  0  1       1  0  0   0  1  0   0  0 -1
                       0  1  0   1  0  0   0  0 -1       0 -1  0  -1  0  0   0  0  1
            tnons      0.0000000  0.0000000  0.0000000     0.0000000  0.0000000  0.0000000
                       0.0000000  0.0000000  0.0000000     0.0000000  0.0000000  0.0000000
                       0.0000000  0.0000000  0.5000000     0.0000000  0.0000000  0.5000000
                       0.0000000  0.0000000  0.5000000     0.0000000  0.0000000  0.5000000
           tolwfr      1.00000000E-20
            typat      1  1  1  1  2  2  3  3
           useylm           1
           xangst      5.2017197357E+00  1.8208287335E+00  1.3937248089E+00
                      -5.3879117743E-01  3.7986314682E+00  4.1811744267E+00
                       8.3009543357E-01  5.4483251607E+00  1.3937248089E+00
                       3.8328331247E+00  1.7113504098E-01  4.1811744267E+00
                       2.3314642792E+00  2.8097301009E+00  0.0000000000E+00
                       2.3314642792E+00  2.8097301009E+00  2.7874496178E+00
                       9.9075574542E-01  1.1939948064E+00  4.1811744267E+00
                       3.6721728129E+00  4.4254653954E+00  1.3937248089E+00
            xcart      9.8298257206E+00  3.4408676412E+00  2.6337581934E+00
                      -1.0181677682E+00  7.1783731547E+00  7.9012745803E+00
                       1.5686530336E+00  1.0295842437E+01  2.6337581934E+00
                       7.2430049188E+00  3.2339835920E-01  7.9012745803E+00
                       4.4058289762E+00  5.3096203979E+00  0.0000000000E+00
                       4.4058289762E+00  5.3096203979E+00  5.2675163869E+00
                       1.8722570234E+00  2.2563231881E+00  7.9012745803E+00
                       6.9394009290E+00  8.3629176078E+00  2.6337581934E+00
             xred      9.6954600000E-01  3.2402200000E-01  2.5000000000E-01
                       3.0454000000E-02  6.7597800000E-01  7.5000000000E-01
                       3.2402200000E-01  9.6954600000E-01  2.5000000000E-01
                       6.7597800000E-01  3.0454000000E-02  7.5000000000E-01
                       5.0000000000E-01  5.0000000000E-01  0.0000000000E+00
                       5.0000000000E-01  5.0000000000E-01  5.0000000000E-01
                       2.1247500000E-01  2.1247500000E-01  7.5000000000E-01
                       7.8752500000E-01  7.8752500000E-01  2.5000000000E-01
            znucl       11.00000   47.00000   33.00000

 chkinp: Checking input parameters for consistency.

== DATASET  1 ==================================================================
-   mpi_nproc: 1, omp_nthreads: -1 (-1 if OMP is not activated)

--- !DatasetInfo
iteration_state: {dtset: 1, }
dimensions: {natom: 8, nkpt: 1, mband: 61, nsppol: 1, nspinor: 1, nspden: 1, mpw: 16888, }
cutoff_energies: {ecut:  44.0, pawecutdg:  -1.0, }
electrons: {nelect:   1.04000000E+02, charge:   0.00000000E+00, occopt:   1.00000000E+00, tsmear:   1.00000000E-02, }
meta: {optdriver: 1, rfelfd: 2, }
...

 Real(R)+Recip(G) space primitive vectors, cartesian coordinates (Bohr,Bohr^-1):
 R(1)= 10.8046404  0.0000000  0.0000000  G(1)=  0.0925528  0.0173700  0.0000000
 R(2)= -1.9929824 10.6192408  0.0000000  G(2)=  0.0000000  0.0941687  0.0000000
 R(3)=  0.0000000  0.0000000 10.5350328  G(3)=  0.0000000  0.0000000  0.0949214
 Unit cell volume ucvol=  1.2087589E+03 bohr^3
 Angles (23,13,12)=  9.00000000E+01  9.00000000E+01  1.00629427E+02 degrees

 getcut: wavevector=  0.0000  0.0000  0.0000  ngfft=  72  72  64
         ecut(hartree)=     44.000   => boxcut(ratio)=   2.03448

--- Pseudopotential description ------------------------------------------------
- pspini: atom type   1  psp file is /scratch/users/j/a/jabreu/pseudos/PBEsol/Na.psp8
- pspatm: opening atomic psp file    /scratch/users/j/a/jabreu/pseudos/PBEsol/Na.psp8
- Na    ONCVPSP-3.3.0  r_core=   1.20708   1.55069
- 11.00000   9.00000    180112                znucl, zion, pspdat
    8 -116133    1    4       400   0.00000   pspcod,pspxc,lmax,lloc,mmax,r2well
    3.99000000000000    0.00000000000000    0.00000000000000   rchrg,fchrg,qchrg
     nproj     2     2
     extension_switch     1
  pspatm : epsatm=    9.32878306
         --- l  ekb(1:nproj) -->
             0    2.657905   -0.678300
             1   -6.761319   -2.404728
 pspatm: atomic psp has been read  and splines computed

- pspini: atom type   2  psp file is /scratch/users/j/a/jabreu/pseudos/PBEsol/Ag.psp8
- pspatm: opening atomic psp file    /scratch/users/j/a/jabreu/pseudos/PBEsol/Ag.psp8
- Ag    ONCVPSP-3.3.0  r_core=   1.41384   1.46535   1.61207
- 47.00000  19.00000    180112                znucl, zion, pspdat
    8 -116133    2    4       600   0.00000   pspcod,pspxc,lmax,lloc,mmax,r2well
    5.99000000000000    7.00000000000000    0.00000000000000   rchrg,fchrg,qchrg
     nproj     2     2     2
     extension_switch     1
  pspatm : epsatm=   27.64581383
         --- l  ekb(1:nproj) -->
             0    9.559407   -0.398585
             1    3.418858   -0.136622
             2   -1.644397   -0.401551
 pspatm: atomic psp has been read  and splines computed

- pspini: atom type   3  psp file is /scratch/users/j/a/jabreu/pseudos/PBEsol/As.psp8
- pspatm: opening atomic psp file    /scratch/users/j/a/jabreu/pseudos/PBEsol/As.psp8
- As    ONCVPSP-3.3.0  r_core=   1.76603   1.70395   1.80867
- 33.00000  15.00000    180112                znucl, zion, pspdat
    8 -116133    2    4       600   0.00000   pspcod,pspxc,lmax,lloc,mmax,r2well
    5.99000000000000    5.00000000000000    0.00000000000000   rchrg,fchrg,qchrg
     nproj     2     2     2
     extension_switch     1
  pspatm : epsatm=   28.79155382
         --- l  ekb(1:nproj) -->
             0    8.270760    0.868950
             1    4.919053    0.756587
             2  -10.048665   -4.076802
 pspatm: atomic psp has been read  and splines computed

   1.56197462E+04                                ecore*ucvol(ha*bohr**3)

-inwffil : will read wavefunctions from disk file /scratch/users/j/a/jabreu/flow_simple_8atoms/flow/w478/t1/indata/in_WFK

 ==>  initialize data related to q vector <==

 The list of irreducible perturbations for this q vector is:
    1)    idir= 1    ipert=   9
    2)    idir= 2    ipert=   9
    3)    idir= 3    ipert=   9

 Perturbation wavevector (in red.coord.)   0.000000  0.000000  0.000000
 Perturbation : derivative vs k along direction   1

 dfpt_looppert : COMMENT -
  In a d/dk calculation, iscf is set to -3 automatically.
 The set of symmetries contains only one element for this perturbation.
 symkpt : not enough symmetry to change the number of k points.

[...]

 Initialisation of the first-order wave-functions :
  ireadwf=   0

--- !BeginCycle
iteration_state: {dtset: 1, }
solver: {iscf: 7, nstep: 2000, nline: 4, wfoptalg: 0, }
tolerances: {tolwfr: 1.00E-20, }
...

     iter   2DEtotal(Ha)        deltaE(Ha) residm    vres2
-ETOT  1  -57.829736935481     -5.783E+01 3.585E-02 0.000E+00
 ETOT  2  -57.883799822270     -5.406E-02 2.187E-04 0.000E+00
 ETOT  3  -57.883899388341     -9.957E-05 1.195E-06 0.000E+00
 ETOT  4  -57.883900029788     -6.414E-07 8.077E-09 0.000E+00
 ETOT  5  -57.883900036988     -7.200E-09 9.094E-11 0.000E+00
 ETOT  6  -57.883900037099     -1.109E-10 9.232E-13 0.000E+00
 ETOT  7  -57.883900037101     -2.146E-12 1.163E-14 0.000E+00
 ETOT  8  -57.883900037101     -2.842E-14 3.828E-16 0.000E+00
 ETOT  9  -57.883900037101      7.105E-15 6.061E-18 0.000E+00
 ETOT 10  -57.883900037101      0.000E+00 1.779E-19 0.000E+00
 ETOT 11  -57.883900037101      7.105E-15 9.991E-21 0.000E+00

 At SCF step   11   max residual=  9.99E-21 < tolwfr=  1.00E-20 =>converged.

 ----iterations are completed or convergence reached----

 dfpt_looppert: DFPT cycle converged with prtwf=-1. Will skip output of the 1st-order WFK file.
 dfpt_looppert : ek2=    7.2817561995E+01
          f-sum rule ratio=    1.0544101306E+00
 prteigrs : about to open file /scratch/users/j/a/jabreu/flow_simple_8atoms/flow/w478/t1/tmpdata/tmp_1WF1_EIG
 Expectation of eigenvalue derivatives (hartree) for nkpt=   1  k points:
  (in case of degenerate eigenvalues, averaged derivative)
 kpt#   1, nband= 61, wtk=  1.00000, kpt= -0.5000  0.5000  0.0000 (reduced coord)
  -0.00000    0.00000    0.00000    0.00000    0.00000   -0.00000    0.00000   -0.00000
   0.00000    0.00000   -0.00000    0.00000    0.00000    0.00000   -0.00000   -0.00000
  -0.00000    0.00000   -0.00000    0.00000    0.00000    0.00000   -0.00000    0.00000
  -0.00000    0.00000    0.00000   -0.00000   -0.00000    0.00000   -0.00000    0.00000
  -0.00000    0.00000   -0.00000    0.00000    0.00000    0.00000    0.00000   -0.00000
  -0.00000    0.00000    0.00000   -0.00000    0.00000    0.00000    0.00000   -0.00000
  -0.00000    0.00000   -0.00000   -0.00000   -0.00000   -0.00000    0.00000   -0.00000
   0.00000   -0.00000    0.00000    0.00031   -0.00046

 Eight components of 2nd-order total energy (hartree) are
 1,2,3: 0th-order hamiltonian combined with 1st-order wavefunctions
     kin0=   6.86288058E+01 eigvalue=   7.45384883E+00  local=  -2.86328774E+01
 4,5,6: 1st-order hamiltonian combined with 1st and 0th-order wfs
     kin1=  -7.67795751E+01  Hartree=   0.00000000E+00     xc=   0.00000000E+00
 7,8,9: eventually, occupation + non-local contributions
    edocc=   7.51519459E+00     enl0=   2.91892825E+00   enl1=  -3.89882250E+01
 1-9 gives the relaxation energy (to be shifted if some occ is /=2.0)
   erelax=  -5.78839000E+01
  No Ewald or frozen-wf contrib.: the relaxation energy is the total one
 2DEtotal=   -0.5788390004E+02 Ha. Also 2DEtotal=   -0.157510102322E+04 eV
    (  non-var. 2DEtotal :   -5.7883900037E+01 Ha)

 Perturbation wavevector (in red.coord.)   0.000000  0.000000  0.000000
 Perturbation : derivative vs k along direction   2
 The set of symmetries contains only one element for this perturbation.
 symkpt : not enough symmetry to change the number of k points.

[...]

 Perturbation wavevector (in red.coord.)   0.000000  0.000000  0.000000
 Perturbation : derivative vs k along direction   3
 The set of symmetries contains only one element for this perturbation.
 symkpt : not enough symmetry to change the number of k points.

-inwffil : will read wavefunctions from disk file /scratch/users/j/a/jabreu/flow_simple_8atoms/flow/w478/t1/indata/in_WFK

 Initialisation of the first-order wave-functions :
  ireadwf=   0

--- !BeginCycle
iteration_state: {dtset: 1, }
solver: {iscf: 7, nstep: 2000, nline: 4, wfoptalg: 0, }
tolerances: {tolwfr: 1.00E-20, }
...

     iter   2DEtotal(Ha)        deltaE(Ha) residm    vres2
-ETOT  1  -67.496401780841     -6.750E+01 3.117E-02 0.000E+00
 ETOT  2  -67.543667345211     -4.727E-02 3.049E-04 0.000E+00
 ETOT  3  -67.543852898075     -1.856E-04 2.043E-06 0.000E+00
 ETOT  4  -67.543855157857     -2.260E-06 3.648E-08 0.000E+00
 ETOT  5  -67.543855193294     -3.544E-08 4.682E-10 0.000E+00
 ETOT  6  -67.543855193921     -6.271E-10 1.227E-11 0.000E+00
 ETOT  7  -67.543855193934     -1.295E-11 2.627E-13 0.000E+00
 ETOT  8  -67.543855193934     -2.132E-13 1.104E-14 0.000E+00
 ETOT  9  -67.543855193935     -2.842E-14 3.083E-16 0.000E+00
 ETOT 10  -67.543855193935     -2.842E-14 1.402E-17 0.000E+00
 ETOT 11  -67.543855193935     -2.842E-14 4.058E-19 0.000E+00
 ETOT 12  -67.543855193935      0.000E+00 1.849E-20 0.000E+00
 ETOT 13  -67.543855193935     -1.421E-14 9.898E-21 0.000E+00

 At SCF step   13   max residual=  9.90E-21 < tolwfr=  1.00E-20 =>converged.

 ----iterations are completed or convergence reached----

 dfpt_looppert: DFPT cycle converged with prtwf=-1. Will skip output of the 1st-order WFK file.
 dfpt_looppert : ek2=    7.3986296685E+01
          f-sum rule ratio=    1.2988493322E+00
 prteigrs : about to open file /scratch/users/j/a/jabreu/flow_simple_8atoms/flow/w478/t1/tmpdata/tmp_1WF1_EIG
 Expectation of eigenvalue derivatives (hartree) for nkpt=   1  k points:
  (in case of degenerate eigenvalues, averaged derivative)
 kpt#   1, nband= 61, wtk=  1.00000, kpt= -0.5000  0.5000  0.0000 (reduced coord)
  -0.00000    0.00000    0.00000    0.00000   -0.00000    0.00000    0.00000   -0.00000
  -0.00000   -0.00000    0.00000    0.00000   -0.00000    0.00000    0.00000   -0.00000
  -0.00000   -0.00000   -0.00000   -0.00000    0.00000   -0.00000   -0.00000    0.00000
  -0.00000    0.00000    0.00000   -0.00000   -0.00000   -0.00000   -0.00000   -0.00000
  -0.00000    0.00000    0.00000    0.00000    0.00000    0.00000   -0.00000    0.00000
   0.00000   -0.00000    0.00000    0.00000    0.00000    0.00000   -0.00000   -0.00000
   0.00000   -0.00000   -0.00000   -0.00000   -0.00000   -0.00000   -0.00000    0.00000
  -0.00000    0.00000   -0.00000    0.00000   -0.00001

 Eight components of 2nd-order total energy (hartree) are
 1,2,3: 0th-order hamiltonian combined with 1st-order wavefunctions
     kin0=   6.87896663E+01 eigvalue=   7.52080473E+00  local=  -2.84033320E+01
 4,5,6: 1st-order hamiltonian combined with 1st and 0th-order wfs
     kin1=  -9.60970520E+01  Hartree=   0.00000000E+00     xc=   0.00000000E+00
 7,8,9: eventually, occupation + non-local contributions
    edocc=   1.66031733E+01     enl0=   3.03354287E+00   enl1=  -3.89906583E+01
 1-9 gives the relaxation energy (to be shifted if some occ is /=2.0)
   erelax=  -6.75438552E+01
  No Ewald or frozen-wf contrib.: the relaxation energy is the total one
 2DEtotal=   -0.6754385519E+02 Ha. Also 2DEtotal=   -0.183796177107E+04 eV
    (  non-var. 2DEtotal :   -6.7543855194E+01 Ha)

 CALCULATION OF EFFECTIVE MASSES
 NOTE : Additional infos (eff. mass eigenvalues, eigenvectors and, if degenerate, average mass) are available in stdout.

 K-point (-0.500, 0.500, 0.000) | band =    52
 Effective mass tensor:
             -0.7045086831             -0.5499206579              0.0000093194
             -0.5499206579             -0.9109479215              0.0000063044
              0.0000093194              0.0000063044             -0.4146849340
 Effective mass tensor eigenvalues:
             -1.3672522248             -0.4146849340             -0.2482043798
 Angular average effective mass 1/(<1/m>)=  -0.4183049671
 Angular average effective mass for Frohlich model (<m**0.5>)**2=  -0.4712577977
 Effective masses along directions: (cart. coord. / red. coord. -> eff. mass)
    1:   1.000000  0.000000  0.000000 /   0.983410 -0.181396  0.000000 ->  -0.3725328117
    2:   0.000000  1.000000  0.000000 /   0.000000  1.000000  0.000000 ->  -0.4816945465
    3:   0.000000  0.000000  1.000000 /   0.000000  0.000000  1.000000 ->  -0.4146849339
    4:   0.577350  0.577350  0.577350 /   0.621594  0.496271  0.606083 ->  -0.7631809843
    5:   0.000000  0.707107  0.707107 /   0.000000  0.709916  0.704286 ->  -0.4456860245
    6:   0.707107  0.000000  0.707107 /   0.709820 -0.130931  0.692108 ->  -0.3924748428
    7:   0.707107  0.707107  0.000000 /   0.781484  0.623925  0.000000 ->  -1.3163224515

 K-point (-0.500, 0.500, 0.000) | band =    53
 Effective mass tensor:
              0.4700449770              0.2978732697             -0.0000000081
              0.2978732697              0.5818519817              0.0000000058
             -0.0000000081              0.0000000058              0.0993822317
 Effective mass tensor eigenvalues:
              0.0993822317              0.2228747484              0.8290222103
 Angular average effective mass 1/(<1/m>)=   0.1904130075
 Angular average effective mass for Frohlich model (<m**0.5>)**2=   0.2278060613
 Effective masses along directions: (cart. coord. / red. coord. -> eff. mass)
    1:   1.000000  0.000000  0.000000 /   0.983410 -0.181396  0.000000 ->   0.3175517526
    2:   0.000000  1.000000  0.000000 /   0.000000  1.000000  0.000000 ->   0.3930860356
    3:   0.000000  0.000000  1.000000 /   0.000000  0.000000  1.000000 ->   0.0993822317
    4:   0.577350  0.577350  0.577350 /   0.621594  0.496271  0.606083 ->   0.2394075459
    5:   0.000000  0.707107  0.707107 /   0.000000  0.709916  0.704286 ->   0.1586529399
    6:   0.707107  0.000000  0.707107 /   0.709820 -0.130931  0.692108 ->   0.1513860772
    7:   0.707107  0.707107  0.000000 /   0.781484  0.623925  0.000000 ->   0.8101192446

 END OF EFFECTIVE MASSES SECTION

 ---- first-order wavefunction calculations are completed ----

 Total localisation tensor (bohr^2) in cartesian coordinates
  WARNING : still subject to testing - especially symmetries.
      direction              matrix element
   alpha     beta       real part   imaginary part
     1        1       1.5834999788    0.0000000000
     1        2      -0.2776271955    0.0000000000
     1        3       0.0000000000    0.0000000000
     2        1      -0.2776271955    0.0000000000
     2        2       1.4792855044    0.0000000000
     2        3       0.0000000000    0.0000000000
     3        1       0.0000000000    0.0000000000
     3        2       0.0000000000    0.0000000000
     3        3       3.6030862857    0.0000000000

 respfn : d/dk was computed, but no 2DTE, so no DDB output.

== END DATASET(S) ==============================================================

 -outvars: echo values of variables after computation  --------
            acell      1.0000000000E+00  1.0000000000E+00  1.0000000000E+00 Bohr
              amu      2.29897680E+01  1.07868200E+02  7.49215900E+01
             ecut      4.40000000E+01 Hartree
           etotal     -6.7543855194E+01
            fcart      0.0000000000E+00  0.0000000000E+00  0.0000000000E+00
                       0.0000000000E+00  0.0000000000E+00  0.0000000000E+00
                       0.0000000000E+00  0.0000000000E+00  0.0000000000E+00
                       0.0000000000E+00  0.0000000000E+00  0.0000000000E+00
                       0.0000000000E+00  0.0000000000E+00  0.0000000000E+00
                       0.0000000000E+00  0.0000000000E+00  0.0000000000E+00
                       0.0000000000E+00  0.0000000000E+00  0.0000000000E+00
                       0.0000000000E+00  0.0000000000E+00  0.0000000000E+00
-          fftalg         512
           irdden           1
           irdwfk           1
              ixc     -116133
              kpt     -5.00000000E-01  5.00000000E-01  0.00000000E+00
           kptopt           0
P           mkmem           1
P          mkqmem           1
P          mk1mem           1
            natom           8
            nband          61
           nbdbuf           4
            ngfft          72      72      64
             nkpt           1
            nstep        2000
             nsym           8
           ntypat           3
              occ      2.000000  2.000000  2.000000  2.000000  2.000000  2.000000
                       2.000000  2.000000  2.000000  2.000000  2.000000  2.000000
                       2.000000  2.000000  2.000000  2.000000  2.000000  2.000000
                       2.000000  2.000000  2.000000  2.000000  2.000000  2.000000
                       2.000000  2.000000  2.000000  2.000000  2.000000  2.000000
                       2.000000  2.000000  2.000000  2.000000  2.000000  2.000000
                       2.000000  2.000000  2.000000  2.000000  2.000000  2.000000
                       2.000000  2.000000  2.000000  2.000000  2.000000  2.000000
                       2.000000  2.000000  2.000000  2.000000  0.000000  0.000000
                       0.000000  0.000000  0.000000  0.000000  0.000000  0.000000
                       0.000000
        optdriver           1
            prtwf          -1
            rfdir           1       1       1
           rfelfd           2
            rprim      1.0804640397E+01  0.0000000000E+00  0.0000000000E+00
                      -1.9929824444E+00  1.0619240796E+01  0.0000000000E+00
                       0.0000000000E+00  0.0000000000E+00  1.0535032774E+01
          spgroup          63
           strten      0.0000000000E+00  0.0000000000E+00  0.0000000000E+00
                       0.0000000000E+00  0.0000000000E+00  0.0000000000E+00
           symrel      1  0  0   0  1  0   0  0  1      -1  0  0   0 -1  0   0  0 -1
                       0 -1  0  -1  0  0   0  0 -1       0  1  0   1  0  0   0  0  1
                      -1  0  0   0 -1  0   0  0  1       1  0  0   0  1  0   0  0 -1
                       0  1  0   1  0  0   0  0 -1       0 -1  0  -1  0  0   0  0  1
            tnons      0.0000000  0.0000000  0.0000000     0.0000000  0.0000000  0.0000000
                       0.0000000  0.0000000  0.0000000     0.0000000  0.0000000  0.0000000
                       0.0000000  0.0000000  0.5000000     0.0000000  0.0000000  0.5000000
                       0.0000000  0.0000000  0.5000000     0.0000000  0.0000000  0.5000000
           tolwfr      1.00000000E-20
            typat      1  1  1  1  2  2  3  3
           useylm           1
           xangst      5.2017197357E+00  1.8208287335E+00  1.3937248089E+00
                      -5.3879117743E-01  3.7986314682E+00  4.1811744267E+00
                       8.3009543357E-01  5.4483251607E+00  1.3937248089E+00
                       3.8328331247E+00  1.7113504098E-01  4.1811744267E+00
                       2.3314642792E+00  2.8097301009E+00  0.0000000000E+00
                       2.3314642792E+00  2.8097301009E+00  2.7874496178E+00
                       9.9075574542E-01  1.1939948064E+00  4.1811744267E+00
                       3.6721728129E+00  4.4254653954E+00  1.3937248089E+00
            xcart      9.8298257206E+00  3.4408676412E+00  2.6337581934E+00
                      -1.0181677682E+00  7.1783731547E+00  7.9012745803E+00
                       1.5686530336E+00  1.0295842437E+01  2.6337581934E+00
                       7.2430049188E+00  3.2339835920E-01  7.9012745803E+00
                       4.4058289762E+00  5.3096203979E+00  0.0000000000E+00
                       4.4058289762E+00  5.3096203979E+00  5.2675163869E+00
                       1.8722570234E+00  2.2563231881E+00  7.9012745803E+00
                       6.9394009290E+00  8.3629176078E+00  2.6337581934E+00
             xred      9.6954600000E-01  3.2402200000E-01  2.5000000000E-01
                       3.0454000000E-02  6.7597800000E-01  7.5000000000E-01
                       3.2402200000E-01  9.6954600000E-01  2.5000000000E-01
                       6.7597800000E-01  3.0454000000E-02  7.5000000000E-01
                       5.0000000000E-01  5.0000000000E-01  0.0000000000E+00
                       5.0000000000E-01  5.0000000000E-01  5.0000000000E-01
                       2.1247500000E-01  2.1247500000E-01  7.5000000000E-01
                       7.8752500000E-01  7.8752500000E-01  2.5000000000E-01
            znucl       11.00000   47.00000   33.00000

- Timing analysis has been suppressed with timopt=0

 Suggested references for the acknowledgment of ABINIT usage.

 Calculation completed.
.Delivered   6 WARNINGs and   5 COMMENTs to log file.