.Version 9.7.2 of ABINIT

 ABINIT is a project of the Universite Catholique de Louvain,
 Corning Inc. and other collaborators, see ~abinit/doc/developers/contributors.txt .
 acknowledgments of the ABINIT effort.

.Starting date : Wed  1 Dec 2021.
- ( at 21h29 )

- input  file    -> /scratch/users/j/a/jabreu/flow_simple_remain_atoms/flow/w209/t1/run.abi
- output file    -> /scratch/users/j/a/jabreu/flow_simple_remain_atoms/flow/w209/t1/run.abo
- root for input  files -> /scratch/users/j/a/jabreu/flow_simple_remain_atoms/flow/w209/t1/indata/in
- root for output files -> /scratch/users/j/a/jabreu/flow_simple_remain_atoms/flow/w209/t1/outdata/out

 Symmetries : space group Pm -3 m (#221); Bravais cP (primitive cubic)
     intxc =       0      iscf =       7    lmnmax =      32     lnmax =       8
     mgfft =      60  mpssoang =       4    mqgrid =    3001     natom =       5
  nloc_mem =       1    nspden =       1   nspinor =       1    nsppol =       1
      nsym =      48    n1xccc =    2501    ntypat =       3    occopt =       1
   xclevel =       2
-    mband =          34        mffmem =           1         mkmem =           2
-   mkqmem =           2        mk1mem =           2           mpw =       10432
      nfft =      216000          nkpt =           2
  Rough estimation (10% accuracy) of disk space for files :

------------- Echo of variables that govern the present computation ------------
-
- outvars: echo of selected default values
-   iomode0 =  0 , fftalg0 =512 , wfoptalg0 =  0
-
- outvars: echo of global parameters not present in the input file
-  max_nthreads =    0
-
 -outvars: echo values of preprocessed input variables --------
            acell      1.0000000000E+00  1.0000000000E+00  1.0000000000E+00 Bohr
              amu      1.32905430E+02  1.12411000E+02  1.89984032E+01
             ecut      5.10000000E+01 Hartree
-          fftalg         512
           irdden           1
           irdwfk           1
           istwfk        1    1
              ixc     -116133
              kpt      5.00000000E-01  5.00000000E-01  5.00000000E-01
                       0.00000000E+00  0.00000000E+00  0.00000000E+00
           kptopt           0
P           mkmem           2
P          mkqmem           2
P          mk1mem           2
            natom           5
            nband          34
           nbdbuf           4
            ngfft          60      60      60
             nkpt           2
            nstep        2000
             nsym          48
           ntypat           3
              occ      2.000000  2.000000  2.000000  2.000000  2.000000  2.000000
                       2.000000  2.000000  2.000000  2.000000  2.000000  2.000000
                       2.000000  2.000000  2.000000  2.000000  2.000000  2.000000
                       2.000000  2.000000  2.000000  2.000000  2.000000  2.000000
                       2.000000  0.000000  0.000000  0.000000  0.000000  0.000000
                       0.000000  0.000000  0.000000  0.000000
        optdriver           1
            prtwf          -1
            rfdir           1       1       1
           rfelfd           2
            rprim      8.4260589612E+00  0.0000000000E+00  0.0000000000E+00
                       0.0000000000E+00  8.4260589612E+00  0.0000000000E+00
                       0.0000000000E+00  0.0000000000E+00  8.4260589612E+00
          spgroup         221
           symrel      1  0  0   0  1  0   0  0  1      -1  0  0   0 -1  0   0  0 -1
                      -1  0  0   0  1  0   0  0 -1       1  0  0   0 -1  0   0  0  1
                      -1  0  0   0 -1  0   0  0  1       1  0  0   0  1  0   0  0 -1
                       1  0  0   0 -1  0   0  0 -1      -1  0  0   0  1  0   0  0  1
                       0  1  0   1  0  0   0  0  1       0 -1  0  -1  0  0   0  0 -1
                       0 -1  0   1  0  0   0  0 -1       0  1  0  -1  0  0   0  0  1
                       0 -1  0  -1  0  0   0  0  1       0  1  0   1  0  0   0  0 -1
                       0  1  0  -1  0  0   0  0 -1       0 -1  0   1  0  0   0  0  1
                       0  0  1   1  0  0   0  1  0       0  0 -1  -1  0  0   0 -1  0
                       0  0 -1   1  0  0   0 -1  0       0  0  1  -1  0  0   0  1  0
                       0  0 -1  -1  0  0   0  1  0       0  0  1   1  0  0   0 -1  0
                       0  0  1  -1  0  0   0 -1  0       0  0 -1   1  0  0   0  1  0
                       1  0  0   0  0  1   0  1  0      -1  0  0   0  0 -1   0 -1  0
                      -1  0  0   0  0  1   0 -1  0       1  0  0   0  0 -1   0  1  0
                      -1  0  0   0  0 -1   0  1  0       1  0  0   0  0  1   0 -1  0
                       1  0  0   0  0 -1   0 -1  0      -1  0  0   0  0  1   0  1  0
                       0  1  0   0  0  1   1  0  0       0 -1  0   0  0 -1  -1  0  0
                       0 -1  0   0  0  1  -1  0  0       0  1  0   0  0 -1   1  0  0
                       0 -1  0   0  0 -1   1  0  0       0  1  0   0  0  1  -1  0  0
                       0  1  0   0  0 -1  -1  0  0       0 -1  0   0  0  1   1  0  0
                       0  0  1   0  1  0   1  0  0       0  0 -1   0 -1  0  -1  0  0
                       0  0 -1   0  1  0  -1  0  0       0  0  1   0 -1  0   1  0  0
                       0  0 -1   0 -1  0   1  0  0       0  0  1   0  1  0  -1  0  0
                       0  0  1   0 -1  0  -1  0  0       0  0 -1   0  1  0   1  0  0
           tolwfr      1.00000000E-20
            typat      1  2  3  3  3
           useylm           1
              wtk        0.50000    0.50000
           xangst      0.0000000000E+00  0.0000000000E+00  0.0000000000E+00
                       2.2294391803E+00  2.2294391803E+00  2.2294391803E+00
                       0.0000000000E+00  2.2294391803E+00  2.2294391803E+00
                       2.2294391803E+00  0.0000000000E+00  2.2294391803E+00
                       2.2294391803E+00  2.2294391803E+00  0.0000000000E+00
            xcart      0.0000000000E+00  0.0000000000E+00  0.0000000000E+00
                       4.2130294806E+00  4.2130294806E+00  4.2130294806E+00
                       0.0000000000E+00  4.2130294806E+00  4.2130294806E+00
                       4.2130294806E+00  0.0000000000E+00  4.2130294806E+00
                       4.2130294806E+00  4.2130294806E+00  0.0000000000E+00
             xred      0.0000000000E+00  0.0000000000E+00  0.0000000000E+00
                       5.0000000000E-01  5.0000000000E-01  5.0000000000E-01
                       0.0000000000E+00  5.0000000000E-01  5.0000000000E-01
                       5.0000000000E-01  0.0000000000E+00  5.0000000000E-01
                       5.0000000000E-01  5.0000000000E-01  0.0000000000E+00
            znucl       55.00000   48.00000    9.00000

 chkinp: Checking input parameters for consistency.

== DATASET  1 ==================================================================
-   mpi_nproc: 1, omp_nthreads: -1 (-1 if OMP is not activated)

--- !DatasetInfo
iteration_state: {dtset: 1, }
dimensions: {natom: 5, nkpt: 2, mband: 34, nsppol: 1, nspinor: 1, nspden: 1, mpw: 10432, }
cutoff_energies: {ecut:  51.0, pawecutdg:  -1.0, }
electrons: {nelect:   5.00000000E+01, charge:   0.00000000E+00, occopt:   1.00000000E+00, tsmear:   1.00000000E-02, }
meta: {optdriver: 1, rfelfd: 2, }
...

 Real(R)+Recip(G) space primitive vectors, cartesian coordinates (Bohr,Bohr^-1):
 R(1)=  8.4260590  0.0000000  0.0000000  G(1)=  0.1186794  0.0000000  0.0000000
 R(2)=  0.0000000  8.4260590  0.0000000  G(2)=  0.0000000  0.1186794  0.0000000
 R(3)=  0.0000000  0.0000000  8.4260590  G(3)=  0.0000000  0.0000000  0.1186794
 Unit cell volume ucvol=  5.9823729E+02 bohr^3
 Angles (23,13,12)=  9.00000000E+01  9.00000000E+01  9.00000000E+01 degrees

 getcut: wavevector=  0.0000  0.0000  0.0000  ngfft=  60  60  60
         ecut(hartree)=     51.000   => boxcut(ratio)=   2.21501

 getcut : COMMENT -
  Note that boxcut > 2.2 ; recall that boxcut=Gcut(box)/Gcut(sphere) = 2
  is sufficient for exact treatment of convolution.
  Such a large boxcut is a waste : you could raise ecut
  e.g. ecut=   62.555179 Hartrees makes boxcut=2

--- Pseudopotential description ------------------------------------------------
- pspini: atom type   1  psp file is /scratch/users/j/a/jabreu/pseudos/PBEsol/Cs.psp8
- pspatm: opening atomic psp file    /scratch/users/j/a/jabreu/pseudos/PBEsol/Cs.psp8
- Cs    ONCVPSP-3.3.0  r_core=   2.27353   1.85623   2.01788   1.90105
- 55.00000   9.00000    180112                znucl, zion, pspdat
    8 -116133    3    4       600   0.00000   pspcod,pspxc,lmax,lloc,mmax,r2well
    5.99000000000000    5.00000000000000    0.00000000000000   rchrg,fchrg,qchrg
     nproj     2     2     2     2
     extension_switch     1
  pspatm : epsatm=   22.12462445
         --- l  ekb(1:nproj) -->
             0    6.214110    0.767882
             1    6.311966    0.793598
             2    3.769790    0.913105
             3   -9.247129   -2.432478
 pspatm: atomic psp has been read  and splines computed

- pspini: atom type   2  psp file is /scratch/users/j/a/jabreu/pseudos/PBEsol/Cd.psp8
- pspatm: opening atomic psp file    /scratch/users/j/a/jabreu/pseudos/PBEsol/Cd.psp8
- Cd    ONCVPSP-3.3.0  r_core=   1.25838   1.30423   1.35174
- 48.00000  20.00000    180112                znucl, zion, pspdat
    8 -116133    2    4       600   0.00000   pspcod,pspxc,lmax,lloc,mmax,r2well
    5.99000000000000    6.00000000000000    0.00000000000000   rchrg,fchrg,qchrg
     nproj     2     2     2
     extension_switch     1
  pspatm : epsatm=   23.26728021
         --- l  ekb(1:nproj) -->
             0   63.701523    3.700425
             1    8.703569    1.290373
             2    0.983656   -0.721725
 pspatm: atomic psp has been read  and splines computed

- pspini: atom type   3  psp file is /scratch/users/j/a/jabreu/pseudos/PBEsol/F.psp8
- pspatm: opening atomic psp file    /scratch/users/j/a/jabreu/pseudos/PBEsol/F.psp8
- F     ONCVPSP-3.3.0  r_core=   1.30942   1.45782   1.60379
-  9.00000   7.00000    180112                znucl, zion, pspdat
    8 -116133    2    4       600   0.00000   pspcod,pspxc,lmax,lloc,mmax,r2well
    5.99000000000000    2.50000000000000    0.00000000000000   rchrg,fchrg,qchrg
     nproj     2     2     1
     extension_switch     1
  pspatm : epsatm=    4.89824824
         --- l  ekb(1:nproj) -->
             0    6.506434    1.065875
             1   -3.978753   -1.295852
             2   -2.394754
 pspatm: atomic psp has been read  and splines computed

   3.00433247E+03                                ecore*ucvol(ha*bohr**3)

 ==>  initialize data related to q vector <==

 The list of irreducible perturbations for this q vector is:
    1)    idir= 1    ipert=   6
    2)    idir= 2    ipert=   6
    3)    idir= 3    ipert=   6

 Perturbation wavevector (in red.coord.)   0.000000  0.000000  0.000000
 Perturbation : derivative vs k along direction   1

 dfpt_looppert : COMMENT -
  In a d/dk calculation, iscf is set to -3 automatically.
 The set of symmetries contains only one element for this perturbation.
 symkpt : not enough symmetry to change the number of k points.

[...]
 ETOT  7  -31.622787068313     -9.275E-10 1.289E-03 0.000E+00
 ETOT  8  -31.622787068382     -6.907E-11 1.082E-04 0.000E+00
 ETOT  9  -31.622787068387     -5.297E-12 3.037E-04 0.000E+00
 ETOT 10  -31.622787068388     -4.015E-13 2.509E-05 0.000E+00
 ETOT 11  -31.622787068388     -1.421E-14 7.368E-05 0.000E+00
 ETOT 12  -31.622787068388     -1.776E-14 6.008E-06 0.000E+00
 ETOT 13  -31.622787068388      3.553E-15 1.808E-05 0.000E+00
 ETOT 14  -31.622787068388      0.000E+00 1.465E-06 0.000E+00
 ETOT 15  -31.622787068388      7.105E-15 4.456E-06 0.000E+00
 ETOT 16  -31.622787068388      7.105E-15 3.592E-07 0.000E+00
 ETOT 17  -31.622787068388     -7.105E-15 1.100E-06 0.000E+00
 ETOT 18  -31.622787068388     -3.553E-15 8.838E-08 0.000E+00
 ETOT 19  -31.622787068388      3.553E-15 2.720E-07 0.000E+00
 ETOT 20  -31.622787068388      0.000E+00 2.179E-08 0.000E+00
 ETOT 21  -31.622787068388      0.000E+00 6.730E-08 0.000E+00
 ETOT 22  -31.622787068388      0.000E+00 5.378E-09 0.000E+00
 ETOT 23  -31.622787068388      0.000E+00 1.666E-08 0.000E+00
 ETOT 24  -31.622787068388     -3.553E-15 1.329E-09 0.000E+00
 ETOT 25  -31.622787068388      0.000E+00 4.124E-09 0.000E+00
 ETOT 26  -31.622787068388      3.553E-15 3.285E-10 0.000E+00
 ETOT 27  -31.622787068388     -7.105E-15 1.021E-09 0.000E+00
 ETOT 28  -31.622787068388      7.105E-15 8.125E-11 0.000E+00
 ETOT 29  -31.622787068388      0.000E+00 2.529E-10 0.000E+00
 ETOT 30  -31.622787068388      0.000E+00 2.011E-11 0.000E+00
 ETOT 31  -31.622787068388     -7.105E-15 6.267E-11 0.000E+00
 ETOT 32  -31.622787068388      0.000E+00 4.979E-12 0.000E+00
 ETOT 33  -31.622787068388     -1.421E-14 1.553E-11 0.000E+00
 ETOT 34  -31.622787068388      1.776E-14 1.234E-12 0.000E+00
 ETOT 35  -31.622787068388      0.000E+00 3.849E-12 0.000E+00
 ETOT 36  -31.622787068388      0.000E+00 3.058E-13 0.000E+00
 ETOT 37  -31.622787068388      0.000E+00 9.542E-13 0.000E+00
 ETOT 38  -31.622787068388     -7.105E-15 7.584E-14 0.000E+00
 ETOT 39  -31.622787068388      7.105E-15 2.366E-13 0.000E+00
 ETOT 40  -31.622787068388      7.105E-15 1.882E-14 0.000E+00
 ETOT 41  -31.622787068388     -1.066E-14 5.870E-14 0.000E+00
 ETOT 42  -31.622787068388      3.553E-15 4.674E-15 0.000E+00
 ETOT 43  -31.622787068388      0.000E+00 1.456E-14 0.000E+00
 ETOT 44  -31.622787068388      7.105E-15 1.162E-15 0.000E+00
 ETOT 45  -31.622787068388     -7.105E-15 3.615E-15 0.000E+00
 ETOT 46  -31.622787068388     -3.553E-15 2.890E-16 0.000E+00
 ETOT 47  -31.622787068388      0.000E+00 8.976E-16 0.000E+00
 ETOT 48  -31.622787068388      3.553E-15 7.195E-17 0.000E+00
 ETOT 49  -31.622787068388      0.000E+00 2.230E-16 0.000E+00
 ETOT 50  -31.622787068388     -3.553E-15 1.793E-17 0.000E+00
 ETOT 51  -31.622787068388      3.553E-15 5.540E-17 0.000E+00
 ETOT 52  -31.622787068388     -1.066E-14 4.473E-18 0.000E+00
 ETOT 53  -31.622787068388      7.105E-15 1.378E-17 0.000E+00
 ETOT 54  -31.622787068388      3.553E-15 1.117E-18 0.000E+00
 ETOT 55  -31.622787068388      0.000E+00 3.428E-18 0.000E+00
 ETOT 56  -31.622787068388     -1.066E-14 2.792E-19 0.000E+00
 ETOT 57  -31.622787068388      1.421E-14 8.554E-19 0.000E+00
 ETOT 58  -31.622787068388     -1.066E-14 6.990E-20 0.000E+00
 ETOT 59  -31.622787068388      7.105E-15 2.116E-19 0.000E+00
 ETOT 60  -31.622787068388      7.105E-15 1.752E-20 0.000E+00
 ETOT 61  -31.622787068388     -3.553E-15 9.919E-21 0.000E+00

 At SCF step   61   max residual=  9.92E-21 < tolwfr=  1.00E-20 =>converged.

 ----iterations are completed or convergence reached----

 dfpt_looppert: DFPT cycle converged with prtwf=-1. Will skip output of the 1st-order WFK file.
 dfpt_looppert : ek2=    5.5604603616E+01
          f-sum rule ratio=    1.0857757963E+00
 prteigrs : about to open file /scratch/users/j/a/jabreu/flow_simple_remain_atoms/flow/w209/t1/tmpdata/tmp_1WF1_EIG
 Expectation of eigenvalue derivatives (hartree) for nkpt=   2  k points:
  (in case of degenerate eigenvalues, averaged derivative)
 kpt#   1, nband= 34, wtk=  0.50000, kpt=  0.5000  0.5000  0.5000 (reduced coord)
   0.00000    0.00000    0.00000    0.00000    0.00000    0.00000    0.00000    0.00000
   0.00000    0.00000   -0.00000   -0.00000   -0.00000   -0.00000    0.00000    0.00000
   0.00000    0.00000    0.00000    0.00000   -0.00000   -0.00000   -0.00000    0.00000
   0.00000   -0.00000   -0.00000   -0.00000    0.00000    0.00000    0.00000   -0.00000
   0.00000    0.00000
 prteigrs : prtvol=0 or 1, do not print more k-points.

 Eight components of 2nd-order total energy (hartree) are
 1,2,3: 0th-order hamiltonian combined with 1st-order wavefunctions
     kin0=   3.94861782E+01 eigvalue=   6.87990601E-01  local=  -1.84237505E+01
 4,5,6: 1st-order hamiltonian combined with 1st and 0th-order wfs
     kin1=  -6.03741328E+01  Hartree=   0.00000000E+00     xc=   0.00000000E+00
 7,8,9: eventually, occupation + non-local contributions
    edocc=   8.40823769E+00     enl0=   1.46413100E+00   enl1=  -2.87144137E+00
 1-9 gives the relaxation energy (to be shifted if some occ is /=2.0)
   erelax=  -3.16227871E+01
  No Ewald or frozen-wf contrib.: the relaxation energy is the total one
 2DEtotal=   -0.3162278707E+02 Ha. Also 2DEtotal=   -0.860499797641E+03 eV
    (  non-var. 2DEtotal :   -3.1622787068E+01 Ha)

 CALCULATION OF EFFECTIVE MASSES
 NOTE : Additional infos (eff. mass eigenvalues, eigenvectors and, if degenerate, average mass) are available in stdout.

 COMMENTS:
 - At k-point ( 0.500, 0.500, 0.500), bands    24 through    25
   are DEGENERATE (effective mass tensor is therefore not defined).
   See Section IIIB Eqs. (67)-(70) and Appendix E of PRB 93 205147 (2016).
 - Angular average effective mass for Frohlich model is to be averaged over degenerate bands. See later.
 - Associated theta integrals calculated with ntheta=   1000 points.

 K-point ( 0.500, 0.500, 0.500) | band =    24
 Transport equivalent effective mass tensor:
             -0.7621256910              0.0000000000             -0.0000000000
              0.0000000000             -0.7621263389             -0.0000000000
             -0.0000000000             -0.0000000000             -0.7621196608
 Transport equivalent effective mass tensor eigenvalues:
             -0.7621263389             -0.7621256910             -0.7621196608
 Angular average effective mass 1/(<1/m>)=  -0.5914644005
 Angular average effective mass for Frohlich model (<m**0.5>)**2=  -0.6002687284
 Effective masses along directions: (cart. coord. / red. coord. -> eff. mass)
    1:   1.000000  0.000000  0.000000 /   1.000000  0.000000  0.000000 ->  -0.4712920652
    2:   0.000000  1.000000  0.000000 /   0.000000  1.000000  0.000000 ->  -0.4712920652
    3:   0.000000  0.000000  1.000000 /   0.000000  0.000000  1.000000 ->  -0.4712920652
    4:   0.577350  0.577350  0.577350 /   0.577350  0.577350  0.577350 ->  -0.9415853165
    5:   0.000000  0.707107  0.707107 /   0.000000  0.707107  0.707107 ->  -0.6281673047
    6:   0.707107  0.000000  0.707107 /   0.707107  0.000000  0.707107 ->  -0.6281673047
    7:   0.707107  0.707107  0.000000 /   0.707107  0.707107  0.000000 ->  -0.6281673047

 K-point ( 0.500, 0.500, 0.500) | band =    25
 Transport equivalent effective mass tensor:
          -1560.5246971089              0.0000000032             -0.0000000035
              0.0000000032          -1560.5245741805             -0.0000000043
             -0.0000000035             -0.0000000043          -1560.5249691760
 Transport equivalent effective mass tensor eigenvalues:
          -1560.5249691760          -1560.5246971089          -1560.5245741805
 Angular average effective mass 1/(<1/m>)=  -2.3075584402
 Angular average effective mass for Frohlich model (<m**0.5>)**2=  -3.8534651935
 Effective masses along directions: (cart. coord. / red. coord. -> eff. mass)
    1:   1.000000  0.000000  0.000000 /   1.000000  0.000000  0.000000 -> **************
    2:   0.000000  1.000000  0.000000 /   0.000000  1.000000  0.000000 -> **************
    3:   0.000000  0.000000  1.000000 /   0.000000  0.000000  1.000000 -> **************
    4:   0.577350  0.577350  0.577350 /   0.577350  0.577350  0.577350 ->  -0.9415853166
    5:   0.000000  0.707107  0.707107 /   0.000000  0.707107  0.707107 ->  -1.8791880512
    6:   0.707107  0.000000  0.707107 /   0.707107  0.000000  0.707107 ->  -1.8791880514
    7:   0.707107  0.707107  0.000000 /   0.707107  0.707107  0.000000 ->  -1.8791880516

 Angular average effective mass for Frohlich model, averaged over degenerate bands.
 Value of     (<<m**0.5>>)**2 =     1.873880E+00
 Absolute Value of <<m**0.5>> =     1.368897E+00

 K-point ( 0.000, 0.000, 0.000) | band =    26
 Effective mass tensor:
              0.3986516402              0.0000000000             -0.0000000000
              0.0000000000              0.3986516402             -0.0000000000
             -0.0000000000             -0.0000000000              0.3986516402
 Effective mass tensor eigenvalues:
              0.3986516402              0.3986516402              0.3986516402
 Angular average effective mass 1/(<1/m>)=   0.3986516402
 Angular average effective mass for Frohlich model (<m**0.5>)**2=   0.3986516402
 Effective masses along directions: (cart. coord. / red. coord. -> eff. mass)
    1:   1.000000  0.000000  0.000000 /   1.000000  0.000000  0.000000 ->   0.3986516402
    2:   0.000000  1.000000  0.000000 /   0.000000  1.000000  0.000000 ->   0.3986516402
    3:   0.000000  0.000000  1.000000 /   0.000000  0.000000  1.000000 ->   0.3986516402
    4:   0.577350  0.577350  0.577350 /   0.577350  0.577350  0.577350 ->   0.3986516402
    5:   0.000000  0.707107  0.707107 /   0.000000  0.707107  0.707107 ->   0.3986516402
    6:   0.707107  0.000000  0.707107 /   0.707107  0.000000  0.707107 ->   0.3986516402
    7:   0.707107  0.707107  0.000000 /   0.707107  0.707107  0.000000 ->   0.3986516402

 END OF EFFECTIVE MASSES SECTION

 ---- first-order wavefunction calculations are completed ----

 Total localisation tensor (bohr^2) in cartesian coordinates
  WARNING : still subject to testing - especially symmetries.
      direction              matrix element
   alpha     beta       real part   imaginary part
     1        1       0.6528080225    0.0000000000
     1        2       0.0000000000    0.0000000000
     1        3       0.0000000000    0.0000000000
     2        1       0.0000000000    0.0000000000
     2        2       0.6528080225    0.0000000000
     2        3       0.0000000000    0.0000000000
     3        1       0.0000000000    0.0000000000
     3        2       0.0000000000    0.0000000000
     3        3       0.6528080225    0.0000000000

 respfn : d/dk was computed, but no 2DTE, so no DDB output.

== END DATASET(S) ==============================================================

 -outvars: echo values of variables after computation  --------
            acell      1.0000000000E+00  1.0000000000E+00  1.0000000000E+00 Bohr
              amu      1.32905430E+02  1.12411000E+02  1.89984032E+01
             ecut      5.10000000E+01 Hartree
           etotal     -3.1622787068E+01
            fcart      0.0000000000E+00  0.0000000000E+00  0.0000000000E+00
                       0.0000000000E+00  0.0000000000E+00  0.0000000000E+00
                       0.0000000000E+00  0.0000000000E+00  0.0000000000E+00
                       0.0000000000E+00  0.0000000000E+00  0.0000000000E+00
                       0.0000000000E+00  0.0000000000E+00  0.0000000000E+00
-          fftalg         512
           irdden           1
           irdwfk           1
           istwfk        1    1
              ixc     -116133
              kpt      5.00000000E-01  5.00000000E-01  5.00000000E-01
                       0.00000000E+00  0.00000000E+00  0.00000000E+00
           kptopt           0
P           mkmem           2
P          mkqmem           2
P          mk1mem           2
            natom           5
            nband          34
           nbdbuf           4
            ngfft          60      60      60
             nkpt           2
            nstep        2000
             nsym          48
           ntypat           3
              occ      2.000000  2.000000  2.000000  2.000000  2.000000  2.000000
                       2.000000  2.000000  2.000000  2.000000  2.000000  2.000000
                       2.000000  2.000000  2.000000  2.000000  2.000000  2.000000
                       2.000000  2.000000  2.000000  2.000000  2.000000  2.000000
                       2.000000  0.000000  0.000000  0.000000  0.000000  0.000000
                       0.000000  0.000000  0.000000  0.000000
        optdriver           1
            prtwf          -1
            rfdir           1       1       1
           rfelfd           2
            rprim      8.4260589612E+00  0.0000000000E+00  0.0000000000E+00
                       0.0000000000E+00  8.4260589612E+00  0.0000000000E+00
                       0.0000000000E+00  0.0000000000E+00  8.4260589612E+00
          spgroup         221
           strten      0.0000000000E+00  0.0000000000E+00  0.0000000000E+00
                       0.0000000000E+00  0.0000000000E+00  0.0000000000E+00
           symrel      1  0  0   0  1  0   0  0  1      -1  0  0   0 -1  0   0  0 -1
                      -1  0  0   0  1  0   0  0 -1       1  0  0   0 -1  0   0  0  1
                      -1  0  0   0 -1  0   0  0  1       1  0  0   0  1  0   0  0 -1
                       1  0  0   0 -1  0   0  0 -1      -1  0  0   0  1  0   0  0  1
                       0  1  0   1  0  0   0  0  1       0 -1  0  -1  0  0   0  0 -1
                       0 -1  0   1  0  0   0  0 -1       0  1  0  -1  0  0   0  0  1
                       0 -1  0  -1  0  0   0  0  1       0  1  0   1  0  0   0  0 -1
                       0  1  0  -1  0  0   0  0 -1       0 -1  0   1  0  0   0  0  1
                       0  0  1   1  0  0   0  1  0       0  0 -1  -1  0  0   0 -1  0
                       0  0 -1   1  0  0   0 -1  0       0  0  1  -1  0  0   0  1  0
                       0  0 -1  -1  0  0   0  1  0       0  0  1   1  0  0   0 -1  0
                       0  0  1  -1  0  0   0 -1  0       0  0 -1   1  0  0   0  1  0
                       1  0  0   0  0  1   0  1  0      -1  0  0   0  0 -1   0 -1  0
                      -1  0  0   0  0  1   0 -1  0       1  0  0   0  0 -1   0  1  0
                      -1  0  0   0  0 -1   0  1  0       1  0  0   0  0  1   0 -1  0
                       1  0  0   0  0 -1   0 -1  0      -1  0  0   0  0  1   0  1  0
                       0  1  0   0  0  1   1  0  0       0 -1  0   0  0 -1  -1  0  0
                       0 -1  0   0  0  1  -1  0  0       0  1  0   0  0 -1   1  0  0
                       0 -1  0   0  0 -1   1  0  0       0  1  0   0  0  1  -1  0  0
                       0  1  0   0  0 -1  -1  0  0       0 -1  0   0  0  1   1  0  0
                       0  0  1   0  1  0   1  0  0       0  0 -1   0 -1  0  -1  0  0
                       0  0 -1   0  1  0  -1  0  0       0  0  1   0 -1  0   1  0  0
                       0  0 -1   0 -1  0   1  0  0       0  0  1   0  1  0  -1  0  0
                       0  0  1   0 -1  0  -1  0  0       0  0 -1   0  1  0   1  0  0
           tolwfr      1.00000000E-20
            typat      1  2  3  3  3
           useylm           1
              wtk        0.50000    0.50000
           xangst      0.0000000000E+00  0.0000000000E+00  0.0000000000E+00
                       2.2294391803E+00  2.2294391803E+00  2.2294391803E+00
                       0.0000000000E+00  2.2294391803E+00  2.2294391803E+00
                       2.2294391803E+00  0.0000000000E+00  2.2294391803E+00
                       2.2294391803E+00  2.2294391803E+00  0.0000000000E+00
            xcart      0.0000000000E+00  0.0000000000E+00  0.0000000000E+00
                       4.2130294806E+00  4.2130294806E+00  4.2130294806E+00
                       0.0000000000E+00  4.2130294806E+00  4.2130294806E+00
                       4.2130294806E+00  0.0000000000E+00  4.2130294806E+00
                       4.2130294806E+00  4.2130294806E+00  0.0000000000E+00
             xred      0.0000000000E+00  0.0000000000E+00  0.0000000000E+00
                       5.0000000000E-01  5.0000000000E-01  5.0000000000E-01
                       0.0000000000E+00  5.0000000000E-01  5.0000000000E-01
                       5.0000000000E-01  0.0000000000E+00  5.0000000000E-01
                       5.0000000000E-01  5.0000000000E-01  0.0000000000E+00
            znucl       55.00000   48.00000    9.00000

- Timing analysis has been suppressed with timopt=0

 Suggested references for the acknowledgment of ABINIT usage.

 Calculation completed.
.Delivered   2 WARNINGs and  11 COMMENTs to log file.