.Version 9.5.1 of ABINIT

 ABINIT is a project of the Universite Catholique de Louvain,
 Corning Inc. and other collaborators, see ~abinit/doc/developers/contributors.txt .
 acknowledgments of the ABINIT effort.

.Starting date : Wed 19 May 2021.
- ( at 07h45 )

- input  file    -> /scratch/users/j/a/jabreu/flow_simple_9atoms/flow/w108/t1/run.abi
- output file    -> /scratch/users/j/a/jabreu/flow_simple_9atoms/flow/w108/t1/run.abo
- root for input  files -> /scratch/users/j/a/jabreu/flow_simple_9atoms/flow/w108/t1/indata/in
- root for output files -> /scratch/users/j/a/jabreu/flow_simple_9atoms/flow/w108/t1/outdata/out

 Symmetries : space group I-4 2 m (#121); Bravais tI (body-center tetrag.)
     intxc =       0      iscf =       7    lmnmax =      18     lnmax =       6
     mgfft =      75  mpssoang =       3    mqgrid =    3001     natom =       9
  nloc_mem =       1    nspden =       1   nspinor =       1    nsppol =       1
      nsym =       8    n1xccc =    2501    ntypat =       3    occopt =       1
   xclevel =       2
-    mband =          33        mffmem =           1         mkmem =           2
-   mkqmem =           2        mk1mem =           2           mpw =       15798
      nfft =      421875          nkpt =           2
  Rough estimation (10% accuracy) of disk space for files :

------------- Echo of variables that govern the present computation ------------
-
- outvars: echo of selected default values
-   iomode0 =  0 , fftalg0 =512 , wfoptalg0 =  0
-
- outvars: echo of global parameters not present in the input file
-  max_nthreads =    0
-
 -outvars: echo values of preprocessed input variables --------
            acell      1.0000000000E+00  1.0000000000E+00  1.0000000000E+00 Bohr
              amu      6.94100000E+00  4.78800000E+01  3.20660000E+01
             ecut      4.20000000E+01 Hartree
-          fftalg         512
           irdden           1
           irdwfk           1
           istwfk        1    0
              ixc     -116133
              kpt      0.00000000E+00  0.00000000E+00  5.00000000E-01
                       5.00000000E-01  5.00000000E-01 -5.00000000E-01
           kptopt           0
P           mkmem           2
P          mkqmem           2
P          mk1mem           2
            natom           9
            nband          33
           nbdbuf           4
            ngfft          75      75      75
             nkpt           2
            nstep        2000
             nsym           8
           ntypat           3
              occ      2.000000  2.000000  2.000000  2.000000  2.000000  2.000000
                       2.000000  2.000000  2.000000  2.000000  2.000000  2.000000
                       2.000000  2.000000  2.000000  2.000000  2.000000  2.000000
                       2.000000  2.000000  2.000000  2.000000  2.000000  2.000000
                       0.000000  0.000000  0.000000  0.000000  0.000000  0.000000
                       0.000000  0.000000  0.000000
        optdriver           1
            prtwf          -1
            rfdir           1       1       1
           rfelfd           2
            rprim      9.9190059176E+00  0.0000000000E+00 -7.8809556959E+00
                      -2.3109739289E+00  9.6460394926E+00 -7.8809556959E+00
                       0.0000000000E+00  0.0000000000E+00  1.2668707159E+01
          spgroup         121
           symrel      1  0  0   0  1  0   0  0  1       0  0  1  -1 -1 -1   1  0  0
                       0  1  0   1  0  0  -1 -1 -1      -1 -1 -1   0  0  1   0  1  0
                       0  1  0   1  0  0   0  0  1       0  0  1  -1 -1 -1   0  1  0
                       1  0  0   0  1  0  -1 -1 -1      -1 -1 -1   0  0  1   1  0  0
           tolwfr      1.00000000E-20
            typat      1  1  1  1  2  3  3  3  3
           useylm           1
              wtk        0.50000    0.50000
           xangst      2.6244559317E+00  0.0000000000E+00  1.2667844773E+00
                      -6.1145736641E-01  2.5522321263E+00  1.2667844773E+00
                       1.1431214953E+00  1.4493360576E+00 -2.3682576185E+00
                       2.8828756354E+00  3.6551281951E+00 -5.9725866539E+00
                       0.0000000000E+00  0.0000000000E+00  0.0000000000E+00
                       3.3207015398E+00  5.0869048956E-01 -3.1508373323E+00
                       1.3854905486E+00  1.7566299100E+00  1.0479282961E-01
                      -2.7898018766E-01  3.3478343426E+00 -3.1508373323E+00
                       3.6247823606E+00  4.5957737631E+00 -3.7808156190E+00
            xcart      4.9595029588E+00  0.0000000000E+00  2.3938757314E+00
                      -1.1554869644E+00  4.8230197463E+00  2.3938757314E+00
                       2.1601865627E+00  2.7388482233E+00 -4.4753583110E+00
                       5.4478454260E+00  6.9071912693E+00 -1.1286553081E+01
                       0.0000000000E+00  0.0000000000E+00  0.0000000000E+00
                       6.2752164793E+00  9.6128571167E-01 -5.9542196474E+00
                       2.6181976965E+00  3.3195494468E+00  1.9802974865E-01
                      -5.2719615118E-01  6.3264900458E+00 -5.9542196474E+00
                       6.8498459528E+00  8.6847537809E+00 -7.1447060788E+00
             xred      5.0000000000E-01  0.0000000000E+00  5.0000000000E-01
                       0.0000000000E+00  5.0000000000E-01  5.0000000000E-01
                       2.8393500000E-01  2.8393500000E-01  0.0000000000E+00
                       7.1606500000E-01  7.1606500000E-01 -5.5511151231E-17
                       0.0000000000E+00  0.0000000000E+00  0.0000000000E+00
                       6.5586400000E-01  9.9656000000E-02  5.5511151231E-17
                       3.4413600000E-01  3.4413600000E-01  4.4379200000E-01
                       9.9656000000E-02  6.5586400000E-01  0.0000000000E+00
                       9.0034400000E-01  9.0034400000E-01  5.5620800000E-01
            znucl        3.00000   22.00000   16.00000

 chkinp: Checking input parameters for consistency.

== DATASET  1 ==================================================================
-   mpi_nproc: 1, omp_nthreads: -1 (-1 if OMP is not activated)

--- !DatasetInfo
iteration_state: {dtset: 1, }
dimensions: {natom: 9, nkpt: 2, mband: 33, nsppol: 1, nspinor: 1, nspden: 1, mpw: 15798, }
cutoff_energies: {ecut:  42.0, pawecutdg:  -1.0, }
electrons: {nelect:   4.80000000E+01, charge:   0.00000000E+00, occopt:   1.00000000E+00, tsmear:   1.00000000E-02, }
meta: {optdriver: 1, rfelfd: 2, }
...

 Real(R)+Recip(G) space primitive vectors, cartesian coordinates (Bohr,Bohr^-1):
 R(1)=  9.9190059  0.0000000 -7.8809557  G(1)=  0.1008166  0.0241534  0.0000000
 R(2)= -2.3109739  9.6460395 -7.8809557  G(2)=  0.0000000  0.1036695  0.0000000
 R(3)=  0.0000000  0.0000000 12.6687072  G(3)=  0.0627160  0.0795161  0.0789347
 Unit cell volume ucvol=  1.2121308E+03 bohr^3
 Angles (23,13,12)=  1.28468223E+02  1.28468223E+02  7.58677430E+01 degrees

 getcut: wavevector=  0.0000  0.0000  0.0000  ngfft=  75  75  75
         ecut(hartree)=     42.000   => boxcut(ratio)=   2.00221

--- Pseudopotential description ------------------------------------------------
- pspini: atom type   1  psp file is /scratch/users/j/a/jabreu/pseudos/PBEsol/Li.psp8
- pspatm: opening atomic psp file    /scratch/users/j/a/jabreu/pseudos/PBEsol/Li.psp8
- Li    ONCVPSP-3.3.0  r_core=   1.40824   1.10935
-  3.00000   3.00000    180112                znucl, zion, pspdat
    8 -116133    1    4       400   0.00000   pspcod,pspxc,lmax,lloc,mmax,r2well
    3.99000000000000    0.00000000000000    0.00000000000000   rchrg,fchrg,qchrg
     nproj     2     2
     extension_switch     1
  pspatm : epsatm=    2.60859637
         --- l  ekb(1:nproj) -->
             0   -4.855856   -1.482423
             1   -2.171544   -0.427615
 pspatm: atomic psp has been read  and splines computed

- pspini: atom type   2  psp file is /scratch/users/j/a/jabreu/pseudos/PBEsol/Ti.psp8
- pspatm: opening atomic psp file    /scratch/users/j/a/jabreu/pseudos/PBEsol/Ti.psp8
- Ti    ONCVPSP-3.3.0  r_core=   1.35825   1.31050   1.66360
- 22.00000  12.00000    180112                znucl, zion, pspdat
    8 -116133    2    4       600   0.00000   pspcod,pspxc,lmax,lloc,mmax,r2well
    5.99000000000000    2.50000000000000    0.00000000000000   rchrg,fchrg,qchrg
     nproj     2     2     2
     extension_switch     1
  pspatm : epsatm=   14.76919902
         --- l  ekb(1:nproj) -->
             0   11.321950    1.254474
             1    1.946894   -0.084268
             2   -5.237105   -1.488377
 pspatm: atomic psp has been read  and splines computed

- pspini: atom type   3  psp file is /scratch/users/j/a/jabreu/pseudos/PBEsol/S.psp8
- pspatm: opening atomic psp file    /scratch/users/j/a/jabreu/pseudos/PBEsol/S.psp8
- S     ONCVPSP-3.3.0  r_core=   1.45376   1.45376   1.61851
- 16.00000   6.00000    180112                znucl, zion, pspdat
    8 -116133    2    4       600   0.00000   pspcod,pspxc,lmax,lloc,mmax,r2well
    5.99000000000000    6.00000000000000    0.00000000000000   rchrg,fchrg,qchrg
     nproj     2     2     2
     extension_switch     1
  pspatm : epsatm=    8.71840985
         --- l  ekb(1:nproj) -->
             0    6.834532    0.579453
             1    3.282851    0.896984
             2   -3.496974   -0.974265
 pspatm: atomic psp has been read  and splines computed

   2.88370675E+03                                ecore*ucvol(ha*bohr**3)

-inwffil : will read wavefunctions from disk file /scratch/users/j/a/jabreu/flow_simple_9atoms/flow/w108/t1/indata/in_WFK

 ==>  initialize data related to q vector <==

 The list of irreducible perturbations for this q vector is:
    1)    idir= 1    ipert=  10
    2)    idir= 2    ipert=  10
    3)    idir= 3    ipert=  10

 Perturbation wavevector (in red.coord.)   0.000000  0.000000  0.000000
 Perturbation : derivative vs k along direction   1

 dfpt_looppert : COMMENT -
  In a d/dk calculation, iscf is set to -3 automatically.
 The set of symmetries contains only one element for this perturbation.
 symkpt : not enough symmetry to change the number of k points.

[...]

 Initialisation of the first-order wave-functions :
  ireadwf=   0

--- !BeginCycle
iteration_state: {dtset: 1, }
solver: {iscf: 7, nstep: 2000, nline: 4, wfoptalg: 0, }
tolerances: {tolwfr: 1.00E-20, }
...

     iter   2DEtotal(Ha)        deltaE(Ha) residm    vres2
-ETOT  1  -20.318388003472     -2.032E+01 1.194E-01 0.000E+00
 ETOT  2  -20.336154566626     -1.777E-02 3.481E-03 0.000E+00
 ETOT  3  -20.336204220337     -4.965E-05 4.248E-04 0.000E+00
 ETOT  4  -20.336204420075     -1.997E-07 2.458E-05 0.000E+00
 ETOT  5  -20.336204420982     -9.075E-10 4.872E-06 0.000E+00
 ETOT  6  -20.336204420987     -4.459E-12 3.505E-07 0.000E+00
 ETOT  7  -20.336204420987     -2.842E-14 7.714E-08 0.000E+00
 ETOT  8  -20.336204420987      1.066E-14 5.747E-09 0.000E+00
 ETOT  9  -20.336204420987     -1.776E-14 1.316E-09 0.000E+00
 ETOT 10  -20.336204420987      1.066E-14 9.852E-11 0.000E+00
 ETOT 11  -20.336204420987      3.553E-15 2.293E-11 0.000E+00
 ETOT 12  -20.336204420987      0.000E+00 1.718E-12 0.000E+00
 ETOT 13  -20.336204420987     -3.553E-15 4.033E-13 0.000E+00
 ETOT 14  -20.336204420987     -7.105E-15 3.029E-14 0.000E+00
 ETOT 15  -20.336204420987      0.000E+00 7.148E-15 0.000E+00
 ETOT 16  -20.336204420987      3.553E-15 5.380E-16 0.000E+00
 ETOT 17  -20.336204420987     -7.105E-15 1.274E-16 0.000E+00
 ETOT 18  -20.336204420987      7.105E-15 9.609E-18 0.000E+00
 ETOT 19  -20.336204420987     -7.105E-15 2.281E-18 0.000E+00
 ETOT 20  -20.336204420987      7.105E-15 1.723E-19 0.000E+00
 ETOT 21  -20.336204420987     -7.105E-15 4.096E-20 0.000E+00
 ETOT 22  -20.336204420987      7.105E-15 9.952E-21 0.000E+00

 At SCF step   22   max residual=  9.95E-21 < tolwfr=  1.00E-20 =>converged.

 ----iterations are completed or convergence reached----

 dfpt_looppert: DFPT cycle converged with prtwf=-1. Will skip output of the 1st-order WFK file.
 dfpt_looppert : ek2=    4.0731733952E+01
          f-sum rule ratio=    1.0410932130E+00
 prteigrs : about to open file /scratch/users/j/a/jabreu/flow_simple_9atoms/flow/w108/t1/tmpdata/tmp_1WF1_EIG
 Expectation of eigenvalue derivatives (hartree) for nkpt=   2  k points:
  (in case of degenerate eigenvalues, averaged derivative)
 kpt#   1, nband= 33, wtk=  0.50000, kpt=  0.0000  0.0000  0.5000 (reduced coord)
  -0.00000   -0.00000   -0.00000    0.00000    0.00000   -0.00000   -0.00000   -0.00000
  -0.00000    0.00000    0.00000   -0.00000    0.00000   -0.00000   -0.00000    0.00000
  -0.00000   -0.00000    0.00000    0.00000    0.00000   -0.00000    0.00000   -0.00000
   0.00000   -0.00000   -0.00000    0.00000   -0.00000    0.00000    0.00000    0.00000
  -0.02161
 prteigrs : prtvol=0 or 1, do not print more k-points.

 Eight components of 2nd-order total energy (hartree) are
 1,2,3: 0th-order hamiltonian combined with 1st-order wavefunctions
     kin0=   2.43111761E+01 eigvalue=   2.31384079E+00  local=  -1.30191177E+01
 4,5,6: 1st-order hamiltonian combined with 1st and 0th-order wfs
     kin1=  -4.24055318E+01  Hartree=   0.00000000E+00     xc=   0.00000000E+00
 7,8,9: eventually, occupation + non-local contributions
    edocc=   7.03161919E+00     enl0=  -3.01314013E-01   enl1=   1.73312293E+00
 1-9 gives the relaxation energy (to be shifted if some occ is /=2.0)
   erelax=  -2.03362044E+01
  No Ewald or frozen-wf contrib.: the relaxation energy is the total one
 2DEtotal=   -0.2033620442E+02 Ha. Also 2DEtotal=   -0.553376264755E+03 eV
    (  non-var. 2DEtotal :   -2.0336204421E+01 Ha)

 Perturbation wavevector (in red.coord.)   0.000000  0.000000  0.000000
 Perturbation : derivative vs k along direction   2
 The set of symmetries contains only one element for this perturbation.
 symkpt : not enough symmetry to change the number of k points.

[...]

 Perturbation wavevector (in red.coord.)   0.000000  0.000000  0.000000
 Perturbation : derivative vs k along direction   3
 The set of symmetries contains only one element for this perturbation.
 symkpt : not enough symmetry to change the number of k points.

-inwffil : will read wavefunctions from disk file /scratch/users/j/a/jabreu/flow_simple_9atoms/flow/w108/t1/indata/in_WFK

 Initialisation of the first-order wave-functions :
  ireadwf=   0

--- !BeginCycle
iteration_state: {dtset: 1, }
solver: {iscf: 7, nstep: 2000, nline: 4, wfoptalg: 0, }
tolerances: {tolwfr: 1.00E-20, }
...

     iter   2DEtotal(Ha)        deltaE(Ha) residm    vres2
-ETOT  1  -31.348554990720     -3.135E+01 2.666E-01 0.000E+00
 ETOT  2  -31.370280875886     -2.173E-02 5.096E-03 0.000E+00
 ETOT  3  -31.370330473492     -4.960E-05 7.946E-04 0.000E+00
 ETOT  4  -31.370330644063     -1.706E-07 4.469E-05 0.000E+00
 ETOT  5  -31.370330644740     -6.767E-10 1.005E-05 0.000E+00
 ETOT  6  -31.370330644743     -2.910E-12 5.661E-07 0.000E+00
 ETOT  7  -31.370330644743     -2.132E-14 1.463E-07 0.000E+00
 ETOT  8  -31.370330644743     -3.553E-14 8.184E-09 0.000E+00
 ETOT  9  -31.370330644743      1.066E-14 2.226E-09 0.000E+00
 ETOT 10  -31.370330644743     -1.776E-14 1.235E-10 0.000E+00
 ETOT 11  -31.370330644743     -1.066E-14 3.425E-11 0.000E+00
 ETOT 12  -31.370330644743      1.421E-14 1.890E-12 0.000E+00
 ETOT 13  -31.370330644743      0.000E+00 5.289E-13 0.000E+00
 ETOT 14  -31.370330644743      0.000E+00 2.915E-14 0.000E+00
 ETOT 15  -31.370330644743      0.000E+00 8.193E-15 0.000E+00
 ETOT 16  -31.370330644743      0.000E+00 4.521E-16 0.000E+00
 ETOT 17  -31.370330644743     -1.421E-14 1.273E-16 0.000E+00
 ETOT 18  -31.370330644743      1.066E-14 7.041E-18 0.000E+00
 ETOT 19  -31.370330644743      0.000E+00 1.982E-18 0.000E+00
 ETOT 20  -31.370330644743      0.000E+00 1.100E-19 0.000E+00
 ETOT 21  -31.370330644743      0.000E+00 3.093E-20 0.000E+00
 ETOT 22  -31.370330644743      0.000E+00 9.886E-21 0.000E+00

 At SCF step   22   max residual=  9.89E-21 < tolwfr=  1.00E-20 =>converged.

 ----iterations are completed or convergence reached----

 dfpt_looppert: DFPT cycle converged with prtwf=-1. Will skip output of the 1st-order WFK file.
 dfpt_looppert : ek2=    6.2483748366E+01
          f-sum rule ratio=    1.0469869787E+00
 prteigrs : about to open file /scratch/users/j/a/jabreu/flow_simple_9atoms/flow/w108/t1/tmpdata/tmp_1WF1_EIG
 Expectation of eigenvalue derivatives (hartree) for nkpt=   2  k points:
  (in case of degenerate eigenvalues, averaged derivative)
 kpt#   1, nband= 33, wtk=  0.50000, kpt=  0.0000  0.0000  0.5000 (reduced coord)
   0.00000   -0.00000   -0.00000    0.00000   -0.00000    0.00000   -0.00000   -0.00000
  -0.00000    0.00000    0.00000   -0.00000   -0.00000   -0.00000   -0.00000    0.00000
   0.00000    0.00000    0.00000    0.00000    0.00000    0.00000   -0.00000   -0.00000
   0.00000   -0.00000   -0.00000    0.00000   -0.00000   -0.00000   -0.00000    0.00000
  -0.04327
 prteigrs : prtvol=0 or 1, do not print more k-points.

 Eight components of 2nd-order total energy (hartree) are
 1,2,3: 0th-order hamiltonian combined with 1st-order wavefunctions
     kin0=   3.67702029E+01 eigvalue=   3.51421271E+00  local=  -1.94587683E+01
 4,5,6: 1st-order hamiltonian combined with 1st and 0th-order wfs
     kin1=  -6.54196709E+01  Hartree=   0.00000000E+00     xc=   0.00000000E+00
 7,8,9: eventually, occupation + non-local contributions
    edocc=   1.10492669E+01     enl0=  -5.04583580E-01   enl1=   2.67900963E+00
 1-9 gives the relaxation energy (to be shifted if some occ is /=2.0)
   erelax=  -3.13703306E+01
  No Ewald or frozen-wf contrib.: the relaxation energy is the total one
 2DEtotal=   -0.3137033064E+02 Ha. Also 2DEtotal=   -0.853630108989E+03 eV
    (  non-var. 2DEtotal :   -3.1370330644E+01 Ha)

 CALCULATION OF EFFECTIVE MASSES
 NOTE : Additional infos (eff. mass eigenvalues, eigenvectors and, if degenerate, average mass) are available in stdout.

 K-point ( 0.000, 0.000, 0.500) | band =    24
 Effective mass tensor:
             -3.5614976082             -3.0689605921             -3.0094808179
             -3.0689605921             -5.0319969190             -3.8156373545
             -3.0094808179             -3.8156373545             -5.0054222916
 Effective mass tensor eigenvalues:
            -11.2402925358             -1.2176829660             -1.1409413171
 Angular average effective mass 1/(<1/m>)=  -1.6791044044
 Angular average effective mass for Frohlich model (<m**0.5>)**2=  -2.0277211088
 Effective masses along directions: (cart. coord. / red. coord. -> eff. mass)
    1:   1.000000  0.000000  0.000000 /   0.973916 -0.226907  0.000000 ->  -1.4693193749
    2:   0.000000  1.000000  0.000000 /   0.000000  1.000000  0.000000 ->  -1.7806732677
    3:   0.000000  0.000000  1.000000 /  -0.467061 -0.467061  0.750805 ->  -1.8365669277
    4:   0.577350  0.577350  0.577350 /   0.158687 -0.042504  0.986414 -> -10.2511202199
    5:   0.000000  0.707107  0.707107 /  -0.524557  0.117484  0.843230 ->  -3.6461129478
    6:   0.707107  0.000000  0.707107 /   0.124372 -0.621962  0.773107 ->  -2.5467151628
    7:   0.707107  0.707107  0.000000 /   0.804036  0.594581  0.000000 ->  -2.6828965131

 K-point ( 0.500, 0.500,-0.500) | band =    25
 Effective mass tensor:
              1.0991073476              0.4195197240             -0.6855075310
              0.4195197240              1.3001223126             -0.8691383954
             -0.6855075310             -0.8691383954              2.1884210400
 Effective mass tensor eigenvalues:
              0.7682234151              0.7682234153              3.0512038698
 Angular average effective mass 1/(<1/m>)=   1.0234894893
 Angular average effective mass for Frohlich model (<m**0.5>)**2=   1.1215330429
 Effective masses along directions: (cart. coord. / red. coord. -> eff. mass)
    1:   1.000000  0.000000  0.000000 /   0.973916 -0.226907  0.000000 ->   0.8616656537
    2:   0.000000  1.000000  0.000000 /   0.000000  1.000000  0.000000 ->   0.9304178268
    3:   0.000000  0.000000  1.000000 /  -0.467061 -0.467061  0.750805 ->   1.4371534533
    4:   0.577350  0.577350  0.577350 /   0.158687 -0.042504  0.986414 ->   0.7692931133
    5:   0.000000  0.707107  0.707107 /  -0.524557  0.117484  0.843230 ->   0.7961182729
    6:   0.707107  0.000000  0.707107 /   0.124372 -0.621962  0.773107 ->   0.8192472825
    7:   0.707107  0.707107  0.000000 /   0.804036  0.594581  0.000000 ->   1.0653156393

 END OF EFFECTIVE MASSES SECTION

 ---- first-order wavefunction calculations are completed ----

 Total localisation tensor (bohr^2) in cartesian coordinates
  WARNING : still subject to testing - especially symmetries.
      direction              matrix element
   alpha     beta       real part   imaginary part
     1        1       1.3637707270    0.0000000000
     1        2      -0.2930834803    0.0000000000
     1        3      -0.7883154076    0.0000000000
     2        1      -0.2930834803    0.0000000000
     2        2       1.2233347983    0.0000000000
     2        3      -0.9994824668    0.0000000000
     3        1      -0.7883154076    0.0000000000
     3        2      -0.9994824668    0.0000000000
     3        3       4.8975576232    0.0000000000

 respfn : d/dk was computed, but no 2DTE, so no DDB output.

== END DATASET(S) ==============================================================

 -outvars: echo values of variables after computation  --------
            acell      1.0000000000E+00  1.0000000000E+00  1.0000000000E+00 Bohr
              amu      6.94100000E+00  4.78800000E+01  3.20660000E+01
             ecut      4.20000000E+01 Hartree
           etotal     -3.1370330645E+01
            fcart      0.0000000000E+00  0.0000000000E+00  0.0000000000E+00
                       0.0000000000E+00  0.0000000000E+00  0.0000000000E+00
                       0.0000000000E+00  0.0000000000E+00  0.0000000000E+00
                       0.0000000000E+00  0.0000000000E+00  0.0000000000E+00
                       0.0000000000E+00  0.0000000000E+00  0.0000000000E+00
                       0.0000000000E+00  0.0000000000E+00  0.0000000000E+00
                       0.0000000000E+00  0.0000000000E+00  0.0000000000E+00
                       0.0000000000E+00  0.0000000000E+00  0.0000000000E+00
                       0.0000000000E+00  0.0000000000E+00  0.0000000000E+00
-          fftalg         512
           irdden           1
           irdwfk           1
           istwfk        1    0
              ixc     -116133
              kpt      0.00000000E+00  0.00000000E+00  5.00000000E-01
                       5.00000000E-01  5.00000000E-01 -5.00000000E-01
           kptopt           0
P           mkmem           2
P          mkqmem           2
P          mk1mem           2
            natom           9
            nband          33
           nbdbuf           4
            ngfft          75      75      75
             nkpt           2
            nstep        2000
             nsym           8
           ntypat           3
              occ      2.000000  2.000000  2.000000  2.000000  2.000000  2.000000
                       2.000000  2.000000  2.000000  2.000000  2.000000  2.000000
                       2.000000  2.000000  2.000000  2.000000  2.000000  2.000000
                       2.000000  2.000000  2.000000  2.000000  2.000000  2.000000
                       0.000000  0.000000  0.000000  0.000000  0.000000  0.000000
                       0.000000  0.000000  0.000000
        optdriver           1
            prtwf          -1
            rfdir           1       1       1
           rfelfd           2
            rprim      9.9190059176E+00  0.0000000000E+00 -7.8809556959E+00
                      -2.3109739289E+00  9.6460394926E+00 -7.8809556959E+00
                       0.0000000000E+00  0.0000000000E+00  1.2668707159E+01
          spgroup         121
           strten      0.0000000000E+00  0.0000000000E+00  0.0000000000E+00
                       0.0000000000E+00  0.0000000000E+00  0.0000000000E+00
           symrel      1  0  0   0  1  0   0  0  1       0  0  1  -1 -1 -1   1  0  0
                       0  1  0   1  0  0  -1 -1 -1      -1 -1 -1   0  0  1   0  1  0
                       0  1  0   1  0  0   0  0  1       0  0  1  -1 -1 -1   0  1  0
                       1  0  0   0  1  0  -1 -1 -1      -1 -1 -1   0  0  1   1  0  0
           tolwfr      1.00000000E-20
            typat      1  1  1  1  2  3  3  3  3
           useylm           1
              wtk        0.50000    0.50000
           xangst      2.6244559317E+00  0.0000000000E+00  1.2667844773E+00
                      -6.1145736641E-01  2.5522321263E+00  1.2667844773E+00
                       1.1431214953E+00  1.4493360576E+00 -2.3682576185E+00
                       2.8828756354E+00  3.6551281951E+00 -5.9725866539E+00
                       0.0000000000E+00  0.0000000000E+00  0.0000000000E+00
                       3.3207015398E+00  5.0869048956E-01 -3.1508373323E+00
                       1.3854905486E+00  1.7566299100E+00  1.0479282961E-01
                      -2.7898018766E-01  3.3478343426E+00 -3.1508373323E+00
                       3.6247823606E+00  4.5957737631E+00 -3.7808156190E+00
            xcart      4.9595029588E+00  0.0000000000E+00  2.3938757314E+00
                      -1.1554869644E+00  4.8230197463E+00  2.3938757314E+00
                       2.1601865627E+00  2.7388482233E+00 -4.4753583110E+00
                       5.4478454260E+00  6.9071912693E+00 -1.1286553081E+01
                       0.0000000000E+00  0.0000000000E+00  0.0000000000E+00
                       6.2752164793E+00  9.6128571167E-01 -5.9542196474E+00
                       2.6181976965E+00  3.3195494468E+00  1.9802974865E-01
                      -5.2719615118E-01  6.3264900458E+00 -5.9542196474E+00
                       6.8498459528E+00  8.6847537809E+00 -7.1447060788E+00
             xred      5.0000000000E-01  0.0000000000E+00  5.0000000000E-01
                       0.0000000000E+00  5.0000000000E-01  5.0000000000E-01
                       2.8393500000E-01  2.8393500000E-01  0.0000000000E+00
                       7.1606500000E-01  7.1606500000E-01 -5.5511151231E-17
                       0.0000000000E+00  0.0000000000E+00  0.0000000000E+00
                       6.5586400000E-01  9.9656000000E-02  5.5511151231E-17
                       3.4413600000E-01  3.4413600000E-01  4.4379200000E-01
                       9.9656000000E-02  6.5586400000E-01  0.0000000000E+00
                       9.0034400000E-01  9.0034400000E-01  5.5620800000E-01
            znucl        3.00000   22.00000   16.00000

- Timing analysis has been suppressed with timopt=0

 Suggested references for the acknowledgment of ABINIT usage.

 Calculation completed.
.Delivered  14 WARNINGs and   9 COMMENTs to log file.