.Version 9.5.1 of ABINIT

 ABINIT is a project of the Universite Catholique de Louvain,
 Corning Inc. and other collaborators, see ~abinit/doc/developers/contributors.txt .
 acknowledgments of the ABINIT effort.

.Starting date : Tue  4 May 2021.
- ( at 19h48 )

- input  file    -> /scratch/users/j/a/jabreu/flow_simple_6atoms/flow/w233/t1/run.abi
- output file    -> /scratch/users/j/a/jabreu/flow_simple_6atoms/flow/w233/t1/run.abo
- root for input  files -> /scratch/users/j/a/jabreu/flow_simple_6atoms/flow/w233/t1/indata/in
- root for output files -> /scratch/users/j/a/jabreu/flow_simple_6atoms/flow/w233/t1/outdata/out

 Symmetries : space group P4/n m m (#129); Bravais tP (primitive tetrag.)
     intxc =       0      iscf =       7    lmnmax =      18     lnmax =       6
     mgfft =      80  mpssoang =       3    mqgrid =    3723     natom =       6
  nloc_mem =       1    nspden =       1   nspinor =       1    nsppol =       1
      nsym =      16    n1xccc =    2501    ntypat =       3    occopt =       1
   xclevel =       2
-    mband =          27        mffmem =           1         mkmem =           2
-   mkqmem =           2        mk1mem =           2           mpw =        9973
      nfft =      184320          nkpt =           2
  Rough estimation (10% accuracy) of disk space for files :

------------- Echo of variables that govern the present computation ------------
-
- outvars: echo of selected default values
-   iomode0 =  0 , fftalg0 =512 , wfoptalg0 =  0
-
- outvars: echo of global parameters not present in the input file
-  max_nthreads =    0
-
 -outvars: echo values of preprocessed input variables --------
            acell      1.0000000000E+00  1.0000000000E+00  1.0000000000E+00 Bohr
              amu      8.54678000E+01  6.94100000E+00  3.20660000E+01
             ecut      3.70000000E+01 Hartree
-          fftalg         512
           irdden           1
           irdwfk           1
           istwfk        1    1
              ixc     -116133
              kpt      0.00000000E+00  0.00000000E+00  5.00000000E-01
                       0.00000000E+00  0.00000000E+00  0.00000000E+00
           kptopt           0
P           mkmem           2
P          mkqmem           2
P          mk1mem           2
            natom           6
            nband          27
           nbdbuf           4
            ngfft          48      48      80
             nkpt           2
            nstep        1000
             nsym          16
           ntypat           3
              occ      2.000000  2.000000  2.000000  2.000000  2.000000  2.000000
                       2.000000  2.000000  2.000000  2.000000  2.000000  2.000000
                       2.000000  2.000000  2.000000  2.000000  2.000000  2.000000
                       0.000000  0.000000  0.000000  0.000000  0.000000  0.000000
                       0.000000  0.000000  0.000000
        optdriver           1
            prtwf          -1
            rfdir           1       1       1
           rfelfd           2
            rprim      8.2474263443E+00  0.0000000000E+00  0.0000000000E+00
                       0.0000000000E+00  8.2474263443E+00  0.0000000000E+00
                       0.0000000000E+00  0.0000000000E+00  1.3595970540E+01
          spgroup         129
           symrel      1  0  0   0  1  0   0  0  1      -1  0  0   0 -1  0   0  0 -1
                      -1  0  0   0  1  0   0  0 -1       1  0  0   0 -1  0   0  0  1
                      -1  0  0   0 -1  0   0  0  1       1  0  0   0  1  0   0  0 -1
                       1  0  0   0 -1  0   0  0 -1      -1  0  0   0  1  0   0  0  1
                       0  1  0   1  0  0   0  0  1       0 -1  0  -1  0  0   0  0 -1
                       0 -1  0   1  0  0   0  0 -1       0  1  0  -1  0  0   0  0  1
                       0 -1  0  -1  0  0   0  0  1       0  1  0   1  0  0   0  0 -1
                       0  1  0  -1  0  0   0  0 -1       0 -1  0   1  0  0   0  0  1
            tnons      0.0000000  0.0000000  0.0000000     0.5000000  0.5000000  0.0000000
                       0.5000000  0.5000000  0.0000000     0.0000000  0.0000000  0.0000000
                       0.0000000  0.0000000  0.0000000     0.5000000  0.5000000  0.0000000
                       0.5000000  0.5000000  0.0000000     0.0000000  0.0000000  0.0000000
                       0.5000000  0.5000000  0.0000000     0.0000000  0.0000000  0.0000000
                       0.0000000  0.0000000  0.0000000     0.5000000  0.5000000  0.0000000
                       0.5000000  0.5000000  0.0000000     0.0000000  0.0000000  0.0000000
                       0.0000000  0.0000000  0.0000000     0.5000000  0.5000000  0.0000000
           tolwfr      1.00000000E-20
            typat      1  1  2  2  3  3
           useylm           1
              wtk        0.50000    0.50000
           xangst      2.1821750255E+00  0.0000000000E+00  4.7493650581E+00
                       0.0000000000E+00  2.1821750255E+00  2.4453126804E+00
                       2.1821750255E+00  2.1821750255E+00  0.0000000000E+00
                       0.0000000000E+00  0.0000000000E+00  0.0000000000E+00
                       2.1821750255E+00  0.0000000000E+00  1.2704793631E+00
                       0.0000000000E+00  2.1821750255E+00  5.9241983754E+00
            xcart      4.1237131722E+00  0.0000000000E+00  8.9749992649E+00
                       0.0000000000E+00  4.1237131722E+00  4.6209712753E+00
                       4.1237131722E+00  4.1237131722E+00  0.0000000000E+00
                       0.0000000000E+00  0.0000000000E+00  0.0000000000E+00
                       4.1237131722E+00  0.0000000000E+00  2.4008580538E+00
                       0.0000000000E+00  4.1237131722E+00  1.1195112486E+01
             xred      5.0000000000E-01  0.0000000000E+00  6.6012200000E-01
                       0.0000000000E+00  5.0000000000E-01  3.3987800000E-01
                       5.0000000000E-01  5.0000000000E-01  0.0000000000E+00
                       0.0000000000E+00  0.0000000000E+00  0.0000000000E+00
                       5.0000000000E-01  0.0000000000E+00  1.7658600000E-01
                       0.0000000000E+00  5.0000000000E-01  8.2341400000E-01
            znucl       37.00000    3.00000   16.00000

 chkinp: Checking input parameters for consistency.

== DATASET  1 ==================================================================
-   mpi_nproc: 1, omp_nthreads: -1 (-1 if OMP is not activated)

--- !DatasetInfo
iteration_state: {dtset: 1, }
dimensions: {natom: 6, nkpt: 2, mband: 27, nsppol: 1, nspinor: 1, nspden: 1, mpw: 9973, }
cutoff_energies: {ecut:  37.0, pawecutdg:  -1.0, }
electrons: {nelect:   3.60000000E+01, charge:   0.00000000E+00, occopt:   1.00000000E+00, tsmear:   1.00000000E-02, }
meta: {optdriver: 1, rfelfd: 2, }
...

 Real(R)+Recip(G) space primitive vectors, cartesian coordinates (Bohr,Bohr^-1):
 R(1)=  8.2474263  0.0000000  0.0000000  G(1)=  0.1212499  0.0000000  0.0000000
 R(2)=  0.0000000  8.2474263  0.0000000  G(2)=  0.0000000  0.1212499  0.0000000
 R(3)=  0.0000000  0.0000000 13.5959705  G(3)=  0.0000000  0.0000000  0.0735512
 Unit cell volume ucvol=  9.2479848E+02 bohr^3
 Angles (23,13,12)=  9.00000000E+01  9.00000000E+01  9.00000000E+01 degrees

 getcut: wavevector=  0.0000  0.0000  0.0000  ngfft=  48  48  80
         ecut(hartree)=     37.000   => boxcut(ratio)=   2.12548

--- Pseudopotential description ------------------------------------------------
- pspini: atom type   1  psp file is /scratch/users/j/a/jabreu/pseudos/PBEsol/Rb.psp8
- pspatm: opening atomic psp file    /scratch/users/j/a/jabreu/pseudos/PBEsol/Rb.psp8
- Rb    ONCVPSP-3.3.0  r_core=   1.71227   1.75361   1.90633
- 37.00000   9.00000    180112                znucl, zion, pspdat
    8 -116133    2    4       600   0.00000   pspcod,pspxc,lmax,lloc,mmax,r2well
    5.99000000000000    7.00000000000000    0.00000000000000   rchrg,fchrg,qchrg
     nproj     2     2     2
     extension_switch     1
  pspatm : epsatm=   34.48400912
         --- l  ekb(1:nproj) -->
             0    8.196957   -0.477221
             1    3.231347   -0.378736
             2   -1.047201    0.996637
 pspatm: atomic psp has been read  and splines computed

- pspini: atom type   2  psp file is /scratch/users/j/a/jabreu/pseudos/PBEsol/Li.psp8
- pspatm: opening atomic psp file    /scratch/users/j/a/jabreu/pseudos/PBEsol/Li.psp8
- Li    ONCVPSP-3.3.0  r_core=   1.40824   1.10935
-  3.00000   3.00000    180112                znucl, zion, pspdat
    8 -116133    1    4       400   0.00000   pspcod,pspxc,lmax,lloc,mmax,r2well
    3.99000000000000    0.00000000000000    0.00000000000000   rchrg,fchrg,qchrg
     nproj     2     2
     extension_switch     1
  pspatm : epsatm=    2.60859637
         --- l  ekb(1:nproj) -->
             0   -4.855856   -1.482423
             1   -2.171544   -0.427615
 pspatm: atomic psp has been read  and splines computed

- pspini: atom type   3  psp file is /scratch/users/j/a/jabreu/pseudos/PBEsol/S.psp8
- pspatm: opening atomic psp file    /scratch/users/j/a/jabreu/pseudos/PBEsol/S.psp8
- S     ONCVPSP-3.3.0  r_core=   1.45376   1.45376   1.61851
- 16.00000   6.00000    180112                znucl, zion, pspdat
    8 -116133    2    4       600   0.00000   pspcod,pspxc,lmax,lloc,mmax,r2well
    5.99000000000000    6.00000000000000    0.00000000000000   rchrg,fchrg,qchrg
     nproj     2     2     2
     extension_switch     1
  pspatm : epsatm=    8.71840985
         --- l  ekb(1:nproj) -->
             0    6.834532    0.579453
             1    3.282851    0.896984
             2   -3.496974   -0.974265
 pspatm: atomic psp has been read  and splines computed

   3.29839310E+03                                ecore*ucvol(ha*bohr**3)

-inwffil : will read wavefunctions from disk file /scratch/users/j/a/jabreu/flow_simple_6atoms/flow/w233/t1/indata/in_WFK

 ==>  initialize data related to q vector <==

 The list of irreducible perturbations for this q vector is:
    1)    idir= 1    ipert=   7
    2)    idir= 2    ipert=   7
    3)    idir= 3    ipert=   7

 Perturbation wavevector (in red.coord.)   0.000000  0.000000  0.000000
 Perturbation : derivative vs k along direction   1

 dfpt_looppert : COMMENT -
  In a d/dk calculation, iscf is set to -3 automatically.
 The set of symmetries contains only one element for this perturbation.
 symkpt : not enough symmetry to change the number of k points.

[...]

 Initialisation of the first-order wave-functions :
  ireadwf=   0

--- !BeginCycle
iteration_state: {dtset: 1, }
solver: {iscf: 7, nstep: 1000, nline: 4, wfoptalg: 0, }
tolerances: {tolwfr: 1.00E-20, }
...

     iter   2DEtotal(Ha)        deltaE(Ha) residm    vres2
-ETOT  1  -24.344473373698     -2.434E+01 4.237E-02 0.000E+00
 ETOT  2  -24.357649476780     -1.318E-02 1.509E-04 0.000E+00
 ETOT  3  -24.357712019872     -6.254E-05 1.105E-06 0.000E+00
 ETOT  4  -24.357712463583     -4.437E-07 1.396E-08 0.000E+00
 ETOT  5  -24.357712467057     -3.474E-09 6.391E-10 0.000E+00
 ETOT  6  -24.357712467085     -2.829E-11 3.860E-11 0.000E+00
 ETOT  7  -24.357712467086     -2.380E-13 2.717E-12 0.000E+00
[...]
 ETOT 13  -24.357712467086     -7.105E-15 5.073E-19 0.000E+00
 ETOT 14  -24.357712467086      1.421E-14 3.482E-20 0.000E+00
 ETOT 15  -24.357712467086     -7.105E-15 9.839E-21 0.000E+00

 At SCF step   15   max residual=  9.84E-21 < tolwfr=  1.00E-20 =>converged.

 ----iterations are completed or convergence reached----

 dfpt_looppert: DFPT cycle converged with prtwf=-1. Will skip output of the 1st-order WFK file.
 dfpt_looppert : ek2=    4.1788361386E+01
          f-sum rule ratio=    1.1729295359E+00
 prteigrs : about to open file /scratch/users/j/a/jabreu/flow_simple_6atoms/flow/w233/t1/tmpdata/tmp_1WF1_EIG
 Expectation of eigenvalue derivatives (hartree) for nkpt=   2  k points:
  (in case of degenerate eigenvalues, averaged derivative)
 kpt#   1, nband= 27, wtk=  0.50000, kpt=  0.0000  0.0000  0.5000 (reduced coord)
   0.00000    0.00000   -0.00000   -0.00000   -0.00000   -0.00000   -0.00000   -0.00000
  -0.00000   -0.00000   -0.00000   -0.00000   -0.00000   -0.00000   -0.00000   -0.00000
   0.00000    0.00000   -0.00000   -0.00000    0.00000    0.00000    0.00000   -0.00000
  -0.00000   -0.04933    0.00000
 prteigrs : prtvol=0 or 1, do not print more k-points.

 Eight components of 2nd-order total energy (hartree) are
 1,2,3: 0th-order hamiltonian combined with 1st-order wavefunctions
     kin0=   2.20578417E+01 eigvalue=   2.46045901E+00  local=  -1.08485837E+01
 4,5,6: 1st-order hamiltonian combined with 1st and 0th-order wfs
     kin1=  -4.90148033E+01  Hartree=   0.00000000E+00     xc=   0.00000000E+00
 7,8,9: eventually, occupation + non-local contributions
    edocc=   1.11708338E+01     enl0=  -4.82838404E-01   enl1=   2.99378393E-01
 1-9 gives the relaxation energy (to be shifted if some occ is /=2.0)
   erelax=  -2.43577125E+01
  No Ewald or frozen-wf contrib.: the relaxation energy is the total one
 2DEtotal=   -0.2435771247E+02 Ha. Also 2DEtotal=   -0.662807063893E+03 eV
    (  non-var. 2DEtotal :   -2.4357712467E+01 Ha)

 Perturbation wavevector (in red.coord.)   0.000000  0.000000  0.000000
 Perturbation : derivative vs k along direction   2
 The set of symmetries contains only one element for this perturbation.
 symkpt : not enough symmetry to change the number of k points.

[...]

 Perturbation wavevector (in red.coord.)   0.000000  0.000000  0.000000
 Perturbation : derivative vs k along direction   3
 The set of symmetries contains only one element for this perturbation.
 symkpt : not enough symmetry to change the number of k points.

-inwffil : will read wavefunctions from disk file /scratch/users/j/a/jabreu/flow_simple_6atoms/flow/w233/t1/indata/in_WFK

 Initialisation of the first-order wave-functions :
  ireadwf=   0

--- !BeginCycle
iteration_state: {dtset: 1, }
solver: {iscf: 7, nstep: 1000, nline: 4, wfoptalg: 0, }
tolerances: {tolwfr: 1.00E-20, }
...

     iter   2DEtotal(Ha)        deltaE(Ha) residm    vres2
-ETOT  1  -7.8320151016453     -7.832E+00 6.092E-02 0.000E+00
 ETOT  2  -7.8364172197086     -4.402E-03 5.532E-03 0.000E+00
 ETOT  3  -7.8364360230709     -1.880E-05 1.244E-04 0.000E+00
 ETOT  4  -7.8364361550574     -1.320E-07 1.226E-05 0.000E+00
 ETOT  5  -7.8364361560707     -1.013E-09 3.044E-07 0.000E+00
 ETOT  6  -7.8364361560786     -7.981E-12 3.986E-08 0.000E+00
 ETOT  7  -7.8364361560787     -5.684E-14 1.178E-09 0.000E+00
 ETOT  8  -7.8364361560787      5.329E-15 1.361E-10 0.000E+00
 ETOT  9  -7.8364361560787     -2.665E-15 4.048E-12 0.000E+00
 ETOT 10  -7.8364361560787      1.776E-15 4.810E-13 0.000E+00
 ETOT 11  -7.8364361560787     -8.882E-16 1.416E-14 0.000E+00
 ETOT 12  -7.8364361560787      0.000E+00 1.727E-15 0.000E+00
 ETOT 13  -7.8364361560787      8.882E-16 5.022E-17 0.000E+00
 ETOT 14  -7.8364361560787     -8.882E-16 6.257E-18 0.000E+00
 ETOT 15  -7.8364361560787      1.776E-15 1.796E-19 0.000E+00
 ETOT 16  -7.8364361560787     -3.553E-15 2.279E-20 0.000E+00
 ETOT 17  -7.8364361560787      8.882E-16 9.578E-21 0.000E+00

 At SCF step   17   max residual=  9.58E-21 < tolwfr=  1.00E-20 =>converged.

 ----iterations are completed or convergence reached----

 dfpt_looppert: DFPT cycle converged with prtwf=-1. Will skip output of the 1st-order WFK file.
 dfpt_looppert : ek2=    1.5377006693E+01
          f-sum rule ratio=    1.0203123121E+00
 prteigrs : about to open file /scratch/users/j/a/jabreu/flow_simple_6atoms/flow/w233/t1/tmpdata/tmp_1WF1_EIG
 Expectation of eigenvalue derivatives (hartree) for nkpt=   2  k points:
  (in case of degenerate eigenvalues, averaged derivative)
 kpt#   1, nband= 27, wtk=  0.50000, kpt=  0.0000  0.0000  0.5000 (reduced coord)
  -0.00000    0.00000    0.00000    0.00000   -0.00000   -0.00000    0.00000    0.00000
   0.00000   -0.00000   -0.00000   -0.00000   -0.00000    0.00000    0.00000    0.00000
   0.00000    0.00000    0.00000   -0.00000   -0.00000   -0.00000   -0.00000   -0.00000
  -0.00000   -0.00019   -0.00000
 prteigrs : prtvol=0 or 1, do not print more k-points.

 Eight components of 2nd-order total energy (hartree) are
 1,2,3: 0th-order hamiltonian combined with 1st-order wavefunctions
     kin0=   8.68280291E+00 eigvalue=   1.05228855E+00  local=  -4.42563772E+00
 4,5,6: 1st-order hamiltonian combined with 1st and 0th-order wfs
     kin1=  -1.56893493E+01  Hartree=   0.00000000E+00     xc=   0.00000000E+00
 7,8,9: eventually, occupation + non-local contributions
    edocc=   2.60902523E+00     enl0=  -8.20428212E-02   enl1=   1.64769391E-02
 1-9 gives the relaxation energy (to be shifted if some occ is /=2.0)
   erelax=  -7.83643616E+00
  No Ewald or frozen-wf contrib.: the relaxation energy is the total one
 2DEtotal=   -0.7836436156E+01 Ha. Also 2DEtotal=   -0.213240272337E+03 eV
    (  non-var. 2DEtotal :   -7.8364361560E+00 Ha)

 CALCULATION OF EFFECTIVE MASSES
 NOTE : Additional infos (eff. mass eigenvalues, eigenvectors and, if degenerate, average mass) are available in stdout.

 COMMENTS:
 - At k-point ( 0.000, 0.000, 0.500), bands    17 through    18
   are DEGENERATE (effective mass tensor is therefore not defined).
   See Section IIIB Eqs. (67)-(70) and Appendix E of PRB 93 205147 (2016).
 - Angular average effective mass for Frohlich model is to be averaged over degenerate bands. See later.
 - Associated theta integrals calculated with ntheta=   1000 points.

 K-point ( 0.000, 0.000, 0.500) | band =    17
 Transport equivalent effective mass tensor:
             -0.5075974776             -0.0003759923              0.0000013387
             -0.0003759923             -0.5078144297              0.0000105532
              0.0000013387              0.0000105532             -4.5575335899
 Transport equivalent effective mass tensor eigenvalues:
             -4.5575335899             -0.5080972812             -0.5073146261
 Angular average effective mass 1/(<1/m>)=  -0.7134473182
 Angular average effective mass for Frohlich model (<m**0.5>)**2=  -0.8560199236
 Effective masses along directions: (cart. coord. / red. coord. -> eff. mass)
    1:   1.000000  0.000000  0.000000 /   1.000000  0.000000  0.000000 ->  -0.4730218157
    2:   0.000000  1.000000  0.000000 /   0.000000  1.000000  0.000000 ->  -0.4730217281
    3:   0.000000  0.000000  1.000000 /   0.000000  0.000000  1.000000 ->  -4.4664984197
    4:   0.577350  0.577350  0.577350 /   0.460405  0.460405  0.758983 ->  -0.7629524736
    5:   0.000000  0.707107  0.707107 /   0.000000  0.518644  0.854990 ->  -0.8557707297
    6:   0.707107  0.000000  0.707107 /   0.518644  0.000000  0.854990 ->  -0.8556292363
    7:   0.707107  0.707107  0.000000 /   0.707107  0.707107  0.000000 ->  -0.5391523553

 K-point ( 0.000, 0.000, 0.500) | band =    18
 Transport equivalent effective mass tensor:
             -1.6236357445              0.0002017125              0.0002514347
              0.0002017125             -1.6221188481             -0.0001393935
              0.0002514347             -0.0001393935             -5.1681553222
 Transport equivalent effective mass tensor eigenvalues:
             -5.1681553456             -1.6236620892             -1.6220924800
 Angular average effective mass 1/(<1/m>)=  -1.9092599126
 Angular average effective mass for Frohlich model (<m**0.5>)**2=  -2.0524661494
 Effective masses along directions: (cart. coord. / red. coord. -> eff. mass)
    1:   1.000000  0.000000  0.000000 /   1.000000  0.000000  0.000000 ->  -1.8153214651
    2:   0.000000  1.000000  0.000000 /   0.000000  1.000000  0.000000 ->  -1.8153214550
    3:   0.000000  0.000000  1.000000 /   0.000000  0.000000  1.000000 ->  -4.4950372038
    4:   0.577350  0.577350  0.577350 /   0.460405  0.460405  0.758983 ->  -1.6267479131
    5:   0.000000  0.707107  0.707107 /   0.000000  0.518644  0.854990 ->  -2.5833814779
    6:   0.707107  0.000000  0.707107 /   0.518644  0.000000  0.854990 ->  -2.5843005620
    7:   0.707107  0.707107  0.000000 /   0.707107  0.707107  0.000000 ->  -1.2343065514

 Angular average effective mass for Frohlich model, averaged over degenerate bands.
 Value of     (<<m**0.5>>)**2 =     1.389872E+00
 Absolute Value of <<m**0.5>> =     1.178928E+00

 K-point ( 0.000, 0.000, 0.000) | band =    19
 Effective mass tensor:
              0.3355831195             -0.0000000000             -0.0000000000
             -0.0000000000              0.3355831195              0.0000000000
             -0.0000000000              0.0000000000              0.2740467649
 Effective mass tensor eigenvalues:
              0.2740467649              0.3355831195              0.3355831195
 Angular average effective mass 1/(<1/m>)=   0.3122142075
 Angular average effective mass for Frohlich model (<m**0.5>)**2=   0.3130982543
 Effective masses along directions: (cart. coord. / red. coord. -> eff. mass)
    1:   1.000000  0.000000  0.000000 /   1.000000  0.000000  0.000000 ->   0.3355831195
    2:   0.000000  1.000000  0.000000 /   0.000000  1.000000  0.000000 ->   0.3355831195
    3:   0.000000  0.000000  1.000000 /   0.000000  0.000000  1.000000 ->   0.2740467649
    4:   0.577350  0.577350  0.577350 /   0.460405  0.460405  0.758983 ->   0.3122142075
    5:   0.000000  0.707107  0.707107 /   0.000000  0.518644  0.854990 ->   0.3017091866
    6:   0.707107  0.000000  0.707107 /   0.518644  0.000000  0.854990 ->   0.3017091866
    7:   0.707107  0.707107  0.000000 /   0.707107  0.707107  0.000000 ->   0.3355831195

 END OF EFFECTIVE MASSES SECTION

 ---- first-order wavefunction calculations are completed ----

 Total localisation tensor (bohr^2) in cartesian coordinates
  WARNING : still subject to testing - especially symmetries.
      direction              matrix element
   alpha     beta       real part   imaginary part
     1        1       1.5868810797    0.0000000000
     1        2       0.0000000000    0.0000000000
     1        3       0.0000000000    0.0000000000
     2        1       0.0000000000    0.0000000000
     2        2       1.5868587043    0.0000000000
     2        3       0.0000000000    0.0000000000
     3        1       0.0000000000    0.0000000000
     3        2       0.0000000000    0.0000000000
     3        3       1.1775544672    0.0000000000

 respfn : d/dk was computed, but no 2DTE, so no DDB output.

== END DATASET(S) ==============================================================

 -outvars: echo values of variables after computation  --------
            acell      1.0000000000E+00  1.0000000000E+00  1.0000000000E+00 Bohr
              amu      8.54678000E+01  6.94100000E+00  3.20660000E+01
             ecut      3.70000000E+01 Hartree
           etotal     -7.8364361561E+00
            fcart      0.0000000000E+00  0.0000000000E+00  0.0000000000E+00
                       0.0000000000E+00  0.0000000000E+00  0.0000000000E+00
                       0.0000000000E+00  0.0000000000E+00  0.0000000000E+00
                       0.0000000000E+00  0.0000000000E+00  0.0000000000E+00
                       0.0000000000E+00  0.0000000000E+00  0.0000000000E+00
                       0.0000000000E+00  0.0000000000E+00  0.0000000000E+00
-          fftalg         512
           irdden           1
           irdwfk           1
           istwfk        1    1
              ixc     -116133
              kpt      0.00000000E+00  0.00000000E+00  5.00000000E-01
                       0.00000000E+00  0.00000000E+00  0.00000000E+00
           kptopt           0
P           mkmem           2
P          mkqmem           2
P          mk1mem           2
            natom           6
            nband          27
           nbdbuf           4
            ngfft          48      48      80
             nkpt           2
            nstep        1000
             nsym          16
           ntypat           3
              occ      2.000000  2.000000  2.000000  2.000000  2.000000  2.000000
                       2.000000  2.000000  2.000000  2.000000  2.000000  2.000000
                       2.000000  2.000000  2.000000  2.000000  2.000000  2.000000
                       0.000000  0.000000  0.000000  0.000000  0.000000  0.000000
                       0.000000  0.000000  0.000000
        optdriver           1
            prtwf          -1
            rfdir           1       1       1
           rfelfd           2
            rprim      8.2474263443E+00  0.0000000000E+00  0.0000000000E+00
                       0.0000000000E+00  8.2474263443E+00  0.0000000000E+00
                       0.0000000000E+00  0.0000000000E+00  1.3595970540E+01
          spgroup         129
           strten      0.0000000000E+00  0.0000000000E+00  0.0000000000E+00
                       0.0000000000E+00  0.0000000000E+00  0.0000000000E+00
           symrel      1  0  0   0  1  0   0  0  1      -1  0  0   0 -1  0   0  0 -1
                      -1  0  0   0  1  0   0  0 -1       1  0  0   0 -1  0   0  0  1
                      -1  0  0   0 -1  0   0  0  1       1  0  0   0  1  0   0  0 -1
                       1  0  0   0 -1  0   0  0 -1      -1  0  0   0  1  0   0  0  1
                       0  1  0   1  0  0   0  0  1       0 -1  0  -1  0  0   0  0 -1
                       0 -1  0   1  0  0   0  0 -1       0  1  0  -1  0  0   0  0  1
                       0 -1  0  -1  0  0   0  0  1       0  1  0   1  0  0   0  0 -1
                       0  1  0  -1  0  0   0  0 -1       0 -1  0   1  0  0   0  0  1
            tnons      0.0000000  0.0000000  0.0000000     0.5000000  0.5000000  0.0000000
                       0.5000000  0.5000000  0.0000000     0.0000000  0.0000000  0.0000000
                       0.0000000  0.0000000  0.0000000     0.5000000  0.5000000  0.0000000
                       0.5000000  0.5000000  0.0000000     0.0000000  0.0000000  0.0000000
                       0.5000000  0.5000000  0.0000000     0.0000000  0.0000000  0.0000000
                       0.0000000  0.0000000  0.0000000     0.5000000  0.5000000  0.0000000
                       0.5000000  0.5000000  0.0000000     0.0000000  0.0000000  0.0000000
                       0.0000000  0.0000000  0.0000000     0.5000000  0.5000000  0.0000000
           tolwfr      1.00000000E-20
            typat      1  1  2  2  3  3
           useylm           1
              wtk        0.50000    0.50000
           xangst      2.1821750255E+00  0.0000000000E+00  4.7493650581E+00
                       0.0000000000E+00  2.1821750255E+00  2.4453126804E+00
                       2.1821750255E+00  2.1821750255E+00  0.0000000000E+00
                       0.0000000000E+00  0.0000000000E+00  0.0000000000E+00
                       2.1821750255E+00  0.0000000000E+00  1.2704793631E+00
                       0.0000000000E+00  2.1821750255E+00  5.9241983754E+00
            xcart      4.1237131722E+00  0.0000000000E+00  8.9749992649E+00
                       0.0000000000E+00  4.1237131722E+00  4.6209712753E+00
                       4.1237131722E+00  4.1237131722E+00  0.0000000000E+00
                       0.0000000000E+00  0.0000000000E+00  0.0000000000E+00
                       4.1237131722E+00  0.0000000000E+00  2.4008580538E+00
                       0.0000000000E+00  4.1237131722E+00  1.1195112486E+01
             xred      5.0000000000E-01  0.0000000000E+00  6.6012200000E-01
                       0.0000000000E+00  5.0000000000E-01  3.3987800000E-01
                       5.0000000000E-01  5.0000000000E-01  0.0000000000E+00
                       0.0000000000E+00  0.0000000000E+00  0.0000000000E+00
                       5.0000000000E-01  0.0000000000E+00  1.7658600000E-01
                       0.0000000000E+00  5.0000000000E-01  8.2341400000E-01
            znucl       37.00000    3.00000   16.00000

- Timing analysis has been suppressed with timopt=0

 Suggested references for the acknowledgment of ABINIT usage.

 Calculation completed.
.Delivered  14 WARNINGs and   9 COMMENTs to log file.