.Version 9.5.2 of ABINIT

 ABINIT is a project of the Universite Catholique de Louvain,
 Corning Inc. and other collaborators, see ~abinit/doc/developers/contributors.txt .
 acknowledgments of the ABINIT effort.

.Starting date : Mon 24 May 2021.
- ( at 11h06 )

- input  file    -> /scratch/users/j/a/jabreu/flow_simple_10atoms/flow/w288/t1/run.abi
- output file    -> /scratch/users/j/a/jabreu/flow_simple_10atoms/flow/w288/t1/run.abo
- root for input  files -> /scratch/users/j/a/jabreu/flow_simple_10atoms/flow/w288/t1/indata/in
- root for output files -> /scratch/users/j/a/jabreu/flow_simple_10atoms/flow/w288/t1/outdata/out

 Symmetries : space group Ib a m (# 72); Bravais oI (body-center ortho.)
     intxc =       0      iscf =       7    lmnmax =      18     lnmax =       6
     mgfft =      80  mpssoang =       3    mqgrid =    3114     natom =      10
  nloc_mem =       1    nspden =       1   nspinor =       1    nsppol =       1
      nsym =       8    n1xccc =    2501    ntypat =       3    occopt =       1
   xclevel =       2
-    mband =          59        mffmem =           1         mkmem =           1
-   mkqmem =           1        mk1mem =           1           mpw =       19435
      nfft =      512000          nkpt =           1
  Rough estimation (10% accuracy) of disk space for files :

------------- Echo of variables that govern the present computation ------------
-
- outvars: echo of selected default values
-   iomode0 =  0 , fftalg0 =512 , wfoptalg0 =  0
-
- outvars: echo of global parameters not present in the input file
-  max_nthreads =    0
-
 -outvars: echo values of preprocessed input variables --------
            acell      1.0000000000E+00  1.0000000000E+00  1.0000000000E+00 Bohr
              amu      2.29897680E+01  6.53900000E+01  3.20660000E+01
             ecut      4.40000000E+01 Hartree
-          fftalg         512
           irdden           1
           irdwfk           1
           istwfk        1
              ixc     -116133
           kptopt           0
P           mkmem           1
P          mkqmem           1
P          mk1mem           1
            natom          10
            nband          59
           nbdbuf           4
            ngfft          80      80      80
             nkpt           1
            nstep        2000
             nsym           8
           ntypat           3
              occ      2.000000  2.000000  2.000000  2.000000  2.000000  2.000000
                       2.000000  2.000000  2.000000  2.000000  2.000000  2.000000
                       2.000000  2.000000  2.000000  2.000000  2.000000  2.000000
                       2.000000  2.000000  2.000000  2.000000  2.000000  2.000000
                       2.000000  2.000000  2.000000  2.000000  2.000000  2.000000
                       2.000000  2.000000  2.000000  2.000000  2.000000  2.000000
                       2.000000  2.000000  2.000000  2.000000  2.000000  2.000000
                       2.000000  2.000000  2.000000  2.000000  2.000000  2.000000
                       2.000000  2.000000  0.000000  0.000000  0.000000  0.000000
                       0.000000  0.000000  0.000000  0.000000  0.000000
        optdriver           1
            prtwf          -1
            rfdir           1       1       1
           rfelfd           2
            rprim      1.0717391286E+01  0.0000000000E+00 -7.8747500343E+00
                      -2.3244436810E+00  9.7805172124E+00 -8.7070436262E+00
                       0.0000000000E+00  0.0000000000E+00  1.3299404651E+01
          spgroup          72
           symrel      1  0  0   0  1  0   0  0  1      -1  0  0   0 -1  0   0  0 -1
                       0  0  1  -1 -1 -1   1  0  0       0  0 -1   1  1  1  -1  0  0
                      -1 -1 -1   0  0  1   0  1  0       1  1  1   0  0 -1   0 -1  0
                       0  1  0   1  0  0  -1 -1 -1       0 -1  0  -1  0  0   1  1  1
            tnons      0.0000000  0.0000000  0.0000000     0.0000000  0.0000000  0.0000000
                       0.0000000  0.5000000  0.5000000    -0.0000000  0.5000000  0.5000000
                       0.0000000  0.0000000 -0.0000000     0.0000000  0.0000000  0.0000000
                      -0.0000000  0.5000000  0.5000000     0.0000000  0.5000000  0.5000000
           tolwfr      1.00000000E-20
            typat      1  1  1  1  2  2  3  3  3  3
           useylm           1
           xangst      7.1924660281E-01  1.8524719884E+00  3.4565151228E+00
                       3.7221099826E+00  3.3231548087E+00 -5.1934805763E+00
                       2.5963038133E+00  7.3534141016E-01 -2.5195260644E-01
                       1.8450527721E+00  4.4402853869E+00 -1.4850128470E+00
                      -3.0751065466E-01  1.2939066993E+00  6.0754319701E-01
                      -9.2253196398E-01  3.8817200978E+00  1.8226295910E+00
                      -5.1922118652E-01  4.5977163089E+00 -3.0169868064E+00
                       4.9605777719E+00  5.7791048816E-01  1.2800213530E+00
                       1.0876438754E+00  3.1657238867E+00  8.4610099843E-01
                       3.3537127100E+00  2.0099029104E+00 -2.5830664519E+00
            xcart      1.3591791013E+00  3.5006647268E+00  6.5318669564E+00
                       7.0337685036E+00  6.2798524856E+00 -9.8142559657E+00
                       4.9063031650E+00  1.3895938794E+00 -4.7612142464E-01
                       3.4866444399E+00  8.3909233330E+00 -2.8062675847E+00
                      -5.8111092025E-01  2.4451293031E+00  1.1480902562E+00
                      -1.7433327607E+00  7.3353879093E+00  3.4442707687E+00
                      -9.8118584492E-01  8.6884246605E+00 -5.7012788106E+00
                       9.3741334498E+00  1.0920925519E+00  2.4188898013E+00
                       2.0553490547E+00  5.9823511581E+00  1.5988991678E+00
                       6.3375985502E+00  3.7981660543E+00 -4.8812881771E+00
             xred      2.0444800000E-01  3.5792225000E-01  8.4652575000E-01
                       7.9555200000E-01  6.4207775000E-01  1.5347425000E-01
                       4.8860350000E-01  1.4207775000E-01  3.4652575000E-01
                       5.1139650000E-01  8.5792225000E-01  6.5347425000E-01
                       3.4694469520E-18  2.5000000000E-01  2.5000000000E-01
                       3.4694469520E-18  7.5000000000E-01  7.5000000000E-01
                       1.0111700000E-01  8.8834000000E-01  2.1277700000E-01
                       8.9888300000E-01  1.1166000000E-01  7.8722300000E-01
                       3.2443700000E-01  6.1166000000E-01  7.1277700000E-01
                       6.7556300000E-01  3.8834000000E-01  2.8722300000E-01
            znucl       11.00000   30.00000   16.00000

 chkinp: Checking input parameters for consistency.

== DATASET  1 ==================================================================
-   mpi_nproc: 1, omp_nthreads: -1 (-1 if OMP is not activated)

--- !DatasetInfo
iteration_state: {dtset: 1, }
dimensions: {natom: 10, nkpt: 1, mband: 59, nsppol: 1, nspinor: 1, nspden: 1, mpw: 19435, }
cutoff_energies: {ecut:  44.0, pawecutdg:  -1.0, }
electrons: {nelect:   1.00000000E+02, charge:   0.00000000E+00, occopt:   1.00000000E+00, tsmear:   1.00000000E-02, }
meta: {optdriver: 1, rfelfd: 2, }
...

 Real(R)+Recip(G) space primitive vectors, cartesian coordinates (Bohr,Bohr^-1):
 R(1)= 10.7173913  0.0000000 -7.8747500  G(1)=  0.0933063  0.0221752  0.0000000
 R(2)= -2.3244437  9.7805172 -8.7070436  G(2)=  0.0000000  0.1022441  0.0000000
 R(3)=  0.0000000  0.0000000 13.2994047  G(3)=  0.0552479  0.0800689  0.0751913
 Unit cell volume ucvol=  1.3940653E+03 bohr^3
 Angles (23,13,12)=  1.30896470E+02  1.26307095E+02  7.57113404E+01 degrees

 getcut: wavevector=  0.0000  0.0000  0.0000  ngfft=  80  80  80
         ecut(hartree)=     44.000   => boxcut(ratio)=   2.01461

--- Pseudopotential description ------------------------------------------------
- pspini: atom type   1  psp file is /scratch/users/j/a/jabreu/pseudos/PBEsol/Na.psp8
- pspatm: opening atomic psp file    /scratch/users/j/a/jabreu/pseudos/PBEsol/Na.psp8
- Na    ONCVPSP-3.3.0  r_core=   1.20708   1.55069
- 11.00000   9.00000    180112                znucl, zion, pspdat
    8 -116133    1    4       400   0.00000   pspcod,pspxc,lmax,lloc,mmax,r2well
    3.99000000000000    0.00000000000000    0.00000000000000   rchrg,fchrg,qchrg
     nproj     2     2
     extension_switch     1
  pspatm : epsatm=    9.32878306
         --- l  ekb(1:nproj) -->
             0    2.657905   -0.678300
             1   -6.761319   -2.404728
 pspatm: atomic psp has been read  and splines computed

- pspini: atom type   2  psp file is /scratch/users/j/a/jabreu/pseudos/PBEsol/Zn.psp8
- pspatm: opening atomic psp file    /scratch/users/j/a/jabreu/pseudos/PBEsol/Zn.psp8
- Zn    ONCVPSP-3.3.0  r_core=   1.35823   1.66358   1.85211
- 30.00000  20.00000    180112                znucl, zion, pspdat
    8 -116133    2    4       600   0.00000   pspcod,pspxc,lmax,lloc,mmax,r2well
    5.99000000000000    2.50000000000000    0.00000000000000   rchrg,fchrg,qchrg
     nproj     2     2     2
     extension_switch     1
  pspatm : epsatm=   26.57343589
         --- l  ekb(1:nproj) -->
             0    2.830835   -1.519107
             1   -4.626739   -1.324150
             2   -6.948510   -2.555500
 pspatm: atomic psp has been read  and splines computed

- pspini: atom type   3  psp file is /scratch/users/j/a/jabreu/pseudos/PBEsol/S.psp8
- pspatm: opening atomic psp file    /scratch/users/j/a/jabreu/pseudos/PBEsol/S.psp8
- S     ONCVPSP-3.3.0  r_core=   1.45376   1.45376   1.61851
- 16.00000   6.00000    180112                znucl, zion, pspdat
    8 -116133    2    4       600   0.00000   pspcod,pspxc,lmax,lloc,mmax,r2well
    5.99000000000000    6.00000000000000    0.00000000000000   rchrg,fchrg,qchrg
     nproj     2     2     2
     extension_switch     1
  pspatm : epsatm=    8.71840985
         --- l  ekb(1:nproj) -->
             0    6.834532    0.579453
             1    3.282851    0.896984
             2   -3.496974   -0.974265
 pspatm: atomic psp has been read  and splines computed

   1.25335643E+04                                ecore*ucvol(ha*bohr**3)

 ==>  initialize data related to q vector <==

 The list of irreducible perturbations for this q vector is:
    1)    idir= 1    ipert=  11
    2)    idir= 2    ipert=  11
    3)    idir= 3    ipert=  11

 Perturbation wavevector (in red.coord.)   0.000000  0.000000  0.000000
 Perturbation : derivative vs k along direction   1

 dfpt_looppert : COMMENT -
  In a d/dk calculation, iscf is set to -3 automatically.
 The set of symmetries contains only one element for this perturbation.
 symkpt : not enough symmetry to change the number of k points.

 Initialisation of the first-order wave-functions :
  ireadwf=   0

--- !BeginCycle
iteration_state: {dtset: 1, }
solver: {iscf: 7, nstep: 2000, nline: 4, wfoptalg: 0, }
tolerances: {tolwfr: 1.00E-20, }
...

     iter   2DEtotal(Ha)        deltaE(Ha) residm    vres2
-ETOT  1  -43.586545979404     -4.359E+01 1.130E-01 0.000E+00
 ETOT  2  -43.629257501670     -4.271E-02 3.605E-02 0.000E+00
[...]
  (in case of degenerate eigenvalues, averaged derivative)
 kpt#   1, nband= 59, wtk=  1.00000, kpt=  0.0000  0.0000  0.0000 (reduced coord)
  -0.00000    0.00000   -0.00000   -0.00000   -0.00000    0.00000    0.00000    0.00000
   0.00000    0.00000   -0.00000   -0.00000   -0.00000   -0.00000   -0.00000   -0.00000
   0.00000   -0.00000   -0.00000    0.00000    0.00000    0.00000   -0.00000    0.00000
  -0.00000    0.00000    0.00000   -0.00000   -0.00000   -0.00000   -0.00000   -0.00000
  -0.00000    0.00000   -0.00000   -0.00000    0.00000   -0.00000    0.00000   -0.00000
  -0.00000   -0.00000    0.00000   -0.00000   -0.00000    0.00000   -0.00000    0.00000
  -0.00000   -0.00000    0.00000   -0.00000   -0.00000   -0.00000   -0.00000   -0.00002
   0.00006   -0.00023   -0.00012

 Eight components of 2nd-order total energy (hartree) are
 1,2,3: 0th-order hamiltonian combined with 1st-order wavefunctions
     kin0=   5.50176554E+01 eigvalue=   3.84824003E+00  local=  -2.15627788E+01
 4,5,6: 1st-order hamiltonian combined with 1st and 0th-order wfs
     kin1=  -7.61936904E+01  Hartree=   0.00000000E+00     xc=   0.00000000E+00
 7,8,9: eventually, occupation + non-local contributions
    edocc=   7.82710745E+00     enl0=  -1.50064592E+00   enl1=  -1.10654659E+01
 1-9 gives the relaxation energy (to be shifted if some occ is /=2.0)
   erelax=  -4.36295782E+01
  No Ewald or frozen-wf contrib.: the relaxation energy is the total one
 2DEtotal=   -0.4362957818E+02 Ha. Also 2DEtotal=   -0.118722119950E+04 eV
    (  non-var. 2DEtotal :   -4.3629578179E+01 Ha)

 Perturbation wavevector (in red.coord.)   0.000000  0.000000  0.000000
 Perturbation : derivative vs k along direction   2
 The set of symmetries contains only one element for this perturbation.
 symkpt : not enough symmetry to change the number of k points.

[...]

 Perturbation wavevector (in red.coord.)   0.000000  0.000000  0.000000
 Perturbation : derivative vs k along direction   3
 The set of symmetries contains only one element for this perturbation.
 symkpt : not enough symmetry to change the number of k points.

 Initialisation of the first-order wave-functions :
  ireadwf=   0

--- !BeginCycle
iteration_state: {dtset: 1, }
solver: {iscf: 7, nstep: 2000, nline: 4, wfoptalg: 0, }
tolerances: {tolwfr: 1.00E-20, }
...

     iter   2DEtotal(Ha)        deltaE(Ha) residm    vres2
-ETOT  1  -71.807644295627     -7.181E+01 8.374E-02 0.000E+00
 ETOT  2  -71.881253191472     -7.361E-02 3.357E-02 0.000E+00
 ETOT  3  -71.881941058290     -6.879E-04 5.651E-03 0.000E+00
 ETOT  4  -71.881954952651     -1.389E-05 2.278E-03 0.000E+00
 ETOT  5  -71.881955288402     -3.358E-07 4.702E-04 0.000E+00
 ETOT  6  -71.881955297206     -8.805E-09 1.887E-04 0.000E+00
 ETOT  7  -71.881955297450     -2.436E-10 4.511E-05 0.000E+00
 ETOT  8  -71.881955297457     -7.006E-12 1.712E-05 0.000E+00
 ETOT  9  -71.881955297457     -1.847E-13 4.348E-06 0.000E+00
 ETOT 10  -71.881955297457     -8.527E-14 1.592E-06 0.000E+00
 ETOT 11  -71.881955297457      2.842E-14 4.157E-07 0.000E+00
 ETOT 12  -71.881955297457     -2.842E-14 1.500E-07 0.000E+00
 ETOT 13  -71.881955297457      0.000E+00 3.991E-08 0.000E+00
 ETOT 14  -71.881955297457      0.000E+00 1.432E-08 0.000E+00
 ETOT 15  -71.881955297457      0.000E+00 3.876E-09 0.000E+00
 ETOT 16  -71.881955297457     -1.421E-14 1.384E-09 0.000E+00
 ETOT 17  -71.881955297457      1.421E-14 3.812E-10 0.000E+00
 ETOT 18  -71.881955297457      0.000E+00 1.354E-10 0.000E+00
 ETOT 19  -71.881955297457      0.000E+00 3.795E-11 0.000E+00
 ETOT 20  -71.881955297457      0.000E+00 1.338E-11 0.000E+00
 ETOT 21  -71.881955297457      0.000E+00 3.812E-12 0.000E+00
 ETOT 22  -71.881955297457      0.000E+00 1.333E-12 0.000E+00
 ETOT 23  -71.881955297457      0.000E+00 3.857E-13 0.000E+00
 ETOT 24  -71.881955297457      0.000E+00 1.336E-13 0.000E+00
 ETOT 25  -71.881955297457     -1.421E-14 3.922E-14 0.000E+00
 ETOT 26  -71.881955297457      1.421E-14 1.347E-14 0.000E+00
 ETOT 27  -71.881955297457      0.000E+00 4.002E-15 0.000E+00
 ETOT 28  -71.881955297457     -1.421E-14 1.364E-15 0.000E+00
 ETOT 29  -71.881955297457      0.000E+00 4.095E-16 0.000E+00
 ETOT 30  -71.881955297457      1.421E-14 1.385E-16 0.000E+00
 ETOT 31  -71.881955297457      0.000E+00 4.198E-17 0.000E+00
 ETOT 32  -71.881955297457      0.000E+00 1.411E-17 0.000E+00
 ETOT 33  -71.881955297457      1.421E-14 4.309E-18 0.000E+00
 ETOT 34  -71.881955297457      0.000E+00 1.440E-18 0.000E+00
 ETOT 35  -71.881955297457     -1.421E-14 4.429E-19 0.000E+00
 ETOT 36  -71.881955297457      0.000E+00 1.472E-19 0.000E+00
 ETOT 37  -71.881955297457      1.421E-14 4.556E-20 0.000E+00
 ETOT 38  -71.881955297457     -1.421E-14 1.508E-20 0.000E+00
 ETOT 39  -71.881955297457     -1.421E-14 9.964E-21 0.000E+00

 At SCF step   39   max residual=  9.96E-21 < tolwfr=  1.00E-20 =>converged.

 ----iterations are completed or convergence reached----

 dfpt_looppert: DFPT cycle converged with prtwf=-1. Will skip output of the 1st-order WFK file.
 dfpt_looppert : ek2=    1.1935971518E+02
          f-sum rule ratio=    1.0522183408E+00
 prteigrs : about to open file /scratch/users/j/a/jabreu/flow_simple_10atoms/flow/w288/t1/tmpdata/tmp_1WF1_EIG
 Expectation of eigenvalue derivatives (hartree) for nkpt=   1  k points:
  (in case of degenerate eigenvalues, averaged derivative)
 kpt#   1, nband= 59, wtk=  1.00000, kpt=  0.0000  0.0000  0.0000 (reduced coord)
   0.00000    0.00000   -0.00000    0.00000   -0.00000    0.00000    0.00000    0.00000
   0.00000    0.00000   -0.00000   -0.00000   -0.00000   -0.00000    0.00000   -0.00000
  -0.00000   -0.00000    0.00000    0.00000    0.00000   -0.00000   -0.00000   -0.00000
  -0.00000    0.00000    0.00000   -0.00000   -0.00000    0.00000   -0.00000    0.00000
  -0.00000    0.00000    0.00000   -0.00000   -0.00000   -0.00000    0.00000   -0.00000
  -0.00000   -0.00000    0.00000   -0.00000   -0.00000    0.00000    0.00000    0.00000
  -0.00000    0.00000   -0.00000    0.00000   -0.00000   -0.00000   -0.00000    0.00000
  -0.00000   -0.00000   -0.00046

 Eight components of 2nd-order total energy (hartree) are
 1,2,3: 0th-order hamiltonian combined with 1st-order wavefunctions
     kin0=   9.20121678E+01 eigvalue=   6.07415950E+00  local=  -3.63124289E+01
 4,5,6: 1st-order hamiltonian combined with 1st and 0th-order wfs
     kin1=  -1.25592481E+02  Hartree=   0.00000000E+00     xc=   0.00000000E+00
 7,8,9: eventually, occupation + non-local contributions
    edocc=   1.26851952E+01     enl0=  -2.57713830E+00   enl1=  -1.81714291E+01
 1-9 gives the relaxation energy (to be shifted if some occ is /=2.0)
   erelax=  -7.18819553E+01
  No Ewald or frozen-wf contrib.: the relaxation energy is the total one
 2DEtotal=   -0.7188195530E+02 Ha. Also 2DEtotal=   -0.195600747821E+04 eV
    (  non-var. 2DEtotal :   -7.1881955297E+01 Ha)

 CALCULATION OF EFFECTIVE MASSES
 NOTE : Additional infos (eff. mass eigenvalues, eigenvectors and, if degenerate, average mass) are available in stdout.

 K-point ( 0.000, 0.000, 0.000) | band =    50
 Effective mass tensor:
             -1.6972239524              0.2301900601             -0.5543266529
              0.2301900601             -1.3023700883             -0.4547821194
             -0.5543266529             -0.4547821194             -0.8826252690
 Effective mass tensor eigenvalues:
             -1.9777987212             -1.5706164079             -0.3338041808
 Angular average effective mass 1/(<1/m>)=  -0.7249750094
 Angular average effective mass for Frohlich model (<m**0.5>)**2=  -0.8933017896
 Effective masses along directions: (cart. coord. / red. coord. -> eff. mass)
    1:   1.000000  0.000000  0.000000 /   0.977279 -0.211957  0.000000 ->  -1.0999694770
    2:   0.000000  1.000000  0.000000 /   0.000000  1.000000  0.000000 ->  -0.8708211737
    3:   0.000000  0.000000  1.000000 /  -0.443904 -0.490821  0.749695 ->  -0.4806268579
    4:   0.577350  0.577350  0.577350 /   0.208142 -0.091598  0.973800 ->  -1.7783920664
    5:   0.000000  0.707107  0.707107 /  -0.508272  0.069287  0.858405 ->  -1.3386260631
    6:   0.707107  0.000000  0.707107 /   0.162331 -0.629961  0.759472 ->  -1.4333395335
    7:   0.707107  0.707107  0.000000 /   0.820887  0.571090  0.000000 ->  -0.6812966591

 K-point ( 0.000, 0.000, 0.000) | band =    51
 Effective mass tensor:
              0.2409528075              0.0038727492             -0.0029619680
              0.0038727492              0.2350227417             -0.0076523991
             -0.0029619680             -0.0076523991              0.2453078040
 Effective mass tensor eigenvalues:
              0.2305092653              0.2394540641              0.2513200238
 Angular average effective mass 1/(<1/m>)=   0.2401272234
 Angular average effective mass for Frohlich model (<m**0.5>)**2=   0.2402171043
 Effective masses along directions: (cart. coord. / red. coord. -> eff. mass)
    1:   1.000000  0.000000  0.000000 /   0.977279 -0.211957  0.000000 ->   0.2408561744
    2:   0.000000  1.000000  0.000000 /   0.000000  1.000000  0.000000 ->   0.2347247051
    3:   0.000000  0.000000  1.000000 /  -0.443904 -0.490821  0.749695 ->   0.2450252546
    4:   0.577350  0.577350  0.577350 /   0.208142 -0.091598  0.973800 ->   0.2358498837
    5:   0.000000  0.707107  0.707107 /  -0.508272  0.069287  0.858405 ->   0.2324038596
    6:   0.707107  0.000000  0.707107 /   0.162331 -0.629961  0.759472 ->   0.2401202632
    7:   0.707107  0.707107  0.000000 /   0.820887  0.571090  0.000000 ->   0.2415907104

 END OF EFFECTIVE MASSES SECTION

 ---- first-order wavefunction calculations are completed ----

 Total localisation tensor (bohr^2) in cartesian coordinates
  WARNING : still subject to testing - especially symmetries.
      direction              matrix element
   alpha     beta       real part   imaginary part
     1        1       1.0187737241    0.0000000000
     1        2      -0.2225499062    0.0000000000
     1        3      -0.5115716587    0.0000000000
     2        1      -0.2225499062    0.0000000000
     2        2       0.9364189830    0.0000000000
     2        3      -0.8336410805    0.0000000000
     3        1      -0.5115716587    0.0000000000
     3        2      -0.8336410805    0.0000000000
     3        3       3.7928332857    0.0000000000

 respfn : d/dk was computed, but no 2DTE, so no DDB output.

== END DATASET(S) ==============================================================

 -outvars: echo values of variables after computation  --------
            acell      1.0000000000E+00  1.0000000000E+00  1.0000000000E+00 Bohr
              amu      2.29897680E+01  6.53900000E+01  3.20660000E+01
             ecut      4.40000000E+01 Hartree
           etotal     -7.1881955297E+01
            fcart      0.0000000000E+00  0.0000000000E+00  0.0000000000E+00
                       0.0000000000E+00  0.0000000000E+00  0.0000000000E+00
                       0.0000000000E+00  0.0000000000E+00  0.0000000000E+00
                       0.0000000000E+00  0.0000000000E+00  0.0000000000E+00
                       0.0000000000E+00  0.0000000000E+00  0.0000000000E+00
                       0.0000000000E+00  0.0000000000E+00  0.0000000000E+00
                       0.0000000000E+00  0.0000000000E+00  0.0000000000E+00
                       0.0000000000E+00  0.0000000000E+00  0.0000000000E+00
                       0.0000000000E+00  0.0000000000E+00  0.0000000000E+00
                       0.0000000000E+00  0.0000000000E+00  0.0000000000E+00
-          fftalg         512
           irdden           1
           irdwfk           1
           istwfk        1
              ixc     -116133
           kptopt           0
P           mkmem           1
P          mkqmem           1
P          mk1mem           1
            natom          10
            nband          59
           nbdbuf           4
            ngfft          80      80      80
             nkpt           1
            nstep        2000
             nsym           8
           ntypat           3
              occ      2.000000  2.000000  2.000000  2.000000  2.000000  2.000000
                       2.000000  2.000000  2.000000  2.000000  2.000000  2.000000
                       2.000000  2.000000  2.000000  2.000000  2.000000  2.000000
                       2.000000  2.000000  2.000000  2.000000  2.000000  2.000000
                       2.000000  2.000000  2.000000  2.000000  2.000000  2.000000
                       2.000000  2.000000  2.000000  2.000000  2.000000  2.000000
                       2.000000  2.000000  2.000000  2.000000  2.000000  2.000000
                       2.000000  2.000000  2.000000  2.000000  2.000000  2.000000
                       2.000000  2.000000  0.000000  0.000000  0.000000  0.000000
                       0.000000  0.000000  0.000000  0.000000  0.000000
        optdriver           1
            prtwf          -1
            rfdir           1       1       1
           rfelfd           2
            rprim      1.0717391286E+01  0.0000000000E+00 -7.8747500343E+00
                      -2.3244436810E+00  9.7805172124E+00 -8.7070436262E+00
                       0.0000000000E+00  0.0000000000E+00  1.3299404651E+01
          spgroup          72
           strten      0.0000000000E+00  0.0000000000E+00  0.0000000000E+00
                       0.0000000000E+00  0.0000000000E+00  0.0000000000E+00
           symrel      1  0  0   0  1  0   0  0  1      -1  0  0   0 -1  0   0  0 -1
                       0  0  1  -1 -1 -1   1  0  0       0  0 -1   1  1  1  -1  0  0
                      -1 -1 -1   0  0  1   0  1  0       1  1  1   0  0 -1   0 -1  0
                       0  1  0   1  0  0  -1 -1 -1       0 -1  0  -1  0  0   1  1  1
            tnons      0.0000000  0.0000000  0.0000000     0.0000000  0.0000000  0.0000000
                       0.0000000  0.5000000  0.5000000    -0.0000000  0.5000000  0.5000000
                       0.0000000  0.0000000 -0.0000000     0.0000000  0.0000000  0.0000000
                      -0.0000000  0.5000000  0.5000000     0.0000000  0.5000000  0.5000000
           tolwfr      1.00000000E-20
            typat      1  1  1  1  2  2  3  3  3  3
           useylm           1
           xangst      7.1924660281E-01  1.8524719884E+00  3.4565151228E+00
                       3.7221099826E+00  3.3231548087E+00 -5.1934805763E+00
                       2.5963038133E+00  7.3534141016E-01 -2.5195260644E-01
                       1.8450527721E+00  4.4402853869E+00 -1.4850128470E+00
                      -3.0751065466E-01  1.2939066993E+00  6.0754319701E-01
                      -9.2253196398E-01  3.8817200978E+00  1.8226295910E+00
                      -5.1922118652E-01  4.5977163089E+00 -3.0169868064E+00
                       4.9605777719E+00  5.7791048816E-01  1.2800213530E+00
                       1.0876438754E+00  3.1657238867E+00  8.4610099843E-01
                       3.3537127100E+00  2.0099029104E+00 -2.5830664519E+00
            xcart      1.3591791013E+00  3.5006647268E+00  6.5318669564E+00
                       7.0337685036E+00  6.2798524856E+00 -9.8142559657E+00
                       4.9063031650E+00  1.3895938794E+00 -4.7612142464E-01
                       3.4866444399E+00  8.3909233330E+00 -2.8062675847E+00
                      -5.8111092025E-01  2.4451293031E+00  1.1480902562E+00
                      -1.7433327607E+00  7.3353879093E+00  3.4442707687E+00
                      -9.8118584492E-01  8.6884246605E+00 -5.7012788106E+00
                       9.3741334498E+00  1.0920925519E+00  2.4188898013E+00
                       2.0553490547E+00  5.9823511581E+00  1.5988991678E+00
                       6.3375985502E+00  3.7981660543E+00 -4.8812881771E+00
             xred      2.0444800000E-01  3.5792225000E-01  8.4652575000E-01
                       7.9555200000E-01  6.4207775000E-01  1.5347425000E-01
                       4.8860350000E-01  1.4207775000E-01  3.4652575000E-01
                       5.1139650000E-01  8.5792225000E-01  6.5347425000E-01
                       3.4694469520E-18  2.5000000000E-01  2.5000000000E-01
                       3.4694469520E-18  7.5000000000E-01  7.5000000000E-01
                       1.0111700000E-01  8.8834000000E-01  2.1277700000E-01
                       8.9888300000E-01  1.1166000000E-01  7.8722300000E-01
                       3.2443700000E-01  6.1166000000E-01  7.1277700000E-01
                       6.7556300000E-01  3.8834000000E-01  2.8722300000E-01
            znucl       11.00000   30.00000   16.00000

- Timing analysis has been suppressed with timopt=0

 Suggested references for the acknowledgment of ABINIT usage.

 Calculation completed.
.Delivered   2 WARNINGs and   5 COMMENTs to log file.