.Version 9.7.2 of ABINIT

 ABINIT is a project of the Universite Catholique de Louvain,
 Corning Inc. and other collaborators, see ~abinit/doc/developers/contributors.txt .
 acknowledgments of the ABINIT effort.

.Starting date : Wed  1 Dec 2021.
- ( at 22h05 )

- input  file    -> /scratch/users/j/a/jabreu/flow_simple_remain_atoms/flow/w281/t1/run.abi
- output file    -> /scratch/users/j/a/jabreu/flow_simple_remain_atoms/flow/w281/t1/run.abo
- root for input  files -> /scratch/users/j/a/jabreu/flow_simple_remain_atoms/flow/w281/t1/indata/in
- root for output files -> /scratch/users/j/a/jabreu/flow_simple_remain_atoms/flow/w281/t1/outdata/out

 Symmetries : space group P-3 m 1 (#164); Bravais hP (primitive hexag.)
     intxc =       0      iscf =       7    lmnmax =      18     lnmax =       6
     mgfft =      90  mpssoang =       3    mqgrid =    4227     natom =       5
  nloc_mem =       1    nspden =       1   nspinor =       1    nsppol =       1
      nsym =      12    n1xccc =    2501    ntypat =       3    occopt =       1
   xclevel =       2
-    mband =          39        mffmem =           1         mkmem =           2
-   mkqmem =           2        mk1mem =           2           mpw =       11695
      nfft =      225000          nkpt =           2
  Rough estimation (10% accuracy) of disk space for files :

------------- Echo of variables that govern the present computation ------------
-
- outvars: echo of selected default values
-   iomode0 =  0 , fftalg0 =512 , wfoptalg0 =  0
-
- outvars: echo of global parameters not present in the input file
-  max_nthreads =    0
-
 -outvars: echo values of preprocessed input variables --------
            acell      1.0000000000E+00  1.0000000000E+00  1.0000000000E+00 Bohr
              amu      1.37327000E+02  2.43050000E+01  7.49215900E+01
             ecut      4.20000000E+01 Hartree
-          fftalg         512
           irdden           1
           irdwfk           1
           istwfk        1    1
              ixc     -116133
              kpt      0.00000000E+00  0.00000000E+00  0.00000000E+00
                       5.00000000E-01  0.00000000E+00  0.00000000E+00
           kptopt           0
P           mkmem           2
P          mkqmem           2
P          mk1mem           2
            natom           5
            nband          39
           nbdbuf           4
            ngfft          50      50      90
             nkpt           2
            nstep        2000
             nsym          12
           ntypat           3
              occ      2.000000  2.000000  2.000000  2.000000  2.000000  2.000000
                       2.000000  2.000000  2.000000  2.000000  2.000000  2.000000
                       2.000000  2.000000  2.000000  2.000000  2.000000  2.000000
                       2.000000  2.000000  2.000000  2.000000  2.000000  2.000000
                       2.000000  2.000000  2.000000  2.000000  2.000000  2.000000
                       0.000000  0.000000  0.000000  0.000000  0.000000  0.000000
                       0.000000  0.000000  0.000000
        optdriver           1
            prtwf          -1
            rfdir           1       1       1
           rfelfd           2
            rprim      8.4409320129E+00  0.0000000000E+00  0.0000000000E+00
                      -4.2204660064E+00  7.3100615548E+00  0.0000000000E+00
                       0.0000000000E+00  0.0000000000E+00  1.4485892348E+01
          spgroup         164
           symrel      1  0  0   0  1  0   0  0  1      -1  0  0   0 -1  0   0  0 -1
                      -1  0  0   1  1  0   0  0  1       1  0  0  -1 -1  0   0  0 -1
                       0  1  0  -1 -1  0   0  0  1       0 -1  0   1  1  0   0  0 -1
                       0 -1  0  -1  0  0   0  0  1       0  1  0   1  0  0   0  0 -1
                      -1 -1  0   1  0  0   0  0  1       1  1  0  -1  0  0   0  0 -1
                       1  1  0   0 -1  0   0  0  1      -1 -1  0   0  1  0   0  0 -1
           tolwfr      1.00000000E-20
            typat      1  2  2  3  3
           useylm           1
              wtk        0.50000    0.50000
           xangst      0.0000000000E+00  0.0000000000E+00  0.0000000000E+00
                       1.7638771742E-11  2.5788786455E+00  2.8828497187E+00
                       2.2333744203E+00  1.2894393227E+00  4.7827543578E+00
                       1.7638771742E-11  2.5788786455E+00  5.5915829063E+00
                       2.2333744203E+00  1.2894393227E+00  2.0740211701E+00
            xcart      0.0000000000E+00  0.0000000000E+00  0.0000000000E+00
                       3.3332447913E-11  4.8733743699E+00  5.4477964506E+00
                       4.2204660065E+00  2.4366871849E+00  9.0380958971E+00
                       3.3332447913E-11  4.8733743699E+00  1.0566560342E+01
                       4.2204660065E+00  2.4366871849E+00  3.9193320054E+00
             xred      0.0000000000E+00  0.0000000000E+00  0.0000000000E+00
                       3.3333333333E-01  6.6666666667E-01  3.7607600000E-01
                       6.6666666667E-01  3.3333333333E-01  6.2392400000E-01
                       3.3333333333E-01  6.6666666667E-01  7.2943800000E-01
                       6.6666666667E-01  3.3333333333E-01  2.7056200000E-01
            znucl       56.00000   12.00000   33.00000

 chkinp: Checking input parameters for consistency.

== DATASET  1 ==================================================================
-   mpi_nproc: 1, omp_nthreads: -1 (-1 if OMP is not activated)

--- !DatasetInfo
iteration_state: {dtset: 1, }
dimensions: {natom: 5, nkpt: 2, mband: 39, nsppol: 1, nspinor: 1, nspden: 1, mpw: 11695, }
cutoff_energies: {ecut:  42.0, pawecutdg:  -1.0, }
electrons: {nelect:   6.00000000E+01, charge:   0.00000000E+00, occopt:   1.00000000E+00, tsmear:   1.00000000E-02, }
meta: {optdriver: 1, rfelfd: 2, }
...

 Real(R)+Recip(G) space primitive vectors, cartesian coordinates (Bohr,Bohr^-1):
 R(1)=  8.4409320  0.0000000  0.0000000  G(1)=  0.1184703  0.0683989  0.0000000
 R(2)= -4.2204660  7.3100616  0.0000000  G(2)=  0.0000000  0.1367978  0.0000000
 R(3)=  0.0000000  0.0000000 14.4858923  G(3)=  0.0000000  0.0000000  0.0690327
 Unit cell volume ucvol=  8.9383363E+02 bohr^3
 Angles (23,13,12)=  9.00000000E+01  9.00000000E+01  1.20000000E+02 degrees

 getcut: wavevector=  0.0000  0.0000  0.0000  ngfft=  50  50  90
         ecut(hartree)=     42.000   => boxcut(ratio)=   2.03098

--- Pseudopotential description ------------------------------------------------
- pspini: atom type   1  psp file is /scratch/users/j/a/jabreu/pseudos/PBEsol/Ba.psp8
- pspatm: opening atomic psp file    /scratch/users/j/a/jabreu/pseudos/PBEsol/Ba.psp8
- Ba    ONCVPSP-3.3.0  r_core=   2.15444   1.91218   2.15444
- 56.00000  10.00000    180112                znucl, zion, pspdat
    8 -116133    2    4       600   0.00000   pspcod,pspxc,lmax,lloc,mmax,r2well
    5.99000000000000    5.00000000000000    0.00000000000000   rchrg,fchrg,qchrg
     nproj     2     2     2
     extension_switch     1
  pspatm : epsatm=   26.37418029
         --- l  ekb(1:nproj) -->
             0    6.652372    0.677024
             1    5.027722    0.408462
             2    2.543237    0.416854
 pspatm: atomic psp has been read  and splines computed

- pspini: atom type   2  psp file is /scratch/users/j/a/jabreu/pseudos/PBEsol/Mg.psp8
- pspatm: opening atomic psp file    /scratch/users/j/a/jabreu/pseudos/PBEsol/Mg.psp8
- Mg    ONCVPSP-3.3.0  r_core=   1.16056   1.56380
- 12.00000  10.00000    180112                znucl, zion, pspdat
    8 -116133    1    4       400   0.00000   pspcod,pspxc,lmax,lloc,mmax,r2well
    3.99000000000000    0.00000000000000    0.00000000000000   rchrg,fchrg,qchrg
     nproj     2     2
     extension_switch     1
  pspatm : epsatm=    9.18164846
         --- l  ekb(1:nproj) -->
             0    2.230603   -0.826587
             1   -6.503151   -2.501445
 pspatm: atomic psp has been read  and splines computed

- pspini: atom type   3  psp file is /scratch/users/j/a/jabreu/pseudos/PBEsol/As.psp8
- pspatm: opening atomic psp file    /scratch/users/j/a/jabreu/pseudos/PBEsol/As.psp8
- As    ONCVPSP-3.3.0  r_core=   1.76603   1.70395   1.80867
- 33.00000  15.00000    180112                znucl, zion, pspdat
    8 -116133    2    4       600   0.00000   pspcod,pspxc,lmax,lloc,mmax,r2well
    5.99000000000000    5.00000000000000    0.00000000000000   rchrg,fchrg,qchrg
     nproj     2     2     2
     extension_switch     1
  pspatm : epsatm=   28.79155382
         --- l  ekb(1:nproj) -->
             0    8.270760    0.868950
             1    4.919053    0.756587
             2  -10.048665   -4.076802
 pspatm: atomic psp has been read  and splines computed

   6.13923509E+03                                ecore*ucvol(ha*bohr**3)

 ==>  initialize data related to q vector <==

 The list of irreducible perturbations for this q vector is:
    1)    idir= 1    ipert=   6
    2)    idir= 2    ipert=   6
    3)    idir= 3    ipert=   6

 Perturbation wavevector (in red.coord.)   0.000000  0.000000  0.000000
 Perturbation : derivative vs k along direction   1

 dfpt_looppert : COMMENT -
  In a d/dk calculation, iscf is set to -3 automatically.
 The set of symmetries contains only one element for this perturbation.
 symkpt : not enough symmetry to change the number of k points.

 Initialisation of the first-order wave-functions :
  ireadwf=   0

--- !BeginCycle
iteration_state: {dtset: 1, }
solver: {iscf: 7, nstep: 2000, nline: 4, wfoptalg: 0, }
tolerances: {tolwfr: 1.00E-20, }
...

     iter   2DEtotal(Ha)        deltaE(Ha) residm    vres2
-ETOT  1  -91.594130232579     -9.159E+01 9.216E-02 0.000E+00
 ETOT  2  -91.645849057453     -5.172E-02 9.072E-03 0.000E+00
 ETOT  3  -91.645894725582     -4.567E-05 2.806E-04 0.000E+00
 ETOT  4  -91.645894862753     -1.372E-07 1.939E-04 0.000E+00
 ETOT  5  -91.645894863427     -6.735E-10 6.823E-06 0.000E+00
 ETOT  6  -91.645894863431     -4.093E-12 4.926E-06 0.000E+00
 ETOT  7  -91.645894863431      1.279E-13 1.738E-07 0.000E+00
 ETOT  8  -91.645894863431     -2.842E-14 1.263E-07 0.000E+00
 ETOT  9  -91.645894863431     -7.105E-14 4.492E-09 0.000E+00
 ETOT 10  -91.645894863431      5.684E-14 3.264E-09 0.000E+00
 ETOT 11  -91.645894863431      0.000E+00 1.176E-10 0.000E+00
 ETOT 12  -91.645894863431      0.000E+00 8.517E-11 0.000E+00
 ETOT 13  -91.645894863431      0.000E+00 3.111E-12 0.000E+00
 ETOT 14  -91.645894863431      1.421E-14 2.242E-12 0.000E+00
 ETOT 15  -91.645894863431     -2.842E-14 8.283E-14 0.000E+00
 ETOT 16  -91.645894863431      2.842E-14 5.949E-14 0.000E+00
 ETOT 17  -91.645894863431     -4.263E-14 2.217E-15 0.000E+00
 ETOT 18  -91.645894863431      1.421E-14 1.589E-15 0.000E+00
 ETOT 19  -91.645894863431     -1.421E-14 5.956E-17 0.000E+00
 ETOT 20  -91.645894863431      1.421E-14 4.270E-17 0.000E+00
 ETOT 21  -91.645894863431      0.000E+00 1.606E-18 0.000E+00
 ETOT 22  -91.645894863431      1.421E-14 1.153E-18 0.000E+00
 ETOT 23  -91.645894863431      0.000E+00 4.347E-20 0.000E+00
 ETOT 24  -91.645894863431      0.000E+00 3.127E-20 0.000E+00
 ETOT 25  -91.645894863431      1.421E-14 9.617E-21 0.000E+00

 At SCF step   25   max residual=  9.62E-21 < tolwfr=  1.00E-20 =>converged.

 ----iterations are completed or convergence reached----

 dfpt_looppert: DFPT cycle converged with prtwf=-1. Will skip output of the 1st-order WFK file.
 dfpt_looppert : ek2=    8.8654118275E+01
          f-sum rule ratio=    1.1910758673E+00
 prteigrs : about to open file /scratch/users/j/a/jabreu/flow_simple_remain_atoms/flow/w281/t1/tmpdata/tmp_1WF1_EIG
 Expectation of eigenvalue derivatives (hartree) for nkpt=   2  k points:
  (in case of degenerate eigenvalues, averaged derivative)
 kpt#   1, nband= 39, wtk=  0.50000, kpt=  0.0000  0.0000  0.0000 (reduced coord)
   0.00000   -0.00000   -0.00000    0.00000   -0.00000   -0.00000   -0.00000   -0.00000
   0.00000    0.00000    0.00000    0.00000   -0.00000   -0.00000    0.00000    0.00000
  -0.00000   -0.00000    0.00000   -0.00000    0.00000    0.00000    0.00000    0.00000
  -0.00000    0.00000    0.00000   -0.00000    0.00000    0.00000    0.00000   -0.00000
   0.00000    0.00000    0.00000   -0.00000   -0.00000    0.00000    0.00000
 prteigrs : prtvol=0 or 1, do not print more k-points.

 Eight components of 2nd-order total energy (hartree) are
 1,2,3: 0th-order hamiltonian combined with 1st-order wavefunctions
     kin0=   8.28024459E+01 eigvalue=   1.27629854E+01  local=  -3.29766271E+01
 4,5,6: 1st-order hamiltonian combined with 1st and 0th-order wfs
     kin1=  -1.05593781E+02  Hartree=   0.00000000E+00     xc=   0.00000000E+00
 7,8,9: eventually, occupation + non-local contributions
    edocc=   2.20214796E+01     enl0=   7.03561114E+00   enl1=  -7.76980089E+01
 1-9 gives the relaxation energy (to be shifted if some occ is /=2.0)
   erelax=  -9.16458949E+01
  No Ewald or frozen-wf contrib.: the relaxation energy is the total one
 2DEtotal=   -0.9164589486E+02 Ha. Also 2DEtotal=   -0.249381162432E+04 eV
    (  non-var. 2DEtotal :   -9.1645894863E+01 Ha)

 Perturbation wavevector (in red.coord.)   0.000000  0.000000  0.000000
 Perturbation : derivative vs k along direction   2
 The set of symmetries contains only one element for this perturbation.
 symkpt : not enough symmetry to change the number of k points.

[...]

 Perturbation wavevector (in red.coord.)   0.000000  0.000000  0.000000
 Perturbation : derivative vs k along direction   3
 The set of symmetries contains only one element for this perturbation.
 symkpt : not enough symmetry to change the number of k points.

 Initialisation of the first-order wave-functions :
  ireadwf=   0

--- !BeginCycle
iteration_state: {dtset: 1, }
solver: {iscf: 7, nstep: 2000, nline: 4, wfoptalg: 0, }
tolerances: {tolwfr: 1.00E-20, }
...

     iter   2DEtotal(Ha)        deltaE(Ha) residm    vres2
-ETOT  1  -22.651136505567     -2.265E+01 7.805E-02 0.000E+00
 ETOT  2  -22.664053633169     -1.292E-02 1.103E-02 0.000E+00
 ETOT  3  -22.664067769968     -1.414E-05 1.057E-03 0.000E+00
 ETOT  4  -22.664067821577     -5.161E-08 2.494E-04 0.000E+00
 ETOT  5  -22.664067821869     -2.917E-10 2.848E-05 0.000E+00
 ETOT  6  -22.664067821871     -1.869E-12 7.101E-06 0.000E+00
 ETOT  7  -22.664067821871     -8.527E-14 8.182E-07 0.000E+00
 ETOT  8  -22.664067821871     -3.553E-15 2.114E-07 0.000E+00
 ETOT  9  -22.664067821871      3.553E-15 2.418E-08 0.000E+00
 ETOT 10  -22.664067821871     -3.553E-15 6.411E-09 0.000E+00
 ETOT 11  -22.664067821871      3.553E-15 7.294E-10 0.000E+00
 ETOT 12  -22.664067821871      3.553E-15 1.963E-10 0.000E+00
 ETOT 13  -22.664067821871      0.000E+00 2.232E-11 0.000E+00
 ETOT 14  -22.664067821871      0.000E+00 6.045E-12 0.000E+00
 ETOT 15  -22.664067821871      0.000E+00 6.891E-13 0.000E+00
 ETOT 16  -22.664067821871     -7.105E-15 1.869E-13 0.000E+00
 ETOT 17  -22.664067821871      0.000E+00 2.141E-14 0.000E+00
 ETOT 18  -22.664067821871      0.000E+00 5.795E-15 0.000E+00
 ETOT 19  -22.664067821871      3.553E-15 6.674E-16 0.000E+00
 ETOT 20  -22.664067821871     -3.553E-15 1.800E-16 0.000E+00
 ETOT 21  -22.664067821871      0.000E+00 2.085E-17 0.000E+00
 ETOT 22  -22.664067821871      0.000E+00 5.598E-18 0.000E+00
 ETOT 23  -22.664067821871      0.000E+00 6.523E-19 0.000E+00
 ETOT 24  -22.664067821871      0.000E+00 1.743E-19 0.000E+00
 ETOT 25  -22.664067821871      3.553E-15 2.042E-20 0.000E+00
 ETOT 26  -22.664067821871      0.000E+00 9.680E-21 0.000E+00

 At SCF step   26   max residual=  9.68E-21 < tolwfr=  1.00E-20 =>converged.

 ----iterations are completed or convergence reached----

 dfpt_looppert: DFPT cycle converged with prtwf=-1. Will skip output of the 1st-order WFK file.
 dfpt_looppert : ek2=    2.2576180878E+01
          f-sum rule ratio=    1.1307459188E+00
 prteigrs : about to open file /scratch/users/j/a/jabreu/flow_simple_remain_atoms/flow/w281/t1/tmpdata/tmp_1WF1_EIG
 Expectation of eigenvalue derivatives (hartree) for nkpt=   2  k points:
  (in case of degenerate eigenvalues, averaged derivative)
 kpt#   1, nband= 39, wtk=  0.50000, kpt=  0.0000  0.0000  0.0000 (reduced coord)
  -0.00000   -0.00000    0.00000   -0.00000   -0.00000   -0.00000    0.00000    0.00000
  -0.00000   -0.00000   -0.00000   -0.00000    0.00000   -0.00000   -0.00000   -0.00000
   0.00000    0.00000   -0.00000   -0.00000   -0.00000   -0.00000    0.00000    0.00000
   0.00000    0.00000    0.00000    0.00000    0.00000    0.00000   -0.00000   -0.00000
  -0.00000    0.00000    0.00000   -0.00000   -0.00000    0.00000    0.00000
 prteigrs : prtvol=0 or 1, do not print more k-points.

 Eight components of 2nd-order total energy (hartree) are
 1,2,3: 0th-order hamiltonian combined with 1st-order wavefunctions
     kin0=   2.17435997E+01 eigvalue=   3.23380911E+00  local=  -8.82252343E+00
 4,5,6: 1st-order hamiltonian combined with 1st and 0th-order wfs
     kin1=  -2.55279244E+01  Hartree=   0.00000000E+00     xc=   0.00000000E+00
 7,8,9: eventually, occupation + non-local contributions
    edocc=   4.73736536E+00     enl0=   1.77181708E+00   enl1=  -1.98002113E+01
 1-9 gives the relaxation energy (to be shifted if some occ is /=2.0)
   erelax=  -2.26640678E+01
  No Ewald or frozen-wf contrib.: the relaxation energy is the total one
 2DEtotal=   -0.2266406782E+02 Ha. Also 2DEtotal=   -0.616720649330E+03 eV
    (  non-var. 2DEtotal :   -2.2664067822E+01 Ha)

 CALCULATION OF EFFECTIVE MASSES
 NOTE : Additional infos (eff. mass eigenvalues, eigenvectors and, if degenerate, average mass) are available in stdout.

 COMMENTS:
 - At k-point ( 0.000, 0.000, 0.000), bands    29 through    30
   are DEGENERATE (effective mass tensor is therefore not defined).
   See Section IIIB Eqs. (67)-(70) and Appendix E of PRB 93 205147 (2016).
 - Angular average effective mass for Frohlich model is to be averaged over degenerate bands. See later.
 - Associated theta integrals calculated with ntheta=   1000 points.

 K-point ( 0.000, 0.000, 0.000) | band =    29
 Transport equivalent effective mass tensor:
             -0.1224859025             -0.0000000000              0.0000000001
             -0.0000000000             -0.1224860642              0.0000005121
              0.0000000001              0.0000005121             -0.8101225967
 Transport equivalent effective mass tensor eigenvalues:
             -0.8101225967             -0.1224860642             -0.1224859025
 Angular average effective mass 1/(<1/m>)=  -0.1498623243
 Angular average effective mass for Frohlich model (<m**0.5>)**2=  -0.1736485219
 Effective masses along directions: (cart. coord. / red. coord. -> eff. mass)
    1:   1.000000  0.000000  0.000000 /   0.894427 -0.447214  0.000000 ->  -0.1079668175
    2:   0.000000  1.000000  0.000000 /   0.000000  1.000000  0.000000 ->  -0.1079668175
    3:   0.000000  0.000000  1.000000 /   0.000000  0.000000  1.000000 ->  -0.7779174587
    4:   0.577350  0.577350  0.577350 /   0.495126  0.181229  0.849710 ->  -0.1379384862
    5:   0.000000  0.707107  0.707107 /   0.000000  0.450520  0.892767 ->  -0.2280159331
    6:   0.707107  0.000000  0.707107 /   0.488231 -0.244116  0.837877 ->  -0.1829533738
    7:   0.707107  0.707107  0.000000 /   0.939071  0.343724  0.000000 ->  -0.1079668175

 K-point ( 0.000, 0.000, 0.000) | band =    30
 Transport equivalent effective mass tensor:
             -2.1954529735              0.0000000004              0.0000000007
              0.0000000004             -2.1954498524             -0.0000011786
              0.0000000007             -0.0000011786             -4.7601795141
 Transport equivalent effective mass tensor eigenvalues:
             -4.7601795141             -2.1954529735             -2.1954498524
 Angular average effective mass 1/(<1/m>)=  -0.7608244932
 Angular average effective mass for Frohlich model (<m**0.5>)**2=  -0.8472549690
 Effective masses along directions: (cart. coord. / red. coord. -> eff. mass)
    1:   1.000000  0.000000  0.000000 /   0.894427 -0.447214  0.000000 ->  -0.6977667083
    2:   0.000000  1.000000  0.000000 /   0.000000  1.000000  0.000000 ->  -0.6977667086
    3:   0.000000  0.000000  1.000000 /   0.000000  0.000000  1.000000 ->  -0.7779174589
    4:   0.577350  0.577350  0.577350 /   0.495126  0.181229  0.849710 ->  -1.3558468177
    5:   0.000000  0.707107  0.707107 /   0.000000  0.450520  0.892767 ->  -0.4449488447
    6:   0.707107  0.000000  0.707107 /   0.488231 -0.244116  0.837877 ->  -0.8567260319
    7:   0.707107  0.707107  0.000000 /   0.939071  0.343724  0.000000 ->  -0.6977667085

 Angular average effective mass for Frohlich model, averaged over degenerate bands.
 Value of     (<<m**0.5>>)**2 =     4.470100E-01
 Absolute Value of <<m**0.5>> =     6.685880E-01

 K-point ( 0.500, 0.000, 0.000) | band =    31
 Effective mass tensor:
              0.7498989047              0.3465593596              0.2327551096
              0.3465593596              0.3497266256              0.1343812252
              0.2327551096              0.1343812252              1.4731397890
 Effective mass tensor eigenvalues:
              0.1496404860              0.8365211170              1.5866037163
 Angular average effective mass 1/(<1/m>)=   0.3525932439
 Angular average effective mass for Frohlich model (<m**0.5>)**2=   0.4795696643
 Effective masses along directions: (cart. coord. / red. coord. -> eff. mass)
    1:   1.000000  0.000000  0.000000 /   0.894427 -0.447214  0.000000 ->   0.3995007675
    2:   0.000000  1.000000  0.000000 /   0.000000  1.000000  0.000000 ->   0.1890538929
    3:   0.000000  0.000000  1.000000 /   0.000000  0.000000  1.000000 ->   1.3971035870
    4:   0.577350  0.577350  0.577350 /   0.495126  0.181229  0.849710 ->   0.9587696360
    5:   0.000000  0.707107  0.707107 /   0.000000  0.450520  0.892767 ->   0.3446633133
    6:   0.707107  0.000000  0.707107 /   0.488231 -0.244116  0.837877 ->   0.6973131578
    7:   0.707107  0.707107  0.000000 /   0.939071  0.343724  0.000000 ->   0.6741993449

 END OF EFFECTIVE MASSES SECTION

 ---- first-order wavefunction calculations are completed ----

 Total localisation tensor (bohr^2) in cartesian coordinates
  WARNING : still subject to testing - especially symmetries.
      direction              matrix element
   alpha     beta       real part   imaginary part
     1        1       4.1000263358    0.0000000000
     1        2      -1.6589633402    0.0000000000
     1        3       0.0000000000    0.0000000000
     2        1      -1.6589633402    0.0000000000
     2        2       2.8734087931    0.0000000000
     2        3       0.0000000000    0.0000000000
     3        1       0.0000000000    0.0000000000
     3        2       0.0000000000    0.0000000000
     3        3       2.3741284473    0.0000000000

 respfn : d/dk was computed, but no 2DTE, so no DDB output.

== END DATASET(S) ==============================================================

 -outvars: echo values of variables after computation  --------
            acell      1.0000000000E+00  1.0000000000E+00  1.0000000000E+00 Bohr
              amu      1.37327000E+02  2.43050000E+01  7.49215900E+01
             ecut      4.20000000E+01 Hartree
           etotal     -2.2664067822E+01
            fcart      0.0000000000E+00  0.0000000000E+00  0.0000000000E+00
                       0.0000000000E+00  0.0000000000E+00  0.0000000000E+00
                       0.0000000000E+00  0.0000000000E+00  0.0000000000E+00
                       0.0000000000E+00  0.0000000000E+00  0.0000000000E+00
                       0.0000000000E+00  0.0000000000E+00  0.0000000000E+00
-          fftalg         512
           irdden           1
           irdwfk           1
           istwfk        1    1
              ixc     -116133
              kpt      0.00000000E+00  0.00000000E+00  0.00000000E+00
                       5.00000000E-01  0.00000000E+00  0.00000000E+00
           kptopt           0
P           mkmem           2
P          mkqmem           2
P          mk1mem           2
            natom           5
            nband          39
           nbdbuf           4
            ngfft          50      50      90
             nkpt           2
            nstep        2000
             nsym          12
           ntypat           3
              occ      2.000000  2.000000  2.000000  2.000000  2.000000  2.000000
                       2.000000  2.000000  2.000000  2.000000  2.000000  2.000000
                       2.000000  2.000000  2.000000  2.000000  2.000000  2.000000
                       2.000000  2.000000  2.000000  2.000000  2.000000  2.000000
                       2.000000  2.000000  2.000000  2.000000  2.000000  2.000000
                       0.000000  0.000000  0.000000  0.000000  0.000000  0.000000
                       0.000000  0.000000  0.000000
        optdriver           1
            prtwf          -1
            rfdir           1       1       1
           rfelfd           2
            rprim      8.4409320129E+00  0.0000000000E+00  0.0000000000E+00
                      -4.2204660064E+00  7.3100615548E+00  0.0000000000E+00
                       0.0000000000E+00  0.0000000000E+00  1.4485892348E+01
          spgroup         164
           strten      0.0000000000E+00  0.0000000000E+00  0.0000000000E+00
                       0.0000000000E+00  0.0000000000E+00  0.0000000000E+00
           symrel      1  0  0   0  1  0   0  0  1      -1  0  0   0 -1  0   0  0 -1
                      -1  0  0   1  1  0   0  0  1       1  0  0  -1 -1  0   0  0 -1
                       0  1  0  -1 -1  0   0  0  1       0 -1  0   1  1  0   0  0 -1
                       0 -1  0  -1  0  0   0  0  1       0  1  0   1  0  0   0  0 -1
                      -1 -1  0   1  0  0   0  0  1       1  1  0  -1  0  0   0  0 -1
                       1  1  0   0 -1  0   0  0  1      -1 -1  0   0  1  0   0  0 -1
           tolwfr      1.00000000E-20
            typat      1  2  2  3  3
           useylm           1
              wtk        0.50000    0.50000
           xangst      0.0000000000E+00  0.0000000000E+00  0.0000000000E+00
                       1.7638771742E-11  2.5788786455E+00  2.8828497187E+00
                       2.2333744203E+00  1.2894393227E+00  4.7827543578E+00
                       1.7638771742E-11  2.5788786455E+00  5.5915829063E+00
                       2.2333744203E+00  1.2894393227E+00  2.0740211701E+00
            xcart      0.0000000000E+00  0.0000000000E+00  0.0000000000E+00
                       3.3332447913E-11  4.8733743699E+00  5.4477964506E+00
                       4.2204660065E+00  2.4366871849E+00  9.0380958971E+00
                       3.3332447913E-11  4.8733743699E+00  1.0566560342E+01
                       4.2204660065E+00  2.4366871849E+00  3.9193320054E+00
             xred      0.0000000000E+00  0.0000000000E+00  0.0000000000E+00
                       3.3333333333E-01  6.6666666667E-01  3.7607600000E-01
                       6.6666666667E-01  3.3333333333E-01  6.2392400000E-01
                       3.3333333333E-01  6.6666666667E-01  7.2943800000E-01
                       6.6666666667E-01  3.3333333333E-01  2.7056200000E-01
            znucl       56.00000   12.00000   33.00000

- Timing analysis has been suppressed with timopt=0

 Suggested references for the acknowledgment of ABINIT usage.

 Calculation completed.
.Delivered   2 WARNINGs and   5 COMMENTs to log file.