.Version 9.5.1 of ABINIT

 ABINIT is a project of the Universite Catholique de Louvain,
 Corning Inc. and other collaborators, see ~abinit/doc/developers/contributors.txt .
 acknowledgments of the ABINIT effort.

.Starting date : Wed  5 May 2021.
- ( at 19h51 )

- input  file    -> /scratch/users/j/a/jabreu/flow_simple_7atoms/flow/w157/t1/run.abi
- output file    -> /scratch/users/j/a/jabreu/flow_simple_7atoms/flow/w157/t1/run.abo
- root for input  files -> /scratch/users/j/a/jabreu/flow_simple_7atoms/flow/w157/t1/indata/in
- root for output files -> /scratch/users/j/a/jabreu/flow_simple_7atoms/flow/w157/t1/outdata/out

 Symmetries : space group I-4 (# 82); Bravais tI (body-center tetrag.)
     intxc =       0      iscf =       7    lmnmax =      18     lnmax =       6
     mgfft =      54  mpssoang =       3    mqgrid =    3001     natom =       7
  nloc_mem =       1    nspden =       1   nspinor =       1    nsppol =       1
      nsym =       4    n1xccc =    2501    ntypat =       4    occopt =       1
   xclevel =       2
-    mband =          26        mffmem =           1         mkmem =           2
-   mkqmem =           2        mk1mem =           2           mpw =        6204
      nfft =      157464          nkpt =           2
  Rough estimation (10% accuracy) of disk space for files :

------------- Echo of variables that govern the present computation ------------
-
- outvars: echo of selected default values
-   iomode0 =  0 , fftalg0 =512 , wfoptalg0 =  0
-
- outvars: echo of global parameters not present in the input file
-  max_nthreads =    0
-
 -outvars: echo values of preprocessed input variables --------
            acell      1.0000000000E+00  1.0000000000E+00  1.0000000000E+00 Bohr
              amu      6.94100000E+00  2.80855000E+01  1.08110000E+01
                       1.59994000E+01
             ecut      4.40000000E+01 Hartree
-          fftalg         512
           irdden           1
           irdwfk           1
           istwfk        1    1
              ixc     -116133
              kpt      0.00000000E+00  5.00000000E-01  0.00000000E+00
                       0.00000000E+00  0.00000000E+00  0.00000000E+00
           kptopt           0
P           mkmem           2
P          mkqmem           2
P          mk1mem           2
            natom           7
            nband          26
           nbdbuf           4
            ngfft          54      54      54
             nkpt           2
            nstep        2000
             nsym           4
           ntypat           4
              occ      2.000000  2.000000  2.000000  2.000000  2.000000  2.000000
                       2.000000  2.000000  2.000000  2.000000  2.000000  2.000000
                       2.000000  2.000000  2.000000  2.000000  2.000000  0.000000
                       0.000000  0.000000  0.000000  0.000000  0.000000  0.000000
                       0.000000  0.000000
        optdriver           1
            prtwf          -1
            rfdir           1       1       1
           rfelfd           2
            rprim      7.3079270356E+00  0.0000000000E+00 -4.7674677541E+00
                      -2.1437143716E+00  6.9864358761E+00 -4.7674677541E+00
                       0.0000000000E+00  0.0000000000E+00  8.7255112368E+00
          spgroup          82
           symrel      1  0  0   0  1  0   0  0  1       0  1  0   1  0  0  -1 -1 -1
                       0  0  1  -1 -1 -1   0  1  0      -1 -1 -1   0  0  1   1  0  0
           tolwfr      1.00000000E-20
            typat      1  2  3  4  4  4  4
           useylm           1
              wtk        0.50000    0.50000
           xangst      1.3663918211E+00  1.8485313175E+00 -2.5228352782E+00
                       0.0000000000E+00  0.0000000000E+00  0.0000000000E+00
                       1.1599351694E-01  2.7727969762E+00 -2.1416443825E-01
                       2.7883840960E+00  3.1637354704E+00 -1.9727885607E+00
                       6.4503061630E-01  1.4811800829E+00  2.5085066698E-01
                       2.2861555232E+00  1.0329223296E-01  2.4976821146E+00
                      -2.5400295125E-01  2.6459174836E+00 -1.6324019739E+00
            xcart      2.5821063320E+00  3.4932179380E+00 -4.7674677541E+00
                       0.0000000000E+00  0.0000000000E+00  0.0000000000E+00
                       2.1919598020E-01  5.2398269071E+00 -4.0471213570E-01
                       5.2692822947E+00  5.9785935959E+00 -3.7280300978E+00
                       1.2189312121E+00  2.7990247101E+00  4.7403906085E-01
                       4.3202078360E+00  1.9519403194E-01  4.7199351637E+00
                      -4.7999601481E-01  5.0000594142E+00 -3.0847926695E+00
             xred      5.0000000000E-01  5.0000000000E-01  5.5511151231E-17
                       0.0000000000E+00  0.0000000000E+00  0.0000000000E+00
                       2.5000000000E-01  7.5000000000E-01  5.0000000000E-01
                       9.7206100000E-01  8.5574300000E-01  5.7142400000E-01
                       2.8431900000E-01  4.0063700000E-01  4.2857600000E-01
                       5.9936300000E-01  2.7939000000E-02  8.8368200000E-01
                       1.4425700000E-01  7.1568100000E-01  1.1631800000E-01
            znucl        3.00000   14.00000    5.00000    8.00000

 chkinp: Checking input parameters for consistency.

== DATASET  1 ==================================================================
-   mpi_nproc: 1, omp_nthreads: -1 (-1 if OMP is not activated)

--- !DatasetInfo
iteration_state: {dtset: 1, }
dimensions: {natom: 7, nkpt: 2, mband: 26, nsppol: 1, nspinor: 1, nspden: 1, mpw: 6204, }
cutoff_energies: {ecut:  44.0, pawecutdg:  -1.0, }
electrons: {nelect:   3.40000000E+01, charge:   0.00000000E+00, occopt:   1.00000000E+00, tsmear:   1.00000000E-02, }
meta: {optdriver: 1, rfelfd: 2, }
...

 Real(R)+Recip(G) space primitive vectors, cartesian coordinates (Bohr,Bohr^-1):
 R(1)=  7.3079270  0.0000000 -4.7674678  G(1)=  0.1368377  0.0419872  0.0000000
 R(2)= -2.1437144  6.9864359 -4.7674678  G(2)=  0.0000000  0.1431345  0.0000000
 R(3)=  0.0000000  0.0000000  8.7255112  G(3)=  0.0747657  0.1011473  0.1146065
 Unit cell volume ucvol=  4.4549287E+02 bohr^3
 Angles (23,13,12)=  1.23119198E+02  1.23119198E+02  8.46772897E+01 degrees

 getcut: wavevector=  0.0000  0.0000  0.0000  ngfft=  54  54  54
         ecut(hartree)=     44.000   => boxcut(ratio)=   2.07293

--- Pseudopotential description ------------------------------------------------
- pspini: atom type   1  psp file is /scratch/users/j/a/jabreu/pseudos/PBEsol/Li.psp8
- pspatm: opening atomic psp file    /scratch/users/j/a/jabreu/pseudos/PBEsol/Li.psp8
- Li    ONCVPSP-3.3.0  r_core=   1.40824   1.10935
-  3.00000   3.00000    180112                znucl, zion, pspdat
    8 -116133    1    4       400   0.00000   pspcod,pspxc,lmax,lloc,mmax,r2well
    3.99000000000000    0.00000000000000    0.00000000000000   rchrg,fchrg,qchrg
     nproj     2     2
     extension_switch     1
  pspatm : epsatm=    2.60859637
         --- l  ekb(1:nproj) -->
             0   -4.855856   -1.482423
             1   -2.171544   -0.427615
 pspatm: atomic psp has been read  and splines computed

- pspini: atom type   2  psp file is /scratch/users/j/a/jabreu/pseudos/PBEsol/Si.psp8
- pspatm: opening atomic psp file    /scratch/users/j/a/jabreu/pseudos/PBEsol/Si.psp8
- Si    ONCVPSP-3.3.0  r_core=   1.60303   1.72197   1.91712
- 14.00000   4.00000    180112                znucl, zion, pspdat
    8 -116133    2    4       600   0.00000   pspcod,pspxc,lmax,lloc,mmax,r2well
    5.99000000000000    4.00000000000000    0.00000000000000   rchrg,fchrg,qchrg
     nproj     2     2     2
     extension_switch     1
  pspatm : epsatm=    7.86468782
         --- l  ekb(1:nproj) -->
             0    5.384426    0.843824
             1    2.663259    0.615854
             2   -2.267219   -0.458043
 pspatm: atomic psp has been read  and splines computed

[...]

- pspini: atom type   4  psp file is /scratch/users/j/a/jabreu/pseudos/PBEsol/O.psp8
- pspatm: opening atomic psp file    /scratch/users/j/a/jabreu/pseudos/PBEsol/O.psp8
- O     ONCVPSP-3.3.0  r_core=   1.35509   1.45563   1.26150
-  8.00000   6.00000    180112                znucl, zion, pspdat
    8 -116133    2    4       600   0.00000   pspcod,pspxc,lmax,lloc,mmax,r2well
    5.99000000000000    4.00000000000000    0.00000000000000   rchrg,fchrg,qchrg
     nproj     2     2     1
     extension_switch     1
  pspatm : epsatm=    6.22910522
         --- l  ekb(1:nproj) -->
             0    6.050032    0.820363
             1   -4.739617   -1.153841
             2   -1.335834
 pspatm: atomic psp has been read  and splines computed

   1.31210252E+03                                ecore*ucvol(ha*bohr**3)

-inwffil : will read wavefunctions from disk file /scratch/users/j/a/jabreu/flow_simple_7atoms/flow/w157/t1/indata/in_WFK

 ==>  initialize data related to q vector <==

 The list of irreducible perturbations for this q vector is:
    1)    idir= 1    ipert=   8
    2)    idir= 2    ipert=   8
    3)    idir= 3    ipert=   8

 Perturbation wavevector (in red.coord.)   0.000000  0.000000  0.000000
 Perturbation : derivative vs k along direction   1

 dfpt_looppert : COMMENT -
  In a d/dk calculation, iscf is set to -3 automatically.
 The set of symmetries contains only one element for this perturbation.
 symkpt : not enough symmetry to change the number of k points.

[...]

 Initialisation of the first-order wave-functions :
  ireadwf=   0

--- !BeginCycle
iteration_state: {dtset: 1, }
solver: {iscf: 7, nstep: 2000, nline: 4, wfoptalg: 0, }
tolerances: {tolwfr: 1.00E-20, }
...

     iter   2DEtotal(Ha)        deltaE(Ha) residm    vres2
-ETOT  1  -28.220090693335     -2.822E+01 8.472E-02 0.000E+00
 ETOT  2  -28.246619102878     -2.653E-02 8.264E-03 0.000E+00
 ETOT  3  -28.246721733088     -1.026E-04 1.511E-04 0.000E+00
 ETOT  4  -28.246722447095     -7.140E-07 4.336E-05 0.000E+00
 ETOT  5  -28.246722453474     -6.379E-09 2.624E-06 0.000E+00
 ETOT  6  -28.246722453540     -6.591E-11 9.034E-07 0.000E+00
 ETOT  7  -28.246722453540     -7.532E-13 7.378E-08 0.000E+00
 ETOT  8  -28.246722453540     -1.421E-14 2.595E-08 0.000E+00
 ETOT  9  -28.246722453540     -3.553E-15 2.111E-09 0.000E+00
 ETOT 10  -28.246722453540      3.197E-14 7.478E-10 0.000E+00
 ETOT 11  -28.246722453540     -1.066E-14 5.987E-11 0.000E+00
 ETOT 12  -28.246722453540     -3.553E-15 2.156E-11 0.000E+00
 ETOT 13  -28.246722453540     -3.553E-15 1.709E-12 0.000E+00
 ETOT 14  -28.246722453540     -3.553E-15 6.236E-13 0.000E+00
 ETOT 15  -28.246722453540      0.000E+00 4.895E-14 0.000E+00
 ETOT 16  -28.246722453540      0.000E+00 1.810E-14 0.000E+00
 ETOT 17  -28.246722453540      0.000E+00 1.408E-15 0.000E+00
 ETOT 18  -28.246722453540      0.000E+00 5.269E-16 0.000E+00
 ETOT 19  -28.246722453540      0.000E+00 4.064E-17 0.000E+00
 ETOT 20  -28.246722453540      3.553E-15 1.539E-17 0.000E+00
 ETOT 21  -28.246722453540     -3.553E-15 1.177E-18 0.000E+00
 ETOT 22  -28.246722453540      3.553E-15 4.508E-19 0.000E+00
 ETOT 23  -28.246722453540     -3.553E-15 3.419E-20 0.000E+00
 ETOT 24  -28.246722453540      0.000E+00 1.324E-20 0.000E+00
 ETOT 25  -28.246722453540      0.000E+00 9.993E-21 0.000E+00

 At SCF step   25   max residual=  9.99E-21 < tolwfr=  1.00E-20 =>converged.

 ----iterations are completed or convergence reached----

 dfpt_looppert: DFPT cycle converged with prtwf=-1. Will skip output of the 1st-order WFK file.
 dfpt_looppert : ek2=    5.4999316810E+01
          f-sum rule ratio=    1.0167944255E+00
 prteigrs : about to open file /scratch/users/j/a/jabreu/flow_simple_7atoms/flow/w157/t1/tmpdata/tmp_1WF1_EIG
 Expectation of eigenvalue derivatives (hartree) for nkpt=   2  k points:
  (in case of degenerate eigenvalues, averaged derivative)
 kpt#   1, nband= 26, wtk=  0.50000, kpt=  0.0000  0.5000  0.0000 (reduced coord)
   0.00000   -0.00000    0.00000   -0.00000   -0.00000    0.00000   -0.00000    0.00000
   0.00000   -0.00000   -0.00000    0.00000    0.00000   -0.00000   -0.00000   -0.00000
   0.00000    0.00000   -0.00000    0.00000    0.00000    0.00000   -0.00000    0.00000
   0.00000    0.00009
 prteigrs : prtvol=0 or 1, do not print more k-points.

 Eight components of 2nd-order total energy (hartree) are
 1,2,3: 0th-order hamiltonian combined with 1st-order wavefunctions
     kin0=   3.27652907E+01 eigvalue=   1.36728306E+00  local=  -1.23459632E+01
 4,5,6: 1st-order hamiltonian combined with 1st and 0th-order wfs
     kin1=  -5.59229987E+01  Hartree=   0.00000000E+00     xc=   0.00000000E+00
 7,8,9: eventually, occupation + non-local contributions
    edocc=   8.84341849E+00     enl0=  -2.38330667E+00   enl1=  -5.70446170E-01
 1-9 gives the relaxation energy (to be shifted if some occ is /=2.0)
   erelax=  -2.82467225E+01
  No Ewald or frozen-wf contrib.: the relaxation energy is the total one
 2DEtotal=   -0.2824672245E+02 Ha. Also 2DEtotal=   -0.768632407470E+03 eV
    (  non-var. 2DEtotal :   -2.8246722453E+01 Ha)

 Perturbation wavevector (in red.coord.)   0.000000  0.000000  0.000000
 Perturbation : derivative vs k along direction   2
 The set of symmetries contains only one element for this perturbation.
 symkpt : not enough symmetry to change the number of k points.

[...]

 Perturbation wavevector (in red.coord.)   0.000000  0.000000  0.000000
 Perturbation : derivative vs k along direction   3
 The set of symmetries contains only one element for this perturbation.
 symkpt : not enough symmetry to change the number of k points.

-inwffil : will read wavefunctions from disk file /scratch/users/j/a/jabreu/flow_simple_7atoms/flow/w157/t1/indata/in_WFK

 Initialisation of the first-order wave-functions :
  ireadwf=   0

--- !BeginCycle
iteration_state: {dtset: 1, }
solver: {iscf: 7, nstep: 2000, nline: 4, wfoptalg: 0, }
tolerances: {tolwfr: 1.00E-20, }
...

     iter   2DEtotal(Ha)        deltaE(Ha) residm    vres2
-ETOT  1  -39.929851471926     -3.993E+01 6.975E-02 0.000E+00
 ETOT  2  -39.974968934709     -4.512E-02 7.154E-03 0.000E+00
 ETOT  3  -39.975152926224     -1.840E-04 1.809E-04 0.000E+00
 ETOT  4  -39.975154205475     -1.279E-06 2.633E-05 0.000E+00
 ETOT  5  -39.975154216080     -1.060E-08 1.217E-06 0.000E+00
 ETOT  6  -39.975154216174     -9.461E-11 1.778E-07 0.000E+00
 ETOT  7  -39.975154216175     -9.095E-13 9.186E-09 0.000E+00
 ETOT  8  -39.975154216175     -5.684E-14 1.297E-09 0.000E+00
 ETOT  9  -39.975154216175      2.842E-14 7.119E-11 0.000E+00
 ETOT 10  -39.975154216175     -1.421E-14 9.968E-12 0.000E+00
 ETOT 11  -39.975154216175      2.842E-14 5.568E-13 0.000E+00
 ETOT 12  -39.975154216175     -1.421E-14 7.770E-14 0.000E+00
 ETOT 13  -39.975154216175      0.000E+00 4.369E-15 0.000E+00
 ETOT 14  -39.975154216175      1.421E-14 6.082E-16 0.000E+00
 ETOT 15  -39.975154216175     -7.105E-15 3.432E-17 0.000E+00
 ETOT 16  -39.975154216175     -1.421E-14 4.770E-18 0.000E+00
 ETOT 17  -39.975154216175      1.421E-14 2.696E-19 0.000E+00
 ETOT 18  -39.975154216175     -1.421E-14 3.744E-20 0.000E+00
 ETOT 19  -39.975154216175      1.421E-14 9.868E-21 0.000E+00

 At SCF step   19   max residual=  9.87E-21 < tolwfr=  1.00E-20 =>converged.

 ----iterations are completed or convergence reached----

 dfpt_looppert: DFPT cycle converged with prtwf=-1. Will skip output of the 1st-order WFK file.
 dfpt_looppert : ek2=    7.7731528247E+01
          f-sum rule ratio=    1.0179808924E+00
 prteigrs : about to open file /scratch/users/j/a/jabreu/flow_simple_7atoms/flow/w157/t1/tmpdata/tmp_1WF1_EIG
 Expectation of eigenvalue derivatives (hartree) for nkpt=   2  k points:
  (in case of degenerate eigenvalues, averaged derivative)
 kpt#   1, nband= 26, wtk=  0.50000, kpt=  0.0000  0.5000  0.0000 (reduced coord)
   0.00000   -0.00000    0.00000   -0.00000   -0.00000    0.00000    0.00000   -0.00000
   0.00000   -0.00000   -0.00000   -0.00000    0.00000    0.00000   -0.00000   -0.00000
   0.00000    0.00000   -0.00000   -0.00000    0.00000   -0.00000   -0.00000    0.00000
   0.00000    0.00004
 prteigrs : prtvol=0 or 1, do not print more k-points.

 Eight components of 2nd-order total energy (hartree) are
 1,2,3: 0th-order hamiltonian combined with 1st-order wavefunctions
     kin0=   4.70526366E+01 eigvalue=   1.98103982E+00  local=  -1.82236035E+01
 4,5,6: 1st-order hamiltonian combined with 1st and 0th-order wfs
     kin1=  -7.91292105E+01  Hartree=   0.00000000E+00     xc=   0.00000000E+00
 7,8,9: eventually, occupation + non-local contributions
    edocc=   1.26532148E+01     enl0=  -3.48813354E+00   enl1=  -8.21097939E-01
 1-9 gives the relaxation energy (to be shifted if some occ is /=2.0)
   erelax=  -3.99751542E+01
  No Ewald or frozen-wf contrib.: the relaxation energy is the total one
 2DEtotal=   -0.3997515422E+02 Ha. Also 2DEtotal=   -0.108777926624E+04 eV
    (  non-var. 2DEtotal :   -3.9975154216E+01 Ha)

 CALCULATION OF EFFECTIVE MASSES
 NOTE : Additional infos (eff. mass eigenvalues, eigenvectors and, if degenerate, average mass) are available in stdout.

 K-point ( 0.000, 0.500, 0.000) | band =    17
 Effective mass tensor:
             -5.2382028057             -0.2254495469              0.3579677030
             -0.2254495469             -2.2830971380              0.1216575254
              0.3579677030              0.1216575254             -1.4085276002
 Effective mass tensor eigenvalues:
             -5.2898698410             -2.2757310088             -1.3642266942
 Angular average effective mass 1/(<1/m>)=  -2.2034912143
 Angular average effective mass for Frohlich model (<m**0.5>)**2=  -2.3909053390
 Effective masses along directions: (cart. coord. / red. coord. -> eff. mass)
    1:   1.000000  0.000000  0.000000 /   0.959567 -0.281480  0.000000 ->  -5.1305761036
    2:   0.000000  1.000000  0.000000 /   0.000000  1.000000  0.000000 ->  -2.2652373311
    3:   0.000000  0.000000  1.000000 /  -0.432350 -0.432350  0.791295 ->  -1.3790990405
    4:   0.577350  0.577350  0.577350 /   0.279536  0.008280  0.960100 ->  -2.0106239411
    5:   0.000000  0.707107  0.707107 /  -0.467968  0.217811  0.856484 ->  -1.6202932861
    6:   0.707107  0.000000  0.707107 /   0.222511 -0.605330  0.764241 ->  -1.9680992105
    7:   0.707107  0.707107  0.000000 /   0.833586  0.552390  0.000000 ->  -3.3167683181

 K-point ( 0.000, 0.000, 0.000) | band =    18
 Effective mass tensor:
              0.5785061314             -0.0034779648              0.0047484213
             -0.0034779648              0.5763670790              0.0064276911
              0.0047484213              0.0064276911              0.5722958706
 Effective mass tensor eigenvalues:
              0.5650202614              0.5810735026              0.5810753169
 Angular average effective mass 1/(<1/m>)=   0.5756226107
 Angular average effective mass for Frohlich model (<m**0.5>)**2=   0.5756528808
 Effective masses along directions: (cart. coord. / red. coord. -> eff. mass)
    1:   1.000000  0.000000  0.000000 /   0.959567 -0.281480  0.000000 ->   0.5784450948
    2:   0.000000  1.000000  0.000000 /   0.000000  1.000000  0.000000 ->   0.5762733298
    3:   0.000000  0.000000  1.000000 /  -0.432350 -0.432350  0.791295 ->   0.5721845723
    4:   0.577350  0.577350  0.577350 /   0.279536  0.008280  0.960100 ->   0.5808490054
    5:   0.000000  0.707107  0.707107 /  -0.467968  0.217811  0.856484 ->   0.5807504087
    6:   0.707107  0.000000  0.707107 /   0.222511 -0.605330  0.764241 ->   0.5801246985
    7:   0.707107  0.707107  0.000000 /   0.833586  0.552390  0.000000 ->   0.5738474837

 END OF EFFECTIVE MASSES SECTION

 ---- first-order wavefunction calculations are completed ----

 Total localisation tensor (bohr^2) in cartesian coordinates
  WARNING : still subject to testing - especially symmetries.
      direction              matrix element
   alpha     beta       real part   imaginary part
     1        1       0.7191034026    0.0000000000
     1        2      -0.1863920807    0.0000000000
     1        3      -0.3046185053    0.0000000000
     2        1      -0.1863920807    0.0000000000
     2        2       0.6074579415    0.0000000000
     2        3      -0.4145226836    0.0000000000
     3        1      -0.3046185053    0.0000000000
     3        2      -0.4145226836    0.0000000000
     3        3       1.9021631863    0.0000000000

 respfn : d/dk was computed, but no 2DTE, so no DDB output.

== END DATASET(S) ==============================================================

 -outvars: echo values of variables after computation  --------
            acell      1.0000000000E+00  1.0000000000E+00  1.0000000000E+00 Bohr
              amu      6.94100000E+00  2.80855000E+01  1.08110000E+01
                       1.59994000E+01
             ecut      4.40000000E+01 Hartree
           etotal     -3.9975154216E+01
            fcart      0.0000000000E+00  0.0000000000E+00  0.0000000000E+00
                       0.0000000000E+00  0.0000000000E+00  0.0000000000E+00
                       0.0000000000E+00  0.0000000000E+00  0.0000000000E+00
                       0.0000000000E+00  0.0000000000E+00  0.0000000000E+00
                       0.0000000000E+00  0.0000000000E+00  0.0000000000E+00
                       0.0000000000E+00  0.0000000000E+00  0.0000000000E+00
                       0.0000000000E+00  0.0000000000E+00  0.0000000000E+00
-          fftalg         512
           irdden           1
           irdwfk           1
           istwfk        1    1
              ixc     -116133
              kpt      0.00000000E+00  5.00000000E-01  0.00000000E+00
                       0.00000000E+00  0.00000000E+00  0.00000000E+00
           kptopt           0
P           mkmem           2
P          mkqmem           2
P          mk1mem           2
            natom           7
            nband          26
           nbdbuf           4
            ngfft          54      54      54
             nkpt           2
            nstep        2000
             nsym           4
           ntypat           4
              occ      2.000000  2.000000  2.000000  2.000000  2.000000  2.000000
                       2.000000  2.000000  2.000000  2.000000  2.000000  2.000000
                       2.000000  2.000000  2.000000  2.000000  2.000000  0.000000
                       0.000000  0.000000  0.000000  0.000000  0.000000  0.000000
                       0.000000  0.000000
        optdriver           1
            prtwf          -1
            rfdir           1       1       1
           rfelfd           2
            rprim      7.3079270356E+00  0.0000000000E+00 -4.7674677541E+00
                      -2.1437143716E+00  6.9864358761E+00 -4.7674677541E+00
                       0.0000000000E+00  0.0000000000E+00  8.7255112368E+00
          spgroup          82
           strten      0.0000000000E+00  0.0000000000E+00  0.0000000000E+00
                       0.0000000000E+00  0.0000000000E+00  0.0000000000E+00
           symrel      1  0  0   0  1  0   0  0  1       0  1  0   1  0  0  -1 -1 -1
                       0  0  1  -1 -1 -1   0  1  0      -1 -1 -1   0  0  1   1  0  0
           tolwfr      1.00000000E-20
            typat      1  2  3  4  4  4  4
           useylm           1
              wtk        0.50000    0.50000
           xangst      1.3663918211E+00  1.8485313175E+00 -2.5228352782E+00
                       0.0000000000E+00  0.0000000000E+00  0.0000000000E+00
                       1.1599351694E-01  2.7727969762E+00 -2.1416443825E-01
                       2.7883840960E+00  3.1637354704E+00 -1.9727885607E+00
                       6.4503061630E-01  1.4811800829E+00  2.5085066698E-01
                       2.2861555232E+00  1.0329223296E-01  2.4976821146E+00
                      -2.5400295125E-01  2.6459174836E+00 -1.6324019739E+00
            xcart      2.5821063320E+00  3.4932179380E+00 -4.7674677541E+00
                       0.0000000000E+00  0.0000000000E+00  0.0000000000E+00
                       2.1919598020E-01  5.2398269071E+00 -4.0471213570E-01
                       5.2692822947E+00  5.9785935959E+00 -3.7280300978E+00
                       1.2189312121E+00  2.7990247101E+00  4.7403906085E-01
                       4.3202078360E+00  1.9519403194E-01  4.7199351637E+00
                      -4.7999601481E-01  5.0000594142E+00 -3.0847926695E+00
             xred      5.0000000000E-01  5.0000000000E-01  5.5511151231E-17
                       0.0000000000E+00  0.0000000000E+00  0.0000000000E+00
                       2.5000000000E-01  7.5000000000E-01  5.0000000000E-01
                       9.7206100000E-01  8.5574300000E-01  5.7142400000E-01
                       2.8431900000E-01  4.0063700000E-01  4.2857600000E-01
                       5.9936300000E-01  2.7939000000E-02  8.8368200000E-01
                       1.4425700000E-01  7.1568100000E-01  1.1631800000E-01
            znucl        3.00000   14.00000    5.00000    8.00000

- Timing analysis has been suppressed with timopt=0

 Suggested references for the acknowledgment of ABINIT usage.

 Calculation completed.
.Delivered  14 WARNINGs and   9 COMMENTs to log file.