.Version 9.5.1 of ABINIT

 ABINIT is a project of the Universite Catholique de Louvain,
 Corning Inc. and other collaborators, see ~abinit/doc/developers/contributors.txt .
 acknowledgments of the ABINIT effort.

.Starting date : Tue 27 Apr 2021.
- ( at 15h32 )

- input  file    -> /scratch/users/j/a/jabreu/flow_simple/flow/w153/t1/run.abi
- output file    -> /scratch/users/j/a/jabreu/flow_simple/flow/w153/t1/run.abo
- root for input  files -> /scratch/users/j/a/jabreu/flow_simple/flow/w153/t1/indata/in
- root for output files -> /scratch/users/j/a/jabreu/flow_simple/flow/w153/t1/outdata/out

 Symmetries : space group Fm -3 m (#225); Bravais cF (face-center cubic)
     intxc =       0      iscf =       7    lmnmax =      18     lnmax =       6
     mgfft =      64  mpssoang =       3    mqgrid =    3001     natom =       3
  nloc_mem =       1    nspden =       1   nspinor =       1    nsppol =       1
      nsym =      48    n1xccc =    2501    ntypat =       2    occopt =       1
   xclevel =       2
-    mband =          26        mffmem =           1         mkmem =           2
-   mkqmem =           2        mk1mem =           2           mpw =       10086
      nfft =      262144          nkpt =           2
  Rough estimation (10% accuracy) of disk space for files :

------------- Echo of variables that govern the present computation ------------
-
- outvars: echo of selected default values
-   iomode0 =  0 , fftalg0 =512 , wfoptalg0 =  0
-
- outvars: echo of global parameters not present in the input file
-  max_nthreads =    0
-
 -outvars: echo values of preprocessed input variables --------
            acell      1.0000000000E+00  1.0000000000E+00  1.0000000000E+00 Bohr
              amu      3.90983000E+01  7.89600000E+01
             ecut      4.30000000E+01 Hartree
-          fftalg         512
           irdden           1
           irdwfk           1
           istwfk        1    1
              ixc     -116133
              kpt      5.00000000E-01  1.23259516E-32  5.00000000E-01
                       0.00000000E+00  0.00000000E+00  0.00000000E+00
           kptopt           0
P           mkmem           2
P          mkqmem           2
P          mk1mem           2
            natom           3
            nband          26
           nbdbuf           4
            ngfft          64      64      64
             nkpt           2
            nstep         100
             nsym          48
           ntypat           2
              occ      2.000000  2.000000  2.000000  2.000000  2.000000  2.000000
                       2.000000  2.000000  2.000000  2.000000  2.000000  2.000000
                       2.000000  2.000000  2.000000  2.000000  2.000000  0.000000
                       0.000000  0.000000  0.000000  0.000000  0.000000  0.000000
                       0.000000  0.000000
        optdriver           1
            prtwf          -1
            rfdir           1       1       1
           rfelfd           2
            rprim      8.8058063991E+00  0.0000000000E+00  5.0840346949E+00
                       2.9352687997E+00  8.3021938915E+00  5.0840346949E+00
                       0.0000000000E+00  0.0000000000E+00  1.0168069390E+01
          spgroup         225
           symrel      1  0  0   0  1  0   0  0  1      -1  0  0   0 -1  0   0  0 -1
                       0 -1  1   0 -1  0   1 -1  0       0  1 -1   0  1  0  -1  1  0
                      -1  0  0  -1  0  1  -1  1  0       1  0  0   1  0 -1   1 -1  0
                       0  1 -1   1  0 -1   0  0 -1       0 -1  1  -1  0  1   0  0  1
                      -1  0  0  -1  1  0  -1  0  1       1  0  0   1 -1  0   1  0 -1
                       0 -1  1   1 -1  0   0 -1  0       0  1 -1  -1  1  0   0  1  0
                       1  0  0   0  0  1   0  1  0      -1  0  0   0  0 -1   0 -1  0
                       0  1 -1   0  0 -1   1  0 -1       0 -1  1   0  0  1  -1  0  1
                      -1  0  1  -1  1  0  -1  0  0       1  0 -1   1 -1  0   1  0  0
                       0 -1  0   1 -1  0   0 -1  1       0  1  0  -1  1  0   0  1 -1
                       1  0 -1   0  0 -1   0  1 -1      -1  0  1   0  0  1   0 -1  1
                       0  1  0   0  0  1   1  0  0       0 -1  0   0  0 -1  -1  0  0
                       1  0 -1   0  1 -1   0  0 -1      -1  0  1   0 -1  1   0  0  1
                       0 -1  0   0 -1  1   1 -1  0       0  1  0   0  1 -1  -1  1  0
                      -1  0  1  -1  0  0  -1  1  0       1  0 -1   1  0  0   1 -1  0
                       0  1  0   1  0  0   0  0  1       0 -1  0  -1  0  0   0  0 -1
                       0  0 -1   0  1 -1   1  0 -1       0  0  1   0 -1  1  -1  0  1
                       1 -1  0   0 -1  1   0 -1  0      -1  1  0   0  1 -1   0  1  0
                       0  0  1   1  0  0   0  1  0       0  0 -1  -1  0  0   0 -1  0
                      -1  1  0  -1  0  0  -1  0  1       1 -1  0   1  0  0   1  0 -1
                       0  0  1   0  1  0   1  0  0       0  0 -1   0 -1  0  -1  0  0
                       1 -1  0   0 -1  0   0 -1  1      -1  1  0   0  1  0   0  1 -1
                       0  0 -1   1  0 -1   0  1 -1       0  0  1  -1  0  1   0 -1  1
                      -1  1  0  -1  0  1  -1  0  0       1 -1  0   1  0 -1   1  0  0
           tolwfr      1.00000000E-20
            typat      1  1  2
           useylm           1
              wtk        0.50000    0.50000
           xangst      4.6598320497E+00  3.2949988415E+00  8.0710658647E+00
                       1.5532773499E+00  1.0983329472E+00  2.6903552882E+00
                       0.0000000000E+00  0.0000000000E+00  0.0000000000E+00
            xcart      8.8058063991E+00  6.2266454186E+00  1.5252104085E+01
                       2.9352687997E+00  2.0755484729E+00  5.0840346949E+00
                       0.0000000000E+00  0.0000000000E+00  0.0000000000E+00
             xred      7.5000000000E-01  7.5000000000E-01  7.5000000000E-01
                       2.5000000000E-01  2.5000000000E-01  2.5000000000E-01
                       0.0000000000E+00  0.0000000000E+00  0.0000000000E+00
            znucl       19.00000   34.00000

 chkinp: Checking input parameters for consistency.

== DATASET  1 ==================================================================
-   mpi_nproc: 1, omp_nthreads: -1 (-1 if OMP is not activated)

--- !DatasetInfo
iteration_state: {dtset: 1, }
dimensions: {natom: 3, nkpt: 2, mband: 26, nsppol: 1, nspinor: 1, nspden: 1, mpw: 10086, }
cutoff_energies: {ecut:  43.0, pawecutdg:  -1.0, }
electrons: {nelect:   3.40000000E+01, charge:   0.00000000E+00, occopt:   1.00000000E+00, tsmear:   1.00000000E-02, }
meta: {optdriver: 1, rfelfd: 2, }
...

 Real(R)+Recip(G) space primitive vectors, cartesian coordinates (Bohr,Bohr^-1):
 R(1)=  8.8058064  0.0000000  5.0840347  G(1)=  0.1135614 -0.0401500  0.0000000
 R(2)=  2.9352688  8.3021939  5.0840347  G(2)=  0.0000000  0.1204501  0.0000000
 R(3)=  0.0000000  0.0000000 10.1680694  G(3)= -0.0567807 -0.0401500  0.0983471
 Unit cell volume ucvol=  7.4336226E+02 bohr^3
 Angles (23,13,12)=  6.00000000E+01  6.00000000E+01  6.00000000E+01 degrees

 getcut: wavevector=  0.0000  0.0000  0.0000  ngfft=  64  64  64
         ecut(hartree)=     43.000   => boxcut(ratio)=   2.13227

--- Pseudopotential description ------------------------------------------------
- pspini: atom type   1  psp file is /scratch/users/j/a/jabreu/pseudos/PBEsol/K.psp8
- pspatm: opening atomic psp file    /scratch/users/j/a/jabreu/pseudos/PBEsol/K.psp8
- K     ONCVPSP-3.3.0  r_core=   1.36296   1.46408   1.61068
- 19.00000   9.00000    180112                znucl, zion, pspdat
    8 -116133    2    4       400   0.00000   pspcod,pspxc,lmax,lloc,mmax,r2well
    3.99000000000000    5.00000000000000    0.00000000000000   rchrg,fchrg,qchrg
     nproj     2     2     2
     extension_switch     1
  pspatm : epsatm=    8.32487830
         --- l  ekb(1:nproj) -->
             0   10.921326    0.816676
             1    4.431000    0.560368
             2   -3.384038   -1.043186
 pspatm: atomic psp has been read  and splines computed

- pspini: atom type   2  psp file is /scratch/users/j/a/jabreu/pseudos/PBEsol/Se.psp8
- pspatm: opening atomic psp file    /scratch/users/j/a/jabreu/pseudos/PBEsol/Se.psp8
- Se    ONCVPSP-3.3.0  r_core=   1.81943   1.50330   1.90835
- 34.00000  16.00000    180112                znucl, zion, pspdat
    8 -116133    2    4       600   0.00000   pspcod,pspxc,lmax,lloc,mmax,r2well
    5.99000000000000    5.00000000000000    0.00000000000000   rchrg,fchrg,qchrg
     nproj     2     2     2
     extension_switch     1
  pspatm : epsatm=   29.17862020
         --- l  ekb(1:nproj) -->
             0    8.973804    1.019550
             1    6.849857    1.297308
             2   -9.203962   -3.731027
 pspatm: atomic psp has been read  and splines computed

   1.55816481E+03                                ecore*ucvol(ha*bohr**3)

-inwffil : will read wavefunctions from disk file /scratch/users/j/a/jabreu/flow_simple/flow/w153/t1/indata/in_WFK

 ==>  initialize data related to q vector <==

 The list of irreducible perturbations for this q vector is:
    1)    idir= 1    ipert=   4
    2)    idir= 2    ipert=   4
    3)    idir= 3    ipert=   4

 Perturbation wavevector (in red.coord.)   0.000000  0.000000  0.000000
 Perturbation : derivative vs k along direction   1

 dfpt_looppert : COMMENT -
  In a d/dk calculation, iscf is set to -3 automatically.
 The set of symmetries contains only one element for this perturbation.
 symkpt : not enough symmetry to change the number of k points.

[...]

 Initialisation of the first-order wave-functions :
  ireadwf=   0

--- !BeginCycle
iteration_state: {dtset: 1, }
solver: {iscf: 7, nstep: 100, nline: 4, wfoptalg: 0, }
tolerances: {tolwfr: 1.00E-20, }
...

     iter   2DEtotal(Ha)        deltaE(Ha) residm    vres2
-ETOT  1  -33.496126894780     -3.350E+01 2.018E-01 0.000E+00
 ETOT  2  -33.537935211402     -4.181E-02 1.730E-02 0.000E+00
 ETOT  3  -33.538257804743     -3.226E-04 2.818E-03 0.000E+00
 ETOT  4  -33.538264619779     -6.815E-06 8.049E-04 0.000E+00
 ETOT  5  -33.538264844537     -2.248E-07 1.454E-04 0.000E+00
 ETOT  6  -33.538264853718     -9.182E-09 4.427E-05 0.000E+00
 ETOT  7  -33.538264854124     -4.058E-10 8.618E-06 0.000E+00
 ETOT  8  -33.538264854143     -1.845E-11 2.608E-06 0.000E+00
 ETOT  9  -33.538264854144     -8.384E-13 5.306E-07 0.000E+00
 ETOT 10  -33.538264854144     -4.974E-14 1.581E-07 0.000E+00
 ETOT 11  -33.538264854144      7.105E-15 3.317E-08 0.000E+00
 ETOT 12  -33.538264854144     -7.105E-15 9.761E-09 0.000E+00
 ETOT 13  -33.538264854144      7.105E-15 2.092E-09 0.000E+00
 ETOT 14  -33.538264854144      1.421E-14 6.111E-10 0.000E+00
 ETOT 15  -33.538264854144     -1.421E-14 1.330E-10 0.000E+00
 ETOT 16  -33.538264854144      0.000E+00 3.871E-11 0.000E+00
 ETOT 17  -33.538264854144      0.000E+00 8.502E-12 0.000E+00
 ETOT 18  -33.538264854144      7.105E-15 2.474E-12 0.000E+00
 ETOT 19  -33.538264854144      7.105E-15 5.465E-13 0.000E+00
 ETOT 20  -33.538264854144      7.105E-15 1.592E-13 0.000E+00
 ETOT 21  -33.538264854144     -7.105E-15 3.527E-14 0.000E+00
[...]
 prteigrs : about to open file /scratch/users/j/a/jabreu/flow_simple/flow/w153/t1/tmpdata/tmp_1WF1_EIG
 Expectation of eigenvalue derivatives (hartree) for nkpt=   2  k points:
  (in case of degenerate eigenvalues, averaged derivative)
 kpt#   1, nband= 26, wtk=  0.50000, kpt=  0.5000  0.0000  0.5000 (reduced coord)
  -0.00000    0.00000    0.00000    0.00000   -0.00000   -0.00000   -0.00000    0.00000
  -0.00000   -0.00000    0.00000    0.00000   -0.00000   -0.00000    0.00000    0.00000
   0.00000   -0.00000    0.00000   -0.00000    0.00000   -0.00000   -0.00000   -0.00000
   0.00000    0.00000
 prteigrs : prtvol=0 or 1, do not print more k-points.

 Eight components of 2nd-order total energy (hartree) are
 1,2,3: 0th-order hamiltonian combined with 1st-order wavefunctions
     kin0=   3.32069430E+01 eigvalue=   6.22794648E+00  local=  -1.57431714E+01
 4,5,6: 1st-order hamiltonian combined with 1st and 0th-order wfs
     kin1=  -4.03286547E+01  Hartree=   0.00000000E+00     xc=   0.00000000E+00
 7,8,9: eventually, occupation + non-local contributions
    edocc=   6.77838299E+00     enl0=   3.06816376E+00   enl1=  -2.67478750E+01
 1-9 gives the relaxation energy (to be shifted if some occ is /=2.0)
   erelax=  -3.35382649E+01
  No Ewald or frozen-wf contrib.: the relaxation energy is the total one
 2DEtotal=   -0.3353826485E+02 Ha. Also 2DEtotal=   -0.912622598944E+03 eV
    (  non-var. 2DEtotal :   -3.3538264854E+01 Ha)

 Perturbation wavevector (in red.coord.)   0.000000  0.000000  0.000000
 Perturbation : derivative vs k along direction   2
 The set of symmetries contains only one element for this perturbation.
 symkpt : not enough symmetry to change the number of k points.

[...]

 Perturbation wavevector (in red.coord.)   0.000000  0.000000  0.000000
 Perturbation : derivative vs k along direction   3
 The set of symmetries contains only one element for this perturbation.
 symkpt : not enough symmetry to change the number of k points.

-inwffil : will read wavefunctions from disk file /scratch/users/j/a/jabreu/flow_simple/flow/w153/t1/indata/in_WFK

 Initialisation of the first-order wave-functions :
  ireadwf=   0

--- !BeginCycle
iteration_state: {dtset: 1, }
solver: {iscf: 7, nstep: 100, nline: 4, wfoptalg: 0, }
tolerances: {tolwfr: 1.00E-20, }
...

     iter   2DEtotal(Ha)        deltaE(Ha) residm    vres2
-ETOT  1  -33.495258005629     -3.350E+01 2.018E-01 0.000E+00
 ETOT  2  -33.537921799350     -4.266E-02 6.246E-02 0.000E+00
 ETOT  3  -33.538257363922     -3.356E-04 2.953E-03 0.000E+00
 ETOT  4  -33.538264603988     -7.240E-06 7.732E-04 0.000E+00
 ETOT  5  -33.538264843552     -2.396E-07 1.285E-04 0.000E+00
 ETOT  6  -33.538264853214     -9.662E-09 3.623E-05 0.000E+00
 ETOT  7  -33.538264853634     -4.202E-10 6.369E-06 0.000E+00
 ETOT  8  -33.538264853653     -1.892E-11 1.820E-06 0.000E+00
 ETOT  9  -33.538264853654     -8.527E-13 3.349E-07 0.000E+00
 ETOT 10  -33.538264853654     -4.263E-14 9.537E-08 0.000E+00
 ETOT 11  -33.538264853654     -7.105E-15 1.810E-08 0.000E+00
 ETOT 12  -33.538264853654     -7.105E-15 5.131E-09 0.000E+00
 ETOT 13  -33.538264853654     -1.421E-14 9.915E-10 0.000E+00
 ETOT 14  -33.538264853654      7.105E-15 2.808E-10 0.000E+00
 ETOT 15  -33.538264853654     -1.421E-14 5.466E-11 0.000E+00
 ETOT 16  -33.538264853654      7.105E-15 1.554E-11 0.000E+00
 ETOT 17  -33.538264853654     -7.105E-15 3.025E-12 0.000E+00
 ETOT 18  -33.538264853654      7.105E-15 8.660E-13 0.000E+00
 ETOT 19  -33.538264853654      0.000E+00 1.679E-13 0.000E+00
 ETOT 20  -33.538264853654      0.000E+00 4.850E-14 0.000E+00
 ETOT 21  -33.538264853654      7.105E-15 9.345E-15 0.000E+00
 ETOT 22  -33.538264853654      0.000E+00 2.726E-15 0.000E+00
 ETOT 23  -33.538264853654      0.000E+00 5.213E-16 0.000E+00
 ETOT 24  -33.538264853654      0.000E+00 1.535E-16 0.000E+00
 ETOT 25  -33.538264853654      0.000E+00 2.915E-17 0.000E+00
 ETOT 26  -33.538264853654      0.000E+00 8.659E-18 0.000E+00
 ETOT 27  -33.538264853654      0.000E+00 1.633E-18 0.000E+00
 ETOT 28  -33.538264853654     -7.105E-15 4.890E-19 0.000E+00
 ETOT 29  -33.538264853654      7.105E-15 9.162E-20 0.000E+00
 ETOT 30  -33.538264853654     -7.105E-15 2.764E-20 0.000E+00
 ETOT 31  -33.538264853654      7.105E-15 9.766E-21 0.000E+00

 At SCF step   31   max residual=  9.77E-21 < tolwfr=  1.00E-20 =>converged.

 ----iterations are completed or convergence reached----

 dfpt_looppert: DFPT cycle converged with prtwf=-1. Will skip output of the 1st-order WFK file.
 dfpt_looppert : ek2=    3.8947797727E+01
          f-sum rule ratio=    1.0354540456E+00
 prteigrs : about to open file /scratch/users/j/a/jabreu/flow_simple/flow/w153/t1/tmpdata/tmp_1WF1_EIG
 Expectation of eigenvalue derivatives (hartree) for nkpt=   2  k points:
  (in case of degenerate eigenvalues, averaged derivative)
 kpt#   1, nband= 26, wtk=  0.50000, kpt=  0.5000  0.0000  0.5000 (reduced coord)
   0.00000   -0.00000   -0.00000   -0.00000   -0.00000    0.00000    0.00000   -0.00000
   0.00000    0.00000   -0.00000   -0.00000   -0.00000    0.00000    0.00000   -0.00000
  -0.00000   -0.00000    0.00000   -0.00000    0.00000    0.00000    0.00000    0.00000
  -0.00000   -0.00000
 prteigrs : prtvol=0 or 1, do not print more k-points.

 Eight components of 2nd-order total energy (hartree) are
 1,2,3: 0th-order hamiltonian combined with 1st-order wavefunctions
     kin0=   3.32069430E+01 eigvalue=   6.22794648E+00  local=  -1.57431714E+01
 4,5,6: 1st-order hamiltonian combined with 1st and 0th-order wfs
     kin1=  -4.03286547E+01  Hartree=   0.00000000E+00     xc=   0.00000000E+00
 7,8,9: eventually, occupation + non-local contributions
    edocc=   6.77838299E+00     enl0=   3.06816376E+00   enl1=  -2.67478750E+01
 1-9 gives the relaxation energy (to be shifted if some occ is /=2.0)
   erelax=  -3.35382649E+01
  No Ewald or frozen-wf contrib.: the relaxation energy is the total one
 2DEtotal=   -0.3353826485E+02 Ha. Also 2DEtotal=   -0.912622598931E+03 eV
    (  non-var. 2DEtotal :   -3.3538264854E+01 Ha)

 CALCULATION OF EFFECTIVE MASSES
 NOTE : Additional infos (eff. mass eigenvalues, eigenvectors and, if degenerate, average mass) are available in stdout.

 COMMENTS:
 - At k-point ( 0.500, 0.000, 0.500), bands    16 through    17
   are DEGENERATE (effective mass tensor is therefore not defined).
   See Section IIIB Eqs. (67)-(70) and Appendix E of PRB 93 205147 (2016).
 - Angular average effective mass for Frohlich model is to be averaged over degenerate bands. See later.
 - Associated theta integrals calculated with ntheta=   1000 points.

 K-point ( 0.500, 0.000, 0.500) | band =    16
 Transport equivalent effective mass tensor:
             -2.1568173285              1.4393056541             -1.7627822654
              1.4393056541             -3.1745601650              2.4929506260
             -1.7627822654              2.4929506260             -4.1923031315
 Transport equivalent effective mass tensor eigenvalues:
             -7.2455315123             -1.1390745567             -1.1390745561
 Angular average effective mass 1/(<1/m>)=  -1.5779274391
 Angular average effective mass for Frohlich model (<m**0.5>)**2=  -1.8215337922
 Effective masses along directions: (cart. coord. / red. coord. -> eff. mass)
    1:   1.000000  0.000000  0.000000 /   0.948683  0.316228  0.000000 ->  -1.3056992681
    2:   0.000000  1.000000  0.000000 /   0.000000  1.000000  0.000000 ->  -1.5244604809
    3:   0.000000  0.000000  1.000000 /   0.408248  0.408248  0.816497 ->  -2.0298350009
    4:   0.577350  0.577350  0.577350 /   0.585539  0.688047  0.428644 ->  -1.2064721824
    5:   0.000000  0.707107  0.707107 /   0.289489  0.762222  0.578977 ->  -1.1368769781
    6:   0.707107  0.000000  0.707107 /   0.731423  0.422287  0.535439 ->  -2.3948776870
    7:   0.707107  0.707107  0.000000 /   0.616798  0.787122  0.000000 ->  -1.1897729848

 K-point ( 0.500, 0.000, 0.500) | band =    17
 Transport equivalent effective mass tensor:
            -69.5611804864             -6.4026113374              7.8415655734
             -6.4026113374            -65.0338504115            -11.0896484335
              7.8415655734            -11.0896484335            -60.5065200706
 Transport equivalent effective mass tensor eigenvalues:
            -74.0885103770            -74.0885102917            -46.9245302999
 Angular average effective mass 1/(<1/m>)= -12.7593509834
 Angular average effective mass for Frohlich model (<m**0.5>)**2= -15.3223629257
 Effective masses along directions: (cart. coord. / red. coord. -> eff. mass)
    1:   1.000000  0.000000  0.000000 /   0.948683  0.316228  0.000000 -> -18.2313251323
    2:   0.000000  1.000000  0.000000 /   0.000000  1.000000  0.000000 -> -17.8104479547
    3:   0.000000  0.000000  1.000000 /   0.408248  0.408248  0.816497 ->  -9.0205064549
    4:   0.577350  0.577350  0.577350 /   0.585539  0.688047  0.428644 -> -26.5988671052
    5:   0.000000  0.707107  0.707107 /   0.289489  0.762222  0.578977 -> -22.6026710633
    6:   0.707107  0.000000  0.707107 /   0.731423  0.422287  0.535439 ->  -9.3944737999
    7:   0.707107  0.707107  0.000000 /   0.616798  0.787122  0.000000 -> -12.5758505895

 Angular average effective mass for Frohlich model, averaged over degenerate bands.
 Value of     (<<m**0.5>>)**2 =     6.927480E+00
 Absolute Value of <<m**0.5>> =     2.632011E+00

 K-point ( 0.000, 0.000, 0.000) | band =    18
 Effective mass tensor:
              0.3146785468              0.0000000000              0.0000000000
              0.0000000000              0.3146785468              0.0000000000
              0.0000000000              0.0000000000              0.3146785468
 Effective mass tensor eigenvalues:
              0.3146785468              0.3146785468              0.3146785468
 Angular average effective mass 1/(<1/m>)=   0.3146785468
 Angular average effective mass for Frohlich model (<m**0.5>)**2=   0.3146785468
 Effective masses along directions: (cart. coord. / red. coord. -> eff. mass)
    1:   1.000000  0.000000  0.000000 /   0.948683  0.316228  0.000000 ->   0.3146785468
    2:   0.000000  1.000000  0.000000 /   0.000000  1.000000  0.000000 ->   0.3146785468
    3:   0.000000  0.000000  1.000000 /   0.408248  0.408248  0.816497 ->   0.3146785468
    4:   0.577350  0.577350  0.577350 /   0.585539  0.688047  0.428644 ->   0.3146785468
    5:   0.000000  0.707107  0.707107 /   0.289489  0.762222  0.578977 ->   0.3146785468
    6:   0.707107  0.000000  0.707107 /   0.731423  0.422287  0.535439 ->   0.3146785468
    7:   0.707107  0.707107  0.000000 /   0.616798  0.787122  0.000000 ->   0.3146785468

 END OF EFFECTIVE MASSES SECTION

 ---- first-order wavefunction calculations are completed ----

 Total localisation tensor (bohr^2) in cartesian coordinates
  WARNING : still subject to testing - especially symmetries.
      direction              matrix element
   alpha     beta       real part   imaginary part
     1        1       1.2977180311    0.0000000000
     1        2       0.3670500879    0.0000000000
     1        3       0.8990854255    0.0000000000
     2        1       0.3670500879    0.0000000000
     2        2       1.0381744249    0.0000000000
     2        3       0.6357494012    0.0000000000
     3        1       0.8990854255    0.0000000000
     3        2       0.6357494012    0.0000000000
     3        3       2.3358924559    0.0000000000

 respfn : d/dk was computed, but no 2DTE, so no DDB output.

== END DATASET(S) ==============================================================

 -outvars: echo values of variables after computation  --------
            acell      1.0000000000E+00  1.0000000000E+00  1.0000000000E+00 Bohr
              amu      3.90983000E+01  7.89600000E+01
             ecut      4.30000000E+01 Hartree
           etotal     -3.3538264854E+01
            fcart      0.0000000000E+00  0.0000000000E+00  0.0000000000E+00
                       0.0000000000E+00  0.0000000000E+00  0.0000000000E+00
                       0.0000000000E+00  0.0000000000E+00  0.0000000000E+00
-          fftalg         512
           irdden           1
           irdwfk           1
           istwfk        1    1
              ixc     -116133
              kpt      5.00000000E-01  1.23259516E-32  5.00000000E-01
                       0.00000000E+00  0.00000000E+00  0.00000000E+00
           kptopt           0
P           mkmem           2
P          mkqmem           2
P          mk1mem           2
            natom           3
            nband          26
           nbdbuf           4
            ngfft          64      64      64
             nkpt           2
            nstep         100
             nsym          48
           ntypat           2
              occ      2.000000  2.000000  2.000000  2.000000  2.000000  2.000000
                       2.000000  2.000000  2.000000  2.000000  2.000000  2.000000
                       2.000000  2.000000  2.000000  2.000000  2.000000  0.000000
                       0.000000  0.000000  0.000000  0.000000  0.000000  0.000000
                       0.000000  0.000000
        optdriver           1
            prtwf          -1
            rfdir           1       1       1
           rfelfd           2
            rprim      8.8058063991E+00  0.0000000000E+00  5.0840346949E+00
                       2.9352687997E+00  8.3021938915E+00  5.0840346949E+00
                       0.0000000000E+00  0.0000000000E+00  1.0168069390E+01
          spgroup         225
           strten      0.0000000000E+00  0.0000000000E+00  0.0000000000E+00
                       0.0000000000E+00  0.0000000000E+00  0.0000000000E+00
           symrel      1  0  0   0  1  0   0  0  1      -1  0  0   0 -1  0   0  0 -1
                       0 -1  1   0 -1  0   1 -1  0       0  1 -1   0  1  0  -1  1  0
                      -1  0  0  -1  0  1  -1  1  0       1  0  0   1  0 -1   1 -1  0
                       0  1 -1   1  0 -1   0  0 -1       0 -1  1  -1  0  1   0  0  1
                      -1  0  0  -1  1  0  -1  0  1       1  0  0   1 -1  0   1  0 -1
                       0 -1  1   1 -1  0   0 -1  0       0  1 -1  -1  1  0   0  1  0
                       1  0  0   0  0  1   0  1  0      -1  0  0   0  0 -1   0 -1  0
                       0  1 -1   0  0 -1   1  0 -1       0 -1  1   0  0  1  -1  0  1
                      -1  0  1  -1  1  0  -1  0  0       1  0 -1   1 -1  0   1  0  0
                       0 -1  0   1 -1  0   0 -1  1       0  1  0  -1  1  0   0  1 -1
                       1  0 -1   0  0 -1   0  1 -1      -1  0  1   0  0  1   0 -1  1
                       0  1  0   0  0  1   1  0  0       0 -1  0   0  0 -1  -1  0  0
                       1  0 -1   0  1 -1   0  0 -1      -1  0  1   0 -1  1   0  0  1
                       0 -1  0   0 -1  1   1 -1  0       0  1  0   0  1 -1  -1  1  0
                      -1  0  1  -1  0  0  -1  1  0       1  0 -1   1  0  0   1 -1  0
                       0  1  0   1  0  0   0  0  1       0 -1  0  -1  0  0   0  0 -1
                       0  0 -1   0  1 -1   1  0 -1       0  0  1   0 -1  1  -1  0  1
                       1 -1  0   0 -1  1   0 -1  0      -1  1  0   0  1 -1   0  1  0
                       0  0  1   1  0  0   0  1  0       0  0 -1  -1  0  0   0 -1  0
                      -1  1  0  -1  0  0  -1  0  1       1 -1  0   1  0  0   1  0 -1
                       0  0  1   0  1  0   1  0  0       0  0 -1   0 -1  0  -1  0  0
                       1 -1  0   0 -1  0   0 -1  1      -1  1  0   0  1  0   0  1 -1
                       0  0 -1   1  0 -1   0  1 -1       0  0  1  -1  0  1   0 -1  1
                      -1  1  0  -1  0  1  -1  0  0       1 -1  0   1  0 -1   1  0  0
           tolwfr      1.00000000E-20
            typat      1  1  2
           useylm           1
              wtk        0.50000    0.50000
           xangst      4.6598320497E+00  3.2949988415E+00  8.0710658647E+00
                       1.5532773499E+00  1.0983329472E+00  2.6903552882E+00
                       0.0000000000E+00  0.0000000000E+00  0.0000000000E+00
            xcart      8.8058063991E+00  6.2266454186E+00  1.5252104085E+01
                       2.9352687997E+00  2.0755484729E+00  5.0840346949E+00
                       0.0000000000E+00  0.0000000000E+00  0.0000000000E+00
             xred      7.5000000000E-01  7.5000000000E-01  7.5000000000E-01
                       2.5000000000E-01  2.5000000000E-01  2.5000000000E-01
                       0.0000000000E+00  0.0000000000E+00  0.0000000000E+00
            znucl       19.00000   34.00000

- Timing analysis has been suppressed with timopt=0

 Suggested references for the acknowledgment of ABINIT usage.

 Calculation completed.
.Delivered  14 WARNINGs and   9 COMMENTs to log file.