.Version 9.7.2 of ABINIT

 ABINIT is a project of the Universite Catholique de Louvain,
 Corning Inc. and other collaborators, see ~abinit/doc/developers/contributors.txt .
 acknowledgments of the ABINIT effort.

.Starting date : Wed  1 Dec 2021.
- ( at 21h33 )

- input  file    -> /scratch/users/j/a/jabreu/flow_simple_remain_atoms/flow/w216/t1/run.abi
- output file    -> /scratch/users/j/a/jabreu/flow_simple_remain_atoms/flow/w216/t1/run.abo
- root for input  files -> /scratch/users/j/a/jabreu/flow_simple_remain_atoms/flow/w216/t1/indata/in
- root for output files -> /scratch/users/j/a/jabreu/flow_simple_remain_atoms/flow/w216/t1/outdata/out

 Symmetries : space group P6_3/m m c (#194); Bravais hP (primitive hexag.)
     intxc =       0      iscf =       7    lmnmax =      13     lnmax =       5
     mgfft =      90  mpssoang =       3    mqgrid =    4264     natom =       8
  nloc_mem =       1    nspden =       1   nspinor =       1    nsppol =       1
      nsym =      24    n1xccc =    2501    ntypat =       2    occopt =       1
   xclevel =       2
-    mband =          27        mffmem =           1         mkmem =           2
-   mkqmem =           2        mk1mem =           2           mpw =        5989
      nfft =      116640          nkpt =           2
  Rough estimation (10% accuracy) of disk space for files :

------------- Echo of variables that govern the present computation ------------
-
- outvars: echo of selected default values
-   iomode0 =  0 , fftalg0 =512 , wfoptalg0 =  0
-
- outvars: echo of global parameters not present in the input file
-  max_nthreads =    0
-
 -outvars: echo values of preprocessed input variables --------
            acell      1.0000000000E+00  1.0000000000E+00  1.0000000000E+00 Bohr
              amu      6.94100000E+00  1.59994000E+01
             ecut      4.40000000E+01 Hartree
-          fftalg         512
           irdden           1
           irdwfk           1
           istwfk        0    1
              ixc     -116133
              kpt      1.14285714E-01  0.00000000E+00  0.00000000E+00
                       0.00000000E+00  0.00000000E+00  0.00000000E+00
           kptopt           0
P           mkmem           2
P          mkqmem           2
P          mk1mem           2
            natom           8
            nband          27
           nbdbuf           4
            ngfft          36      36      90
             nkpt           2
            nstep        2000
             nsym          24
           ntypat           2
              occ      2.000000  2.000000  2.000000  2.000000  2.000000  2.000000
                       2.000000  2.000000  2.000000  2.000000  2.000000  2.000000
                       2.000000  2.000000  2.000000  2.000000  2.000000  2.000000
                       0.000000  0.000000  0.000000  0.000000  0.000000  0.000000
                       0.000000  0.000000  0.000000
        optdriver           1
            prtwf          -1
            rfdir           1       1       1
           rfelfd           2
            rprim      5.8990700009E+00  0.0000000000E+00  0.0000000000E+00
                      -2.9495350005E+00  5.1087444795E+00  0.0000000000E+00
                       0.0000000000E+00  0.0000000000E+00  1.4278740135E+01
          spgroup         194
           symrel      1  0  0   0  1  0   0  0  1      -1  0  0   0 -1  0   0  0 -1
                       0  1  0   1  0  0   0  0  1       0 -1  0  -1  0  0   0  0 -1
                       1  1  0  -1  0  0   0  0  1      -1 -1  0   1  0  0   0  0 -1
                      -1  0  0   1  1  0   0  0  1       1  0  0  -1 -1  0   0  0 -1
                       0  1  0  -1 -1  0   0  0  1       0 -1  0   1  1  0   0  0 -1
                      -1 -1  0   0  1  0   0  0  1       1  1  0   0 -1  0   0  0 -1
                      -1  0  0   0 -1  0   0  0  1       1  0  0   0  1  0   0  0 -1
                       0 -1  0  -1  0  0   0  0  1       0  1  0   1  0  0   0  0 -1
                      -1 -1  0   1  0  0   0  0  1       1  1  0  -1  0  0   0  0 -1
                       1  0  0  -1 -1  0   0  0  1      -1  0  0   1  1  0   0  0 -1
                       0 -1  0   1  1  0   0  0  1       0  1  0  -1 -1  0   0  0 -1
                       1  1  0   0 -1  0   0  0  1      -1 -1  0   0  1  0   0  0 -1
            tnons      0.0000000  0.0000000  0.0000000     0.0000000  0.0000000 -0.0000000
                       0.0000000  0.0000000  0.5000000     0.0000000  0.0000000  0.5000000
                       0.0000000  0.0000000  0.5000000     0.0000000  0.0000000  0.5000000
                       0.0000000  0.0000000  0.0000000     0.0000000  0.0000000 -0.0000000
                       0.0000000  0.0000000  0.0000000     0.0000000  0.0000000 -0.0000000
                       0.0000000  0.0000000  0.5000000     0.0000000  0.0000000  0.5000000
                       0.0000000  0.0000000  0.5000000     0.0000000  0.0000000  0.5000000
                       0.0000000  0.0000000  0.0000000     0.0000000  0.0000000 -0.0000000
                       0.0000000  0.0000000  0.0000000     0.0000000  0.0000000 -0.0000000
                       0.0000000  0.0000000  0.5000000     0.0000000  0.0000000  0.5000000
                       0.0000000  0.0000000  0.5000000     0.0000000  0.0000000  0.5000000
                       0.0000000  0.0000000  0.0000000     0.0000000  0.0000000 -0.0000000
           tolwfr      1.00000000E-20
            typat      1  1  1  1  2  2  2  2
           useylm           1
              wtk        0.50000    0.50000
           xangst      0.0000000000E+00  0.0000000000E+00 -1.0486034051E-16
                       0.0000000000E+00  0.0000000000E+00  3.7779919235E+00
                       1.5608266982E+00  9.0114371435E-01  5.6669878852E+00
                      -1.7639006744E-11  1.8022874287E+00  1.8889959617E+00
                       1.5608266982E+00  9.0114371435E-01  2.6502991142E+00
                      -1.7639006744E-11  1.8022874287E+00  6.4282910377E+00
                      -1.7639006744E-11  1.8022874287E+00  4.9056847327E+00
                       1.5608266982E+00  9.0114371435E-01  1.1276928092E+00
            xcart      0.0000000000E+00  0.0000000000E+00 -1.9815732576E-16
                       0.0000000000E+00  0.0000000000E+00  7.1393700676E+00
                       2.9495350004E+00  1.7029148265E+00  1.0709055101E+01
                      -3.3332892002E-11  3.4058296530E+00  3.5696850338E+00
                       2.9495350004E+00  1.7029148265E+00  5.0083394962E+00
                      -3.3332892002E-11  3.4058296530E+00  1.2147709564E+01
                      -3.3332892002E-11  3.4058296530E+00  9.2704006391E+00
                       2.9495350004E+00  1.7029148265E+00  2.1310305715E+00
             xred      0.0000000000E+00  0.0000000000E+00 -1.3877787808E-17
                       0.0000000000E+00  0.0000000000E+00  5.0000000000E-01
                       6.6666666667E-01  3.3333333333E-01  7.5000000000E-01
                       3.3333333333E-01  6.6666666667E-01  2.5000000000E-01
                       6.6666666667E-01  3.3333333333E-01  3.5075500000E-01
                       3.3333333333E-01  6.6666666667E-01  8.5075500000E-01
                       3.3333333333E-01  6.6666666667E-01  6.4924500000E-01
                       6.6666666667E-01  3.3333333333E-01  1.4924500000E-01
            znucl        3.00000    8.00000

 chkinp: Checking input parameters for consistency.

== DATASET  1 ==================================================================
-   mpi_nproc: 1, omp_nthreads: -1 (-1 if OMP is not activated)

--- !DatasetInfo
iteration_state: {dtset: 1, }
dimensions: {natom: 8, nkpt: 2, mband: 27, nsppol: 1, nspinor: 1, nspden: 1, mpw: 5989, }
cutoff_energies: {ecut:  44.0, pawecutdg:  -1.0, }
electrons: {nelect:   3.60000000E+01, charge:   0.00000000E+00, occopt:   1.00000000E+00, tsmear:   1.00000000E-02, }
meta: {optdriver: 1, rfelfd: 2, }
...

 Real(R)+Recip(G) space primitive vectors, cartesian coordinates (Bohr,Bohr^-1):
 R(1)=  5.8990700  0.0000000  0.0000000  G(1)=  0.1695182  0.0978714  0.0000000
 R(2)= -2.9495350  5.1087445  0.0000000  G(2)=  0.0000000  0.1957428  0.0000000
 R(3)=  0.0000000  0.0000000 14.2787401  G(3)=  0.0000000  0.0000000  0.0700342
 Unit cell volume ucvol=  4.3031613E+02 bohr^3
 Angles (23,13,12)=  9.00000000E+01  9.00000000E+01  1.20000000E+02 degrees

 getcut: wavevector=  0.0000  0.0000  0.0000  ngfft=  36  36  90
         ecut(hartree)=     44.000   => boxcut(ratio)=   2.04375

--- Pseudopotential description ------------------------------------------------
- pspini: atom type   1  psp file is /scratch/users/j/a/jabreu/pseudos/PBEsol/Li.psp8
- pspatm: opening atomic psp file    /scratch/users/j/a/jabreu/pseudos/PBEsol/Li.psp8
- Li    ONCVPSP-3.3.0  r_core=   1.40824   1.10935
-  3.00000   3.00000    180112                znucl, zion, pspdat
    8 -116133    1    4       400   0.00000   pspcod,pspxc,lmax,lloc,mmax,r2well
    3.99000000000000    0.00000000000000    0.00000000000000   rchrg,fchrg,qchrg
     nproj     2     2
     extension_switch     1
  pspatm : epsatm=    2.60859637
         --- l  ekb(1:nproj) -->
             0   -4.855856   -1.482423
             1   -2.171544   -0.427615
 pspatm: atomic psp has been read  and splines computed

- pspini: atom type   2  psp file is /scratch/users/j/a/jabreu/pseudos/PBEsol/O.psp8
- pspatm: opening atomic psp file    /scratch/users/j/a/jabreu/pseudos/PBEsol/O.psp8
- O     ONCVPSP-3.3.0  r_core=   1.35509   1.45563   1.26150
-  8.00000   6.00000    180112                znucl, zion, pspdat
    8 -116133    2    4       600   0.00000   pspcod,pspxc,lmax,lloc,mmax,r2well
    5.99000000000000    4.00000000000000    0.00000000000000   rchrg,fchrg,qchrg
     nproj     2     2     1
     extension_switch     1
  pspatm : epsatm=    6.22910522
         --- l  ekb(1:nproj) -->
             0    6.050032    0.820363
             1   -4.739617   -1.153841
             2   -1.335834
 pspatm: atomic psp has been read  and splines computed

   1.27262903E+03                                ecore*ucvol(ha*bohr**3)

 ==>  initialize data related to q vector <==

 The list of irreducible perturbations for this q vector is:
    1)    idir= 1    ipert=   9
    2)    idir= 2    ipert=   9
    3)    idir= 3    ipert=   9

 Perturbation wavevector (in red.coord.)   0.000000  0.000000  0.000000
 Perturbation : derivative vs k along direction   1

 dfpt_looppert : COMMENT -
  In a d/dk calculation, iscf is set to -3 automatically.
 The set of symmetries contains only one element for this perturbation.
 symkpt : not enough symmetry to change the number of k points.

 Initialisation of the first-order wave-functions :
  ireadwf=   0

--- !BeginCycle
iteration_state: {dtset: 1, }
solver: {iscf: 7, nstep: 2000, nline: 4, wfoptalg: 0, }
tolerances: {tolwfr: 1.00E-20, }
...

     iter   2DEtotal(Ha)        deltaE(Ha) residm    vres2
-ETOT  1  -69.770828584828     -6.977E+01 5.051E-02 0.000E+00
 ETOT  2  -69.789789252979     -1.896E-02 6.998E-05 0.000E+00
 ETOT  3  -69.789792009229     -2.756E-06 3.867E-07 0.000E+00
 ETOT  4  -69.789792009903     -6.738E-10 1.593E-09 0.000E+00
 ETOT  5  -69.789792009903     -3.553E-13 1.013E-11 0.000E+00
 ETOT  6  -69.789792009903      7.105E-14 5.779E-14 0.000E+00
 ETOT  7  -69.789792009903      0.000E+00 4.058E-16 0.000E+00
 ETOT  8  -69.789792009903      0.000E+00 2.560E-18 0.000E+00
 ETOT  9  -69.789792009903      0.000E+00 1.897E-20 0.000E+00
 ETOT 10  -69.789792009903      0.000E+00 8.845E-21 0.000E+00

 At SCF step   10   max residual=  8.84E-21 < tolwfr=  1.00E-20 =>converged.

 ----iterations are completed or convergence reached----

 dfpt_looppert: DFPT cycle converged with prtwf=-1. Will skip output of the 1st-order WFK file.
 dfpt_looppert : ek2=    1.0890902506E+02
          f-sum rule ratio=    1.2860010104E+00
 prteigrs : about to open file /scratch/users/j/a/jabreu/flow_simple_remain_atoms/flow/w216/t1/tmpdata/tmp_1WF1_EIG
 Expectation of eigenvalue derivatives (hartree) for nkpt=   2  k points:
  (in case of degenerate eigenvalues, averaged derivative)
 kpt#   1, nband= 27, wtk=  0.50000, kpt=  0.1143  0.0000  0.0000 (reduced coord)
   0.00198    0.00112    0.00193    0.00108    0.01186    0.00733    0.03722    0.01915
   0.02012   -0.01410   -0.17980   -0.07138   -0.13153   -0.03519   -0.20575   -0.06867
  -0.16657   -0.00033    0.06505   -0.00930    0.18873    0.16236    0.13996    0.26190
  -0.21658    0.21624   -0.18877
 prteigrs : prtvol=0 or 1, do not print more k-points.

 Eight components of 2nd-order total energy (hartree) are
 1,2,3: 0th-order hamiltonian combined with 1st-order wavefunctions
     kin0=   7.44213812E+01 eigvalue=   5.72730528E+00  local=  -2.48130197E+01
 4,5,6: 1st-order hamiltonian combined with 1st and 0th-order wfs
     kin1=  -1.40057116E+02  Hartree=   0.00000000E+00     xc=   0.00000000E+00
 7,8,9: eventually, occupation + non-local contributions
    edocc=   1.96765914E+01     enl0=  -5.22246612E+00   enl1=   4.77532250E-01
 1-9 gives the relaxation energy (to be shifted if some occ is /=2.0)
   erelax=  -6.97897920E+01
  No Ewald or frozen-wf contrib.: the relaxation energy is the total one
 2DEtotal=   -0.6978979201E+02 Ha. Also 2DEtotal=   -0.189907681989E+04 eV
    (  non-var. 2DEtotal :   -6.9789792009E+01 Ha)

 Perturbation wavevector (in red.coord.)   0.000000  0.000000  0.000000
 Perturbation : derivative vs k along direction   2
 The set of symmetries contains only one element for this perturbation.
 symkpt : not enough symmetry to change the number of k points.

[...]

 Perturbation wavevector (in red.coord.)   0.000000  0.000000  0.000000
 Perturbation : derivative vs k along direction   3
 The set of symmetries contains only one element for this perturbation.
 symkpt : not enough symmetry to change the number of k points.

 Initialisation of the first-order wave-functions :
  ireadwf=   0

--- !BeginCycle
iteration_state: {dtset: 1, }
solver: {iscf: 7, nstep: 2000, nline: 4, wfoptalg: 0, }
tolerances: {tolwfr: 1.00E-20, }
...

     iter   2DEtotal(Ha)        deltaE(Ha) residm    vres2
-ETOT  1  -7.3557120250622     -7.356E+00 1.288E-02 0.000E+00
 ETOT  2  -7.3580952750338     -2.383E-03 8.420E-05 0.000E+00
 ETOT  3  -7.3580958840680     -6.090E-07 4.322E-07 0.000E+00
 ETOT  4  -7.3580958843523     -2.843E-10 2.953E-09 0.000E+00
 ETOT  5  -7.3580958843525     -1.945E-13 2.129E-11 0.000E+00
 ETOT  6  -7.3580958843525      1.155E-14 2.483E-13 0.000E+00
 ETOT  7  -7.3580958843525     -9.770E-15 1.874E-15 0.000E+00
 ETOT  8  -7.3580958843525     -1.776E-15 2.359E-17 0.000E+00
 ETOT  9  -7.3580958843525      8.882E-16 1.805E-19 0.000E+00
 ETOT 10  -7.3580958843525      0.000E+00 9.962E-21 0.000E+00

 At SCF step   10   max residual=  9.96E-21 < tolwfr=  1.00E-20 =>converged.

 ----iterations are completed or convergence reached----

 dfpt_looppert: DFPT cycle converged with prtwf=-1. Will skip output of the 1st-order WFK file.
 dfpt_looppert : ek2=    1.3941594717E+01
          f-sum rule ratio=    1.0388728534E+00
 prteigrs : about to open file /scratch/users/j/a/jabreu/flow_simple_remain_atoms/flow/w216/t1/tmpdata/tmp_1WF1_EIG
 Expectation of eigenvalue derivatives (hartree) for nkpt=   2  k points:
  (in case of degenerate eigenvalues, averaged derivative)
 kpt#   1, nband= 27, wtk=  0.50000, kpt=  0.1143  0.0000  0.0000 (reduced coord)
  -0.00000   -0.00000   -0.00000    0.00000   -0.00000    0.00000   -0.00000   -0.00000
   0.00000   -0.00000    0.00000    0.00000    0.00000    0.00000    0.00000   -0.00000
  -0.00000   -0.00000   -0.00000    0.00000   -0.00000   -0.00000   -0.00000    0.00000
  -0.00000    0.00000   -0.00000
 prteigrs : prtvol=0 or 1, do not print more k-points.

 Eight components of 2nd-order total energy (hartree) are
 1,2,3: 0th-order hamiltonian combined with 1st-order wavefunctions
     kin0=   8.66054140E+00 eigvalue=   5.85325989E-01  local=  -2.90447146E+00
 4,5,6: 1st-order hamiltonian combined with 1st and 0th-order wfs
     kin1=  -1.44835443E+01  Hartree=   0.00000000E+00     xc=   0.00000000E+00
 7,8,9: eventually, occupation + non-local contributions
    edocc=   1.83348437E+00     enl0=  -8.16784415E-01   enl1=  -2.32647484E-01
 1-9 gives the relaxation energy (to be shifted if some occ is /=2.0)
   erelax=  -7.35809588E+00
  No Ewald or frozen-wf contrib.: the relaxation energy is the total one
 2DEtotal=   -0.7358095884E+01 Ha. Also 2DEtotal=   -0.200223971588E+03 eV
    (  non-var. 2DEtotal :   -7.3580958843E+00 Ha)

 CALCULATION OF EFFECTIVE MASSES
 NOTE : Additional infos (eff. mass eigenvalues, eigenvectors and, if degenerate, average mass) are available in stdout.

 K-point ( 0.114, 0.000, 0.000) | band =    18
 Effective mass tensor:
             -7.4320697261             -3.4672488930              0.0000000000
             -3.4672488930             -3.4284353748              0.0000000001
              0.0000000000              0.0000000001             -2.7588757947
 Effective mass tensor eigenvalues:
             -9.4338867609             -2.7588757947             -1.4266183400
 Angular average effective mass 1/(<1/m>)=  -2.5653618879
 Angular average effective mass for Frohlich model (<m**0.5>)**2=  -2.9642523438
 Effective masses along directions: (cart. coord. / red. coord. -> eff. mass)
    1:   1.000000  0.000000  0.000000 /   0.894427 -0.447214  0.000000 ->  -3.9255679047
    2:   0.000000  1.000000  0.000000 /   0.000000  1.000000  0.000000 ->  -1.8108758888
    3:   0.000000  0.000000  1.000000 /   0.000000  0.000000  1.000000 ->  -2.7588757947
    4:   0.577350  0.577350  0.577350 /   0.378158  0.138416  0.915335 ->  -4.5859122204
    5:   0.000000  0.707107  0.707107 /   0.000000  0.336874  0.941550 ->  -2.1865440412
    6:   0.707107  0.000000  0.707107 /   0.375060 -0.187530  0.907834 ->  -3.2404055625
    7:   0.707107  0.707107  0.000000 /   0.939071  0.343724  0.000000 ->  -6.8561033088

 K-point ( 0.000, 0.000, 0.000) | band =    19
 Effective mass tensor:
              2.1586531754              0.0000005914             -0.0000007258
              0.0000005914              2.1586534650             -0.0000009145
             -0.0000007258             -0.0000009145              0.4181437339
 Effective mass tensor eigenvalues:
              0.4181437339              2.1586527113              2.1586539291
 Angular average effective mass 1/(<1/m>)=   0.9041521253
 Angular average effective mass for Frohlich model (<m**0.5>)**2=   1.1076825670
 Effective masses along directions: (cart. coord. / red. coord. -> eff. mass)
    1:   1.000000  0.000000  0.000000 /   0.894427 -0.447214  0.000000 ->   2.1586531754
    2:   0.000000  1.000000  0.000000 /   0.000000  1.000000  0.000000 ->   2.1586534650
    3:   0.000000  0.000000  1.000000 /   0.000000  0.000000  1.000000 ->   0.4181437339
    4:   0.577350  0.577350  0.577350 /   0.378158  0.138416  0.915335 ->   0.9041512041
    5:   0.000000  0.707107  0.707107 /   0.000000  0.336874  0.941550 ->   0.7005803792
    6:   0.707107  0.000000  0.707107 /   0.375060 -0.187530  0.907834 ->   0.7005804665
    7:   0.707107  0.707107  0.000000 /   0.939071  0.343724  0.000000 ->   2.1586539116

 END OF EFFECTIVE MASSES SECTION

 ---- first-order wavefunction calculations are completed ----

 Total localisation tensor (bohr^2) in cartesian coordinates
  WARNING : still subject to testing - especially symmetries.
      direction              matrix element
   alpha     beta       real part   imaginary part
     1        1       1.3689447117    0.0000000000
     1        2      -0.5010945040    0.0000000000
     1        3       0.0000000000    0.0000000000
     2        1      -0.5010945040    0.0000000000
     2        2       0.8679211403    0.0000000000
     2        3       0.0000000000    0.0000000000
     3        1       0.0000000000    0.0000000000
     3        2       0.0000000000    0.0000000000
     3        3       0.6498093494    0.0000000000

 respfn : d/dk was computed, but no 2DTE, so no DDB output.

== END DATASET(S) ==============================================================

 -outvars: echo values of variables after computation  --------
            acell      1.0000000000E+00  1.0000000000E+00  1.0000000000E+00 Bohr
              amu      6.94100000E+00  1.59994000E+01
             ecut      4.40000000E+01 Hartree
           etotal     -7.3580958844E+00
            fcart      0.0000000000E+00  0.0000000000E+00  0.0000000000E+00
                       0.0000000000E+00  0.0000000000E+00  0.0000000000E+00
                       0.0000000000E+00  0.0000000000E+00  0.0000000000E+00
                       0.0000000000E+00  0.0000000000E+00  0.0000000000E+00
                       0.0000000000E+00  0.0000000000E+00  0.0000000000E+00
                       0.0000000000E+00  0.0000000000E+00  0.0000000000E+00
                       0.0000000000E+00  0.0000000000E+00  0.0000000000E+00
                       0.0000000000E+00  0.0000000000E+00  0.0000000000E+00
-          fftalg         512
           irdden           1
           irdwfk           1
           istwfk        0    1
              ixc     -116133
              kpt      1.14285714E-01  0.00000000E+00  0.00000000E+00
                       0.00000000E+00  0.00000000E+00  0.00000000E+00
           kptopt           0
P           mkmem           2
P          mkqmem           2
P          mk1mem           2
            natom           8
            nband          27
           nbdbuf           4
            ngfft          36      36      90
             nkpt           2
            nstep        2000
             nsym          24
           ntypat           2
              occ      2.000000  2.000000  2.000000  2.000000  2.000000  2.000000
                       2.000000  2.000000  2.000000  2.000000  2.000000  2.000000
                       2.000000  2.000000  2.000000  2.000000  2.000000  2.000000
                       0.000000  0.000000  0.000000  0.000000  0.000000  0.000000
                       0.000000  0.000000  0.000000
        optdriver           1
            prtwf          -1
            rfdir           1       1       1
           rfelfd           2
            rprim      5.8990700009E+00  0.0000000000E+00  0.0000000000E+00
                      -2.9495350005E+00  5.1087444795E+00  0.0000000000E+00
                       0.0000000000E+00  0.0000000000E+00  1.4278740135E+01
          spgroup         194
           strten      0.0000000000E+00  0.0000000000E+00  0.0000000000E+00
                       0.0000000000E+00  0.0000000000E+00  0.0000000000E+00
           symrel      1  0  0   0  1  0   0  0  1      -1  0  0   0 -1  0   0  0 -1
                       0  1  0   1  0  0   0  0  1       0 -1  0  -1  0  0   0  0 -1
                       1  1  0  -1  0  0   0  0  1      -1 -1  0   1  0  0   0  0 -1
                      -1  0  0   1  1  0   0  0  1       1  0  0  -1 -1  0   0  0 -1
                       0  1  0  -1 -1  0   0  0  1       0 -1  0   1  1  0   0  0 -1
                      -1 -1  0   0  1  0   0  0  1       1  1  0   0 -1  0   0  0 -1
                      -1  0  0   0 -1  0   0  0  1       1  0  0   0  1  0   0  0 -1
                       0 -1  0  -1  0  0   0  0  1       0  1  0   1  0  0   0  0 -1
                      -1 -1  0   1  0  0   0  0  1       1  1  0  -1  0  0   0  0 -1
                       1  0  0  -1 -1  0   0  0  1      -1  0  0   1  1  0   0  0 -1
                       0 -1  0   1  1  0   0  0  1       0  1  0  -1 -1  0   0  0 -1
                       1  1  0   0 -1  0   0  0  1      -1 -1  0   0  1  0   0  0 -1
            tnons      0.0000000  0.0000000  0.0000000     0.0000000  0.0000000 -0.0000000
                       0.0000000  0.0000000  0.5000000     0.0000000  0.0000000  0.5000000
                       0.0000000  0.0000000  0.5000000     0.0000000  0.0000000  0.5000000
                       0.0000000  0.0000000  0.0000000     0.0000000  0.0000000 -0.0000000
                       0.0000000  0.0000000  0.0000000     0.0000000  0.0000000 -0.0000000
                       0.0000000  0.0000000  0.5000000     0.0000000  0.0000000  0.5000000
                       0.0000000  0.0000000  0.5000000     0.0000000  0.0000000  0.5000000
                       0.0000000  0.0000000  0.0000000     0.0000000  0.0000000 -0.0000000
                       0.0000000  0.0000000  0.0000000     0.0000000  0.0000000 -0.0000000
                       0.0000000  0.0000000  0.5000000     0.0000000  0.0000000  0.5000000
                       0.0000000  0.0000000  0.5000000     0.0000000  0.0000000  0.5000000
                       0.0000000  0.0000000  0.0000000     0.0000000  0.0000000 -0.0000000
           tolwfr      1.00000000E-20
            typat      1  1  1  1  2  2  2  2
           useylm           1
              wtk        0.50000    0.50000
           xangst      0.0000000000E+00  0.0000000000E+00 -1.0486034051E-16
                       0.0000000000E+00  0.0000000000E+00  3.7779919235E+00
                       1.5608266982E+00  9.0114371435E-01  5.6669878852E+00
                      -1.7639006744E-11  1.8022874287E+00  1.8889959617E+00
                       1.5608266982E+00  9.0114371435E-01  2.6502991142E+00
                      -1.7639006744E-11  1.8022874287E+00  6.4282910377E+00
                      -1.7639006744E-11  1.8022874287E+00  4.9056847327E+00
                       1.5608266982E+00  9.0114371435E-01  1.1276928092E+00
            xcart      0.0000000000E+00  0.0000000000E+00 -1.9815732576E-16
                       0.0000000000E+00  0.0000000000E+00  7.1393700676E+00
                       2.9495350004E+00  1.7029148265E+00  1.0709055101E+01
                      -3.3332892002E-11  3.4058296530E+00  3.5696850338E+00
                       2.9495350004E+00  1.7029148265E+00  5.0083394962E+00
                      -3.3332892002E-11  3.4058296530E+00  1.2147709564E+01
                      -3.3332892002E-11  3.4058296530E+00  9.2704006391E+00
                       2.9495350004E+00  1.7029148265E+00  2.1310305715E+00
             xred      0.0000000000E+00  0.0000000000E+00 -1.3877787808E-17
                       0.0000000000E+00  0.0000000000E+00  5.0000000000E-01
                       6.6666666667E-01  3.3333333333E-01  7.5000000000E-01
                       3.3333333333E-01  6.6666666667E-01  2.5000000000E-01
                       6.6666666667E-01  3.3333333333E-01  3.5075500000E-01
                       3.3333333333E-01  6.6666666667E-01  8.5075500000E-01
                       3.3333333333E-01  6.6666666667E-01  6.4924500000E-01
                       6.6666666667E-01  3.3333333333E-01  1.4924500000E-01
            znucl        3.00000    8.00000

- Timing analysis has been suppressed with timopt=0

 Suggested references for the acknowledgment of ABINIT usage.

 Calculation completed.
.Delivered   2 WARNINGs and   5 COMMENTs to log file.