.Version 9.5.2 of ABINIT

 ABINIT is a project of the Universite Catholique de Louvain,
 Corning Inc. and other collaborators, see ~abinit/doc/developers/contributors.txt .
 acknowledgments of the ABINIT effort.

.Starting date : Wed 26 May 2021.
- ( at 02h25 )

- input  file    -> /scratch/users/j/a/jabreu/flow_simple_11atoms/flow/w232/t1/run.abi
- output file    -> /scratch/users/j/a/jabreu/flow_simple_11atoms/flow/w232/t1/run.abo
- root for input  files -> /scratch/users/j/a/jabreu/flow_simple_11atoms/flow/w232/t1/indata/in
- root for output files -> /scratch/users/j/a/jabreu/flow_simple_11atoms/flow/w232/t1/outdata/out

 Symmetries : space group P2_1 2_1 2_1 (# 19); Bravais oP (primitive ortho.)
     intxc =       0      iscf =       7    lmnmax =      18     lnmax =       6
     mgfft =     100  mpssoang =       3    mqgrid =    4803     natom =      12
  nloc_mem =       1    nspden =       1   nspinor =       1    nsppol =       1
      nsym =       4    n1xccc =    2501    ntypat =       2    occopt =       1
   xclevel =       2
-    mband =          65        mffmem =           1         mkmem =           2
-   mkqmem =           2        mk1mem =           2           mpw =       16972
      nfft =      300000          nkpt =           2
  Rough estimation (10% accuracy) of disk space for files :

------------- Echo of variables that govern the present computation ------------
-
- outvars: echo of selected default values
-   iomode0 =  0 , fftalg0 =512 , wfoptalg0 =  0
-
- outvars: echo of global parameters not present in the input file
-  max_nthreads =    0
-
 -outvars: echo values of preprocessed input variables --------
            acell      1.0000000000E+00  1.0000000000E+00  1.0000000000E+00 Bohr
              amu      1.27600000E+02  1.59994000E+01
             ecut      4.40000000E+01 Hartree
-          fftalg         512
           irdden           1
           irdwfk           1
              ixc     -116133
              kpt      2.82608696E-01  0.00000000E+00  0.00000000E+00
                       5.00000000E-01  2.63157895E-01  0.00000000E+00
           kptopt           0
P           mkmem           2
P          mkqmem           2
P          mk1mem           2
            natom          12
            nband          65
           nbdbuf           4
            ngfft          50      60     100
             nkpt           2
            nstep        2000
             nsym           4
           ntypat           2
              occ      2.000000  2.000000  2.000000  2.000000  2.000000  2.000000
                       2.000000  2.000000  2.000000  2.000000  2.000000  2.000000
                       2.000000  2.000000  2.000000  2.000000  2.000000  2.000000
                       2.000000  2.000000  2.000000  2.000000  2.000000  2.000000
                       2.000000  2.000000  2.000000  2.000000  2.000000  2.000000
                       2.000000  2.000000  2.000000  2.000000  2.000000  2.000000
                       2.000000  2.000000  2.000000  2.000000  2.000000  2.000000
                       2.000000  2.000000  2.000000  2.000000  2.000000  2.000000
                       2.000000  2.000000  2.000000  2.000000  2.000000  2.000000
                       2.000000  2.000000  0.000000  0.000000  0.000000  0.000000
                       0.000000  0.000000  0.000000  0.000000  0.000000
        optdriver           1
            prtwf          -1
            rfdir           1       1       1
           rfelfd           2
            rprim      8.0414202130E+00  0.0000000000E+00  0.0000000000E+00
                       0.0000000000E+00  9.3969806854E+00  0.0000000000E+00
                       0.0000000000E+00  0.0000000000E+00  1.6083912864E+01
          spgroup          19
           symrel      1  0  0   0  1  0   0  0  1      -1  0  0   0  1  0   0  0 -1
                      -1  0  0   0 -1  0   0  0  1       1  0  0   0 -1  0   0  0 -1
            tnons      0.0000000  0.0000000  0.0000000     0.0000000  0.5000000  0.5000000
                       0.5000000  0.0000000  0.5000000     0.5000000  0.5000000  0.0000000
           tolwfr      1.00000000E-20
            typat      1  1  1  1  2  2  2  2  2  2  2  2
           useylm           1
              wtk        0.50000    0.50000
           xangst      3.6358869960E+00  1.3202433562E-01  5.1191619670E+00
                       1.5082188453E+00  2.3543096685E+00  3.3920781458E+00
                       6.1944930540E-01  2.6183583398E+00  7.6476982022E+00
                       2.7471174561E+00  4.8406436727E+00  8.6354191060E-01
                       1.1880941507E+00  7.0205121474E-01  4.6033637937E+00
                       3.3157623014E+00  1.7842827894E+00  3.9078763191E+00
                       3.0672421507E+00  3.1883852189E+00  8.1634963755E+00
                       9.3957400002E-01  4.2706167935E+00  3.4774373729E-01
                       2.9215224144E+00  3.8565825098E+00  2.4604207806E+00
                       7.9385426371E-01  3.6024195026E+00  6.0508193322E+00
                       1.3338138870E+00  1.3702485057E+00  1.7951992758E+00
                       3.4614820377E+00  1.1160854984E+00  6.7160408370E+00
            xcart      6.8708306726E+00  2.4948983720E-01  9.6738141475E+00
                       2.8501205661E+00  4.4490005055E+00  6.4100987169E+00
                       1.1705895404E+00  4.9479801799E+00  1.4452055149E+01
                       5.1912996469E+00  9.1474908482E+00  1.6318577153E+00
                       2.2451725649E+00  1.3266845271E+00  8.6990968601E+00
                       6.2658826714E+00  3.3718058156E+00  7.3848160043E+00
                       5.7962476481E+00  6.0251748698E+00  1.5426772436E+01
                       1.7755375416E+00  8.0702961583E+00  6.5714042790E-01
                       5.5208772543E+00  7.2878847524E+00  4.6495214469E+00
                       1.5001671478E+00  6.8075862757E+00  1.1434391417E+01
                       2.5205429587E+00  2.5893944097E+00  3.3924349853E+00
                       6.5412530652E+00  2.1090959330E+00  1.2691477879E+01
             xred      8.5443000000E-01  2.6550000000E-02  6.0145900000E-01
                       3.5443000000E-01  4.7345000000E-01  3.9854100000E-01
                       1.4557000000E-01  5.2655000000E-01  8.9854100000E-01
                       6.4557000000E-01  9.7345000000E-01  1.0145900000E-01
                       2.7920100000E-01  1.4118200000E-01  5.4085700000E-01
                       7.7920100000E-01  3.5881800000E-01  4.5914300000E-01
                       7.2079900000E-01  6.4118200000E-01  9.5914300000E-01
                       2.2079900000E-01  8.5881800000E-01  4.0857000000E-02
                       6.8655500000E-01  7.7555600000E-01  2.8907900000E-01
                       1.8655500000E-01  7.2444400000E-01  7.1092100000E-01
                       3.1344500000E-01  2.7555600000E-01  2.1092100000E-01
                       8.1344500000E-01  2.2444400000E-01  7.8907900000E-01
            znucl       52.00000    8.00000

 chkinp: Checking input parameters for consistency.

== DATASET  1 ==================================================================
-   mpi_nproc: 1, omp_nthreads: -1 (-1 if OMP is not activated)

--- !DatasetInfo
iteration_state: {dtset: 1, }
dimensions: {natom: 12, nkpt: 2, mband: 65, nsppol: 1, nspinor: 1, nspden: 1, mpw: 16972, }
cutoff_energies: {ecut:  44.0, pawecutdg:  -1.0, }
electrons: {nelect:   1.12000000E+02, charge:   0.00000000E+00, occopt:   1.00000000E+00, tsmear:   1.00000000E-02, }
meta: {optdriver: 1, rfelfd: 2, }
...

 Real(R)+Recip(G) space primitive vectors, cartesian coordinates (Bohr,Bohr^-1):
 R(1)=  8.0414202  0.0000000  0.0000000  G(1)=  0.1243561  0.0000000  0.0000000
 R(2)=  0.0000000  9.3969807  0.0000000  G(2)=  0.0000000  0.1064172  0.0000000
 R(3)=  0.0000000  0.0000000 16.0839129  G(3)=  0.0000000  0.0000000  0.0621739
 Unit cell volume ucvol=  1.2153820E+03 bohr^3
 Angles (23,13,12)=  9.00000000E+01  9.00000000E+01  9.00000000E+01 degrees

 getcut: wavevector=  0.0000  0.0000  0.0000  ngfft=  50  60 100
         ecut(hartree)=     44.000   => boxcut(ratio)=   2.08217

--- Pseudopotential description ------------------------------------------------
- pspini: atom type   1  psp file is /scratch/users/j/a/jabreu/pseudos/PBEsol/Te.psp8
- pspatm: opening atomic psp file    /scratch/users/j/a/jabreu/pseudos/PBEsol/Te.psp8
- Te    ONCVPSP-3.3.0  r_core=   2.26547   1.91704   1.80604
- 52.00000  16.00000    180112                znucl, zion, pspdat
    8 -116133    2    4       600   0.00000   pspcod,pspxc,lmax,lloc,mmax,r2well
    5.99000000000000    5.00000000000000    0.00000000000000   rchrg,fchrg,qchrg
     nproj     2     2     2
     extension_switch     1
  pspatm : epsatm=   36.82679836
         --- l  ekb(1:nproj) -->
             0    6.345999    0.785432
             1    5.709019    1.070069
             2   -6.035173   -1.870937
 pspatm: atomic psp has been read  and splines computed

- pspini: atom type   2  psp file is /scratch/users/j/a/jabreu/pseudos/PBEsol/O.psp8
- pspatm: opening atomic psp file    /scratch/users/j/a/jabreu/pseudos/PBEsol/O.psp8
- O     ONCVPSP-3.3.0  r_core=   1.35509   1.45563   1.26150
-  8.00000   6.00000    180112                znucl, zion, pspdat
    8 -116133    2    4       600   0.00000   pspcod,pspxc,lmax,lloc,mmax,r2well
    5.99000000000000    4.00000000000000    0.00000000000000   rchrg,fchrg,qchrg
     nproj     2     2     1
     extension_switch     1
  pspatm : epsatm=    6.22910522
         --- l  ekb(1:nproj) -->
             0    6.050032    0.820363
             1   -4.739617   -1.153841
             2   -1.335834
 pspatm: atomic psp has been read  and splines computed

   2.20796839E+04                                ecore*ucvol(ha*bohr**3)

 ==>  initialize data related to q vector <==

 The list of irreducible perturbations for this q vector is:
    1)    idir= 1    ipert=  13
    2)    idir= 2    ipert=  13
    3)    idir= 3    ipert=  13

 Perturbation wavevector (in red.coord.)   0.000000  0.000000  0.000000
 Perturbation : derivative vs k along direction   1

 dfpt_looppert : COMMENT -
  In a d/dk calculation, iscf is set to -3 automatically.
 The set of symmetries contains only one element for this perturbation.
 symkpt : not enough symmetry to change the number of k points.

 Initialisation of the first-order wave-functions :
  ireadwf=   0

--- !BeginCycle
iteration_state: {dtset: 1, }
solver: {iscf: 7, nstep: 2000, nline: 4, wfoptalg: 0, }
tolerances: {tolwfr: 1.00E-20, }
...

     iter   2DEtotal(Ha)        deltaE(Ha) residm    vres2
-ETOT  1  -124.05137147941     -1.241E+02 9.870E-02 0.000E+00
 ETOT  2  -124.28862383415     -2.373E-01 2.341E-02 0.000E+00
 ETOT  3  -124.29306452714     -4.441E-03 3.293E-03 0.000E+00
 ETOT  4  -124.29319898802     -1.345E-04 1.188E-03 0.000E+00
 ETOT  5  -124.29320393002     -4.942E-06 4.831E-04 0.000E+00
 ETOT  6  -124.29320412362     -1.936E-07 1.909E-04 0.000E+00
 ETOT  7  -124.29320413162     -7.996E-09 8.119E-05 0.000E+00
 ETOT  8  -124.29320413196     -3.408E-10 3.264E-05 0.000E+00
[...]
 ETOT 13  -30.539976134585      3.553E-15 1.796E-08 0.000E+00
 ETOT 14  -30.539976134585     -3.553E-15 1.325E-08 0.000E+00
 ETOT 15  -30.539976134585     -7.105E-15 2.711E-09 0.000E+00
 ETOT 16  -30.539976134585      0.000E+00 2.034E-09 0.000E+00
 ETOT 17  -30.539976134585      0.000E+00 4.168E-10 0.000E+00
 ETOT 18  -30.539976134585      3.553E-15 3.162E-10 0.000E+00
 ETOT 19  -30.539976134585     -7.105E-15 6.467E-11 0.000E+00
 ETOT 20  -30.539976134585     -3.553E-15 4.946E-11 0.000E+00
 ETOT 21  -30.539976134585      3.553E-15 1.009E-11 0.000E+00
 ETOT 22  -30.539976134585      1.421E-14 7.763E-12 0.000E+00
 ETOT 23  -30.539976134585     -7.105E-15 1.580E-12 0.000E+00
 ETOT 24  -30.539976134585      7.105E-15 1.221E-12 0.000E+00
 ETOT 25  -30.539976134585     -7.105E-15 2.478E-13 0.000E+00
 ETOT 26  -30.539976134585      3.553E-15 1.922E-13 0.000E+00
 ETOT 27  -30.539976134585      0.000E+00 3.893E-14 0.000E+00
 ETOT 28  -30.539976134585     -3.553E-15 3.028E-14 0.000E+00
 ETOT 29  -30.539976134585      3.553E-15 6.123E-15 0.000E+00
 ETOT 30  -30.539976134585     -3.553E-15 4.774E-15 0.000E+00
 ETOT 31  -30.539976134585     -1.421E-14 9.639E-16 0.000E+00
 ETOT 32  -30.539976134585      1.066E-14 7.531E-16 0.000E+00
 ETOT 33  -30.539976134585      3.553E-15 1.519E-16 0.000E+00
 ETOT 34  -30.539976134585     -7.105E-15 1.189E-16 0.000E+00
 ETOT 35  -30.539976134585      3.553E-15 2.394E-17 0.000E+00
 ETOT 36  -30.539976134585      0.000E+00 1.877E-17 0.000E+00
 ETOT 37  -30.539976134585     -3.553E-15 3.777E-18 0.000E+00
 ETOT 38  -30.539976134585      3.553E-15 2.964E-18 0.000E+00
 ETOT 39  -30.539976134585      0.000E+00 5.961E-19 0.000E+00
 ETOT 40  -30.539976134585     -3.553E-15 4.683E-19 0.000E+00
 ETOT 41  -30.539976134585      0.000E+00 9.412E-20 0.000E+00
 ETOT 42  -30.539976134585     -3.553E-15 7.401E-20 0.000E+00
 ETOT 43  -30.539976134585      1.066E-14 1.487E-20 0.000E+00
 ETOT 44  -30.539976134585      7.105E-15 1.170E-20 0.000E+00
 ETOT 45  -30.539976134585     -1.066E-14 9.894E-21 0.000E+00

 At SCF step   45   max residual=  9.89E-21 < tolwfr=  1.00E-20 =>converged.

 ----iterations are completed or convergence reached----

 dfpt_looppert: DFPT cycle converged with prtwf=-1. Will skip output of the 1st-order WFK file.
 dfpt_looppert : ek2=    3.4184114290E+01
          f-sum rule ratio=    9.9633065044E-01
 prteigrs : about to open file /scratch/users/j/a/jabreu/flow_simple_11atoms/flow/w232/t1/tmpdata/tmp_1WF1_EIG
 Expectation of eigenvalue derivatives (hartree) for nkpt=   2  k points:
  (in case of degenerate eigenvalues, averaged derivative)
 kpt#   1, nband= 65, wtk=  0.50000, kpt=  0.2826  0.0000  0.0000 (reduced coord)
  -0.00000    0.00000    0.00000   -0.00000   -0.00000   -0.00000   -0.00000    0.00000
   0.00000    0.00000    0.00000   -0.00000    0.00000    0.00000   -0.00000   -0.00000
  -0.00000    0.00000    0.00000    0.00000   -0.00000   -0.00000    0.00000    0.00000
   0.00000   -0.00000    0.00000    0.00000   -0.00000   -0.00000   -0.00000    0.00000
  -0.00000   -0.00000    0.00000   -0.00000    0.00000   -0.00000   -0.00000   -0.00000
  -0.00000    0.00000    0.00000   -0.00000   -0.00000    0.00000   -0.00000   -0.00000
   0.00000   -0.00000   -0.00000   -0.00000   -0.00000   -0.00000   -0.00000    0.00000
  -0.00000    0.00000   -0.00000    0.00000   -0.00000    0.00000   -0.00000   -0.00000
   0.00004
 prteigrs : prtvol=0 or 1, do not print more k-points.

 Eight components of 2nd-order total energy (hartree) are
 1,2,3: 0th-order hamiltonian combined with 1st-order wavefunctions
     kin0=   3.84017231E+01 eigvalue=   4.73056102E+00  local=  -1.84777720E+01
 4,5,6: 1st-order hamiltonian combined with 1st and 0th-order wfs
     kin1=  -3.40586808E+01  Hartree=   0.00000000E+00     xc=   0.00000000E+00
 7,8,9: eventually, occupation + non-local contributions
    edocc=   3.25514147E+00     enl0=   2.63032248E+00   enl1=  -2.70212714E+01
 1-9 gives the relaxation energy (to be shifted if some occ is /=2.0)
   erelax=  -3.05399761E+01
  No Ewald or frozen-wf contrib.: the relaxation energy is the total one
 2DEtotal=   -0.3053997613E+02 Ha. Also 2DEtotal=   -0.831035013673E+03 eV
    (  non-var. 2DEtotal :   -3.0539976134E+01 Ha)

 CALCULATION OF EFFECTIVE MASSES
 NOTE : Additional infos (eff. mass eigenvalues, eigenvectors and, if degenerate, average mass) are available in stdout.

--- !WARNING
src_file: m_efmas.F90
src_line: 0
message: |
    Effective masses calculations require given k-point(s) to be band extrema for given bands, but max abs gradient of band(s) was found to be greater than 1e-5. Abinit will continue anyway.
...

[...]

--- !WARNING
src_file: m_efmas.F90
src_line: 0
message: |
    Effective masses calculations require given k-point(s) to be band extrema for given bands, but max abs gradient of band(s) was found to be greater than 1e-5. Abinit will continue anyway.
...

 K-point ( 0.283, 0.000, 0.000) | band =    56
 Effective mass tensor:
             -2.7433842918             -0.0028116879              0.0002777485
             -0.0028116879             -9.1750762554             -0.0033460759
              0.0002777485             -0.0033460759             -1.7516559865
 Effective mass tensor eigenvalues:
             -9.1750789927             -2.7433831413             -1.7516543998
 Angular average effective mass 1/(<1/m>)=  -2.8724813956
 Angular average effective mass for Frohlich model (<m**0.5>)**2=  -3.2144912354
 Effective masses along directions: (cart. coord. / red. coord. -> eff. mass)
    1:   1.000000  0.000000  0.000000 /   1.000000  0.000000  0.000000 ->  -2.7433833858
    2:   0.000000  1.000000  0.000000 /   0.000000  1.000000  0.000000 ->  -9.1750669808
    3:   0.000000  0.000000  1.000000 /   0.000000  0.000000  1.000000 ->  -1.7516547379
    4:   0.577350  0.577350  0.577350 /   0.396336  0.463147  0.792725 ->  -2.8739229349
    5:   0.000000  0.707107  0.707107 /   0.000000  0.504460  0.863435 ->  -2.9434994255
    6:   0.707107  0.000000  0.707107 /   0.447190  0.000000  0.894439 ->  -2.1378526259
    7:   0.707107  0.707107  0.000000 /   0.650179  0.759781  0.000000 ->  -4.2258195433

 COMMENTS:
 - At k-point ( 0.500, 0.263, 0.000), bands    57 through    58
   are DEGENERATE (effective mass tensor is therefore not defined).
   See Section IIIB Eqs. (67)-(70) and Appendix E of PRB 93 205147 (2016).
 - Angular average effective mass for Frohlich model is to be averaged over degenerate bands. See later.
 - Associated theta integrals calculated with ntheta=   1000 points.

--- !WARNING
src_file: m_efmas.F90
src_line: 0
message: |

    Band(s)    57,    58,
    are not band extrema, but saddle points;
    the transport equivalent formalism breaks down in these conditions.
    The associated tensor(s) will therefore not be printed.
...

 K-point ( 0.500, 0.263, 0.000) | band =    57
 Transport equivalent effective mass tensor:
     *** SADDLE POINT: TRANSPORT EQV. EFF. MASS NOT DEFINED (see WARNING above) ***
 Angular average effective mass 1/(<1/m>)=   1.5064271757
 Angular average effective mass for Frohlich model (<m**0.5>)**2=   3.6135283842
 Effective masses along directions: (cart. coord. / red. coord. -> eff. mass)
    1:   1.000000  0.000000  0.000000 /   1.000000  0.000000  0.000000 -> -13.3478333022
    2:   0.000000  1.000000  0.000000 /   0.000000  1.000000  0.000000 ->   0.6619235157
    3:   0.000000  0.000000  1.000000 /   0.000000  0.000000  1.000000 ->   0.7369244337
    4:   0.577350  0.577350  0.577350 /   0.396336  0.463147  0.792725 ->   1.8293283129
    5:   0.000000  0.707107  0.707107 /   0.000000  0.504460  0.863435 ->   0.6974132368
    6:   0.707107  0.000000  0.707107 /   0.447190  0.000000  0.894439 ->   7.0888586459
    7:   0.707107  0.707107  0.000000 /   0.650179  0.759781  0.000000 ->   2.3200968565

 K-point ( 0.500, 0.263, 0.000) | band =    58
 Transport equivalent effective mass tensor:
     *** SADDLE POINT: TRANSPORT EQV. EFF. MASS NOT DEFINED (see WARNING above) ***
 Angular average effective mass 1/(<1/m>)=   0.8346753605
 Angular average effective mass for Frohlich model (<m**0.5>)**2=   1.1392340187
 Effective masses along directions: (cart. coord. / red. coord. -> eff. mass)
    1:   1.000000  0.000000  0.000000 /   1.000000  0.000000  0.000000 -> -13.3535372427
    2:   0.000000  1.000000  0.000000 /   0.000000  1.000000  0.000000 ->   0.6619221952
    3:   0.000000  0.000000  1.000000 /   0.000000  0.000000  1.000000 ->   0.7369237854
    4:   0.577350  0.577350  0.577350 /   0.396336  0.463147  0.792725 ->   0.7603140946
    5:   0.000000  0.707107  0.707107 /   0.000000  0.504460  0.863435 ->   0.6974109582
    6:   0.707107  0.000000  0.707107 /   0.447190  0.000000  0.894439 ->   0.8764073044
    7:   0.707107  0.707107  0.000000 /   0.650179  0.759781  0.000000 ->   0.9951917212

 Angular average effective mass for Frohlich model, averaged over degenerate bands.
 Value of     (<<m**0.5>>)**2 =     2.202668E+00
 Absolute Value of <<m**0.5>> =     1.484139E+00

 END OF EFFECTIVE MASSES SECTION

 ---- first-order wavefunction calculations are completed ----

 Total localisation tensor (bohr^2) in cartesian coordinates
  WARNING : still subject to testing - especially symmetries.
      direction              matrix element
   alpha     beta       real part   imaginary part
     1        1       0.8461926710    0.0000000000
     1        2       0.0000000000    0.0000000000
     1        3       0.0000000000    0.0000000000
     2        1       0.0000000000    0.0000000000
     2        2       0.7334638940    0.0000000000
     2        3       0.0000000000    0.0000000000
     3        1       0.0000000000    0.0000000000
     3        2       0.0000000000    0.0000000000
     3        3       0.7806877412    0.0000000000

 respfn : d/dk was computed, but no 2DTE, so no DDB output.

== END DATASET(S) ==============================================================

 -outvars: echo values of variables after computation  --------
            acell      1.0000000000E+00  1.0000000000E+00  1.0000000000E+00 Bohr
              amu      1.27600000E+02  1.59994000E+01
             ecut      4.40000000E+01 Hartree
           etotal     -3.0539976135E+01
            fcart      0.0000000000E+00  0.0000000000E+00  0.0000000000E+00
                       0.0000000000E+00  0.0000000000E+00  0.0000000000E+00
                       0.0000000000E+00  0.0000000000E+00  0.0000000000E+00
                       0.0000000000E+00  0.0000000000E+00  0.0000000000E+00
                       0.0000000000E+00  0.0000000000E+00  0.0000000000E+00
                       0.0000000000E+00  0.0000000000E+00  0.0000000000E+00
                       0.0000000000E+00  0.0000000000E+00  0.0000000000E+00
                       0.0000000000E+00  0.0000000000E+00  0.0000000000E+00
                       0.0000000000E+00  0.0000000000E+00  0.0000000000E+00
                       0.0000000000E+00  0.0000000000E+00  0.0000000000E+00
                       0.0000000000E+00  0.0000000000E+00  0.0000000000E+00
                       0.0000000000E+00  0.0000000000E+00  0.0000000000E+00
-          fftalg         512
           irdden           1
           irdwfk           1
              ixc     -116133
              kpt      2.82608696E-01  0.00000000E+00  0.00000000E+00
                       5.00000000E-01  2.63157895E-01  0.00000000E+00
           kptopt           0
P           mkmem           2
P          mkqmem           2
P          mk1mem           2
            natom          12
            nband          65
           nbdbuf           4
            ngfft          50      60     100
             nkpt           2
            nstep        2000
             nsym           4
           ntypat           2
              occ      2.000000  2.000000  2.000000  2.000000  2.000000  2.000000
                       2.000000  2.000000  2.000000  2.000000  2.000000  2.000000
                       2.000000  2.000000  2.000000  2.000000  2.000000  2.000000
                       2.000000  2.000000  2.000000  2.000000  2.000000  2.000000
                       2.000000  2.000000  2.000000  2.000000  2.000000  2.000000
                       2.000000  2.000000  2.000000  2.000000  2.000000  2.000000
                       2.000000  2.000000  2.000000  2.000000  2.000000  2.000000
                       2.000000  2.000000  2.000000  2.000000  2.000000  2.000000
                       2.000000  2.000000  2.000000  2.000000  2.000000  2.000000
                       2.000000  2.000000  0.000000  0.000000  0.000000  0.000000
                       0.000000  0.000000  0.000000  0.000000  0.000000
        optdriver           1
            prtwf          -1
            rfdir           1       1       1
           rfelfd           2
            rprim      8.0414202130E+00  0.0000000000E+00  0.0000000000E+00
                       0.0000000000E+00  9.3969806854E+00  0.0000000000E+00
                       0.0000000000E+00  0.0000000000E+00  1.6083912864E+01
          spgroup          19
           strten      0.0000000000E+00  0.0000000000E+00  0.0000000000E+00
                       0.0000000000E+00  0.0000000000E+00  0.0000000000E+00
           symrel      1  0  0   0  1  0   0  0  1      -1  0  0   0  1  0   0  0 -1
                      -1  0  0   0 -1  0   0  0  1       1  0  0   0 -1  0   0  0 -1
            tnons      0.0000000  0.0000000  0.0000000     0.0000000  0.5000000  0.5000000
                       0.5000000  0.0000000  0.5000000     0.5000000  0.5000000  0.0000000
           tolwfr      1.00000000E-20
            typat      1  1  1  1  2  2  2  2  2  2  2  2
           useylm           1
              wtk        0.50000    0.50000
           xangst      3.6358869960E+00  1.3202433562E-01  5.1191619670E+00
                       1.5082188453E+00  2.3543096685E+00  3.3920781458E+00
                       6.1944930540E-01  2.6183583398E+00  7.6476982022E+00
                       2.7471174561E+00  4.8406436727E+00  8.6354191060E-01
                       1.1880941507E+00  7.0205121474E-01  4.6033637937E+00
                       3.3157623014E+00  1.7842827894E+00  3.9078763191E+00
                       3.0672421507E+00  3.1883852189E+00  8.1634963755E+00
                       9.3957400002E-01  4.2706167935E+00  3.4774373729E-01
                       2.9215224144E+00  3.8565825098E+00  2.4604207806E+00
                       7.9385426371E-01  3.6024195026E+00  6.0508193322E+00
                       1.3338138870E+00  1.3702485057E+00  1.7951992758E+00
                       3.4614820377E+00  1.1160854984E+00  6.7160408370E+00
            xcart      6.8708306726E+00  2.4948983720E-01  9.6738141475E+00
                       2.8501205661E+00  4.4490005055E+00  6.4100987169E+00
                       1.1705895404E+00  4.9479801799E+00  1.4452055149E+01
                       5.1912996469E+00  9.1474908482E+00  1.6318577153E+00
                       2.2451725649E+00  1.3266845271E+00  8.6990968601E+00
                       6.2658826714E+00  3.3718058156E+00  7.3848160043E+00
                       5.7962476481E+00  6.0251748698E+00  1.5426772436E+01
                       1.7755375416E+00  8.0702961583E+00  6.5714042790E-01
                       5.5208772543E+00  7.2878847524E+00  4.6495214469E+00
                       1.5001671478E+00  6.8075862757E+00  1.1434391417E+01
                       2.5205429587E+00  2.5893944097E+00  3.3924349853E+00
                       6.5412530652E+00  2.1090959330E+00  1.2691477879E+01
             xred      8.5443000000E-01  2.6550000000E-02  6.0145900000E-01
                       3.5443000000E-01  4.7345000000E-01  3.9854100000E-01
                       1.4557000000E-01  5.2655000000E-01  8.9854100000E-01
                       6.4557000000E-01  9.7345000000E-01  1.0145900000E-01
                       2.7920100000E-01  1.4118200000E-01  5.4085700000E-01
                       7.7920100000E-01  3.5881800000E-01  4.5914300000E-01
                       7.2079900000E-01  6.4118200000E-01  9.5914300000E-01
                       2.2079900000E-01  8.5881800000E-01  4.0857000000E-02
                       6.8655500000E-01  7.7555600000E-01  2.8907900000E-01
                       1.8655500000E-01  7.2444400000E-01  7.1092100000E-01
                       3.1344500000E-01  2.7555600000E-01  2.1092100000E-01
                       8.1344500000E-01  2.2444400000E-01  7.8907900000E-01
            znucl       52.00000    8.00000

- Timing analysis has been suppressed with timopt=0

 Suggested references for the acknowledgment of ABINIT usage.

 Calculation completed.
.Delivered   9 WARNINGs and   5 COMMENTs to log file.