.Version 9.5.2 of ABINIT

 ABINIT is a project of the Universite Catholique de Louvain,
 Corning Inc. and other collaborators, see ~abinit/doc/developers/contributors.txt .
 acknowledgments of the ABINIT effort.

.Starting date : Mon 24 May 2021.
- ( at 23h21 )

- input  file    -> /scratch/users/j/a/jabreu/flow_simple_10atoms/flow/w495/t1/run.abi
- output file    -> /scratch/users/j/a/jabreu/flow_simple_10atoms/flow/w495/t1/run.abo
- root for input  files -> /scratch/users/j/a/jabreu/flow_simple_10atoms/flow/w495/t1/indata/in
- root for output files -> /scratch/users/j/a/jabreu/flow_simple_10atoms/flow/w495/t1/outdata/out

 Symmetries : space group R-3 c (#167); Bravais hR (rhombohedral)
     intxc =       0      iscf =       7    lmnmax =      18     lnmax =       6
     mgfft =      72  mpssoang =       3    mqgrid =    3001     natom =      10
  nloc_mem =       1    nspden =       1   nspinor =       1    nsppol =       1
      nsym =      12    n1xccc =    2501    ntypat =       3    occopt =       1
   xclevel =       2
-    mband =          41        mffmem =           1         mkmem =           1
-   mkqmem =           1        mk1mem =           1           mpw =        9322
      nfft =      373248          nkpt =           1
  Rough estimation (10% accuracy) of disk space for files :

------------- Echo of variables that govern the present computation ------------
-
- outvars: echo of selected default values
-   iomode0 =  0 , fftalg0 =512 , wfoptalg0 =  0
-
- outvars: echo of global parameters not present in the input file
-  max_nthreads =    0
-
 -outvars: echo values of preprocessed input variables --------
            acell      1.0000000000E+00  1.0000000000E+00  1.0000000000E+00 Bohr
              amu      4.49559100E+01  1.08110000E+01  1.59994000E+01
             ecut      4.40000000E+01 Hartree
-          fftalg         512
           irdden           1
           irdwfk           1
           istwfk        1
              ixc     -116133
              kpt      5.00000000E-01  5.00000000E-01  0.00000000E+00
           kptopt           0
P           mkmem           1
P          mkqmem           1
P          mk1mem           1
            natom          10
            nband          41
           nbdbuf           4
            ngfft          72      72      72
             nkpt           1
            nstep        2000
             nsym          12
           ntypat           3
              occ      2.000000  2.000000  2.000000  2.000000  2.000000  2.000000
                       2.000000  2.000000  2.000000  2.000000  2.000000  2.000000
                       2.000000  2.000000  2.000000  2.000000  2.000000  2.000000
                       2.000000  2.000000  2.000000  2.000000  2.000000  2.000000
                       2.000000  2.000000  2.000000  2.000000  2.000000  2.000000
                       2.000000  2.000000  0.000000  0.000000  0.000000  0.000000
                       0.000000  0.000000  0.000000  0.000000  0.000000
        optdriver           1
            prtwf          -1
            rfdir           1       1       1
           rfelfd           2
            rprim      8.1824710006E+00  0.0000000000E+00  7.1822426312E+00
                       3.2523166165E+00  7.5083465758E+00  7.1822426312E+00
                       0.0000000000E+00  0.0000000000E+00  1.0887490110E+01
          spgroup         167
           symrel      1  0  0   0  1  0   0  0  1      -1  0  0   0 -1  0   0  0 -1
                       0  1  0   1  0  0   0  0  1       0 -1  0  -1  0  0   0  0 -1
                       0  0  1   1  0  0   0  1  0       0  0 -1  -1  0  0   0 -1  0
                       1  0  0   0  0  1   0  1  0      -1  0  0   0  0 -1   0 -1  0
                       0  1  0   0  0  1   1  0  0       0 -1  0   0  0 -1  -1  0  0
                       0  0  1   0  1  0   1  0  0       0  0 -1   0 -1  0  -1  0  0
            tnons      0.0000000  0.0000000  0.0000000     0.0000000  0.0000000  0.0000000
                       0.5000000  0.5000000  0.5000000     0.5000000  0.5000000  0.5000000
                       0.0000000 -0.0000000  0.0000000     0.0000000  0.0000000  0.0000000
                       0.5000000  0.5000000  0.5000000     0.5000000  0.5000000  0.5000000
                      -0.0000000  0.0000000  0.0000000     0.0000000  0.0000000  0.0000000
                       0.5000000  0.5000000  0.5000000     0.5000000  0.5000000  0.5000000
           tolwfr      1.00000000E-20
            typat      1  1  2  2  3  3  3  3  3  3
           useylm           1
           xangst      3.0255144960E+00  1.9866229411E+00  6.6813849194E+00
                       0.0000000000E+00  0.0000000000E+00  0.0000000000E+00
                       4.5382717440E+00  2.9799344116E+00  1.0022077379E+01
                       1.5127572480E+00  9.9331147053E-01  3.3406924597E+00
                       9.6643002040E-01  1.8253369710E+00  6.2213982721E+00
                       3.3173455295E+00  1.6128597009E-01  5.6516231276E+00
                       2.7710183019E+00  9.9331147053E-01  8.5323289400E+00
                       5.0845989716E+00  2.1479089111E+00  7.1413715667E+00
                       2.7336834626E+00  3.8119599120E+00  7.7111467112E+00
                       3.2800106902E+00  2.9799344116E+00  4.8304408988E+00
            xcart      5.7173938085E+00  3.7541732879E+00  1.2625987686E+01
                       0.0000000000E+00  0.0000000000E+00  0.0000000000E+00
                       8.5760907128E+00  5.6312599318E+00  1.8938981529E+01
                       2.8586969043E+00  1.8770866440E+00  6.3129938430E+00
                       1.8262880652E+00  3.4493869753E+00  1.1756738898E+01
                       6.2688745389E+00  3.0478631255E-01  1.0680019917E+01
                       5.2364656998E+00  1.8770866440E+00  1.6123764972E+01
                       9.6084995519E+00  4.0589596005E+00  1.3495236474E+01
                       5.1659130782E+00  7.2035602632E+00  1.4571955455E+01
                       6.1983219173E+00  5.6312599318E+00  9.1282103999E+00
             xred      5.0000000000E-01  5.0000000000E-01  5.0000000000E-01
                       0.0000000000E+00  0.0000000000E+00  0.0000000000E+00
                       7.5000000000E-01  7.5000000000E-01  7.5000000000E-01
                       2.5000000000E-01  2.5000000000E-01  2.5000000000E-01
                       4.0593000000E-02  4.5940700000E-01  7.5000000000E-01
                       7.5000000000E-01  4.0593000000E-02  4.5940700000E-01
                       5.4059300000E-01  2.5000000000E-01  9.5940700000E-01
                       9.5940700000E-01  5.4059300000E-01  2.5000000000E-01
                       2.5000000000E-01  9.5940700000E-01  5.4059300000E-01
                       4.5940700000E-01  7.5000000000E-01  4.0593000000E-02
            znucl       21.00000    5.00000    8.00000

 chkinp: Checking input parameters for consistency.

== DATASET  1 ==================================================================
-   mpi_nproc: 1, omp_nthreads: -1 (-1 if OMP is not activated)

--- !DatasetInfo
iteration_state: {dtset: 1, }
dimensions: {natom: 10, nkpt: 1, mband: 41, nsppol: 1, nspinor: 1, nspden: 1, mpw: 9322, }
cutoff_energies: {ecut:  44.0, pawecutdg:  -1.0, }
electrons: {nelect:   6.40000000E+01, charge:   0.00000000E+00, occopt:   1.00000000E+00, tsmear:   1.00000000E-02, }
meta: {optdriver: 1, rfelfd: 2, }
...

 Real(R)+Recip(G) space primitive vectors, cartesian coordinates (Bohr,Bohr^-1):
 R(1)=  8.1824710  0.0000000  7.1822426  G(1)=  0.1222125 -0.0529376  0.0000000
 R(2)=  3.2523166  7.5083466  7.1822426  G(2)=  0.0000000  0.1331851  0.0000000
 R(3)=  0.0000000  0.0000000 10.8874901  G(3)= -0.0806209 -0.0529376  0.0918485
 Unit cell volume ucvol=  6.6889286E+02 bohr^3
 Angles (23,13,12)=  4.87246456E+01  4.87246456E+01  4.87246456E+01 degrees

 getcut: wavevector=  0.0000  0.0000  0.0000  ngfft=  72  72  72
         ecut(hartree)=     44.000   => boxcut(ratio)=   2.21483

 getcut : COMMENT -
  Note that boxcut > 2.2 ; recall that boxcut=Gcut(box)/Gcut(sphere) = 2
  is sufficient for exact treatment of convolution.
  Such a large boxcut is a waste : you could raise ecut
  e.g. ecut=   53.960124 Hartrees makes boxcut=2

--- Pseudopotential description ------------------------------------------------
- pspini: atom type   1  psp file is /scratch/users/j/a/jabreu/pseudos/PBEsol/Sc.psp8
- pspatm: opening atomic psp file    /scratch/users/j/a/jabreu/pseudos/PBEsol/Sc.psp8
- Sc    ONCVPSP-3.3.0  r_core=   1.35663   1.35663   1.66161
- 21.00000  11.00000    180112                znucl, zion, pspdat
    8 -116133    2    4       600   0.00000   pspcod,pspxc,lmax,lloc,mmax,r2well
    5.99000000000000    5.00000000000000    0.00000000000000   rchrg,fchrg,qchrg
     nproj     2     2     2
     extension_switch     1
  pspatm : epsatm=   13.58981094
         --- l  ekb(1:nproj) -->
             0   10.810997    0.948773
             1    2.871172    0.364831
             2   -4.789751   -1.321945
 pspatm: atomic psp has been read  and splines computed

- pspini: atom type   2  psp file is /scratch/users/j/a/jabreu/pseudos/PBEsol/B.psp8
- pspatm: opening atomic psp file    /scratch/users/j/a/jabreu/pseudos/PBEsol/B.psp8
- B     ONCVPSP-3.3.0  r_core=   1.20849   1.20849
-  5.00000   3.00000    180112                znucl, zion, pspdat
    8 -116133    1    4       600   0.00000   pspcod,pspxc,lmax,lloc,mmax,r2well
    5.99000000000000    2.90000000000000    0.00000000000000   rchrg,fchrg,qchrg
     nproj     2     2
     extension_switch     1
  pspatm : epsatm=    3.20154566
         --- l  ekb(1:nproj) -->
             0    8.466603    1.247630
             1   -3.609180   -0.822621
 pspatm: atomic psp has been read  and splines computed

- pspini: atom type   3  psp file is /scratch/users/j/a/jabreu/pseudos/PBEsol/O.psp8
- pspatm: opening atomic psp file    /scratch/users/j/a/jabreu/pseudos/PBEsol/O.psp8
- O     ONCVPSP-3.3.0  r_core=   1.35509   1.45563   1.26150
-  8.00000   6.00000    180112                znucl, zion, pspdat
    8 -116133    2    4       600   0.00000   pspcod,pspxc,lmax,lloc,mmax,r2well
    5.99000000000000    4.00000000000000    0.00000000000000   rchrg,fchrg,qchrg
     nproj     2     2     1
     extension_switch     1
  pspatm : epsatm=    6.22910522
         --- l  ekb(1:nproj) -->
             0    6.050032    0.820363
             1   -4.739617   -1.153841
             2   -1.335834
 pspatm: atomic psp has been read  and splines computed

   4.54127005E+03                                ecore*ucvol(ha*bohr**3)

 ==>  initialize data related to q vector <==

 The list of irreducible perturbations for this q vector is:
    1)    idir= 1    ipert=  11
    2)    idir= 2    ipert=  11
    3)    idir= 3    ipert=  11

 Perturbation wavevector (in red.coord.)   0.000000  0.000000  0.000000
 Perturbation : derivative vs k along direction   1

 dfpt_looppert : COMMENT -
  In a d/dk calculation, iscf is set to -3 automatically.
 The set of symmetries contains only one element for this perturbation.
 symkpt : not enough symmetry to change the number of k points.

[...]
 ETOT 23  -43.500225464438     -1.421E-14 6.107E-16 0.000E+00
 ETOT 24  -43.500225464438      1.421E-14 2.682E-16 0.000E+00
 ETOT 25  -43.500225464438      1.421E-14 3.709E-17 0.000E+00
 ETOT 26  -43.500225464438     -2.842E-14 1.635E-17 0.000E+00
 ETOT 27  -43.500225464438      1.421E-14 2.257E-18 0.000E+00
 ETOT 28  -43.500225464438     -7.105E-15 9.957E-19 0.000E+00
 ETOT 29  -43.500225464438      0.000E+00 1.375E-19 0.000E+00
 ETOT 30  -43.500225464438      0.000E+00 6.060E-20 0.000E+00
 ETOT 31  -43.500225464438      7.105E-15 9.920E-21 0.000E+00

 At SCF step   31   max residual=  9.92E-21 < tolwfr=  1.00E-20 =>converged.

 ----iterations are completed or convergence reached----

 dfpt_looppert: DFPT cycle converged with prtwf=-1. Will skip output of the 1st-order WFK file.
 dfpt_looppert : ek2=    8.9635714482E+01
          f-sum rule ratio=    9.9764378111E-01
 prteigrs : about to open file /scratch/users/j/a/jabreu/flow_simple_10atoms/flow/w495/t1/tmpdata/tmp_1WF1_EIG
 Expectation of eigenvalue derivatives (hartree) for nkpt=   1  k points:
  (in case of degenerate eigenvalues, averaged derivative)
 kpt#   1, nband= 41, wtk=  1.00000, kpt=  0.5000  0.5000  0.0000 (reduced coord)
  -0.00000    0.00000   -0.00000   -0.00000    0.00000    0.00000   -0.00000   -0.00000
   0.00000   -0.00000   -0.00000    0.00000   -0.00000   -0.00000   -0.00000    0.00000
   0.00000    0.00000   -0.00000   -0.00000    0.00000    0.00000   -0.00000    0.00000
   0.00000    0.00000   -0.00000    0.00000    0.00000    0.00000   -0.00000    0.00000
  -0.00000    0.00000   -0.00000   -0.00000    0.00000    0.00000   -0.00000    0.00000
   0.00000

 Eight components of 2nd-order total energy (hartree) are
 1,2,3: 0th-order hamiltonian combined with 1st-order wavefunctions
     kin0=   7.53710318E+01 eigvalue=  -2.68688502E-01  local=  -3.60041472E+01
 4,5,6: 1st-order hamiltonian combined with 1st and 0th-order wfs
     kin1=  -8.94245131E+01  Hartree=   0.00000000E+00     xc=   0.00000000E+00
 7,8,9: eventually, occupation + non-local contributions
    edocc=   9.47768585E+00     enl0=  -5.07565653E+00   enl1=   2.42406219E+00
 1-9 gives the relaxation energy (to be shifted if some occ is /=2.0)
   erelax=  -4.35002255E+01
  No Ewald or frozen-wf contrib.: the relaxation energy is the total one
 2DEtotal=   -0.4350022546E+02 Ha. Also 2DEtotal=   -0.118370133311E+04 eV
    (  non-var. 2DEtotal :   -4.3500225464E+01 Ha)

 Perturbation wavevector (in red.coord.)   0.000000  0.000000  0.000000
 Perturbation : derivative vs k along direction   2
 The set of symmetries contains only one element for this perturbation.
 symkpt : not enough symmetry to change the number of k points.

[...]

 Perturbation wavevector (in red.coord.)   0.000000  0.000000  0.000000
 Perturbation : derivative vs k along direction   3
 The set of symmetries contains only one element for this perturbation.
 symkpt : not enough symmetry to change the number of k points.

 Initialisation of the first-order wave-functions :
  ireadwf=   0

--- !BeginCycle
iteration_state: {dtset: 1, }
solver: {iscf: 7, nstep: 2000, nline: 4, wfoptalg: 0, }
tolerances: {tolwfr: 1.00E-20, }
...

     iter   2DEtotal(Ha)        deltaE(Ha) residm    vres2
-ETOT  1  -44.173770116144     -4.417E+01 8.305E-02 0.000E+00
 ETOT  2  -44.280230648046     -1.065E-01 6.505E-03 0.000E+00
 ETOT  3  -44.281555935072     -1.325E-03 5.403E-04 0.000E+00
 ETOT  4  -44.281602939514     -4.700E-05 1.045E-04 0.000E+00
 ETOT  5  -44.281606275358     -3.336E-06 1.050E-05 0.000E+00
 ETOT  6  -44.281606581273     -3.059E-07 2.397E-06 0.000E+00
 ETOT  7  -44.281606612281     -3.101E-08 2.510E-07 0.000E+00
 ETOT  8  -44.281606615589     -3.308E-09 6.009E-08 0.000E+00
 ETOT  9  -44.281606615955     -3.660E-10 6.361E-09 0.000E+00
 ETOT 10  -44.281606615996     -4.137E-11 1.586E-09 0.000E+00
 ETOT 11  -44.281606616001     -4.889E-12 1.641E-10 0.000E+00
 ETOT 12  -44.281606616002     -5.684E-13 4.893E-11 0.000E+00
 ETOT 13  -44.281606616002     -9.237E-14 5.283E-12 0.000E+00
 ETOT 14  -44.281606616002      2.132E-14 1.704E-12 0.000E+00
 ETOT 15  -44.281606616002     -1.421E-14 1.801E-13 0.000E+00
 ETOT 16  -44.281606616002      0.000E+00 5.840E-14 0.000E+00
 ETOT 17  -44.281606616002      1.421E-14 6.218E-15 0.000E+00
 ETOT 18  -44.281606616002      7.105E-15 2.018E-15 0.000E+00
 ETOT 19  -44.281606616002      0.000E+00 2.162E-16 0.000E+00
 ETOT 20  -44.281606616002     -7.105E-15 7.018E-17 0.000E+00
 ETOT 21  -44.281606616002     -2.132E-14 7.558E-18 0.000E+00
 ETOT 22  -44.281606616002      2.842E-14 2.455E-18 0.000E+00
 ETOT 23  -44.281606616002      2.132E-14 2.654E-19 0.000E+00
 ETOT 24  -44.281606616002     -1.421E-14 8.624E-20 0.000E+00
 ETOT 25  -44.281606616002     -2.842E-14 9.837E-21 0.000E+00

 At SCF step   25   max residual=  9.84E-21 < tolwfr=  1.00E-20 =>converged.

 ----iterations are completed or convergence reached----

 dfpt_looppert: DFPT cycle converged with prtwf=-1. Will skip output of the 1st-order WFK file.
 dfpt_looppert : ek2=    8.9635714482E+01
          f-sum rule ratio=    1.0152338317E+00
 prteigrs : about to open file /scratch/users/j/a/jabreu/flow_simple_10atoms/flow/w495/t1/tmpdata/tmp_1WF1_EIG
 Expectation of eigenvalue derivatives (hartree) for nkpt=   1  k points:
  (in case of degenerate eigenvalues, averaged derivative)
 kpt#   1, nband= 41, wtk=  1.00000, kpt=  0.5000  0.5000  0.0000 (reduced coord)
   0.00000   -0.00000   -0.00000    0.00000    0.00000    0.00000    0.00000    0.00000
  -0.00000   -0.00000    0.00000    0.00000   -0.00000   -0.00000   -0.00000    0.00000
   0.00000   -0.00000   -0.00000    0.00000    0.00000   -0.00000   -0.00000    0.00000
   0.00000   -0.00000   -0.00000   -0.00000    0.00000   -0.00000    0.00000    0.00000
  -0.00000    0.00000    0.00000   -0.00000    0.00000   -0.00000    0.00000   -0.00000
   0.00000

 Eight components of 2nd-order total energy (hartree) are
 1,2,3: 0th-order hamiltonian combined with 1st-order wavefunctions
     kin0=   6.99062041E+01 eigvalue=  -2.23236928E-01  local=  -3.14341698E+01
 4,5,6: 1st-order hamiltonian combined with 1st and 0th-order wfs
     kin1=  -9.10012099E+01  Hartree=   0.00000000E+00     xc=   0.00000000E+00
 7,8,9: eventually, occupation + non-local contributions
    edocc=   1.06255715E+01     enl0=  -4.59276226E+00   enl1=   2.43799664E+00
 1-9 gives the relaxation energy (to be shifted if some occ is /=2.0)
   erelax=  -4.42816066E+01
  No Ewald or frozen-wf contrib.: the relaxation energy is the total one
 2DEtotal=   -0.4428160662E+02 Ha. Also 2DEtotal=   -0.120496379557E+04 eV
    (  non-var. 2DEtotal :   -4.4281606616E+01 Ha)

 CALCULATION OF EFFECTIVE MASSES
 NOTE : Additional infos (eff. mass eigenvalues, eigenvectors and, if degenerate, average mass) are available in stdout.

 K-point ( 0.500, 0.500, 0.000) | band =    32
 Effective mass tensor:
             -3.6281382922              3.2123486867             -0.6476508326
              3.2123486867             -6.4102184135             -0.4249731071
             -0.6476508326             -0.4249731071             -1.5893067453
 Effective mass tensor eigenvalues:
             -8.5197749617             -2.3293822926             -0.7785061966
 Angular average effective mass 1/(<1/m>)=  -1.6382846194
 Angular average effective mass for Frohlich model (<m**0.5>)**2=  -2.0725613665
 Effective masses along directions: (cart. coord. / red. coord. -> eff. mass)
    1:   1.000000  0.000000  0.000000 /   0.929284  0.369366  0.000000 ->  -1.5438970401
    2:   0.000000  1.000000  0.000000 /   0.000000  1.000000  0.000000 ->  -2.8896098961
    3:   0.000000  0.000000  1.000000 /   0.482359  0.482359  0.731204 ->  -1.1941659017
    4:   0.577350  0.577350  0.577350 /   0.590706  0.689826  0.418576 ->  -2.2310533389
    5:   0.000000  0.707107  0.707107 /   0.365597  0.747794  0.554205 ->  -2.7989126063
    6:   0.707107  0.000000  0.707107 /   0.713680  0.484678  0.505716 ->  -2.5941060839
    7:   0.707107  0.707107  0.000000 /   0.605288  0.796007  0.000000 ->  -1.1832231277

 K-point ( 0.500, 0.500, 0.000) | band =    33
 Effective mass tensor:
              1.3292917541             -0.1602515328             -0.0126196448
             -0.1602515328              1.4681209010             -0.0082863477
             -0.0126196448             -0.0082863477              1.4936971293
 Effective mass tensor eigenvalues:
              1.2232242112              1.4945397977              1.5733457755
 Angular average effective mass 1/(<1/m>)=   1.4136259704
 Angular average effective mass for Frohlich model (<m**0.5>)**2=   1.4187928188
 Effective masses along directions: (cart. coord. / red. coord. -> eff. mass)
    1:   1.000000  0.000000  0.000000 /   0.929284  0.369366  0.000000 ->   1.3116771763
    2:   0.000000  1.000000  0.000000 /   0.000000  1.000000  0.000000 ->   1.4487375233
    3:   0.000000  0.000000  1.000000 /   0.482359  0.482359  0.731204 ->   1.4935109311
    4:   0.577350  0.577350  0.577350 /   0.590706  0.689826  0.418576 ->   1.2978104450
    5:   0.000000  0.707107  0.707107 /   0.365597  0.747794  0.554205 ->   1.4610435015
    6:   0.707107  0.000000  0.707107 /   0.713680  0.484678  0.505716 ->   1.3833633124
    7:   0.707107  0.707107  0.000000 /   0.605288  0.796007  0.000000 ->   1.2352150078

 END OF EFFECTIVE MASSES SECTION

 ---- first-order wavefunction calculations are completed ----

 Total localisation tensor (bohr^2) in cartesian coordinates
  WARNING : still subject to testing - especially symmetries.
      direction              matrix element
   alpha     beta       real part   imaginary part
     1        1       0.8375042511    0.0000000000
     1        2       0.2637882268    0.0000000000
     1        3       0.8871636855    0.0000000000
     2        1       0.2637882268    0.0000000000
     2        2       0.6089854290    0.0000000000
     2        3       0.5825358573    0.0000000000
     3        1       0.8871636855    0.0000000000
     3        2       0.5825358573    0.0000000000
     3        3       2.4794123711    0.0000000000

 respfn : d/dk was computed, but no 2DTE, so no DDB output.

== END DATASET(S) ==============================================================

 -outvars: echo values of variables after computation  --------
            acell      1.0000000000E+00  1.0000000000E+00  1.0000000000E+00 Bohr
              amu      4.49559100E+01  1.08110000E+01  1.59994000E+01
             ecut      4.40000000E+01 Hartree
           etotal     -4.4281606616E+01
            fcart      0.0000000000E+00  0.0000000000E+00  0.0000000000E+00
                       0.0000000000E+00  0.0000000000E+00  0.0000000000E+00
                       0.0000000000E+00  0.0000000000E+00  0.0000000000E+00
                       0.0000000000E+00  0.0000000000E+00  0.0000000000E+00
                       0.0000000000E+00  0.0000000000E+00  0.0000000000E+00
                       0.0000000000E+00  0.0000000000E+00  0.0000000000E+00
                       0.0000000000E+00  0.0000000000E+00  0.0000000000E+00
                       0.0000000000E+00  0.0000000000E+00  0.0000000000E+00
                       0.0000000000E+00  0.0000000000E+00  0.0000000000E+00
                       0.0000000000E+00  0.0000000000E+00  0.0000000000E+00
-          fftalg         512
           irdden           1
           irdwfk           1
           istwfk        1
              ixc     -116133
              kpt      5.00000000E-01  5.00000000E-01  0.00000000E+00
           kptopt           0
P           mkmem           1
P          mkqmem           1
P          mk1mem           1
            natom          10
            nband          41
           nbdbuf           4
            ngfft          72      72      72
             nkpt           1
            nstep        2000
             nsym          12
           ntypat           3
              occ      2.000000  2.000000  2.000000  2.000000  2.000000  2.000000
                       2.000000  2.000000  2.000000  2.000000  2.000000  2.000000
                       2.000000  2.000000  2.000000  2.000000  2.000000  2.000000
                       2.000000  2.000000  2.000000  2.000000  2.000000  2.000000
                       2.000000  2.000000  2.000000  2.000000  2.000000  2.000000
                       2.000000  2.000000  0.000000  0.000000  0.000000  0.000000
                       0.000000  0.000000  0.000000  0.000000  0.000000
        optdriver           1
            prtwf          -1
            rfdir           1       1       1
           rfelfd           2
            rprim      8.1824710006E+00  0.0000000000E+00  7.1822426312E+00
                       3.2523166165E+00  7.5083465758E+00  7.1822426312E+00
                       0.0000000000E+00  0.0000000000E+00  1.0887490110E+01
          spgroup         167
           strten      0.0000000000E+00  0.0000000000E+00  0.0000000000E+00
                       0.0000000000E+00  0.0000000000E+00  0.0000000000E+00
           symrel      1  0  0   0  1  0   0  0  1      -1  0  0   0 -1  0   0  0 -1
                       0  1  0   1  0  0   0  0  1       0 -1  0  -1  0  0   0  0 -1
                       0  0  1   1  0  0   0  1  0       0  0 -1  -1  0  0   0 -1  0
                       1  0  0   0  0  1   0  1  0      -1  0  0   0  0 -1   0 -1  0
                       0  1  0   0  0  1   1  0  0       0 -1  0   0  0 -1  -1  0  0
                       0  0  1   0  1  0   1  0  0       0  0 -1   0 -1  0  -1  0  0
            tnons      0.0000000  0.0000000  0.0000000     0.0000000  0.0000000  0.0000000
                       0.5000000  0.5000000  0.5000000     0.5000000  0.5000000  0.5000000
                       0.0000000 -0.0000000  0.0000000     0.0000000  0.0000000  0.0000000
                       0.5000000  0.5000000  0.5000000     0.5000000  0.5000000  0.5000000
                      -0.0000000  0.0000000  0.0000000     0.0000000  0.0000000  0.0000000
                       0.5000000  0.5000000  0.5000000     0.5000000  0.5000000  0.5000000
           tolwfr      1.00000000E-20
            typat      1  1  2  2  3  3  3  3  3  3
           useylm           1
           xangst      3.0255144960E+00  1.9866229411E+00  6.6813849194E+00
                       0.0000000000E+00  0.0000000000E+00  0.0000000000E+00
                       4.5382717440E+00  2.9799344116E+00  1.0022077379E+01
                       1.5127572480E+00  9.9331147053E-01  3.3406924597E+00
                       9.6643002040E-01  1.8253369710E+00  6.2213982721E+00
                       3.3173455295E+00  1.6128597009E-01  5.6516231276E+00
                       2.7710183019E+00  9.9331147053E-01  8.5323289400E+00
                       5.0845989716E+00  2.1479089111E+00  7.1413715667E+00
                       2.7336834626E+00  3.8119599120E+00  7.7111467112E+00
                       3.2800106902E+00  2.9799344116E+00  4.8304408988E+00
            xcart      5.7173938085E+00  3.7541732879E+00  1.2625987686E+01
                       0.0000000000E+00  0.0000000000E+00  0.0000000000E+00
                       8.5760907128E+00  5.6312599318E+00  1.8938981529E+01
                       2.8586969043E+00  1.8770866440E+00  6.3129938430E+00
                       1.8262880652E+00  3.4493869753E+00  1.1756738898E+01
                       6.2688745389E+00  3.0478631255E-01  1.0680019917E+01
                       5.2364656998E+00  1.8770866440E+00  1.6123764972E+01
                       9.6084995519E+00  4.0589596005E+00  1.3495236474E+01
                       5.1659130782E+00  7.2035602632E+00  1.4571955455E+01
                       6.1983219173E+00  5.6312599318E+00  9.1282103999E+00
             xred      5.0000000000E-01  5.0000000000E-01  5.0000000000E-01
                       0.0000000000E+00  0.0000000000E+00  0.0000000000E+00
                       7.5000000000E-01  7.5000000000E-01  7.5000000000E-01
                       2.5000000000E-01  2.5000000000E-01  2.5000000000E-01
                       4.0593000000E-02  4.5940700000E-01  7.5000000000E-01
                       7.5000000000E-01  4.0593000000E-02  4.5940700000E-01
                       5.4059300000E-01  2.5000000000E-01  9.5940700000E-01
                       9.5940700000E-01  5.4059300000E-01  2.5000000000E-01
                       2.5000000000E-01  9.5940700000E-01  5.4059300000E-01
                       4.5940700000E-01  7.5000000000E-01  4.0593000000E-02
            znucl       21.00000    5.00000    8.00000

- Timing analysis has been suppressed with timopt=0

 Suggested references for the acknowledgment of ABINIT usage.

 Calculation completed.
.Delivered   2 WARNINGs and  11 COMMENTs to log file.