.Version 9.5.1 of ABINIT

 ABINIT is a project of the Universite Catholique de Louvain,
 Corning Inc. and other collaborators, see ~abinit/doc/developers/contributors.txt .
 acknowledgments of the ABINIT effort.

.Starting date : Tue 18 May 2021.
- ( at 13h19 )

- input  file    -> /scratch/users/j/a/jabreu/flow_simple_8atoms/flow/w280/t1/run.abi
- output file    -> /scratch/users/j/a/jabreu/flow_simple_8atoms/flow/w280/t1/run.abo
- root for input  files -> /scratch/users/j/a/jabreu/flow_simple_8atoms/flow/w280/t1/indata/in
- root for output files -> /scratch/users/j/a/jabreu/flow_simple_8atoms/flow/w280/t1/outdata/out

 Symmetries : space group Cm c m (# 63); Bravais oC (1-face-center ortho.)
     intxc =       0      iscf =       7    lmnmax =      18     lnmax =       6
     mgfft =      72  mpssoang =       3    mqgrid =    3389     natom =       8
  nloc_mem =       1    nspden =       1   nspinor =       1    nsppol =       1
      nsym =       8    n1xccc =    2501    ntypat =       3    occopt =       1
   xclevel =       2
-    mband =          51        mffmem =           1         mkmem =           2
-   mkqmem =           2        mk1mem =           2           mpw =       20346
      nfft =      373248          nkpt =           2
  Rough estimation (10% accuracy) of disk space for files :

------------- Echo of variables that govern the present computation ------------
-
- outvars: echo of selected default values
-   iomode0 =  0 , fftalg0 =512 , wfoptalg0 =  0
-
- outvars: echo of global parameters not present in the input file
-  max_nthreads =    0
-
 -outvars: echo values of preprocessed input variables --------
            acell      1.0000000000E+00  1.0000000000E+00  1.0000000000E+00 Bohr
              amu      3.90983000E+01  6.35460000E+01  3.09737620E+01
             ecut      4.60000000E+01 Hartree
-          fftalg         512
           irdden           1
           irdwfk           1
           istwfk        0    1
              ixc     -116133
              kpt     -5.00000000E-01  5.00000000E-01  0.00000000E+00
                       0.00000000E+00  0.00000000E+00  0.00000000E+00
           kptopt           0
P           mkmem           2
P          mkqmem           2
P          mk1mem           2
            natom           8
            nband          51
           nbdbuf           4
            ngfft          72      72      72
             nkpt           2
            nstep        2000
             nsym           8
           ntypat           3
              occ      2.000000  2.000000  2.000000  2.000000  2.000000  2.000000
                       2.000000  2.000000  2.000000  2.000000  2.000000  2.000000
                       2.000000  2.000000  2.000000  2.000000  2.000000  2.000000
                       2.000000  2.000000  2.000000  2.000000  2.000000  2.000000
                       2.000000  2.000000  2.000000  2.000000  2.000000  2.000000
                       2.000000  2.000000  2.000000  2.000000  2.000000  2.000000
                       2.000000  2.000000  2.000000  2.000000  2.000000  2.000000
                       0.000000  0.000000  0.000000  0.000000  0.000000  0.000000
                       0.000000  0.000000  0.000000
        optdriver           1
            prtwf          -1
            rfdir           1       1       1
           rfelfd           2
            rprim      1.1553115675E+01  0.0000000000E+00  0.0000000000E+00
                      -3.2110021207E+00  1.1097925354E+01  0.0000000000E+00
                       0.0000000000E+00  0.0000000000E+00  1.0654377274E+01
          spgroup          63
           symrel      1  0  0   0  1  0   0  0  1      -1  0  0   0 -1  0   0  0 -1
                       0 -1  0  -1  0  0   0  0 -1       0  1  0   1  0  0   0  0  1
                      -1  0  0   0 -1  0   0  0  1       1  0  0   0  1  0   0  0 -1
                       0  1  0   1  0  0   0  0 -1       0 -1  0  -1  0  0   0  0  1
            tnons      0.0000000  0.0000000  0.0000000     0.0000000  0.0000000  0.0000000
                       0.0000000  0.0000000  0.0000000     0.0000000  0.0000000  0.0000000
                       0.0000000  0.0000000  0.5000000     0.0000000  0.0000000  0.5000000
                       0.0000000  0.0000000  0.5000000     0.0000000  0.0000000  0.5000000
           tolwfr      1.00000000E-20
            typat      1  1  1  1  2  2  3  3
           useylm           1
              wtk        0.50000    0.50000
           xangst      2.5795304917E-01  5.7314116065E+00  4.2285402190E+00
                       5.4339013098E+00  1.8407431473E+00  4.2285402190E+00
                       4.1565033151E+00  1.4135755369E-01  1.4095134063E+00
                      -1.0194449456E+00  4.0320260130E+00  1.4095134063E+00
                       2.2072281821E+00  2.9363845801E+00  2.8190268127E+00
                       2.2072281821E+00  2.9363845801E+00  0.0000000000E+00
                       3.2374916662E+00  4.3069949378E+00  4.2285402190E+00
                       1.1769646980E+00  1.5657742224E+00  1.4095134063E+00
            xcart      4.8746061808E-01  1.0830798291E+01  7.9907829558E+00
                       1.0268585309E+01  3.4785004293E+00  7.9907829558E+00
                       7.8546529359E+00  2.6712706328E-01  2.6635943186E+00
                      -1.9264717547E+00  7.6194249252E+00  2.6635943186E+00
                       4.1710567770E+00  5.5489626772E+00  5.3271886372E+00
                       4.1710567770E+00  5.5489626772E+00  0.0000000000E+00
                       6.1179726067E+00  8.1390408882E+00  7.9907829558E+00
                       2.2241409473E+00  2.9588844663E+00  2.6635943186E+00
             xred      3.1343700000E-01  9.7593000000E-01  7.5000000000E-01
                       9.7593000000E-01  3.1343700000E-01  7.5000000000E-01
                       6.8656300000E-01  2.4070000000E-02  2.5000000000E-01
                       2.4070000000E-02  6.8656300000E-01  2.5000000000E-01
                       5.0000000000E-01  5.0000000000E-01  5.0000000000E-01
                       5.0000000000E-01  5.0000000000E-01  0.0000000000E+00
                       7.3338400000E-01  7.3338400000E-01  7.5000000000E-01
                       2.6661600000E-01  2.6661600000E-01  2.5000000000E-01
            znucl       19.00000   29.00000   15.00000

 chkinp: Checking input parameters for consistency.

== DATASET  1 ==================================================================
-   mpi_nproc: 1, omp_nthreads: -1 (-1 if OMP is not activated)

--- !DatasetInfo
iteration_state: {dtset: 1, }
dimensions: {natom: 8, nkpt: 2, mband: 51, nsppol: 1, nspinor: 1, nspden: 1, mpw: 20346, }
cutoff_energies: {ecut:  46.0, pawecutdg:  -1.0, }
electrons: {nelect:   8.40000000E+01, charge:   0.00000000E+00, occopt:   1.00000000E+00, tsmear:   1.00000000E-02, }
meta: {optdriver: 1, rfelfd: 2, }
...

 Real(R)+Recip(G) space primitive vectors, cartesian coordinates (Bohr,Bohr^-1):
 R(1)= 11.5531157  0.0000000  0.0000000  G(1)=  0.0865567  0.0250438  0.0000000
 R(2)= -3.2110021 11.0979254  0.0000000  G(2)=  0.0000000  0.0901069  0.0000000
 R(3)=  0.0000000  0.0000000 10.6543773  G(3)=  0.0000000  0.0000000  0.0938581
 Unit cell volume ucvol=  1.3660575E+03 bohr^3
 Angles (23,13,12)=  9.00000000E+01  9.00000000E+01  1.06136930E+02 degrees

 getcut: wavevector=  0.0000  0.0000  0.0000  ngfft=  72  72  72
         ecut(hartree)=     46.000   => boxcut(ratio)=   2.04122

--- Pseudopotential description ------------------------------------------------
- pspini: atom type   1  psp file is /scratch/users/j/a/jabreu/pseudos/PBEsol/K.psp8
- pspatm: opening atomic psp file    /scratch/users/j/a/jabreu/pseudos/PBEsol/K.psp8
- K     ONCVPSP-3.3.0  r_core=   1.36296   1.46408   1.61068
- 19.00000   9.00000    180112                znucl, zion, pspdat
    8 -116133    2    4       400   0.00000   pspcod,pspxc,lmax,lloc,mmax,r2well
    3.99000000000000    5.00000000000000    0.00000000000000   rchrg,fchrg,qchrg
     nproj     2     2     2
     extension_switch     1
  pspatm : epsatm=    8.32487830
         --- l  ekb(1:nproj) -->
             0   10.921326    0.816676
             1    4.431000    0.560368
             2   -3.384038   -1.043186
 pspatm: atomic psp has been read  and splines computed

- pspini: atom type   2  psp file is /scratch/users/j/a/jabreu/pseudos/PBEsol/Cu.psp8
- pspatm: opening atomic psp file    /scratch/users/j/a/jabreu/pseudos/PBEsol/Cu.psp8
- Cu    ONCVPSP-3.3.0  r_core=   1.26204   1.45626   1.76249
- 29.00000  19.00000    180112                znucl, zion, pspdat
    8 -116133    2    4       600   0.00000   pspcod,pspxc,lmax,lloc,mmax,r2well
    5.99000000000000    3.50000000000000    0.00000000000000   rchrg,fchrg,qchrg
     nproj     2     2     2
     extension_switch     1
  pspatm : epsatm=   21.63488701
         --- l  ekb(1:nproj) -->
             0    5.008230   -0.401634
             1   -3.496700   -0.765945
             2   -6.895851   -2.521180
 pspatm: atomic psp has been read  and splines computed

- pspini: atom type   3  psp file is /scratch/users/j/a/jabreu/pseudos/PBEsol/P.psp8
- pspatm: opening atomic psp file    /scratch/users/j/a/jabreu/pseudos/PBEsol/P.psp8
- P     ONCVPSP-3.3.0  r_core=   1.46089   1.55067   1.70594
- 15.00000   5.00000    180112                znucl, zion, pspdat
    8 -116133    2    4       600   0.00000   pspcod,pspxc,lmax,lloc,mmax,r2well
    5.99000000000000    5.00000000000000    0.00000000000000   rchrg,fchrg,qchrg
     nproj     2     2     2
     extension_switch     1
  pspatm : epsatm=    7.31221086
         --- l  ekb(1:nproj) -->
             0    6.742364    1.063650
             1    3.449117    0.910422
             2   -3.077645   -0.799176
 pspatm: atomic psp has been read  and splines computed

   7.66027155E+03                                ecore*ucvol(ha*bohr**3)

-inwffil : will read wavefunctions from disk file /scratch/users/j/a/jabreu/flow_simple_8atoms/flow/w280/t1/indata/in_WFK

 ==>  initialize data related to q vector <==

 The list of irreducible perturbations for this q vector is:
    1)    idir= 1    ipert=   9
    2)    idir= 2    ipert=   9
    3)    idir= 3    ipert=   9

 Perturbation wavevector (in red.coord.)   0.000000  0.000000  0.000000
 Perturbation : derivative vs k along direction   1

 dfpt_looppert : COMMENT -
  In a d/dk calculation, iscf is set to -3 automatically.
 The set of symmetries contains only one element for this perturbation.
 symkpt : not enough symmetry to change the number of k points.

[...]

 Initialisation of the first-order wave-functions :
  ireadwf=   0

--- !BeginCycle
iteration_state: {dtset: 1, }
solver: {iscf: 7, nstep: 2000, nline: 4, wfoptalg: 0, }
tolerances: {tolwfr: 1.00E-20, }
...

     iter   2DEtotal(Ha)        deltaE(Ha) residm    vres2
-ETOT  1  -28.515848010065     -2.852E+01 7.401E-02 0.000E+00
 ETOT  2  -28.642990423815     -1.271E-01 3.806E-03 0.000E+00
 ETOT  3  -28.646663232471     -3.673E-03 5.693E-04 0.000E+00
 ETOT  4  -28.646850218911     -1.870E-04 6.817E-05 0.000E+00
 ETOT  5  -28.646861996200     -1.178E-05 1.438E-05 0.000E+00
[...]
 ETOT  9  -28.646862888278     -4.221E-10 1.068E-08 0.000E+00
 ETOT 10  -28.646862888314     -3.692E-11 1.499E-09 0.000E+00
 ETOT 11  -28.646862888318     -3.375E-12 2.947E-10 0.000E+00
 ETOT 12  -28.646862888318     -2.807E-13 4.349E-11 0.000E+00
 ETOT 13  -28.646862888318     -7.105E-15 8.200E-12 0.000E+00
 ETOT 14  -28.646862888318     -3.197E-14 1.265E-12 0.000E+00
 ETOT 15  -28.646862888318     -1.066E-14 2.303E-13 0.000E+00
 ETOT 16  -28.646862888318      1.776E-14 3.682E-14 0.000E+00
 ETOT 17  -28.646862888318      0.000E+00 6.531E-15 0.000E+00
 ETOT 18  -28.646862888318      7.105E-15 1.074E-15 0.000E+00
 ETOT 19  -28.646862888318      1.066E-14 1.874E-16 0.000E+00
 ETOT 20  -28.646862888318     -7.105E-15 3.142E-17 0.000E+00
 ETOT 21  -28.646862888318     -3.553E-15 5.454E-18 0.000E+00
 ETOT 22  -28.646862888318      7.105E-15 9.291E-19 0.000E+00
 ETOT 23  -28.646862888318      3.553E-15 1.661E-19 0.000E+00
 ETOT 24  -28.646862888318     -7.105E-15 2.910E-20 0.000E+00
 ETOT 25  -28.646862888318      7.105E-15 9.885E-21 0.000E+00

 At SCF step   25   max residual=  9.89E-21 < tolwfr=  1.00E-20 =>converged.

 ----iterations are completed or convergence reached----

 dfpt_looppert: DFPT cycle converged with prtwf=-1. Will skip output of the 1st-order WFK file.
 dfpt_looppert : ek2=    5.3849964293E+01
          f-sum rule ratio=    1.0432637900E+00
 prteigrs : about to open file /scratch/users/j/a/jabreu/flow_simple_8atoms/flow/w280/t1/tmpdata/tmp_1WF1_EIG
 Expectation of eigenvalue derivatives (hartree) for nkpt=   2  k points:
  (in case of degenerate eigenvalues, averaged derivative)
 kpt#   1, nband= 51, wtk=  0.50000, kpt= -0.5000  0.5000  0.0000 (reduced coord)
  -0.00000    0.00000   -0.00000    0.00000    0.00000    0.00000    0.00000    0.00000
   0.00000   -0.00000    0.00000    0.00000    0.00000    0.00000   -0.00000    0.00000
   0.00000   -0.00000   -0.00000   -0.00000   -0.00000   -0.00000    0.00000   -0.00000
  -0.00000   -0.00000   -0.00000    0.00000    0.00000    0.00000   -0.00000    0.00000
   0.00000    0.00000   -0.00000    0.00000    0.00000   -0.00000   -0.00000    0.00000
   0.00000    0.00000   -0.00000   -0.00000   -0.00000   -0.00000    0.00000    0.00000
  -0.00000    0.00000   -0.00000
 prteigrs : prtvol=0 or 1, do not print more k-points.

 Eight components of 2nd-order total energy (hartree) are
 1,2,3: 0th-order hamiltonian combined with 1st-order wavefunctions
     kin0=   4.27790643E+01 eigvalue=   1.81310009E+00  local=  -2.16929109E+01
 4,5,6: 1st-order hamiltonian combined with 1st and 0th-order wfs
     kin1=  -5.61797178E+01  Hartree=   0.00000000E+00     xc=   0.00000000E+00
 7,8,9: eventually, occupation + non-local contributions
    edocc=   5.76096719E+00     enl0=  -1.33578697E-02   enl1=  -1.11400794E+00
 1-9 gives the relaxation energy (to be shifted if some occ is /=2.0)
   erelax=  -2.86468629E+01
  No Ewald or frozen-wf contrib.: the relaxation energy is the total one
 2DEtotal=   -0.2864686289E+02 Ha. Also 2DEtotal=   -0.779520782439E+03 eV
    (  non-var. 2DEtotal :   -2.8646862888E+01 Ha)

 Perturbation wavevector (in red.coord.)   0.000000  0.000000  0.000000
 Perturbation : derivative vs k along direction   2
 The set of symmetries contains only one element for this perturbation.
 symkpt : not enough symmetry to change the number of k points.

[...]

 Perturbation wavevector (in red.coord.)   0.000000  0.000000  0.000000
 Perturbation : derivative vs k along direction   3
 The set of symmetries contains only one element for this perturbation.
 symkpt : not enough symmetry to change the number of k points.

-inwffil : will read wavefunctions from disk file /scratch/users/j/a/jabreu/flow_simple_8atoms/flow/w280/t1/indata/in_WFK

 Initialisation of the first-order wave-functions :
  ireadwf=   0

--- !BeginCycle
iteration_state: {dtset: 1, }
solver: {iscf: 7, nstep: 2000, nline: 4, wfoptalg: 0, }
tolerances: {tolwfr: 1.00E-20, }
...

     iter   2DEtotal(Ha)        deltaE(Ha) residm    vres2
-ETOT  1  -32.348487492520     -3.235E+01 6.118E-02 0.000E+00
 ETOT  2  -32.462774963702     -1.143E-01 1.132E-02 0.000E+00
 ETOT  3  -32.466498346202     -3.723E-03 1.476E-04 0.000E+00
 ETOT  4  -32.466752250829     -2.539E-04 3.981E-05 0.000E+00
 ETOT  5  -32.466774039442     -2.179E-05 9.366E-07 0.000E+00
 ETOT  6  -32.466776095717     -2.056E-06 2.509E-07 0.000E+00
 ETOT  7  -32.466776300036     -2.043E-07 1.057E-08 0.000E+00
 ETOT  8  -32.466776320947     -2.091E-08 1.720E-09 0.000E+00
 ETOT  9  -32.466776323133     -2.185E-09 1.493E-10 0.000E+00
 ETOT 10  -32.466776323364     -2.316E-10 1.939E-11 0.000E+00
 ETOT 11  -32.466776323389     -2.487E-11 2.487E-12 0.000E+00
 ETOT 12  -32.466776323392     -2.650E-12 3.098E-13 0.000E+00
 ETOT 13  -32.466776323392     -3.553E-13 4.290E-14 0.000E+00
 ETOT 14  -32.466776323392     -1.421E-14 5.038E-15 0.000E+00
 ETOT 15  -32.466776323392      0.000E+00 7.657E-16 0.000E+00
 ETOT 16  -32.466776323392      2.132E-14 9.082E-17 0.000E+00
 ETOT 17  -32.466776323392      0.000E+00 1.411E-17 0.000E+00
 ETOT 18  -32.466776323392     -3.553E-14 2.425E-18 0.000E+00
 ETOT 19  -32.466776323392      1.421E-14 3.715E-19 0.000E+00
 ETOT 20  -32.466776323392     -7.105E-15 6.515E-20 0.000E+00
 ETOT 21  -32.466776323392      2.132E-14 9.933E-21 0.000E+00

 At SCF step   21   max residual=  9.93E-21 < tolwfr=  1.00E-20 =>converged.

 ----iterations are completed or convergence reached----

 dfpt_looppert: DFPT cycle converged with prtwf=-1. Will skip output of the 1st-order WFK file.
 dfpt_looppert : ek2=    5.8426904278E+01
          f-sum rule ratio=    1.1003692540E+00
 prteigrs : about to open file /scratch/users/j/a/jabreu/flow_simple_8atoms/flow/w280/t1/tmpdata/tmp_1WF1_EIG
 Expectation of eigenvalue derivatives (hartree) for nkpt=   2  k points:
  (in case of degenerate eigenvalues, averaged derivative)
 kpt#   1, nband= 51, wtk=  0.50000, kpt= -0.5000  0.5000  0.0000 (reduced coord)
  -0.00000    0.00000   -0.00000   -0.00000   -0.00000    0.00000   -0.00000    0.00000
   0.00000   -0.00000   -0.00000   -0.00000    0.00000    0.00000   -0.00000   -0.00000
   0.00000   -0.00000    0.00000    0.00000    0.00000    0.00000    0.00000   -0.00000
   0.00000    0.00000    0.00000    0.00000   -0.00000   -0.00000   -0.00000   -0.00000
  -0.00000    0.00000   -0.00000   -0.00000    0.00000   -0.00000   -0.00000   -0.00000
  -0.00000   -0.00000    0.00000    0.00000    0.00000    0.00000   -0.00000    0.00000
  -0.00000   -0.00000   -0.00000
 prteigrs : prtvol=0 or 1, do not print more k-points.

 Eight components of 2nd-order total energy (hartree) are
 1,2,3: 0th-order hamiltonian combined with 1st-order wavefunctions
     kin0=   4.48660893E+01 eigvalue=   2.15889350E+00  local=  -2.25274001E+01
 4,5,6: 1st-order hamiltonian combined with 1st and 0th-order wfs
     kin1=  -6.42911691E+01  Hartree=   0.00000000E+00     xc=   0.00000000E+00
 7,8,9: eventually, occupation + non-local contributions
    edocc=   8.02372431E+00     enl0=  -5.45307192E-02   enl1=  -6.42383570E-01
 1-9 gives the relaxation energy (to be shifted if some occ is /=2.0)
   erelax=  -3.24667763E+01
  No Ewald or frozen-wf contrib.: the relaxation energy is the total one
 2DEtotal=   -0.3246677632E+02 Ha. Also 2DEtotal=   -0.883465913233E+03 eV
    (  non-var. 2DEtotal :   -3.2466776323E+01 Ha)

 CALCULATION OF EFFECTIVE MASSES
 NOTE : Additional infos (eff. mass eigenvalues, eigenvectors and, if degenerate, average mass) are available in stdout.

 K-point (-0.500, 0.500, 0.000) | band =    42
 Effective mass tensor:
             -1.8069006570             -0.3015387031              0.0000000048
             -0.3015387031             -1.9813911824              0.0000000072
              0.0000000048              0.0000000072             -1.9597763568
 Effective mass tensor eigenvalues:
             -2.2080524749             -1.9597763568             -1.5802393646
 Angular average effective mass 1/(<1/m>)=  -1.8797397462
 Angular average effective mass for Frohlich model (<m**0.5>)**2=  -1.8908015686
 Effective masses along directions: (cart. coord. / red. coord. -> eff. mass)
    1:   1.000000  0.000000  0.000000 /   0.963479 -0.267783  0.000000 ->  -1.7610108850
    2:   0.000000  1.000000  0.000000 /   0.000000  1.000000  0.000000 ->  -1.9310698827
    3:   0.000000  0.000000  1.000000 /   0.000000  0.000000  1.000000 ->  -1.9597763568
    4:   0.577350  0.577350  0.577350 /   0.657028  0.448531  0.605916 ->  -2.1080339284
    5:   0.000000  0.707107  0.707107 /   0.000000  0.721375  0.692544 ->  -1.9453172159
    6:   0.707107  0.000000  0.707107 /   0.720242 -0.200180  0.664213 ->  -1.8550845642
    7:   0.707107  0.707107  0.000000 /   0.825901  0.563815  0.000000 ->  -2.1909052047

 K-point ( 0.000, 0.000, 0.000) | band =    43
 Effective mass tensor:
              0.6788397533              0.0415228938             -0.0000000002
              0.0415228938              0.7028676252              0.0000000072
             -0.0000000002              0.0000000072              0.1914379213
 Effective mass tensor eigenvalues:
              0.1914379213              0.6476277090              0.7340796695
 Angular average effective mass 1/(<1/m>)=   0.3690049420
 Angular average effective mass for Frohlich model (<m**0.5>)**2=   0.4177728529
 Effective masses along directions: (cart. coord. / red. coord. -> eff. mass)
    1:   1.000000  0.000000  0.000000 /   0.963479 -0.267783  0.000000 ->   0.6763867300
    2:   0.000000  1.000000  0.000000 /   0.000000  1.000000  0.000000 ->   0.7003277758
    3:   0.000000  0.000000  1.000000 /   0.000000  0.000000  1.000000 ->   0.1914379213
    4:   0.577350  0.577350  0.577350 /   0.657028  0.448531  0.605916 ->   0.3771075607
    5:   0.000000  0.707107  0.707107 /   0.000000  0.721375  0.692544 ->   0.3006827830
    6:   0.707107  0.000000  0.707107 /   0.720242 -0.200180  0.664213 ->   0.2984152829
    7:   0.707107  0.707107  0.000000 /   0.825901  0.563815  0.000000 ->   0.7321543009

 END OF EFFECTIVE MASSES SECTION

 ---- first-order wavefunction calculations are completed ----

 Total localisation tensor (bohr^2) in cartesian coordinates
  WARNING : still subject to testing - especially symmetries.
      direction              matrix element
   alpha     beta       real part   imaginary part
     1        1       1.2057694748    0.0000000000
     1        2      -0.2988358266    0.0000000000
     1        3       0.0000000000    0.0000000000
     2        1      -0.2988358266    0.0000000000
     2        2       1.0328419517    0.0000000000
     2        3       0.0000000000    0.0000000000
     3        1       0.0000000000    0.0000000000
     3        2       0.0000000000    0.0000000000
     3        3       1.5879176943    0.0000000000

 respfn : d/dk was computed, but no 2DTE, so no DDB output.

== END DATASET(S) ==============================================================

 -outvars: echo values of variables after computation  --------
            acell      1.0000000000E+00  1.0000000000E+00  1.0000000000E+00 Bohr
              amu      3.90983000E+01  6.35460000E+01  3.09737620E+01
             ecut      4.60000000E+01 Hartree
           etotal     -3.2466776323E+01
            fcart      0.0000000000E+00  0.0000000000E+00  0.0000000000E+00
                       0.0000000000E+00  0.0000000000E+00  0.0000000000E+00
                       0.0000000000E+00  0.0000000000E+00  0.0000000000E+00
                       0.0000000000E+00  0.0000000000E+00  0.0000000000E+00
                       0.0000000000E+00  0.0000000000E+00  0.0000000000E+00
                       0.0000000000E+00  0.0000000000E+00  0.0000000000E+00
                       0.0000000000E+00  0.0000000000E+00  0.0000000000E+00
                       0.0000000000E+00  0.0000000000E+00  0.0000000000E+00
-          fftalg         512
           irdden           1
           irdwfk           1
           istwfk        0    1
              ixc     -116133
              kpt     -5.00000000E-01  5.00000000E-01  0.00000000E+00
                       0.00000000E+00  0.00000000E+00  0.00000000E+00
           kptopt           0
P           mkmem           2
P          mkqmem           2
P          mk1mem           2
            natom           8
            nband          51
           nbdbuf           4
            ngfft          72      72      72
             nkpt           2
            nstep        2000
             nsym           8
           ntypat           3
              occ      2.000000  2.000000  2.000000  2.000000  2.000000  2.000000
                       2.000000  2.000000  2.000000  2.000000  2.000000  2.000000
                       2.000000  2.000000  2.000000  2.000000  2.000000  2.000000
                       2.000000  2.000000  2.000000  2.000000  2.000000  2.000000
                       2.000000  2.000000  2.000000  2.000000  2.000000  2.000000
                       2.000000  2.000000  2.000000  2.000000  2.000000  2.000000
                       2.000000  2.000000  2.000000  2.000000  2.000000  2.000000
                       0.000000  0.000000  0.000000  0.000000  0.000000  0.000000
                       0.000000  0.000000  0.000000
        optdriver           1
            prtwf          -1
            rfdir           1       1       1
           rfelfd           2
            rprim      1.1553115675E+01  0.0000000000E+00  0.0000000000E+00
                      -3.2110021207E+00  1.1097925354E+01  0.0000000000E+00
                       0.0000000000E+00  0.0000000000E+00  1.0654377274E+01
          spgroup          63
           strten      0.0000000000E+00  0.0000000000E+00  0.0000000000E+00
                       0.0000000000E+00  0.0000000000E+00  0.0000000000E+00
           symrel      1  0  0   0  1  0   0  0  1      -1  0  0   0 -1  0   0  0 -1
                       0 -1  0  -1  0  0   0  0 -1       0  1  0   1  0  0   0  0  1
                      -1  0  0   0 -1  0   0  0  1       1  0  0   0  1  0   0  0 -1
                       0  1  0   1  0  0   0  0 -1       0 -1  0  -1  0  0   0  0  1
            tnons      0.0000000  0.0000000  0.0000000     0.0000000  0.0000000  0.0000000
                       0.0000000  0.0000000  0.0000000     0.0000000  0.0000000  0.0000000
                       0.0000000  0.0000000  0.5000000     0.0000000  0.0000000  0.5000000
                       0.0000000  0.0000000  0.5000000     0.0000000  0.0000000  0.5000000
           tolwfr      1.00000000E-20
            typat      1  1  1  1  2  2  3  3
           useylm           1
              wtk        0.50000    0.50000
           xangst      2.5795304917E-01  5.7314116065E+00  4.2285402190E+00
                       5.4339013098E+00  1.8407431473E+00  4.2285402190E+00
                       4.1565033151E+00  1.4135755369E-01  1.4095134063E+00
                      -1.0194449456E+00  4.0320260130E+00  1.4095134063E+00
                       2.2072281821E+00  2.9363845801E+00  2.8190268127E+00
                       2.2072281821E+00  2.9363845801E+00  0.0000000000E+00
                       3.2374916662E+00  4.3069949378E+00  4.2285402190E+00
                       1.1769646980E+00  1.5657742224E+00  1.4095134063E+00
            xcart      4.8746061808E-01  1.0830798291E+01  7.9907829558E+00
                       1.0268585309E+01  3.4785004293E+00  7.9907829558E+00
                       7.8546529359E+00  2.6712706328E-01  2.6635943186E+00
                      -1.9264717547E+00  7.6194249252E+00  2.6635943186E+00
                       4.1710567770E+00  5.5489626772E+00  5.3271886372E+00
                       4.1710567770E+00  5.5489626772E+00  0.0000000000E+00
                       6.1179726067E+00  8.1390408882E+00  7.9907829558E+00
                       2.2241409473E+00  2.9588844663E+00  2.6635943186E+00
             xred      3.1343700000E-01  9.7593000000E-01  7.5000000000E-01
                       9.7593000000E-01  3.1343700000E-01  7.5000000000E-01
                       6.8656300000E-01  2.4070000000E-02  2.5000000000E-01
                       2.4070000000E-02  6.8656300000E-01  2.5000000000E-01
                       5.0000000000E-01  5.0000000000E-01  5.0000000000E-01
                       5.0000000000E-01  5.0000000000E-01  0.0000000000E+00
                       7.3338400000E-01  7.3338400000E-01  7.5000000000E-01
                       2.6661600000E-01  2.6661600000E-01  2.5000000000E-01
            znucl       19.00000   29.00000   15.00000

- Timing analysis has been suppressed with timopt=0

 Suggested references for the acknowledgment of ABINIT usage.

 Calculation completed.
.Delivered  14 WARNINGs and  11 COMMENTs to log file.