.Version 9.5.2 of ABINIT

 ABINIT is a project of the Universite Catholique de Louvain,
 Corning Inc. and other collaborators, see ~abinit/doc/developers/contributors.txt .
 acknowledgments of the ABINIT effort.

.Starting date : Mon 24 May 2021.
- ( at 16h31 )

- input  file    -> /scratch/users/j/a/jabreu/flow_simple_10atoms/flow/w339/t1/run.abi
- output file    -> /scratch/users/j/a/jabreu/flow_simple_10atoms/flow/w339/t1/run.abo
- root for input  files -> /scratch/users/j/a/jabreu/flow_simple_10atoms/flow/w339/t1/indata/in
- root for output files -> /scratch/users/j/a/jabreu/flow_simple_10atoms/flow/w339/t1/outdata/out

 Symmetries : space group Cm c m (# 63); Bravais oC (1-face-center ortho.)
     intxc =       0      iscf =       7    lmnmax =      18     lnmax =       6
     mgfft =      90  mpssoang =       3    mqgrid =    3274     natom =      10
  nloc_mem =       1    nspden =       1   nspinor =       1    nsppol =       1
      nsym =       8    n1xccc =    2501    ntypat =       3    occopt =       1
   xclevel =       2
-    mband =          75        mffmem =           1         mkmem =           2
-   mkqmem =           2        mk1mem =           2           mpw =       24024
      nfft =      583200          nkpt =           2
  Rough estimation (10% accuracy) of disk space for files :

------------- Echo of variables that govern the present computation ------------
-
- outvars: echo of selected default values
-   iomode0 =  0 , fftalg0 =512 , wfoptalg0 =  0
-
- outvars: echo of global parameters not present in the input file
-  max_nthreads =    0
-
 -outvars: echo values of preprocessed input variables --------
            acell      1.0000000000E+00  1.0000000000E+00  1.0000000000E+00 Bohr
              amu      3.90983000E+01  7.49215900E+01  1.06420000E+02
             ecut      4.20000000E+01 Hartree
-          fftalg         512
           irdden           1
           irdwfk           1
              ixc     -116133
              kpt      2.99109052E-01  2.99109052E-01  0.00000000E+00
                       2.49257543E-01  2.49257543E-01  0.00000000E+00
           kptopt           0
P           mkmem           2
P          mkqmem           2
P          mk1mem           2
            natom          10
            nband          75
           nbdbuf           4
            ngfft          90      90      72
             nkpt           2
            nstep        2000
             nsym           8
           ntypat           3
              occ      2.000000  2.000000  2.000000  2.000000  2.000000  2.000000
                       2.000000  2.000000  2.000000  2.000000  2.000000  2.000000
                       2.000000  2.000000  2.000000  2.000000  2.000000  2.000000
                       2.000000  2.000000  2.000000  2.000000  2.000000  2.000000
                       2.000000  2.000000  2.000000  2.000000  2.000000  2.000000
                       2.000000  2.000000  2.000000  2.000000  2.000000  2.000000
                       2.000000  2.000000  2.000000  2.000000  2.000000  2.000000
                       2.000000  2.000000  2.000000  2.000000  2.000000  2.000000
                       2.000000  2.000000  2.000000  2.000000  2.000000  2.000000
                       2.000000  2.000000  2.000000  2.000000  2.000000  2.000000
                       2.000000  2.000000  2.000000  2.000000  2.000000  2.000000
                       0.000000  0.000000  0.000000  0.000000  0.000000  0.000000
                       0.000000  0.000000  0.000000
        optdriver           1
            prtwf          -1
            rfdir           1       1       1
           rfelfd           2
            rprim      1.4904913302E+01  0.0000000000E+00  0.0000000000E+00
                      -1.0010603666E+01  1.1042837262E+01  0.0000000000E+00
                       0.0000000000E+00  0.0000000000E+00  1.1220265022E+01
          spgroup          63
           symrel      1  0  0   0  1  0   0  0  1      -1  0  0   0 -1  0   0  0 -1
                       0  1  0   1  0  0   0  0 -1       0 -1  0  -1  0  0   0  0  1
                      -1  0  0   0 -1  0   0  0  1       1  0  0   0  1  0   0  0 -1
                       0 -1  0  -1  0  0   0  0 -1       0  1  0   1  0  0   0  0  1
            tnons      0.0000000  0.0000000  0.0000000     0.0000000  0.0000000  0.0000000
                       0.0000000  0.0000000  0.0000000     0.0000000  0.0000000  0.0000000
                       0.0000000  0.0000000  0.5000000     0.0000000  0.0000000  0.5000000
                       0.0000000  0.0000000  0.5000000     0.0000000  0.0000000  0.5000000
           tolwfr      1.00000000E-20
            typat      1  1  1  1  2  2  2  2  3  3
           useylm           1
              wtk        0.50000    0.50000
           xangst      2.3451945389E+00  2.4563413666E+00  1.4843771310E+00
                       2.4476257257E-01  3.3872764306E+00  4.4531313930E+00
                      -2.5919834746E+00  4.6445541742E+00  1.4843771310E+00
                       5.1819405861E+00  1.1990636230E+00  4.4531313930E+00
                       1.9578470683E+00  4.5688325748E-01  4.4531313930E+00
                       6.3211004321E-01  5.3867345397E+00  1.4843771310E+00
                      -9.7645274971E-01  1.7573979291E+00  1.4843771310E+00
                       3.5664098612E+00  4.0862198681E+00  4.4531313930E+00
                       0.0000000000E+00  0.0000000000E+00  0.0000000000E+00
                       0.0000000000E+00  0.0000000000E+00  2.9687542620E+00
            xcart      4.4317754069E+00  4.6418124717E+00  2.8050662555E+00
                       4.6253422975E-01  6.4010247903E+00  8.4151987666E+00
                      -4.8981389079E+00  8.7769353985E+00  2.8050662555E+00
                       9.7924485445E+00  2.2659018635E+00  8.4151987666E+00
                       3.6997947691E+00  8.6338423133E-01  8.4151987666E+00
                       1.1945148675E+00  1.0179453031E+01  2.8050662555E+00
                      -1.8452282787E+00  3.3210007925E+00  2.8050662555E+00
                       6.7395379153E+00  7.7218364695E+00  8.4151987666E+00
                       0.0000000000E+00  0.0000000000E+00  0.0000000000E+00
                       0.0000000000E+00  0.0000000000E+00  5.6101325110E+00
             xred      5.7965400000E-01  4.2034600000E-01  2.5000000000E-01
                       4.2034600000E-01  5.7965400000E-01  7.5000000000E-01
                       2.0519200000E-01  7.9480800000E-01  2.5000000000E-01
                       7.9480800000E-01  2.0519200000E-01  7.5000000000E-01
                       3.0073800000E-01  7.8185000000E-02  7.5000000000E-01
                       6.9926200000E-01  9.2181500000E-01  2.5000000000E-01
                       7.8185000000E-02  3.0073800000E-01  2.5000000000E-01
                       9.2181500000E-01  6.9926200000E-01  7.5000000000E-01
                       0.0000000000E+00  0.0000000000E+00  0.0000000000E+00
                       0.0000000000E+00  0.0000000000E+00  5.0000000000E-01
            znucl       19.00000   33.00000   46.00000

 chkinp: Checking input parameters for consistency.

== DATASET  1 ==================================================================
-   mpi_nproc: 1, omp_nthreads: -1 (-1 if OMP is not activated)

--- !DatasetInfo
iteration_state: {dtset: 1, }
dimensions: {natom: 10, nkpt: 2, mband: 75, nsppol: 1, nspinor: 1, nspden: 1, mpw: 24024, }
cutoff_energies: {ecut:  42.0, pawecutdg:  -1.0, }
electrons: {nelect:   1.32000000E+02, charge:   0.00000000E+00, occopt:   1.00000000E+00, tsmear:   1.00000000E-02, }
meta: {optdriver: 1, rfelfd: 2, }
...

 Real(R)+Recip(G) space primitive vectors, cartesian coordinates (Bohr,Bohr^-1):
 R(1)= 14.9049133  0.0000000  0.0000000  G(1)=  0.0670920  0.0608205  0.0000000
 R(2)=-10.0106037 11.0428373  0.0000000  G(2)=  0.0000000  0.0905564  0.0000000
 R(3)=  0.0000000  0.0000000 11.2202650  G(3)=  0.0000000  0.0000000  0.0891245
 Unit cell volume ucvol=  1.8467718E+03 bohr^3
 Angles (23,13,12)=  9.00000000E+01  9.00000000E+01  1.32193081E+02 degrees

 getcut: wavevector=  0.0000  0.0000  0.0000  ngfft=  90  90  72
         ecut(hartree)=     42.000   => boxcut(ratio)=   2.06982

--- Pseudopotential description ------------------------------------------------
- pspini: atom type   1  psp file is /scratch/users/j/a/jabreu/pseudos/PBEsol/K.psp8
- pspatm: opening atomic psp file    /scratch/users/j/a/jabreu/pseudos/PBEsol/K.psp8
- K     ONCVPSP-3.3.0  r_core=   1.36296   1.46408   1.61068
- 19.00000   9.00000    180112                znucl, zion, pspdat
    8 -116133    2    4       400   0.00000   pspcod,pspxc,lmax,lloc,mmax,r2well
    3.99000000000000    5.00000000000000    0.00000000000000   rchrg,fchrg,qchrg
     nproj     2     2     2
     extension_switch     1
  pspatm : epsatm=    8.32487830
         --- l  ekb(1:nproj) -->
             0   10.921326    0.816676
             1    4.431000    0.560368
             2   -3.384038   -1.043186
 pspatm: atomic psp has been read  and splines computed

- pspini: atom type   2  psp file is /scratch/users/j/a/jabreu/pseudos/PBEsol/As.psp8
- pspatm: opening atomic psp file    /scratch/users/j/a/jabreu/pseudos/PBEsol/As.psp8
- As    ONCVPSP-3.3.0  r_core=   1.76603   1.70395   1.80867
- 33.00000  15.00000    180112                znucl, zion, pspdat
    8 -116133    2    4       600   0.00000   pspcod,pspxc,lmax,lloc,mmax,r2well
    5.99000000000000    5.00000000000000    0.00000000000000   rchrg,fchrg,qchrg
     nproj     2     2     2
     extension_switch     1
  pspatm : epsatm=   28.79155382
         --- l  ekb(1:nproj) -->
             0    8.270760    0.868950
             1    4.919053    0.756587
             2  -10.048665   -4.076802
 pspatm: atomic psp has been read  and splines computed

- pspini: atom type   3  psp file is /scratch/users/j/a/jabreu/pseudos/PBEsol/Pd.psp8
- pspatm: opening atomic psp file    /scratch/users/j/a/jabreu/pseudos/PBEsol/Pd.psp8
- Pd    ONCVPSP-3.3.0  r_core=   1.41052   1.46191   1.55175
- 46.00000  18.00000    180112                znucl, zion, pspdat
    8 -116133    2    4       600   0.00000   pspcod,pspxc,lmax,lloc,mmax,r2well
    5.99000000000000    7.00000000000000    0.00000000000000   rchrg,fchrg,qchrg
     nproj     2     2     2
     extension_switch     1
  pspatm : epsatm=   26.17262427
         --- l  ekb(1:nproj) -->
             0    7.952303   -2.096627
             1    3.304793   -0.572651
             2   -1.185452   -0.410427
 pspatm: atomic psp has been read  and splines computed

   2.65070490E+04                                ecore*ucvol(ha*bohr**3)

 ==>  initialize data related to q vector <==

 The list of irreducible perturbations for this q vector is:
    1)    idir= 1    ipert=  11
    2)    idir= 2    ipert=  11
    3)    idir= 3    ipert=  11

 Perturbation wavevector (in red.coord.)   0.000000  0.000000  0.000000
 Perturbation : derivative vs k along direction   1

 dfpt_looppert : COMMENT -
  In a d/dk calculation, iscf is set to -3 automatically.
 The set of symmetries contains only one element for this perturbation.
[...]
 Expectation of eigenvalue derivatives (hartree) for nkpt=   2  k points:
  (in case of degenerate eigenvalues, averaged derivative)
 kpt#   1, nband= 75, wtk=  0.50000, kpt=  0.2991  0.2991  0.0000 (reduced coord)
   0.00000   -0.00000   -0.00000    0.00000    0.00000    0.00000   -0.00000    0.00000
  -0.00004   -0.00004   -0.00001   -0.00001   -0.00001   -0.00001    0.00001    0.00001
   0.00001    0.00001    0.00004    0.00004    0.00000   -0.00000    0.00000   -0.00000
  -0.00000   -0.00000    0.00000    0.00000   -0.00003   -0.00011   -0.00017    0.00031
  -0.00114    0.00018   -0.00132    0.00124   -0.00032   -0.00147   -0.00118    0.00477
  -0.00111    0.00235   -0.00196   -0.00034   -0.00056   -0.00789    0.01287    0.02246
  -0.00183    0.00035   -0.03699    0.00252    0.00212    0.00427   -0.05871   -0.00138
   0.00115   -0.00868   -0.05278   -0.01829   -0.00013   -0.00058   -0.00329   -0.00682
  -0.10455    0.00015    0.08293    0.21436    0.05116    0.00961    0.09020    0.13510
   0.06039   -0.01023   -0.07941
 prteigrs : prtvol=0 or 1, do not print more k-points.

 Eight components of 2nd-order total energy (hartree) are
 1,2,3: 0th-order hamiltonian combined with 1st-order wavefunctions
     kin0=   9.46463441E+01 eigvalue=   9.13084530E+00  local=  -4.44297005E+01
 4,5,6: 1st-order hamiltonian combined with 1st and 0th-order wfs
     kin1=  -9.20131371E+01  Hartree=   0.00000000E+00     xc=   0.00000000E+00
 7,8,9: eventually, occupation + non-local contributions
    edocc=   1.01875471E+01     enl0=   6.05304489E+00   enl1=  -5.91630249E+01
 1-9 gives the relaxation energy (to be shifted if some occ is /=2.0)
   erelax=  -7.55880810E+01
  No Ewald or frozen-wf contrib.: the relaxation energy is the total one
 2DEtotal=   -0.7558808102E+02 Ha. Also 2DEtotal=   -0.205685628796E+04 eV
    (  non-var. 2DEtotal :   -7.5588081023E+01 Ha)

 Perturbation wavevector (in red.coord.)   0.000000  0.000000  0.000000
 Perturbation : derivative vs k along direction   2
 The set of symmetries contains only one element for this perturbation.
 symkpt : not enough symmetry to change the number of k points.

[...]

 Perturbation wavevector (in red.coord.)   0.000000  0.000000  0.000000
 Perturbation : derivative vs k along direction   3
 The set of symmetries contains only one element for this perturbation.
 symkpt : not enough symmetry to change the number of k points.

 Initialisation of the first-order wave-functions :
  ireadwf=   0

--- !BeginCycle
iteration_state: {dtset: 1, }
solver: {iscf: 7, nstep: 2000, nline: 4, wfoptalg: 0, }
tolerances: {tolwfr: 1.00E-20, }
...

     iter   2DEtotal(Ha)        deltaE(Ha) residm    vres2
-ETOT  1  -71.796143712398     -7.180E+01 3.022E-02 0.000E+00
 ETOT  2  -71.953126904088     -1.570E-01 3.153E-03 0.000E+00
 ETOT  3  -71.957163656307     -4.037E-03 1.312E-04 0.000E+00
 ETOT  4  -71.957421478215     -2.578E-04 1.604E-05 0.000E+00
 ETOT  5  -71.957444261253     -2.278E-05 1.092E-06 0.000E+00
 ETOT  6  -71.957446840463     -2.579E-06 2.101E-07 0.000E+00
 ETOT  7  -71.957447176651     -3.362E-07 2.306E-08 0.000E+00
 ETOT  8  -71.957447225254     -4.860E-08 5.069E-09 0.000E+00
 ETOT  9  -71.957447232691     -7.438E-09 6.064E-10 0.000E+00
 ETOT 10  -71.957447233869     -1.178E-09 1.363E-10 0.000E+00
 ETOT 11  -71.957447234060     -1.911E-10 1.681E-11 0.000E+00
 ETOT 12  -71.957447234092     -3.143E-11 3.797E-12 0.000E+00
 ETOT 13  -71.957447234097     -5.258E-12 4.751E-13 0.000E+00
 ETOT 14  -71.957447234098     -9.095E-13 1.077E-13 0.000E+00
 ETOT 15  -71.957447234098     -1.421E-13 1.357E-14 0.000E+00
 ETOT 16  -71.957447234098     -1.421E-14 3.093E-15 0.000E+00
 ETOT 17  -71.957447234098      2.842E-14 3.905E-16 0.000E+00
 ETOT 18  -71.957447234098     -4.263E-14 8.948E-17 0.000E+00
 ETOT 19  -71.957447234098      4.263E-14 1.130E-17 0.000E+00
 ETOT 20  -71.957447234098      1.421E-14 2.602E-18 0.000E+00
 ETOT 21  -71.957447234098     -4.263E-14 3.280E-19 0.000E+00
 ETOT 22  -71.957447234098      0.000E+00 7.596E-20 0.000E+00
 ETOT 23  -71.957447234098      2.842E-14 9.988E-21 0.000E+00

 At SCF step   23   max residual=  9.99E-21 < tolwfr=  1.00E-20 =>converged.

 ----iterations are completed or convergence reached----

 dfpt_looppert: DFPT cycle converged with prtwf=-1. Will skip output of the 1st-order WFK file.
 dfpt_looppert : ek2=    8.2786101856E+01
          f-sum rule ratio=    1.0513194115E+00
 prteigrs : about to open file /scratch/users/j/a/jabreu/flow_simple_10atoms/flow/w339/t1/tmpdata/tmp_1WF1_EIG
 Expectation of eigenvalue derivatives (hartree) for nkpt=   2  k points:
  (in case of degenerate eigenvalues, averaged derivative)
 kpt#   1, nband= 75, wtk=  0.50000, kpt=  0.2991  0.2991  0.0000 (reduced coord)
  -0.00000   -0.00000   -0.00000   -0.00000    0.00000   -0.00000    0.00000   -0.00000
  -0.00000    0.00000   -0.00000   -0.00000    0.00000   -0.00000   -0.00000   -0.00000
   0.00000    0.00000    0.00000    0.00000    0.00000    0.00000    0.00000    0.00000
  -0.00000   -0.00000   -0.00000   -0.00000    0.00000    0.00000   -0.00000   -0.00000
   0.00000    0.00000    0.00000    0.00000    0.00000   -0.00000   -0.00000   -0.00000
   0.00000   -0.00000   -0.00000    0.00000   -0.00000   -0.00000    0.00000    0.00000
  -0.00000    0.00000   -0.00000    0.00000   -0.00000    0.00000   -0.00000   -0.00000
  -0.00000   -0.00000    0.00000    0.00000    0.00000    0.00000   -0.00000    0.00000
   0.00000   -0.00000   -0.00000    0.00000    0.00000   -0.00000   -0.00000   -0.00000
  -0.00000    0.00000    0.00000
 prteigrs : prtvol=0 or 1, do not print more k-points.

 Eight components of 2nd-order total energy (hartree) are
 1,2,3: 0th-order hamiltonian combined with 1st-order wavefunctions
     kin0=   9.52999278E+01 eigvalue=   8.61007403E+00  local=  -4.51235702E+01
 4,5,6: 1st-order hamiltonian combined with 1st and 0th-order wfs
     kin1=  -8.70346359E+01  Hartree=   0.00000000E+00     xc=   0.00000000E+00
 7,8,9: eventually, occupation + non-local contributions
    edocc=   7.36644278E+00     enl0=   5.80457276E+00   enl1=  -5.68802586E+01
 1-9 gives the relaxation energy (to be shifted if some occ is /=2.0)
   erelax=  -7.19574472E+01
  No Ewald or frozen-wf contrib.: the relaxation energy is the total one
 2DEtotal=   -0.7195744723E+02 Ha. Also 2DEtotal=   -0.195806171827E+04 eV
    (  non-var. 2DEtotal :   -7.1957447234E+01 Ha)

 CALCULATION OF EFFECTIVE MASSES
 NOTE : Additional infos (eff. mass eigenvalues, eigenvectors and, if degenerate, average mass) are available in stdout.

 K-point ( 0.299, 0.299, 0.000) | band =    66
 Effective mass tensor:
             -6.4034474706             -1.9829424573             -0.0000007164
             -1.9829424573             -9.9986215329              0.0000020548
             -0.0000007164              0.0000020548             -0.2923800556
 Effective mass tensor eigenvalues:
            -10.8774836276             -5.5245853758             -0.2923800556
 Angular average effective mass 1/(<1/m>)=  -0.8123151269
 Angular average effective mass for Frohlich model (<m**0.5>)**2=  -1.6208770825
 Effective masses along directions: (cart. coord. / red. coord. -> eff. mass)
    1:   1.000000  0.000000  0.000000 /   0.830143 -0.557550  0.000000 ->  -6.0101871820
    2:   0.000000  1.000000  0.000000 /   0.000000  1.000000  0.000000 ->  -9.3845678052
    3:   0.000000  0.000000  1.000000 /   0.000000  0.000000  1.000000 ->  -0.2923800556
    4:   0.577350  0.577350  0.577350 /   0.797709  0.055245  0.600507 ->  -0.8270949118
    5:   0.000000  0.707107  0.707107 /   0.000000  0.701449  0.712719 ->  -0.5670918568
    6:   0.707107  0.000000  0.707107 /   0.703984 -0.472818  0.529952 ->  -0.5576329209
    7:   0.707107  0.707107  0.000000 /   0.997610  0.069089  0.000000 ->  -9.6643128705

 K-point ( 0.249, 0.249, 0.000) | band =    67
 Effective mass tensor:
              4.0015055109             -1.7274363672             -0.0000161418
             -1.7274363672              0.8695680398              0.0000071624
             -0.0000161418              0.0000071624              0.8681833900
 Effective mass tensor eigenvalues:
              0.1039505163              0.8681833899              4.7671230345
 Angular average effective mass 1/(<1/m>)=   0.2731851722
 Angular average effective mass for Frohlich model (<m**0.5>)**2=   0.4790901725
 Effective masses along directions: (cart. coord. / red. coord. -> eff. mass)
    1:   1.000000  0.000000  0.000000 /   0.830143 -0.557550  0.000000 ->   0.5698747860
    2:   0.000000  1.000000  0.000000 /   0.000000  1.000000  0.000000 ->   0.1238396147
    3:   0.000000  0.000000  1.000000 /   0.000000  0.000000  1.000000 ->   0.8681833899
    4:   0.577350  0.577350  0.577350 /   0.797709  0.055245  0.600507 ->   0.1670989642
    5:   0.000000  0.707107  0.707107 /   0.000000  0.701449  0.712719 ->   0.2167601719
    6:   0.707107  0.000000  0.707107 /   0.703984 -0.472818  0.529952 ->   0.6880869150
    7:   0.707107  0.707107  0.000000 /   0.997610  0.069089  0.000000 ->   0.1190362954

 END OF EFFECTIVE MASSES SECTION

 ---- first-order wavefunction calculations are completed ----

 Total localisation tensor (bohr^2) in cartesian coordinates
  WARNING : still subject to testing - especially symmetries.
      direction              matrix element
   alpha     beta       real part   imaginary part
     1        1       3.9479052907    0.0000000000
     1        2      -1.3537990966    0.0000000000
     1        3       0.0000000000    0.0000000000
     2        1      -1.3537990966    0.0000000000
     2        2       1.4933947650    0.0000000000
     2        3       0.0000000000    0.0000000000
     3        1       0.0000000000    0.0000000000
     3        2       0.0000000000    0.0000000000
     3        3       1.2011800417    0.0000000000

 respfn : d/dk was computed, but no 2DTE, so no DDB output.

== END DATASET(S) ==============================================================

 -outvars: echo values of variables after computation  --------
            acell      1.0000000000E+00  1.0000000000E+00  1.0000000000E+00 Bohr
              amu      3.90983000E+01  7.49215900E+01  1.06420000E+02
             ecut      4.20000000E+01 Hartree
           etotal     -7.1957447234E+01
            fcart      0.0000000000E+00  0.0000000000E+00  0.0000000000E+00
                       0.0000000000E+00  0.0000000000E+00  0.0000000000E+00
                       0.0000000000E+00  0.0000000000E+00  0.0000000000E+00
                       0.0000000000E+00  0.0000000000E+00  0.0000000000E+00
                       0.0000000000E+00  0.0000000000E+00  0.0000000000E+00
                       0.0000000000E+00  0.0000000000E+00  0.0000000000E+00
                       0.0000000000E+00  0.0000000000E+00  0.0000000000E+00
                       0.0000000000E+00  0.0000000000E+00  0.0000000000E+00
                       0.0000000000E+00  0.0000000000E+00  0.0000000000E+00
                       0.0000000000E+00  0.0000000000E+00  0.0000000000E+00
-          fftalg         512
           irdden           1
           irdwfk           1
              ixc     -116133
              kpt      2.99109052E-01  2.99109052E-01  0.00000000E+00
                       2.49257543E-01  2.49257543E-01  0.00000000E+00
           kptopt           0
P           mkmem           2
P          mkqmem           2
P          mk1mem           2
            natom          10
            nband          75
           nbdbuf           4
            ngfft          90      90      72
             nkpt           2
            nstep        2000
             nsym           8
           ntypat           3
              occ      2.000000  2.000000  2.000000  2.000000  2.000000  2.000000
                       2.000000  2.000000  2.000000  2.000000  2.000000  2.000000
                       2.000000  2.000000  2.000000  2.000000  2.000000  2.000000
                       2.000000  2.000000  2.000000  2.000000  2.000000  2.000000
                       2.000000  2.000000  2.000000  2.000000  2.000000  2.000000
                       2.000000  2.000000  2.000000  2.000000  2.000000  2.000000
                       2.000000  2.000000  2.000000  2.000000  2.000000  2.000000
                       2.000000  2.000000  2.000000  2.000000  2.000000  2.000000
                       2.000000  2.000000  2.000000  2.000000  2.000000  2.000000
                       2.000000  2.000000  2.000000  2.000000  2.000000  2.000000
                       2.000000  2.000000  2.000000  2.000000  2.000000  2.000000
                       0.000000  0.000000  0.000000  0.000000  0.000000  0.000000
                       0.000000  0.000000  0.000000
        optdriver           1
            prtwf          -1
            rfdir           1       1       1
           rfelfd           2
            rprim      1.4904913302E+01  0.0000000000E+00  0.0000000000E+00
                      -1.0010603666E+01  1.1042837262E+01  0.0000000000E+00
                       0.0000000000E+00  0.0000000000E+00  1.1220265022E+01
          spgroup          63
           strten      0.0000000000E+00  0.0000000000E+00  0.0000000000E+00
                       0.0000000000E+00  0.0000000000E+00  0.0000000000E+00
           symrel      1  0  0   0  1  0   0  0  1      -1  0  0   0 -1  0   0  0 -1
                       0  1  0   1  0  0   0  0 -1       0 -1  0  -1  0  0   0  0  1
                      -1  0  0   0 -1  0   0  0  1       1  0  0   0  1  0   0  0 -1
                       0 -1  0  -1  0  0   0  0 -1       0  1  0   1  0  0   0  0  1
            tnons      0.0000000  0.0000000  0.0000000     0.0000000  0.0000000  0.0000000
                       0.0000000  0.0000000  0.0000000     0.0000000  0.0000000  0.0000000
                       0.0000000  0.0000000  0.5000000     0.0000000  0.0000000  0.5000000
                       0.0000000  0.0000000  0.5000000     0.0000000  0.0000000  0.5000000
           tolwfr      1.00000000E-20
            typat      1  1  1  1  2  2  2  2  3  3
           useylm           1
              wtk        0.50000    0.50000
           xangst      2.3451945389E+00  2.4563413666E+00  1.4843771310E+00
                       2.4476257257E-01  3.3872764306E+00  4.4531313930E+00
                      -2.5919834746E+00  4.6445541742E+00  1.4843771310E+00
                       5.1819405861E+00  1.1990636230E+00  4.4531313930E+00
                       1.9578470683E+00  4.5688325748E-01  4.4531313930E+00
                       6.3211004321E-01  5.3867345397E+00  1.4843771310E+00
                      -9.7645274971E-01  1.7573979291E+00  1.4843771310E+00
                       3.5664098612E+00  4.0862198681E+00  4.4531313930E+00
                       0.0000000000E+00  0.0000000000E+00  0.0000000000E+00
                       0.0000000000E+00  0.0000000000E+00  2.9687542620E+00
            xcart      4.4317754069E+00  4.6418124717E+00  2.8050662555E+00
                       4.6253422975E-01  6.4010247903E+00  8.4151987666E+00
                      -4.8981389079E+00  8.7769353985E+00  2.8050662555E+00
                       9.7924485445E+00  2.2659018635E+00  8.4151987666E+00
                       3.6997947691E+00  8.6338423133E-01  8.4151987666E+00
                       1.1945148675E+00  1.0179453031E+01  2.8050662555E+00
                      -1.8452282787E+00  3.3210007925E+00  2.8050662555E+00
                       6.7395379153E+00  7.7218364695E+00  8.4151987666E+00
                       0.0000000000E+00  0.0000000000E+00  0.0000000000E+00
                       0.0000000000E+00  0.0000000000E+00  5.6101325110E+00
             xred      5.7965400000E-01  4.2034600000E-01  2.5000000000E-01
                       4.2034600000E-01  5.7965400000E-01  7.5000000000E-01
                       2.0519200000E-01  7.9480800000E-01  2.5000000000E-01
                       7.9480800000E-01  2.0519200000E-01  7.5000000000E-01
                       3.0073800000E-01  7.8185000000E-02  7.5000000000E-01
                       6.9926200000E-01  9.2181500000E-01  2.5000000000E-01
                       7.8185000000E-02  3.0073800000E-01  2.5000000000E-01
                       9.2181500000E-01  6.9926200000E-01  7.5000000000E-01
                       0.0000000000E+00  0.0000000000E+00  0.0000000000E+00
                       0.0000000000E+00  0.0000000000E+00  5.0000000000E-01
            znucl       19.00000   33.00000   46.00000

- Timing analysis has been suppressed with timopt=0

 Suggested references for the acknowledgment of ABINIT usage.

 Calculation completed.
.Delivered   2 WARNINGs and   7 COMMENTs to log file.