.Version 9.5.1 of ABINIT

 ABINIT is a project of the Universite Catholique de Louvain,
 Corning Inc. and other collaborators, see ~abinit/doc/developers/contributors.txt .
 acknowledgments of the ABINIT effort.

.Starting date : Wed  5 May 2021.
- ( at 19h42 )

- input  file    -> /scratch/users/j/a/jabreu/flow_simple_7atoms/flow/w127/t1/run.abi
- output file    -> /scratch/users/j/a/jabreu/flow_simple_7atoms/flow/w127/t1/run.abo
- root for input  files -> /scratch/users/j/a/jabreu/flow_simple_7atoms/flow/w127/t1/indata/in
- root for output files -> /scratch/users/j/a/jabreu/flow_simple_7atoms/flow/w127/t1/outdata/out

 Symmetries : space group I4/m m m (#139); Bravais tI (body-center tetrag.)
     intxc =       0      iscf =       7    lmnmax =      18     lnmax =       6
     mgfft =     100  mpssoang =       3    mqgrid =    3001     natom =       7
  nloc_mem =       1    nspden =       1   nspinor =       1    nsppol =       1
      nsym =      16    n1xccc =    2501    ntypat =       3    occopt =       1
   xclevel =       2
-    mband =          37        mffmem =           1         mkmem =           2
-   mkqmem =           2        mk1mem =           2           mpw =       16833
      nfft =     1000000          nkpt =           2
  Rough estimation (10% accuracy) of disk space for files :

------------- Echo of variables that govern the present computation ------------
-
- outvars: echo of selected default values
-   iomode0 =  0 , fftalg0 =512 , wfoptalg0 =  0
-
- outvars: echo of global parameters not present in the input file
-  max_nthreads =    0
-
 -outvars: echo values of preprocessed input variables --------
            acell      1.0000000000E+00  1.0000000000E+00  1.0000000000E+00 Bohr
              amu      8.76200000E+01  3.09737620E+01  1.59994000E+01
             ecut      4.40000000E+01 Hartree
-          fftalg         512
           irdden           1
           irdwfk           1
              ixc     -116133
              kpt      3.46944695E-18 -3.46944695E-18  3.44827586E-02
                       5.00000000E-01  5.00000000E-01 -5.00000000E-01
           kptopt           0
P           mkmem           2
P          mkqmem           2
P          mk1mem           2
            natom           7
            nband          37
           nbdbuf           4
            ngfft         100     100     100
             nkpt           2
            nstep        2000
             nsym          16
           ntypat           3
              occ      2.000000  2.000000  2.000000  2.000000  2.000000  2.000000
                       2.000000  2.000000  2.000000  2.000000  2.000000  2.000000
                       2.000000  2.000000  2.000000  2.000000  2.000000  2.000000
                       2.000000  2.000000  2.000000  2.000000  2.000000  2.000000
                       2.000000  2.000000  2.000000  2.000000  0.000000  0.000000
                       0.000000  0.000000  0.000000  0.000000  0.000000  0.000000
                       0.000000
        optdriver           1
            prtwf          -1
            rfdir           1       1       1
           rfelfd           2
            rprim      8.6403991157E+00  0.0000000000E+00 -1.3748841293E+01
                      -7.1734330140E-01  8.6105699850E+00 -1.3748841293E+01
                       0.0000000000E+00  0.0000000000E+00  1.6238446163E+01
          spgroup         139
           symrel      1  0  0   0  1  0   0  0  1      -1  0  0   0 -1  0   0  0 -1
                      -1 -1 -1   0  0  1   0  1  0       1  1  1   0  0 -1   0 -1  0
                       0  1  0   1  0  0  -1 -1 -1       0 -1  0  -1  0  0   1  1  1
                       0  0  1  -1 -1 -1   1  0  0       0  0 -1   1  1  1  -1  0  0
                       0  1  0   1  0  0   0  0  1       0 -1  0  -1  0  0   0  0 -1
                      -1 -1 -1   0  0  1   1  0  0       1  1  1   0  0 -1  -1  0  0
                       1  0  0   0  1  0  -1 -1 -1      -1  0  0   0 -1  0   1  1  1
                       0  0  1  -1 -1 -1   0  1  0       0  0 -1   1  1  1   0 -1  0
           tolwfr      1.00000000E-20
            typat      1  1  1  1  2  2  3
           useylm           1
              wtk        0.50000    0.50000
           xangst      1.3623803124E+00  1.4805993169E+00 -4.7282642294E+00
                       2.8303202469E+00  3.0759180721E+00 -9.8228826847E+00
                       2.2861511426E+00  0.0000000000E+00  6.5872107769E-01
                      -1.8980086292E-01  2.2782586945E+00  6.5872107769E-01
                       5.6586363829E-01  6.1496581289E-01 -1.9638809921E+00
                       3.6268369210E+00  3.9415515761E+00 -1.2587265922E+01
                       2.0963502797E+00  2.2782586945E+00 -7.2755734570E+00
            xcart      2.5745256794E+00  2.7979272215E+00 -8.9351244775E+00
                       5.3485301349E+00  5.8126427635E+00 -1.8562558109E+01
                       4.3201995578E+00  0.0000000000E+00  1.2448024348E+00
                      -3.5867165070E-01  4.3052849925E+00  1.2448024348E+00
                       1.0693273049E+00  1.1621169675E+00 -3.7111972327E+00
                       6.8537285094E+00  7.4484530175E+00 -2.3786485354E+01
                       3.9615279071E+00  4.3052849925E+00 -1.3748841293E+01
             xred      3.2494100000E-01  3.2494100000E-01  0.0000000000E+00
                       6.7505900000E-01  6.7505900000E-01 -2.2204460493E-16
                       5.0000000000E-01  0.0000000000E+00  5.0000000000E-01
                       0.0000000000E+00  5.0000000000E-01  5.0000000000E-01
                       1.3496400000E-01  1.3496400000E-01  0.0000000000E+00
                       8.6503600000E-01  8.6503600000E-01  0.0000000000E+00
                       5.0000000000E-01  5.0000000000E-01  0.0000000000E+00
            znucl       38.00000   15.00000    8.00000

 chkinp: Checking input parameters for consistency.

== DATASET  1 ==================================================================
-   mpi_nproc: 1, omp_nthreads: -1 (-1 if OMP is not activated)

--- !DatasetInfo
iteration_state: {dtset: 1, }
dimensions: {natom: 7, nkpt: 2, mband: 37, nsppol: 1, nspinor: 1, nspden: 1, mpw: 16833, }
cutoff_energies: {ecut:  44.0, pawecutdg:  -1.0, }
electrons: {nelect:   5.60000000E+01, charge:   0.00000000E+00, occopt:   1.00000000E+00, tsmear:   1.00000000E-02, }
meta: {optdriver: 1, rfelfd: 2, }
...

 Real(R)+Recip(G) space primitive vectors, cartesian coordinates (Bohr,Bohr^-1):
 R(1)=  8.6403991  0.0000000-13.7488413  G(1)=  0.1157354  0.0096419  0.0000000
 R(2)= -0.7173433  8.6105700-13.7488413  G(2)=  0.0000000  0.1161363  0.0000000
 R(3)=  0.0000000  0.0000000 16.2384462  G(3)=  0.0979914  0.1064945  0.0615822
 Unit cell volume ucvol=  1.2081203E+03 bohr^3
 Angles (23,13,12)=  1.47852872E+02  1.47852872E+02  4.61026042E+01 degrees

 getcut: wavevector=  0.0000  0.0000  0.0000  ngfft= 100 100 100
         ecut(hartree)=     44.000   => boxcut(ratio)=   2.06271

--- Pseudopotential description ------------------------------------------------
- pspini: atom type   1  psp file is /scratch/users/j/a/jabreu/pseudos/PBEsol/Sr.psp8
- pspatm: opening atomic psp file    /scratch/users/j/a/jabreu/pseudos/PBEsol/Sr.psp8
- Sr    ONCVPSP-3.3.0  r_core=   1.66721   1.31335   1.51547
- 38.00000  10.00000    180112                znucl, zion, pspdat
    8 -116133    2    4       600   0.00000   pspcod,pspxc,lmax,lloc,mmax,r2well
    5.99000000000000    6.00000000000000    0.00000000000000   rchrg,fchrg,qchrg
     nproj     2     2     2
     extension_switch     1
  pspatm : epsatm=   12.46450977
         --- l  ekb(1:nproj) -->
             0   10.029206    1.044171
             1    7.472414    1.670829
             2    4.142950    0.968140
 pspatm: atomic psp has been read  and splines computed

- pspini: atom type   2  psp file is /scratch/users/j/a/jabreu/pseudos/PBEsol/P.psp8
- pspatm: opening atomic psp file    /scratch/users/j/a/jabreu/pseudos/PBEsol/P.psp8
- P     ONCVPSP-3.3.0  r_core=   1.46089   1.55067   1.70594
- 15.00000   5.00000    180112                znucl, zion, pspdat
    8 -116133    2    4       600   0.00000   pspcod,pspxc,lmax,lloc,mmax,r2well
    5.99000000000000    5.00000000000000    0.00000000000000   rchrg,fchrg,qchrg
     nproj     2     2     2
     extension_switch     1
  pspatm : epsatm=    7.31221086
         --- l  ekb(1:nproj) -->
             0    6.742364    1.063650
             1    3.449117    0.910422
             2   -3.077645   -0.799176
 pspatm: atomic psp has been read  and splines computed

- pspini: atom type   3  psp file is /scratch/users/j/a/jabreu/pseudos/PBEsol/O.psp8
- pspatm: opening atomic psp file    /scratch/users/j/a/jabreu/pseudos/PBEsol/O.psp8
- O     ONCVPSP-3.3.0  r_core=   1.35509   1.45563   1.26150
-  8.00000   6.00000    180112                znucl, zion, pspdat
    8 -116133    2    4       600   0.00000   pspcod,pspxc,lmax,lloc,mmax,r2well
    5.99000000000000    4.00000000000000    0.00000000000000   rchrg,fchrg,qchrg
     nproj     2     2     1
     extension_switch     1
  pspatm : epsatm=    6.22910522
         --- l  ekb(1:nproj) -->
             0    6.050032    0.820363
             1   -4.739617   -1.153841
             2   -1.335834
 pspatm: atomic psp has been read  and splines computed

   3.95984770E+03                                ecore*ucvol(ha*bohr**3)

-inwffil : will read wavefunctions from disk file /scratch/users/j/a/jabreu/flow_simple_7atoms/flow/w127/t1/indata/in_WFK

 ==>  initialize data related to q vector <==

 The list of irreducible perturbations for this q vector is:
    1)    idir= 1    ipert=   8
    2)    idir= 2    ipert=   8
    3)    idir= 3    ipert=   8

 Perturbation wavevector (in red.coord.)   0.000000  0.000000  0.000000
 Perturbation : derivative vs k along direction   1

 dfpt_looppert : COMMENT -
  In a d/dk calculation, iscf is set to -3 automatically.
 The set of symmetries contains only one element for this perturbation.
 symkpt : not enough symmetry to change the number of k points.

[...]

 Initialisation of the first-order wave-functions :
  ireadwf=   0

--- !BeginCycle
iteration_state: {dtset: 1, }
solver: {iscf: 7, nstep: 2000, nline: 4, wfoptalg: 0, }
tolerances: {tolwfr: 1.00E-20, }
...

     iter   2DEtotal(Ha)        deltaE(Ha) residm    vres2
-ETOT  1  -39.586021636649     -3.959E+01 1.115E-01 0.000E+00
 ETOT  2  -39.652891978868     -6.687E-02 9.670E-03 0.000E+00
 ETOT  3  -39.653711906242     -8.199E-04 9.508E-04 0.000E+00
 ETOT  4  -39.653726514012     -1.461E-05 1.465E-04 0.000E+00
 ETOT  5  -39.653726813512     -2.995E-07 2.212E-05 0.000E+00
 ETOT  6  -39.653726820047     -6.535E-09 3.573E-06 0.000E+00
 ETOT  7  -39.653726820194     -1.477E-10 5.781E-07 0.000E+00
 ETOT  8  -39.653726820198     -3.446E-12 1.402E-07 0.000E+00
 ETOT  9  -39.653726820198     -1.776E-13 1.549E-08 0.000E+00
 ETOT 10  -39.653726820198      3.553E-14 6.480E-09 0.000E+00
 ETOT 11  -39.653726820198      1.421E-14 5.781E-10 0.000E+00
 ETOT 12  -39.653726820198      4.974E-14 3.082E-10 0.000E+00
 ETOT 13  -39.653726820198      1.421E-14 2.748E-11 0.000E+00
 ETOT 14  -39.653726820198      0.000E+00 1.501E-11 0.000E+00
 ETOT 15  -39.653726820198      1.421E-14 1.342E-12 0.000E+00
 ETOT 16  -39.653726820198     -7.105E-15 7.442E-13 0.000E+00
 ETOT 17  -39.653726820198     -7.105E-15 6.656E-14 0.000E+00
 ETOT 18  -39.653726820198      0.000E+00 3.733E-14 0.000E+00
 ETOT 19  -39.653726820198      0.000E+00 3.329E-15 0.000E+00
 ETOT 20  -39.653726820198      0.000E+00 1.889E-15 0.000E+00
 ETOT 21  -39.653726820198     -1.421E-14 1.675E-16 0.000E+00
 ETOT 22  -39.653726820198      2.842E-14 9.615E-17 0.000E+00
 ETOT 23  -39.653726820198     -1.421E-14 8.462E-18 0.000E+00
 ETOT 24  -39.653726820198      1.421E-14 4.916E-18 0.000E+00
 ETOT 25  -39.653726820198      0.000E+00 4.292E-19 0.000E+00
 ETOT 26  -39.653726820198     -1.421E-14 2.521E-19 0.000E+00
 ETOT 27  -39.653726820198      0.000E+00 2.185E-20 0.000E+00
 ETOT 28  -39.653726820198      0.000E+00 1.296E-20 0.000E+00
 ETOT 29  -39.653726820198     -1.421E-14 9.658E-21 0.000E+00

 At SCF step   29   max residual=  9.66E-21 < tolwfr=  1.00E-20 =>converged.

 ----iterations are completed or convergence reached----

 dfpt_looppert: DFPT cycle converged with prtwf=-1. Will skip output of the 1st-order WFK file.
 dfpt_looppert : ek2=    5.9636748577E+01
          f-sum rule ratio=    1.3450884663E+00
 prteigrs : about to open file /scratch/users/j/a/jabreu/flow_simple_7atoms/flow/w127/t1/tmpdata/tmp_1WF1_EIG
 Expectation of eigenvalue derivatives (hartree) for nkpt=   2  k points:
  (in case of degenerate eigenvalues, averaged derivative)
 kpt#   1, nband= 37, wtk=  0.50000, kpt=  0.0000  0.0000  0.0345 (reduced coord)
   0.00015   -0.00007    0.00131   -0.00123   -0.03852   -0.00271   -0.00114    0.00431
   0.00295    0.00477   -0.03328    0.00852    0.04504    0.00077   -0.00112    0.00183
   0.01634    0.00982    0.00066   -0.00840    0.01074   -0.02563   -0.02124   -0.02563
  -0.00619   -0.08236   -0.03475   -0.00022    0.01184    0.06996    0.05659    0.05716
  -0.01721    0.03068    0.00722    0.06204    0.01911
 prteigrs : prtvol=0 or 1, do not print more k-points.

 Eight components of 2nd-order total energy (hartree) are
 1,2,3: 0th-order hamiltonian combined with 1st-order wavefunctions
     kin0=   5.32080949E+01 eigvalue=  -9.65263809E-01  local=  -3.67205988E+01
 4,5,6: 1st-order hamiltonian combined with 1st and 0th-order wfs
     kin1=  -8.02167027E+01  Hartree=   0.00000000E+00     xc=   0.00000000E+00
 7,8,9: eventually, occupation + non-local contributions
    edocc=   1.65408019E+01     enl0=   7.59069268E+00   enl1=   9.09249037E-01
 1-9 gives the relaxation energy (to be shifted if some occ is /=2.0)
   erelax=  -3.96537268E+01
  No Ewald or frozen-wf contrib.: the relaxation energy is the total one
 2DEtotal=   -0.3965372682E+02 Ha. Also 2DEtotal=   -0.107903278198E+04 eV
    (  non-var. 2DEtotal :   -3.9653726820E+01 Ha)

 Perturbation wavevector (in red.coord.)   0.000000  0.000000  0.000000
 Perturbation : derivative vs k along direction   2
 The set of symmetries contains only one element for this perturbation.
 symkpt : not enough symmetry to change the number of k points.

[...]

 Perturbation wavevector (in red.coord.)   0.000000  0.000000  0.000000
 Perturbation : derivative vs k along direction   3
 The set of symmetries contains only one element for this perturbation.
 symkpt : not enough symmetry to change the number of k points.

-inwffil : will read wavefunctions from disk file /scratch/users/j/a/jabreu/flow_simple_7atoms/flow/w127/t1/indata/in_WFK

 Initialisation of the first-order wave-functions :
  ireadwf=   0

--- !BeginCycle
iteration_state: {dtset: 1, }
solver: {iscf: 7, nstep: 2000, nline: 4, wfoptalg: 0, }
tolerances: {tolwfr: 1.00E-20, }
...

     iter   2DEtotal(Ha)        deltaE(Ha) residm    vres2
-ETOT  1  -73.509637743134     -7.351E+01 1.583E-01 0.000E+00
 ETOT  2  -73.602135802276     -9.250E-02 1.106E-02 0.000E+00
 ETOT  3  -73.603177149147     -1.041E-03 7.835E-04 0.000E+00
 ETOT  4  -73.603197106749     -1.996E-05 7.058E-05 0.000E+00
 ETOT  5  -73.603197573055     -4.663E-07 5.249E-06 0.000E+00
 ETOT  6  -73.603197584960     -1.191E-08 9.546E-07 0.000E+00
 ETOT  7  -73.603197585278     -3.187E-10 2.648E-07 0.000E+00
 ETOT  8  -73.603197585287     -8.626E-12 4.028E-08 0.000E+00
 ETOT  9  -73.603197585287     -2.984E-13 1.521E-08 0.000E+00
 ETOT 10  -73.603197585287     -2.842E-14 2.311E-09 0.000E+00
 ETOT 11  -73.603197585287     -1.279E-13 9.038E-10 0.000E+00
 ETOT 12  -73.603197585287      0.000E+00 1.343E-10 0.000E+00
 ETOT 13  -73.603197585288     -5.684E-14 5.455E-11 0.000E+00
 ETOT 14  -73.603197585288      0.000E+00 7.910E-12 0.000E+00
 ETOT 15  -73.603197585288     -1.421E-14 3.334E-12 0.000E+00
 ETOT 16  -73.603197585288      1.421E-14 4.738E-13 0.000E+00
 ETOT 17  -73.603197585288      0.000E+00 2.065E-13 0.000E+00
 ETOT 18  -73.603197585288      0.000E+00 2.896E-14 0.000E+00
 ETOT 19  -73.603197585288      1.421E-14 1.298E-14 0.000E+00
 ETOT 20  -73.603197585288     -1.421E-14 1.805E-15 0.000E+00
 ETOT 21  -73.603197585288      0.000E+00 8.270E-16 0.000E+00
 ETOT 22  -73.603197585288      1.421E-14 1.144E-16 0.000E+00
 ETOT 23  -73.603197585288     -1.421E-14 5.322E-17 0.000E+00
 ETOT 24  -73.603197585288     -1.421E-14 7.330E-18 0.000E+00
 ETOT 25  -73.603197585288      0.000E+00 3.448E-18 0.000E+00
 ETOT 26  -73.603197585288      0.000E+00 4.733E-19 0.000E+00
 ETOT 27  -73.603197585288      0.000E+00 2.244E-19 0.000E+00
 ETOT 28  -73.603197585288      0.000E+00 3.070E-20 0.000E+00
 ETOT 29  -73.603197585288      2.842E-14 1.465E-20 0.000E+00
 ETOT 30  -73.603197585288     -2.842E-14 9.666E-21 0.000E+00

 At SCF step   30   max residual=  9.67E-21 < tolwfr=  1.00E-20 =>converged.

 ----iterations are completed or convergence reached----

 dfpt_looppert: DFPT cycle converged with prtwf=-1. Will skip output of the 1st-order WFK file.
 dfpt_looppert : ek2=    1.0937117174E+02
          f-sum rule ratio=    1.3620852990E+00
 prteigrs : about to open file /scratch/users/j/a/jabreu/flow_simple_7atoms/flow/w127/t1/tmpdata/tmp_1WF1_EIG
 Expectation of eigenvalue derivatives (hartree) for nkpt=   2  k points:
  (in case of degenerate eigenvalues, averaged derivative)
 kpt#   1, nband= 37, wtk=  0.50000, kpt=  0.0000  0.0000  0.0345 (reduced coord)
   0.00031   -0.00014    0.00263   -0.00245   -0.07704   -0.00542   -0.00228    0.00863
   0.00590    0.00954   -0.06656    0.01704    0.09008    0.00154   -0.00224    0.00366
   0.03269    0.01964    0.00131   -0.01681    0.02148   -0.05125   -0.04248   -0.05127
  -0.01238   -0.16471   -0.06949   -0.00044    0.02369    0.13992    0.11318    0.11432
  -0.03441    0.06136    0.01443    0.12407    0.03824
 prteigrs : prtvol=0 or 1, do not print more k-points.

 Eight components of 2nd-order total energy (hartree) are
 1,2,3: 0th-order hamiltonian combined with 1st-order wavefunctions
     kin0=   9.96373235E+01 eigvalue=  -2.05992262E+00  local=  -6.87917713E+01
 4,5,6: 1st-order hamiltonian combined with 1st and 0th-order wfs
     kin1=  -1.48972865E+02  Hartree=   0.00000000E+00     xc=   0.00000000E+00
 7,8,9: eventually, occupation + non-local contributions
    edocc=   3.05871789E+01     enl0=   1.42303891E+01   enl1=   1.76646999E+00
 1-9 gives the relaxation energy (to be shifted if some occ is /=2.0)
   erelax=  -7.36031976E+01
  No Ewald or frozen-wf contrib.: the relaxation energy is the total one
 2DEtotal=   -0.7360319759E+02 Ha. Also 2DEtotal=   -0.200284486282E+04 eV
    (  non-var. 2DEtotal :   -7.3603197585E+01 Ha)

 CALCULATION OF EFFECTIVE MASSES
 NOTE : Additional infos (eff. mass eigenvalues, eigenvectors and, if degenerate, average mass) are available in stdout.

 K-point ( 0.000,-0.000, 0.034) | band =    28
 Effective mass tensor:
             -6.4285000625              2.8645530801             -0.8655025542
              2.8645530801             -5.9512104229             -0.9406061669
             -0.8655025542             -0.9406061669             -0.8554928123
 Effective mass tensor eigenvalues:
             -9.0643318383             -3.8592999332             -0.3115715262
 Angular average effective mass 1/(<1/m>)=  -0.8382293417
 Angular average effective mass for Frohlich model (<m**0.5>)**2=  -1.4949402163
 Effective masses along directions: (cart. coord. / red. coord. -> eff. mass)
    1:   1.000000  0.000000  0.000000 /   0.996571 -0.082737  0.000000 ->  -2.5910959216
    2:   0.000000  1.000000  0.000000 /   0.000000  1.000000  0.000000 ->  -2.2943948973
    3:   0.000000  0.000000  1.000000 /  -0.542730 -0.542730  0.641006 ->  -0.3626879757
    4:   0.577350  0.577350  0.577350 /  -0.283771 -0.325276  0.902036 ->  -2.5554071140
    5:   0.000000  0.707107  0.707107 /  -0.628122 -0.234744  0.741861 ->  -1.2280859090
    6:   0.707107  0.000000  0.707107 /  -0.228673 -0.647560  0.726893 ->  -1.1740119838
    7:   0.707107  0.707107  0.000000 /   0.738308  0.674464  0.000000 ->  -1.4076147289

 K-point ( 0.500, 0.500,-0.500) | band =    29
 Effective mass tensor:
              0.2423748597              0.0500968452             -0.1599832703
              0.0500968452              0.2507219576             -0.1738656366
             -0.1599832703             -0.1738656366              0.7515144405
 Effective mass tensor eigenvalues:
              0.1962780156              0.1962780159              0.8520552262
 Angular average effective mass 1/(<1/m>)=   0.2640087202
 Angular average effective mass for Frohlich model (<m**0.5>)**2=   0.2920826451
 Effective masses along directions: (cart. coord. / red. coord. -> eff. mass)
    1:   1.000000  0.000000  0.000000 /   0.996571 -0.082737  0.000000 ->   0.2075041501
    2:   0.000000  1.000000  0.000000 /   0.000000  1.000000  0.000000 ->   0.2096757059
    3:   0.000000  0.000000  1.000000 /  -0.542730 -0.542730  0.641006 ->   0.5634404166
    4:   0.577350  0.577350  0.577350 /  -0.283771 -0.325276  0.902036 ->   0.2032986076
    5:   0.000000  0.707107  0.707107 /  -0.628122 -0.234744  0.741861 ->   0.2319292610
    6:   0.707107  0.000000  0.707107 /  -0.228673 -0.647560  0.726893 ->   0.2350946363
    7:   0.707107  0.707107  0.000000 /   0.738308  0.674464  0.000000 ->   0.2224855417

 END OF EFFECTIVE MASSES SECTION

 ---- first-order wavefunction calculations are completed ----

 Total localisation tensor (bohr^2) in cartesian coordinates
  WARNING : still subject to testing - especially symmetries.
      direction              matrix element
   alpha     beta       real part   imaginary part
     1        1       3.3027749878    0.0000000000
     1        2      -0.2713858519    0.0000000000
     1        3      -4.7861578353    0.0000000000
     2        1      -0.2713858519    0.0000000000
     2        2       3.2575572474    0.0000000000
     2        3      -5.2014718743    0.0000000000
     3        1      -4.7861578353    0.0000000000
     3        2      -5.2014718743    0.0000000000
     3        3      38.3514693826    0.0000000000

 respfn : d/dk was computed, but no 2DTE, so no DDB output.

== END DATASET(S) ==============================================================

 -outvars: echo values of variables after computation  --------
            acell      1.0000000000E+00  1.0000000000E+00  1.0000000000E+00 Bohr
              amu      8.76200000E+01  3.09737620E+01  1.59994000E+01
             ecut      4.40000000E+01 Hartree
           etotal     -7.3603197585E+01
            fcart      0.0000000000E+00  0.0000000000E+00  0.0000000000E+00
                       0.0000000000E+00  0.0000000000E+00  0.0000000000E+00
                       0.0000000000E+00  0.0000000000E+00  0.0000000000E+00
                       0.0000000000E+00  0.0000000000E+00  0.0000000000E+00
                       0.0000000000E+00  0.0000000000E+00  0.0000000000E+00
                       0.0000000000E+00  0.0000000000E+00  0.0000000000E+00
                       0.0000000000E+00  0.0000000000E+00  0.0000000000E+00
-          fftalg         512
           irdden           1
           irdwfk           1
              ixc     -116133
              kpt      3.46944695E-18 -3.46944695E-18  3.44827586E-02
                       5.00000000E-01  5.00000000E-01 -5.00000000E-01
           kptopt           0
P           mkmem           2
P          mkqmem           2
P          mk1mem           2
            natom           7
            nband          37
           nbdbuf           4
            ngfft         100     100     100
             nkpt           2
            nstep        2000
             nsym          16
           ntypat           3
              occ      2.000000  2.000000  2.000000  2.000000  2.000000  2.000000
                       2.000000  2.000000  2.000000  2.000000  2.000000  2.000000
                       2.000000  2.000000  2.000000  2.000000  2.000000  2.000000
                       2.000000  2.000000  2.000000  2.000000  2.000000  2.000000
                       2.000000  2.000000  2.000000  2.000000  0.000000  0.000000
                       0.000000  0.000000  0.000000  0.000000  0.000000  0.000000
                       0.000000
        optdriver           1
            prtwf          -1
            rfdir           1       1       1
           rfelfd           2
            rprim      8.6403991157E+00  0.0000000000E+00 -1.3748841293E+01
                      -7.1734330140E-01  8.6105699850E+00 -1.3748841293E+01
                       0.0000000000E+00  0.0000000000E+00  1.6238446163E+01
          spgroup         139
           strten      0.0000000000E+00  0.0000000000E+00  0.0000000000E+00
                       0.0000000000E+00  0.0000000000E+00  0.0000000000E+00
           symrel      1  0  0   0  1  0   0  0  1      -1  0  0   0 -1  0   0  0 -1
                      -1 -1 -1   0  0  1   0  1  0       1  1  1   0  0 -1   0 -1  0
                       0  1  0   1  0  0  -1 -1 -1       0 -1  0  -1  0  0   1  1  1
                       0  0  1  -1 -1 -1   1  0  0       0  0 -1   1  1  1  -1  0  0
                       0  1  0   1  0  0   0  0  1       0 -1  0  -1  0  0   0  0 -1
                      -1 -1 -1   0  0  1   1  0  0       1  1  1   0  0 -1  -1  0  0
                       1  0  0   0  1  0  -1 -1 -1      -1  0  0   0 -1  0   1  1  1
                       0  0  1  -1 -1 -1   0  1  0       0  0 -1   1  1  1   0 -1  0
           tolwfr      1.00000000E-20
            typat      1  1  1  1  2  2  3
           useylm           1
              wtk        0.50000    0.50000
           xangst      1.3623803124E+00  1.4805993169E+00 -4.7282642294E+00
                       2.8303202469E+00  3.0759180721E+00 -9.8228826847E+00
                       2.2861511426E+00  0.0000000000E+00  6.5872107769E-01
                      -1.8980086292E-01  2.2782586945E+00  6.5872107769E-01
                       5.6586363829E-01  6.1496581289E-01 -1.9638809921E+00
                       3.6268369210E+00  3.9415515761E+00 -1.2587265922E+01
                       2.0963502797E+00  2.2782586945E+00 -7.2755734570E+00
            xcart      2.5745256794E+00  2.7979272215E+00 -8.9351244775E+00
                       5.3485301349E+00  5.8126427635E+00 -1.8562558109E+01
                       4.3201995578E+00  0.0000000000E+00  1.2448024348E+00
                      -3.5867165070E-01  4.3052849925E+00  1.2448024348E+00
                       1.0693273049E+00  1.1621169675E+00 -3.7111972327E+00
                       6.8537285094E+00  7.4484530175E+00 -2.3786485354E+01
                       3.9615279071E+00  4.3052849925E+00 -1.3748841293E+01
             xred      3.2494100000E-01  3.2494100000E-01  0.0000000000E+00
                       6.7505900000E-01  6.7505900000E-01 -2.2204460493E-16
                       5.0000000000E-01  0.0000000000E+00  5.0000000000E-01
                       0.0000000000E+00  5.0000000000E-01  5.0000000000E-01
                       1.3496400000E-01  1.3496400000E-01  0.0000000000E+00
                       8.6503600000E-01  8.6503600000E-01  0.0000000000E+00
                       5.0000000000E-01  5.0000000000E-01  0.0000000000E+00
            znucl       38.00000   15.00000    8.00000

- Timing analysis has been suppressed with timopt=0

 Suggested references for the acknowledgment of ABINIT usage.

 Calculation completed.
.Delivered  14 WARNINGs and   9 COMMENTs to log file.