.Version 9.5.1 of ABINIT

 ABINIT is a project of the Universite Catholique de Louvain,
 Corning Inc. and other collaborators, see ~abinit/doc/developers/contributors.txt .
 acknowledgments of the ABINIT effort.

.Starting date : Tue 11 May 2021.
- ( at 22h01 )

- input  file    -> /scratch/users/j/a/jabreu/flow_simple_8atoms/flow/w381/t1/run.abi
- output file    -> /scratch/users/j/a/jabreu/flow_simple_8atoms/flow/w381/t1/run.abo
- root for input  files -> /scratch/users/j/a/jabreu/flow_simple_8atoms/flow/w381/t1/indata/in
- root for output files -> /scratch/users/j/a/jabreu/flow_simple_8atoms/flow/w381/t1/outdata/out

 Symmetries : space group R-3 m (#166); Bravais hR (rhombohedral)
     intxc =       0      iscf =       7    lmnmax =      18     lnmax =       6
     mgfft =      54  mpssoang =       3    mqgrid =    3001     natom =       8
  nloc_mem =       1    nspden =       1   nspinor =       1    nsppol =       1
      nsym =      12    n1xccc =    2501    ntypat =       3    occopt =       1
   xclevel =       2
-    mband =          41        mffmem =           1         mkmem =           2
-   mkqmem =           2        mk1mem =           2           mpw =        9973
      nfft =      157464          nkpt =           2
  Rough estimation (10% accuracy) of disk space for files :

------------- Echo of variables that govern the present computation ------------
-
- outvars: echo of selected default values
-   iomode0 =  0 , fftalg0 =512 , wfoptalg0 =  0
-
- outvars: echo of global parameters not present in the input file
-  max_nthreads =    0
-
 -outvars: echo values of preprocessed input variables --------
            acell      1.0000000000E+00  1.0000000000E+00  1.0000000000E+00 Bohr
              amu      1.37327000E+02  4.78800000E+01  1.89984032E+01
             ecut      4.20000000E+01 Hartree
-          fftalg         512
           irdden           1
           irdwfk           1
           istwfk        1    0
              ixc     -116133
              kpt      0.00000000E+00  0.00000000E+00  0.00000000E+00
                       5.00000000E-01 -5.00000000E-01  0.00000000E+00
           kptopt           0
P           mkmem           2
P          mkqmem           2
P          mk1mem           2
            natom           8
            nband          41
           nbdbuf           4
            ngfft          54      54      54
             nkpt           2
            nstep        2000
             nsym          12
           ntypat           3
              occ      2.000000  2.000000  2.000000  2.000000  2.000000  2.000000
                       2.000000  2.000000  2.000000  2.000000  2.000000  2.000000
                       2.000000  2.000000  2.000000  2.000000  2.000000  2.000000
                       2.000000  2.000000  2.000000  2.000000  2.000000  2.000000
                       2.000000  2.000000  2.000000  2.000000  2.000000  2.000000
                       2.000000  2.000000  0.000000  0.000000  0.000000  0.000000
                       0.000000  0.000000  0.000000  0.000000  0.000000
        optdriver           1
            prtwf          -1
            rfdir           1       1       1
           rfelfd           2
            rprim      9.1540795455E+00  0.0000000000E+00 -1.3013726027E+00
                      -1.4994646256E+00  9.0304362111E+00 -1.3013726027E+00
                       0.0000000000E+00  0.0000000000E+00  9.2461204284E+00
          spgroup         166
           symrel      1  0  0   0  1  0   0  0  1      -1  0  0   0 -1  0   0  0 -1
                       0  1  0   1  0  0   0  0  1       0 -1  0  -1  0  0   0  0 -1
                       0  0  1   1  0  0   0  1  0       0  0 -1  -1  0  0   0 -1  0
                       1  0  0   0  0  1   0  1  0      -1  0  0   0  0 -1   0 -1  0
                       0  1  0   0  0  1   1  0  0       0 -1  0   0  0 -1  -1  0  0
                       0  0  1   0  1  0   1  0  0       0  0 -1   0 -1  0  -1  0  0
           tolwfr      1.00000000E-20
            typat      1  2  3  3  3  3  3  3
           useylm           1
              wtk        0.50000    0.50000
           xangst      0.0000000000E+00  0.0000000000E+00  0.0000000000E+00
                       2.0253238781E+00  2.3893505133E+00  1.7577613781E+00
                       2.6097002953E+00  1.0833124079E+00  5.5649530206E-01
                       6.4120377051E-01  2.7519010028E+00  5.5649530206E-01
                       1.4409474609E+00  3.6953886186E+00  2.9590274541E+00
                       3.1323821124E+00  3.6953886186E+00  1.0101264083E+00
                       3.4094439856E+00  2.0268000238E+00  2.9590274541E+00
                       9.1826564373E-01  1.0833124079E+00  2.5053963479E+00
            xcart      0.0000000000E+00  0.0000000000E+00  0.0000000000E+00
                       3.8273074600E+00  4.5152181055E+00  3.3216876115E+00
                       4.9316188469E+00  2.0471637673E+00  1.0516237151E+00
                       1.2116995216E+00  5.2003392400E+00  1.0516237151E+00
                       2.7229960730E+00  6.9832724438E+00  5.5917515079E+00
                       5.9193443360E+00  6.9832724438E+00  1.9088622712E+00
                       6.4429153983E+00  3.8300969711E+00  5.5917515079E+00
                       1.7352705839E+00  2.0471637673E+00  4.7345129518E+00
             xred      0.0000000000E+00  0.0000000000E+00  0.0000000000E+00
                       5.0000000000E-01  5.0000000000E-01  5.0000000000E-01
                       5.7586800000E-01  2.2669600000E-01  2.2669600000E-01
                       2.2669600000E-01  5.7586800000E-01  2.2669600000E-01
                       4.2413200000E-01  7.7330400000E-01  7.7330400000E-01
                       7.7330400000E-01  7.7330400000E-01  4.2413200000E-01
                       7.7330400000E-01  4.2413200000E-01  7.7330400000E-01
                       2.2669600000E-01  2.2669600000E-01  5.7586800000E-01
            znucl       56.00000   22.00000    9.00000

 chkinp: Checking input parameters for consistency.

== DATASET  1 ==================================================================
-   mpi_nproc: 1, omp_nthreads: -1 (-1 if OMP is not activated)

--- !DatasetInfo
iteration_state: {dtset: 1, }
dimensions: {natom: 8, nkpt: 2, mband: 41, nsppol: 1, nspinor: 1, nspden: 1, mpw: 9973, }
cutoff_energies: {ecut:  42.0, pawecutdg:  -1.0, }
electrons: {nelect:   6.40000000E+01, charge:   0.00000000E+00, occopt:   1.00000000E+00, tsmear:   1.00000000E-02, }
meta: {optdriver: 1, rfelfd: 2, }
...

 Real(R)+Recip(G) space primitive vectors, cartesian coordinates (Bohr,Bohr^-1):
 R(1)=  9.1540795  0.0000000 -1.3013726  G(1)=  0.1092409  0.0181390  0.0000000
 R(2)= -1.4994646  9.0304362 -1.3013726  G(2)=  0.0000000  0.1107366  0.0000000
 R(3)=  0.0000000  0.0000000  9.2461204  G(3)=  0.0153754  0.0181390  0.1081535
 Unit cell volume ucvol=  7.6433361E+02 bohr^3
 Angles (23,13,12)=  9.80911299E+01  9.80911299E+01  9.80911299E+01 degrees

 getcut: wavevector=  0.0000  0.0000  0.0000  ngfft=  54  54  54
         ecut(hartree)=     42.000   => boxcut(ratio)=   2.00204

--- Pseudopotential description ------------------------------------------------
- pspini: atom type   1  psp file is /scratch/users/j/a/jabreu/pseudos/PBEsol/Ba.psp8
- pspatm: opening atomic psp file    /scratch/users/j/a/jabreu/pseudos/PBEsol/Ba.psp8
- Ba    ONCVPSP-3.3.0  r_core=   2.15444   1.91218   2.15444
- 56.00000  10.00000    180112                znucl, zion, pspdat
    8 -116133    2    4       600   0.00000   pspcod,pspxc,lmax,lloc,mmax,r2well
    5.99000000000000    5.00000000000000    0.00000000000000   rchrg,fchrg,qchrg
     nproj     2     2     2
     extension_switch     1
  pspatm : epsatm=   26.37418029
         --- l  ekb(1:nproj) -->
             0    6.652372    0.677024
             1    5.027722    0.408462
             2    2.543237    0.416854
 pspatm: atomic psp has been read  and splines computed

- pspini: atom type   2  psp file is /scratch/users/j/a/jabreu/pseudos/PBEsol/Ti.psp8
- pspatm: opening atomic psp file    /scratch/users/j/a/jabreu/pseudos/PBEsol/Ti.psp8
- Ti    ONCVPSP-3.3.0  r_core=   1.35825   1.31050   1.66360
- 22.00000  12.00000    180112                znucl, zion, pspdat
    8 -116133    2    4       600   0.00000   pspcod,pspxc,lmax,lloc,mmax,r2well
    5.99000000000000    2.50000000000000    0.00000000000000   rchrg,fchrg,qchrg
     nproj     2     2     2
     extension_switch     1
  pspatm : epsatm=   14.76919902
         --- l  ekb(1:nproj) -->
             0   11.321950    1.254474
             1    1.946894   -0.084268
             2   -5.237105   -1.488377
 pspatm: atomic psp has been read  and splines computed

- pspini: atom type   3  psp file is /scratch/users/j/a/jabreu/pseudos/PBEsol/F.psp8
- pspatm: opening atomic psp file    /scratch/users/j/a/jabreu/pseudos/PBEsol/F.psp8
- F     ONCVPSP-3.3.0  r_core=   1.30942   1.45782   1.60379
-  9.00000   7.00000    180112                znucl, zion, pspdat
    8 -116133    2    4       600   0.00000   pspcod,pspxc,lmax,lloc,mmax,r2well
    5.99000000000000    2.50000000000000    0.00000000000000   rchrg,fchrg,qchrg
     nproj     2     2     1
     extension_switch     1
  pspatm : epsatm=    4.89824824
         --- l  ekb(1:nproj) -->
             0    6.506434    1.065875
             1   -3.978753   -1.295852
             2   -2.394754
 pspatm: atomic psp has been read  and splines computed

   4.51410360E+03                                ecore*ucvol(ha*bohr**3)

-inwffil : will read wavefunctions from disk file /scratch/users/j/a/jabreu/flow_simple_8atoms/flow/w381/t1/indata/in_WFK

 ==>  initialize data related to q vector <==

 The list of irreducible perturbations for this q vector is:
    1)    idir= 1    ipert=   9
    2)    idir= 2    ipert=   9
    3)    idir= 3    ipert=   9

 Perturbation wavevector (in red.coord.)   0.000000  0.000000  0.000000
 Perturbation : derivative vs k along direction   1

 dfpt_looppert : COMMENT -
  In a d/dk calculation, iscf is set to -3 automatically.
 The set of symmetries contains only one element for this perturbation.
 symkpt : not enough symmetry to change the number of k points.

[...]

 Initialisation of the first-order wave-functions :
  ireadwf=   0

--- !BeginCycle
iteration_state: {dtset: 1, }
solver: {iscf: 7, nstep: 2000, nline: 4, wfoptalg: 0, }
tolerances: {tolwfr: 1.00E-20, }
...

     iter   2DEtotal(Ha)        deltaE(Ha) residm    vres2
-ETOT  1  -32.592349353728     -3.259E+01 1.887E-02 0.000E+00
 ETOT  2  -32.619338200890     -2.699E-02 1.632E-03 0.000E+00
 ETOT  3  -32.619443043985     -1.048E-04 9.972E-05 0.000E+00
 ETOT  4  -32.619443794130     -7.501E-07 1.185E-05 0.000E+00
 ETOT  5  -32.619443800980     -6.851E-09 1.229E-06 0.000E+00
 ETOT  6  -32.619443801050     -6.971E-11 2.741E-07 0.000E+00
 ETOT  7  -32.619443801051     -7.674E-13 3.718E-08 0.000E+00
 ETOT  8  -32.619443801051      1.421E-14 6.178E-09 0.000E+00
 ETOT  9  -32.619443801051     -7.105E-15 9.469E-10 0.000E+00
 ETOT 10  -32.619443801051      7.105E-15 1.625E-10 0.000E+00
 ETOT 11  -32.619443801051      0.000E+00 2.547E-11 0.000E+00
 ETOT 12  -32.619443801051     -7.105E-15 4.460E-12 0.000E+00
 ETOT 13  -32.619443801051      7.105E-15 7.115E-13 0.000E+00
 ETOT 14  -32.619443801051      0.000E+00 1.276E-13 0.000E+00
 ETOT 15  -32.619443801051     -1.421E-14 2.069E-14 0.000E+00
 ETOT 16  -32.619443801051      7.105E-15 3.769E-15 0.000E+00
 ETOT 17  -32.619443801051     -1.421E-14 6.176E-16 0.000E+00
 ETOT 18  -32.619443801051      1.421E-14 1.134E-16 0.000E+00
 ETOT 19  -32.619443801051      0.000E+00 1.870E-17 0.000E+00
 ETOT 20  -32.619443801051      0.000E+00 3.448E-18 0.000E+00
 ETOT 21  -32.619443801051      0.000E+00 5.700E-19 0.000E+00
 ETOT 22  -32.619443801051      0.000E+00 1.054E-19 0.000E+00
 ETOT 23  -32.619443801051      7.105E-15 1.745E-20 0.000E+00
 ETOT 24  -32.619443801051     -7.105E-15 9.985E-21 0.000E+00

 At SCF step   24   max residual=  9.99E-21 < tolwfr=  1.00E-20 =>converged.

 ----iterations are completed or convergence reached----

 dfpt_looppert: DFPT cycle converged with prtwf=-1. Will skip output of the 1st-order WFK file.
 dfpt_looppert : ek2=    6.1965826678E+01
          f-sum rule ratio=    1.0217590581E+00
 prteigrs : about to open file /scratch/users/j/a/jabreu/flow_simple_8atoms/flow/w381/t1/tmpdata/tmp_1WF1_EIG
 Expectation of eigenvalue derivatives (hartree) for nkpt=   2  k points:
  (in case of degenerate eigenvalues, averaged derivative)
 kpt#   1, nband= 41, wtk=  0.50000, kpt=  0.0000  0.0000  0.0000 (reduced coord)
  -0.00000    0.00000    0.00000    0.00000   -0.00000   -0.00000    0.00000    0.00000
  -0.00000   -0.00000   -0.00000    0.00000    0.00000   -0.00000    0.00000    0.00000
   0.00000    0.00000    0.00000   -0.00000   -0.00000   -0.00000   -0.00000    0.00000
  -0.00000   -0.00000    0.00000    0.00000   -0.00000   -0.00000   -0.00000   -0.00000
  -0.00000    0.00000    0.00000   -0.00000   -0.00000   -0.00000    0.00000    0.00000
  -0.00000
 prteigrs : prtvol=0 or 1, do not print more k-points.

 Eight components of 2nd-order total energy (hartree) are
 1,2,3: 0th-order hamiltonian combined with 1st-order wavefunctions
     kin0=   4.10859704E+01 eigvalue=   1.67590576E+00  local=  -1.76902565E+01
 4,5,6: 1st-order hamiltonian combined with 1st and 0th-order wfs
     kin1=  -6.33141447E+01  Hartree=   0.00000000E+00     xc=   0.00000000E+00
 7,8,9: eventually, occupation + non-local contributions
    edocc=   7.20092741E+00     enl0=   3.46896688E-01   enl1=  -1.92474290E+00
 1-9 gives the relaxation energy (to be shifted if some occ is /=2.0)
   erelax=  -3.26194438E+01
  No Ewald or frozen-wf contrib.: the relaxation energy is the total one
 2DEtotal=   -0.3261944380E+02 Ha. Also 2DEtotal=   -0.887620206570E+03 eV
    (  non-var. 2DEtotal :   -3.2619443801E+01 Ha)

 Perturbation wavevector (in red.coord.)   0.000000  0.000000  0.000000
 Perturbation : derivative vs k along direction   2
 The set of symmetries contains only one element for this perturbation.
 symkpt : not enough symmetry to change the number of k points.

[...]

 Perturbation wavevector (in red.coord.)   0.000000  0.000000  0.000000
 Perturbation : derivative vs k along direction   3
 The set of symmetries contains only one element for this perturbation.
 symkpt : not enough symmetry to change the number of k points.

-inwffil : will read wavefunctions from disk file /scratch/users/j/a/jabreu/flow_simple_8atoms/flow/w381/t1/indata/in_WFK

 Initialisation of the first-order wave-functions :
  ireadwf=   0

--- !BeginCycle
iteration_state: {dtset: 1, }
solver: {iscf: 7, nstep: 2000, nline: 4, wfoptalg: 0, }
tolerances: {tolwfr: 1.00E-20, }
...

     iter   2DEtotal(Ha)        deltaE(Ha) residm    vres2
-ETOT  1  -32.272693599127     -3.227E+01 3.986E-02 0.000E+00
 ETOT  2  -32.300212935529     -2.752E-02 2.595E-03 0.000E+00
 ETOT  3  -32.300304339950     -9.140E-05 2.592E-04 0.000E+00
 ETOT  4  -32.300304962218     -6.223E-07 2.700E-05 0.000E+00
 ETOT  5  -32.300304967823     -5.604E-09 4.073E-06 0.000E+00
 ETOT  6  -32.300304967879     -5.666E-11 7.244E-07 0.000E+00
 ETOT  7  -32.300304967880     -6.679E-13 1.196E-07 0.000E+00
 ETOT  8  -32.300304967880      3.553E-14 1.546E-08 0.000E+00
 ETOT  9  -32.300304967880      7.105E-15 2.989E-09 0.000E+00
 ETOT 10  -32.300304967880      7.105E-15 3.990E-10 0.000E+00
 ETOT 11  -32.300304967880     -7.105E-15 7.743E-11 0.000E+00
 ETOT 12  -32.300304967880      1.421E-14 1.093E-11 0.000E+00
 ETOT 13  -32.300304967880     -7.105E-15 2.143E-12 0.000E+00
 ETOT 14  -32.300304967880      7.105E-15 3.137E-13 0.000E+00
 ETOT 15  -32.300304967880      0.000E+00 6.279E-14 0.000E+00
 ETOT 16  -32.300304967880     -7.105E-15 9.278E-15 0.000E+00
 ETOT 17  -32.300304967880     -7.105E-15 1.891E-15 0.000E+00
 ETOT 18  -32.300304967880      1.421E-14 2.796E-16 0.000E+00
 ETOT 19  -32.300304967880      0.000E+00 5.767E-17 0.000E+00
 ETOT 20  -32.300304967880     -7.105E-15 8.516E-18 0.000E+00
 ETOT 21  -32.300304967880      0.000E+00 1.769E-18 0.000E+00
 ETOT 22  -32.300304967880     -7.105E-15 2.610E-19 0.000E+00
 ETOT 23  -32.300304967880      0.000E+00 5.449E-20 0.000E+00
 ETOT 24  -32.300304967880      7.105E-15 9.824E-21 0.000E+00

 At SCF step   24   max residual=  9.82E-21 < tolwfr=  1.00E-20 =>converged.

 ----iterations are completed or convergence reached----

 dfpt_looppert: DFPT cycle converged with prtwf=-1. Will skip output of the 1st-order WFK file.
 dfpt_looppert : ek2=    6.1965826677E+01
          f-sum rule ratio=    1.0116296617E+00
 prteigrs : about to open file /scratch/users/j/a/jabreu/flow_simple_8atoms/flow/w381/t1/tmpdata/tmp_1WF1_EIG
 Expectation of eigenvalue derivatives (hartree) for nkpt=   2  k points:
  (in case of degenerate eigenvalues, averaged derivative)
 kpt#   1, nband= 41, wtk=  0.50000, kpt=  0.0000  0.0000  0.0000 (reduced coord)
  -0.00000    0.00000    0.00000    0.00000    0.00000    0.00000   -0.00000   -0.00000
  -0.00000   -0.00000    0.00000   -0.00000   -0.00000   -0.00000    0.00000   -0.00000
  -0.00000   -0.00000   -0.00000    0.00000    0.00000    0.00000    0.00000   -0.00000
  -0.00000   -0.00000   -0.00000   -0.00000   -0.00000   -0.00000   -0.00000    0.00000
  -0.00000    0.00000    0.00000   -0.00000   -0.00000   -0.00000    0.00000    0.00000
   0.00000
 prteigrs : prtvol=0 or 1, do not print more k-points.

 Eight components of 2nd-order total energy (hartree) are
 1,2,3: 0th-order hamiltonian combined with 1st-order wavefunctions
     kin0=   4.00650112E+01 eigvalue=   1.52206591E+00  local=  -1.70141927E+01
 4,5,6: 1st-order hamiltonian combined with 1st and 0th-order wfs
     kin1=  -6.26864683E+01  Hartree=   0.00000000E+00     xc=   0.00000000E+00
 7,8,9: eventually, occupation + non-local contributions
    edocc=   7.32956245E+00     enl0=   3.97858090E-01   enl1=  -1.91414166E+00
 1-9 gives the relaxation energy (to be shifted if some occ is /=2.0)
   erelax=  -3.23003050E+01
  No Ewald or frozen-wf contrib.: the relaxation energy is the total one
 2DEtotal=   -0.3230030497E+02 Ha. Also 2DEtotal=   -0.878935997276E+03 eV
    (  non-var. 2DEtotal :   -3.2300304968E+01 Ha)

 CALCULATION OF EFFECTIVE MASSES
 NOTE : Additional infos (eff. mass eigenvalues, eigenvectors and, if degenerate, average mass) are available in stdout.

 K-point ( 0.000, 0.000, 0.000) | band =    32
 Effective mass tensor:
             -4.7868787272             -2.8347441603             -2.0854218640
             -2.8347441603             -5.7282725850             -2.4602503604
             -2.0854218640             -2.4602503604             -4.1939385270
 Effective mass tensor eigenvalues:
             -9.9410526036             -2.3840186179             -2.3840186176
 Angular average effective mass 1/(<1/m>)=  -3.1931450674
 Angular average effective mass for Frohlich model (<m**0.5>)**2=  -3.5173459245
 Effective masses along directions: (cart. coord. / red. coord. -> eff. mass)
    1:   1.000000  0.000000  0.000000 /   0.986848 -0.161649  0.000000 ->  -3.1439439236
    2:   0.000000  1.000000  0.000000 /   0.000000  1.000000  0.000000 ->  -3.5925993491
    3:   0.000000  0.000000  1.000000 /  -0.138040 -0.138040  0.980760 ->  -2.9146805714
    4:   0.577350  0.577350  0.577350 /   0.575845  0.456821  0.678025 ->  -9.4731787131
    5:   0.000000  0.707107  0.707107 /  -0.107364  0.637650  0.762808 ->  -4.8329996774
    6:   0.707107  0.000000  0.707107 /   0.630744 -0.224968  0.742665 ->  -4.1222233681
    7:   0.707107  0.707107  0.000000 /   0.772248  0.635321  0.000000 ->  -5.5991132529

 K-point ( 0.500,-0.500, 0.000) | band =    33
 Effective mass tensor:
              4.2579259028             -0.2337224278              0.4097123582
             -0.2337224278              4.1803101803              0.4833508571
              0.4097123582              0.4833508571              3.8876732506
 Effective mass tensor eigenvalues:
              3.2995401686              4.4560404410              4.5703287241
 Angular average effective mass 1/(<1/m>)=   4.0198868818
 Angular average effective mass for Frohlich model (<m**0.5>)**2=   4.0476883445
 Effective masses along directions: (cart. coord. / red. coord. -> eff. mass)
    1:   1.000000  0.000000  0.000000 /   0.986848 -0.161649  0.000000 ->   4.1950803357
    2:   0.000000  1.000000  0.000000 /   0.000000  1.000000  0.000000 ->   4.1009897318
    3:   0.000000  0.000000  1.000000 /  -0.138040 -0.138040  0.980760 ->   3.7868514167
    4:   0.577350  0.577350  0.577350 /   0.575845  0.456821  0.678025 ->   4.5400598849
    5:   0.000000  0.707107  0.707107 /  -0.107364  0.637650  0.762808 ->   4.5064305454
    6:   0.707107  0.000000  0.707107 /   0.630744 -0.224968  0.742665 ->   4.4632145829
    7:   0.707107  0.707107  0.000000 /   0.772248  0.635321  0.000000 ->   3.8823180811

 END OF EFFECTIVE MASSES SECTION

 ---- first-order wavefunction calculations are completed ----

 Total localisation tensor (bohr^2) in cartesian coordinates
  WARNING : still subject to testing - especially symmetries.
      direction              matrix element
   alpha     beta       real part   imaginary part
     1        1       0.5794402822    0.0000000000
     1        2      -0.0911850363    0.0000000000
     1        3      -0.0670819300    0.0000000000
     2        1      -0.0911850363    0.0000000000
     2        2       0.5491564389    0.0000000000
     2        3      -0.0791387179    0.0000000000
     3        1      -0.0670819300    0.0000000000
     3        2      -0.0791387179    0.0000000000
     3        3       0.5825270759    0.0000000000

 respfn : d/dk was computed, but no 2DTE, so no DDB output.

== END DATASET(S) ==============================================================

 -outvars: echo values of variables after computation  --------
            acell      1.0000000000E+00  1.0000000000E+00  1.0000000000E+00 Bohr
              amu      1.37327000E+02  4.78800000E+01  1.89984032E+01
             ecut      4.20000000E+01 Hartree
           etotal     -3.2300304968E+01
            fcart      0.0000000000E+00  0.0000000000E+00  0.0000000000E+00
                       0.0000000000E+00  0.0000000000E+00  0.0000000000E+00
                       0.0000000000E+00  0.0000000000E+00  0.0000000000E+00
                       0.0000000000E+00  0.0000000000E+00  0.0000000000E+00
                       0.0000000000E+00  0.0000000000E+00  0.0000000000E+00
                       0.0000000000E+00  0.0000000000E+00  0.0000000000E+00
                       0.0000000000E+00  0.0000000000E+00  0.0000000000E+00
                       0.0000000000E+00  0.0000000000E+00  0.0000000000E+00
-          fftalg         512
           irdden           1
           irdwfk           1
           istwfk        1    0
              ixc     -116133
              kpt      0.00000000E+00  0.00000000E+00  0.00000000E+00
                       5.00000000E-01 -5.00000000E-01  0.00000000E+00
           kptopt           0
P           mkmem           2
P          mkqmem           2
P          mk1mem           2
            natom           8
            nband          41
           nbdbuf           4
            ngfft          54      54      54
             nkpt           2
            nstep        2000
             nsym          12
           ntypat           3
              occ      2.000000  2.000000  2.000000  2.000000  2.000000  2.000000
                       2.000000  2.000000  2.000000  2.000000  2.000000  2.000000
                       2.000000  2.000000  2.000000  2.000000  2.000000  2.000000
                       2.000000  2.000000  2.000000  2.000000  2.000000  2.000000
                       2.000000  2.000000  2.000000  2.000000  2.000000  2.000000
                       2.000000  2.000000  0.000000  0.000000  0.000000  0.000000
                       0.000000  0.000000  0.000000  0.000000  0.000000
        optdriver           1
            prtwf          -1
            rfdir           1       1       1
           rfelfd           2
            rprim      9.1540795455E+00  0.0000000000E+00 -1.3013726027E+00
                      -1.4994646256E+00  9.0304362111E+00 -1.3013726027E+00
                       0.0000000000E+00  0.0000000000E+00  9.2461204284E+00
          spgroup         166
           strten      0.0000000000E+00  0.0000000000E+00  0.0000000000E+00
                       0.0000000000E+00  0.0000000000E+00  0.0000000000E+00
           symrel      1  0  0   0  1  0   0  0  1      -1  0  0   0 -1  0   0  0 -1
                       0  1  0   1  0  0   0  0  1       0 -1  0  -1  0  0   0  0 -1
                       0  0  1   1  0  0   0  1  0       0  0 -1  -1  0  0   0 -1  0
                       1  0  0   0  0  1   0  1  0      -1  0  0   0  0 -1   0 -1  0
                       0  1  0   0  0  1   1  0  0       0 -1  0   0  0 -1  -1  0  0
                       0  0  1   0  1  0   1  0  0       0  0 -1   0 -1  0  -1  0  0
           tolwfr      1.00000000E-20
            typat      1  2  3  3  3  3  3  3
           useylm           1
              wtk        0.50000    0.50000
           xangst      0.0000000000E+00  0.0000000000E+00  0.0000000000E+00
                       2.0253238781E+00  2.3893505133E+00  1.7577613781E+00
                       2.6097002953E+00  1.0833124079E+00  5.5649530206E-01
                       6.4120377051E-01  2.7519010028E+00  5.5649530206E-01
                       1.4409474609E+00  3.6953886186E+00  2.9590274541E+00
                       3.1323821124E+00  3.6953886186E+00  1.0101264083E+00
                       3.4094439856E+00  2.0268000238E+00  2.9590274541E+00
                       9.1826564373E-01  1.0833124079E+00  2.5053963479E+00
            xcart      0.0000000000E+00  0.0000000000E+00  0.0000000000E+00
                       3.8273074600E+00  4.5152181055E+00  3.3216876115E+00
                       4.9316188469E+00  2.0471637673E+00  1.0516237151E+00
                       1.2116995216E+00  5.2003392400E+00  1.0516237151E+00
                       2.7229960730E+00  6.9832724438E+00  5.5917515079E+00
                       5.9193443360E+00  6.9832724438E+00  1.9088622712E+00
                       6.4429153983E+00  3.8300969711E+00  5.5917515079E+00
                       1.7352705839E+00  2.0471637673E+00  4.7345129518E+00
             xred      0.0000000000E+00  0.0000000000E+00  0.0000000000E+00
                       5.0000000000E-01  5.0000000000E-01  5.0000000000E-01
                       5.7586800000E-01  2.2669600000E-01  2.2669600000E-01
                       2.2669600000E-01  5.7586800000E-01  2.2669600000E-01
                       4.2413200000E-01  7.7330400000E-01  7.7330400000E-01
                       7.7330400000E-01  7.7330400000E-01  4.2413200000E-01
                       7.7330400000E-01  4.2413200000E-01  7.7330400000E-01
                       2.2669600000E-01  2.2669600000E-01  5.7586800000E-01
            znucl       56.00000   22.00000    9.00000

- Timing analysis has been suppressed with timopt=0

 Suggested references for the acknowledgment of ABINIT usage.

 Calculation completed.
.Delivered  14 WARNINGs and   9 COMMENTs to log file.