.Version 9.5.1 of ABINIT

 ABINIT is a project of the Universite Catholique de Louvain,
 Corning Inc. and other collaborators, see ~abinit/doc/developers/contributors.txt .
 acknowledgments of the ABINIT effort.

.Starting date : Wed 19 May 2021.
- ( at 01h50 )

- input  file    -> /scratch/users/j/a/jabreu/flow_simple_8atoms/flow/w484/t1/run.abi
- output file    -> /scratch/users/j/a/jabreu/flow_simple_8atoms/flow/w484/t1/run.abo
- root for input  files -> /scratch/users/j/a/jabreu/flow_simple_8atoms/flow/w484/t1/indata/in
- root for output files -> /scratch/users/j/a/jabreu/flow_simple_8atoms/flow/w484/t1/outdata/out

 Symmetries : space group Fm -3 m (#225); Bravais cF (face-center cubic)
     intxc =       0      iscf =       7    lmnmax =      18     lnmax =       6
     mgfft =      72  mpssoang =       3    mqgrid =    3001     natom =       8
  nloc_mem =       1    nspden =       1   nspinor =       1    nsppol =       1
      nsym =      48    n1xccc =    2501    ntypat =       3    occopt =       1
   xclevel =       2
-    mband =          42        mffmem =           1         mkmem =           1
-   mkqmem =           1        mk1mem =           1           mpw =       13323
      nfft =      373248          nkpt =           1
  Rough estimation (10% accuracy) of disk space for files :

------------- Echo of variables that govern the present computation ------------
-
- outvars: echo of selected default values
-   iomode0 =  0 , fftalg0 =512 , wfoptalg0 =  0
-
- outvars: echo of global parameters not present in the input file
-  max_nthreads =    0
-
 -outvars: echo values of preprocessed input variables --------
            acell      1.0000000000E+00  1.0000000000E+00  1.0000000000E+00 Bohr
              amu      4.00780000E+01  1.18710000E+02  1.89984032E+01
             ecut      4.20000000E+01 Hartree
-          fftalg         512
           irdden           1
           irdwfk           1
           istwfk        1
              ixc     -116133
           kptopt           0
P           mkmem           1
P          mkqmem           1
P          mk1mem           1
            natom           8
            nband          42
           nbdbuf           4
            ngfft          72      72      72
             nkpt           1
            nstep        2000
             nsym          48
           ntypat           3
              occ      2.000000  2.000000  2.000000  2.000000  2.000000  2.000000
                       2.000000  2.000000  2.000000  2.000000  2.000000  2.000000
                       2.000000  2.000000  2.000000  2.000000  2.000000  2.000000
                       2.000000  2.000000  2.000000  2.000000  2.000000  2.000000
                       2.000000  2.000000  2.000000  2.000000  2.000000  2.000000
                       2.000000  2.000000  2.000000  0.000000  0.000000  0.000000
                       0.000000  0.000000  0.000000  0.000000  0.000000  0.000000
        optdriver           1
            prtwf          -1
            rfdir           1       1       1
           rfelfd           2
            rprim      9.7568345788E+00  0.0000000000E+00  5.6331110705E+00
                       3.2522781929E+00  9.1988318581E+00  5.6331110705E+00
                       0.0000000000E+00  0.0000000000E+00  1.1266222141E+01
          spgroup         225
           symrel      1  0  0   0  1  0   0  0  1      -1  0  0   0 -1  0   0  0 -1
                       0 -1  1   0 -1  0   1 -1  0       0  1 -1   0  1  0  -1  1  0
                      -1  0  0  -1  0  1  -1  1  0       1  0  0   1  0 -1   1 -1  0
                       0  1 -1   1  0 -1   0  0 -1       0 -1  1  -1  0  1   0  0  1
                      -1  0  0  -1  1  0  -1  0  1       1  0  0   1 -1  0   1  0 -1
                       0 -1  1   1 -1  0   0 -1  0       0  1 -1  -1  1  0   0  1  0
                       1  0  0   0  0  1   0  1  0      -1  0  0   0  0 -1   0 -1  0
                       0  1 -1   0  0 -1   1  0 -1       0 -1  1   0  0  1  -1  0  1
                      -1  0  1  -1  1  0  -1  0  0       1  0 -1   1 -1  0   1  0  0
                       0 -1  0   1 -1  0   0 -1  1       0  1  0  -1  1  0   0  1 -1
                       1  0 -1   0  0 -1   0  1 -1      -1  0  1   0  0  1   0 -1  1
                       0  1  0   0  0  1   1  0  0       0 -1  0   0  0 -1  -1  0  0
                       1  0 -1   0  1 -1   0  0 -1      -1  0  1   0 -1  1   0  0  1
                       0 -1  0   0 -1  1   1 -1  0       0  1  0   0  1 -1  -1  1  0
                      -1  0  1  -1  0  0  -1  1  0       1  0 -1   1  0  0   1 -1  0
                       0  1  0   1  0  0   0  0  1       0 -1  0  -1  0  0   0  0 -1
                       0  0 -1   0  1 -1   1  0 -1       0  0  1   0 -1  1  -1  0  1
                       1 -1  0   0 -1  1   0 -1  0      -1  1  0   0  1 -1   0  1  0
                       0  0  1   1  0  0   0  1  0       0  0 -1  -1  0  0   0 -1  0
                      -1  1  0  -1  0  0  -1  0  1       1 -1  0   1  0  0   1  0 -1
                       0  0  1   0  1  0   1  0  0       0  0 -1   0 -1  0  -1  0  0
                       1 -1  0   0 -1  0   0 -1  1      -1  1  0   0  1  0   0  1 -1
                       0  0 -1   1  0 -1   0  1 -1       0  0  1  -1  0  1   0 -1  1
                      -1  1  0  -1  0  1  -1  0  0       1 -1  0   1  0 -1   1  0  0
           tolwfr      1.00000000E-20
            typat      1  2  3  3  3  3  3  3
           useylm           1
           xangst      0.0000000000E+00  0.0000000000E+00  0.0000000000E+00
                       3.4420629914E+00  2.4339060825E+00  5.9618279839E+00
                       4.2507412706E+00  1.2902622924E+00  7.3624998505E+00
                       2.6333847122E+00  3.5775498725E+00  7.3624998505E+00
                       2.6333847122E+00  3.5775498725E+00  4.5611561174E+00
                       5.0594195498E+00  3.5775498725E+00  5.9618279839E+00
                       1.8247064330E+00  1.2902622924E+00  5.9618279839E+00
                       4.2507412706E+00  1.2902622924E+00  4.5611561174E+00
            xcart      0.0000000000E+00  0.0000000000E+00  0.0000000000E+00
                       6.5045563858E+00  4.5994159291E+00  1.1266222141E+01
                       8.0327368632E+00  2.4382423723E+00  1.3913108371E+01
                       4.9763759085E+00  6.7605894858E+00  1.3913108371E+01
                       4.9763759085E+00  6.7605894858E+00  8.6193359112E+00
                       9.5609173404E+00  6.7605894858E+00  1.1266222141E+01
                       3.4481954313E+00  2.4382423723E+00  1.1266222141E+01
                       8.0327368632E+00  2.4382423723E+00  8.6193359112E+00
             xred      0.0000000000E+00  0.0000000000E+00  0.0000000000E+00
                       5.0000000000E-01  5.0000000000E-01  5.0000000000E-01
                       7.3494000000E-01  2.6506000000E-01  7.3494000000E-01
                       2.6506000000E-01  7.3494000000E-01  7.3494000000E-01
                       2.6506000000E-01  7.3494000000E-01  2.6506000000E-01
                       7.3494000000E-01  7.3494000000E-01  2.6506000000E-01
                       2.6506000000E-01  2.6506000000E-01  7.3494000000E-01
                       7.3494000000E-01  2.6506000000E-01  2.6506000000E-01
            znucl       20.00000   50.00000    9.00000

 chkinp: Checking input parameters for consistency.

== DATASET  1 ==================================================================
-   mpi_nproc: 1, omp_nthreads: -1 (-1 if OMP is not activated)

--- !DatasetInfo
iteration_state: {dtset: 1, }
dimensions: {natom: 8, nkpt: 1, mband: 42, nsppol: 1, nspinor: 1, nspden: 1, mpw: 13323, }
cutoff_energies: {ecut:  42.0, pawecutdg:  -1.0, }
electrons: {nelect:   6.60000000E+01, charge:   0.00000000E+00, occopt:   1.00000000E+00, tsmear:   1.00000000E-02, }
meta: {optdriver: 1, rfelfd: 2, }
...

 Real(R)+Recip(G) space primitive vectors, cartesian coordinates (Bohr,Bohr^-1):
 R(1)=  9.7568346  0.0000000  5.6331111  G(1)=  0.1024923 -0.0362365  0.0000000
 R(2)=  3.2522782  9.1988319  5.6331111  G(2)=  0.0000000  0.1087095  0.0000000
 R(3)=  0.0000000  0.0000000 11.2662221  G(3)= -0.0512461 -0.0362365  0.0887609
 Unit cell volume ucvol=  1.0111601E+03 bohr^3
 Angles (23,13,12)=  6.00000000E+01  6.00000000E+01  6.00000000E+01 degrees

 getcut: wavevector=  0.0000  0.0000  0.0000  ngfft=  72  72  72
         ecut(hartree)=     42.000   => boxcut(ratio)=   2.19061

--- Pseudopotential description ------------------------------------------------
- pspini: atom type   1  psp file is /scratch/users/j/a/jabreu/pseudos/PBEsol/Ca.psp8
- pspatm: opening atomic psp file    /scratch/users/j/a/jabreu/pseudos/PBEsol/Ca.psp8
- Ca    ONCVPSP-3.3.0  r_core=   1.45885   1.45885   1.85192
- 20.00000  10.00000    180112                znucl, zion, pspdat
    8 -116133    2    4       400   0.00000   pspcod,pspxc,lmax,lloc,mmax,r2well
    3.99000000000000    6.00000000000000    0.00000000000000   rchrg,fchrg,qchrg
     nproj     2     2     2
     extension_switch     1
  pspatm : epsatm=   12.46045226
         --- l  ekb(1:nproj) -->
             0   10.054847    0.973777
             1    2.998958    0.458102
             2   -3.447298   -1.091650
 pspatm: atomic psp has been read  and splines computed

- pspini: atom type   2  psp file is /scratch/users/j/a/jabreu/pseudos/PBEsol/Sn.psp8
- pspatm: opening atomic psp file    /scratch/users/j/a/jabreu/pseudos/PBEsol/Sn.psp8
- Sn    ONCVPSP-3.3.0  r_core=   2.27326   2.62311   1.85601
- 50.00000  14.00000    180112                znucl, zion, pspdat
    8 -116133    2    4       600   0.00000   pspcod,pspxc,lmax,lloc,mmax,r2well
    5.99000000000000    6.50000000000000    0.00000000000000   rchrg,fchrg,qchrg
     nproj     2     2     2
     extension_switch     1
  pspatm : epsatm=   32.44586081
         --- l  ekb(1:nproj) -->
             0    5.587869    0.749373
             1    4.197111    0.728791
             2   -5.271877   -1.523486
 pspatm: atomic psp has been read  and splines computed

- pspini: atom type   3  psp file is /scratch/users/j/a/jabreu/pseudos/PBEsol/F.psp8
- pspatm: opening atomic psp file    /scratch/users/j/a/jabreu/pseudos/PBEsol/F.psp8
- F     ONCVPSP-3.3.0  r_core=   1.30942   1.45782   1.60379
-  9.00000   7.00000    180112                znucl, zion, pspdat
    8 -116133    2    4       600   0.00000   pspcod,pspxc,lmax,lloc,mmax,r2well
    5.99000000000000    2.50000000000000    0.00000000000000   rchrg,fchrg,qchrg
     nproj     2     2     1
     extension_switch     1
  pspatm : epsatm=    4.89824824
         --- l  ekb(1:nproj) -->
             0    6.506434    1.065875
             1   -3.978753   -1.295852
             2   -2.394754
 pspatm: atomic psp has been read  and splines computed

   4.90352296E+03                                ecore*ucvol(ha*bohr**3)

-inwffil : will read wavefunctions from disk file /scratch/users/j/a/jabreu/flow_simple_8atoms/flow/w484/t1/indata/in_WFK

 ==>  initialize data related to q vector <==

 The list of irreducible perturbations for this q vector is:
    1)    idir= 1    ipert=   9
[...]
-ETOT  1  -40.663266400313     -4.066E+01 4.390E-02 0.000E+00
 ETOT  2  -40.698966756652     -3.570E-02 3.736E-03 0.000E+00
 ETOT  3  -40.699187973738     -2.212E-04 2.152E-04 0.000E+00
 ETOT  4  -40.699190860255     -2.887E-06 5.243E-05 0.000E+00
 ETOT  5  -40.699190907237     -4.698E-08 4.796E-06 0.000E+00
 ETOT  6  -40.699190908126     -8.895E-10 2.158E-06 0.000E+00
 ETOT  7  -40.699190908145     -1.853E-11 4.247E-07 0.000E+00
 ETOT  8  -40.699190908145     -4.405E-13 2.603E-07 0.000E+00
 ETOT  9  -40.699190908145      1.421E-14 6.321E-08 0.000E+00
 ETOT 10  -40.699190908145     -1.421E-14 4.033E-08 0.000E+00
 ETOT 11  -40.699190908145      1.421E-14 9.490E-09 0.000E+00
 ETOT 12  -40.699190908145      1.421E-14 6.128E-09 0.000E+00
 ETOT 13  -40.699190908145     -7.105E-15 1.425E-09 0.000E+00
 ETOT 14  -40.699190908145      0.000E+00 9.341E-10 0.000E+00
 ETOT 15  -40.699190908145      2.132E-14 2.148E-10 0.000E+00
 ETOT 16  -40.699190908145      0.000E+00 1.425E-10 0.000E+00
 ETOT 17  -40.699190908145     -7.105E-15 3.255E-11 0.000E+00
 ETOT 18  -40.699190908145     -7.105E-15 2.177E-11 0.000E+00
 ETOT 19  -40.699190908145     -7.105E-15 4.966E-12 0.000E+00
 ETOT 20  -40.699190908145      7.105E-15 3.334E-12 0.000E+00
 ETOT 21  -40.699190908145      0.000E+00 7.625E-13 0.000E+00
 ETOT 22  -40.699190908145      0.000E+00 5.117E-13 0.000E+00
 ETOT 23  -40.699190908145      0.000E+00 1.177E-13 0.000E+00
 ETOT 24  -40.699190908145      1.421E-14 7.877E-14 0.000E+00
 ETOT 25  -40.699190908145     -1.421E-14 1.823E-14 0.000E+00
 ETOT 26  -40.699190908145      0.000E+00 1.215E-14 0.000E+00
 ETOT 27  -40.699190908145      7.105E-15 2.831E-15 0.000E+00
 ETOT 28  -40.699190908145     -7.105E-15 1.880E-15 0.000E+00
 ETOT 29  -40.699190908145     -7.105E-15 4.405E-16 0.000E+00
 ETOT 30  -40.699190908145      0.000E+00 2.913E-16 0.000E+00
 ETOT 31  -40.699190908145      7.105E-15 6.860E-17 0.000E+00
 ETOT 32  -40.699190908145     -7.105E-15 4.521E-17 0.000E+00
 ETOT 33  -40.699190908145      7.105E-15 1.073E-17 0.000E+00
 ETOT 34  -40.699190908145     -7.105E-15 7.027E-18 0.000E+00
 ETOT 35  -40.699190908145      0.000E+00 1.716E-18 0.000E+00
 ETOT 36  -40.699190908145      7.105E-15 1.093E-18 0.000E+00
 ETOT 37  -40.699190908145     -7.105E-15 2.783E-19 0.000E+00
 ETOT 38  -40.699190908145      7.105E-15 1.702E-19 0.000E+00
 ETOT 39  -40.699190908145      0.000E+00 4.658E-20 0.000E+00
 ETOT 40  -40.699190908145     -7.105E-15 2.653E-20 0.000E+00
 ETOT 41  -40.699190908145      7.105E-15 9.715E-21 0.000E+00

 At SCF step   41   max residual=  9.71E-21 < tolwfr=  1.00E-20 =>converged.

 ----iterations are completed or convergence reached----

 dfpt_looppert: DFPT cycle converged with prtwf=-1. Will skip output of the 1st-order WFK file.
 dfpt_looppert : ek2=    6.1584058552E+01
          f-sum rule ratio=    1.0241956460E+00
 prteigrs : about to open file /scratch/users/j/a/jabreu/flow_simple_8atoms/flow/w484/t1/tmpdata/tmp_1WF1_EIG
 Expectation of eigenvalue derivatives (hartree) for nkpt=   1  k points:
  (in case of degenerate eigenvalues, averaged derivative)
 kpt#   1, nband= 42, wtk=  1.00000, kpt=  0.0000  0.0000  0.0000 (reduced coord)
   0.00000   -0.00000   -0.00000   -0.00000   -0.00000   -0.00000   -0.00000    0.00000
   0.00000    0.00000    0.00000    0.00000    0.00000    0.00000    0.00000    0.00000
   0.00000    0.00000    0.00000   -0.00000   -0.00000   -0.00000   -0.00000   -0.00000
  -0.00000   -0.00000   -0.00000   -0.00000   -0.00000   -0.00000    0.00000    0.00000
   0.00000   -0.00000   -0.00000   -0.00000   -0.00000   -0.00000   -0.00000   -0.00000
  -0.01394    0.00000

 Eight components of 2nd-order total energy (hartree) are
 1,2,3: 0th-order hamiltonian combined with 1st-order wavefunctions
     kin0=   5.04873874E+01 eigvalue=   5.75725043E+00  local=  -2.35219745E+01
 4,5,6: 1st-order hamiltonian combined with 1st and 0th-order wfs
     kin1=  -6.30741246E+01  Hartree=   0.00000000E+00     xc=   0.00000000E+00
 7,8,9: eventually, occupation + non-local contributions
    edocc=   5.81575604E+00     enl0=   2.16077154E+00   enl1=  -1.83242572E+01
 1-9 gives the relaxation energy (to be shifted if some occ is /=2.0)
   erelax=  -4.06991909E+01
  No Ewald or frozen-wf contrib.: the relaxation energy is the total one
 2DEtotal=   -0.4069919091E+02 Ha. Also 2DEtotal=   -0.110748130659E+04 eV
    (  non-var. 2DEtotal :   -4.0699190908E+01 Ha)

 CALCULATION OF EFFECTIVE MASSES
 NOTE : Additional infos (eff. mass eigenvalues, eigenvectors and, if degenerate, average mass) are available in stdout.

 COMMENTS:
 - At k-point ( 0.000, 0.000, 0.000), bands    31 through    33
   are DEGENERATE (effective mass tensor is therefore not defined).
   See Section IIIB Eqs. (67)-(70) and Appendix E of PRB 93 205147 (2016).
 - Angular average effective mass for Frohlich model is to be averaged over degenerate bands. See later.
 - Associated theta integrals calculated with ntheta=   1000 points.

 K-point ( 0.000, 0.000, 0.000) | band =    31
 Transport equivalent effective mass tensor:
             -3.1998568291              0.0000221161             -0.0000507015
              0.0000221161             -3.1998211645             -0.0000529268
             -0.0000507015             -0.0000529268             -3.1996833068
 Transport equivalent effective mass tensor eigenvalues:
             -3.1998721689             -3.1998385405             -3.1996505909
 Angular average effective mass 1/(<1/m>)=  -2.9918370533
 Angular average effective mass for Frohlich model (<m**0.5>)**2=  -2.9996621498
 Effective masses along directions: (cart. coord. / red. coord. -> eff. mass)
    1:   1.000000  0.000000  0.000000 /   0.948683  0.316228  0.000000 ->  -3.2124418440
    2:   0.000000  1.000000  0.000000 /   0.000000  1.000000  0.000000 ->  -3.6974676057
    3:   0.000000  0.000000  1.000000 /   0.408248  0.408248  0.816497 ->  -2.8398082784
    4:   0.577350  0.577350  0.577350 /   0.585539  0.688047  0.428644 ->  -3.0855135570
    5:   0.000000  0.707107  0.707107 /   0.289489  0.762222  0.578977 ->  -2.8603692585
    6:   0.707107  0.000000  0.707107 /   0.731423  0.422287  0.535439 ->  -2.9513133973
    7:   0.707107  0.707107  0.000000 /   0.616798  0.787122  0.000000 ->  -2.8683503247

[...]

 K-point ( 0.000, 0.000, 0.000) | band =    33
 Transport equivalent effective mass tensor:
           -705.2993536412             -0.0020047012             -0.0000579232
             -0.0020047012           -705.2896860520             -0.0053371267
             -0.0000579232             -0.0053371267           -705.2815700791
 Transport equivalent effective mass tensor eigenvalues:
           -705.2998299470           -705.2918911923           -705.2788886331
 Angular average effective mass 1/(<1/m>)= -11.0677156138
 Angular average effective mass for Frohlich model (<m**0.5>)**2= -16.0306126674
 Effective masses along directions: (cart. coord. / red. coord. -> eff. mass)
    1:   1.000000  0.000000  0.000000 /   0.948683  0.316228  0.000000 ->  -9.4247894974
    2:   0.000000  1.000000  0.000000 /   0.000000  1.000000  0.000000 ->  -5.9789519040
    3:   0.000000  0.000000  1.000000 /   0.408248  0.408248  0.816497 ->  -7.9108298754
    4:   0.577350  0.577350  0.577350 /   0.585539  0.688047  0.428644 ->  -9.0430301066
    5:   0.000000  0.707107  0.707107 /   0.289489  0.762222  0.578977 -> -17.1389449599
    6:   0.707107  0.000000  0.707107 /   0.731423  0.422287  0.535439 ->  -8.6917786014
    7:   0.707107  0.707107  0.000000 /   0.616798  0.787122  0.000000 -> -77.2471041025

 Angular average effective mass for Frohlich model, averaged over degenerate bands.
 Value of     (<<m**0.5>>)**2 =     6.458122E+00
 Absolute Value of <<m**0.5>> =     2.541284E+00

 K-point ( 0.000, 0.000, 0.000) | band =    34
 Effective mass tensor:
              0.7715123879             -0.0000127394             -0.0000212047
             -0.0000127394              0.7715176009             -0.0000081774
             -0.0000212047             -0.0000081774              0.7715119874
 Effective mass tensor eigenvalues:
              0.7714843689              0.7715232845              0.7715343227
 Angular average effective mass 1/(<1/m>)=   0.7715139915
 Angular average effective mass for Frohlich model (<m**0.5>)**2=   0.7715139916
 Effective masses along directions: (cart. coord. / red. coord. -> eff. mass)
    1:   1.000000  0.000000  0.000000 /   0.948683  0.316228  0.000000 ->   0.7715123871
    2:   0.000000  1.000000  0.000000 /   0.000000  1.000000  0.000000 ->   0.7715176006
    3:   0.000000  0.000000  1.000000 /   0.408248  0.408248  0.816497 ->   0.7715119868
    4:   0.577350  0.577350  0.577350 /   0.585539  0.688047  0.428644 ->   0.7714859110
    5:   0.000000  0.707107  0.707107 /   0.289489  0.762222  0.578977 ->   0.7715066160
    6:   0.707107  0.000000  0.707107 /   0.731423  0.422287  0.535439 ->   0.7714909827
    7:   0.707107  0.707107  0.000000 /   0.616798  0.787122  0.000000 ->   0.7715022544

 END OF EFFECTIVE MASSES SECTION

 ---- first-order wavefunction calculations are completed ----

 Total localisation tensor (bohr^2) in cartesian coordinates
  WARNING : still subject to testing - especially symmetries.
      direction              matrix element
   alpha     beta       real part   imaginary part
     1        1       0.6174588404    0.0000000000
     1        2       0.1746438271    0.0000000000
     1        3       0.4277880716    0.0000000000
     2        1       0.1746438271    0.0000000000
     2        2       0.4939673378    0.0000000000
     2        3       0.3024919818    0.0000000000
     3        1       0.4277880716    0.0000000000
     3        2       0.3024919818    0.0000000000
     3        3       1.1114285561    0.0000000000

 respfn : d/dk was computed, but no 2DTE, so no DDB output.

== END DATASET(S) ==============================================================

 -outvars: echo values of variables after computation  --------
            acell      1.0000000000E+00  1.0000000000E+00  1.0000000000E+00 Bohr
              amu      4.00780000E+01  1.18710000E+02  1.89984032E+01
             ecut      4.20000000E+01 Hartree
           etotal     -4.0699190908E+01
            fcart      0.0000000000E+00  0.0000000000E+00  0.0000000000E+00
                       0.0000000000E+00  0.0000000000E+00  0.0000000000E+00
                       0.0000000000E+00  0.0000000000E+00  0.0000000000E+00
                       0.0000000000E+00  0.0000000000E+00  0.0000000000E+00
                       0.0000000000E+00  0.0000000000E+00  0.0000000000E+00
                       0.0000000000E+00  0.0000000000E+00  0.0000000000E+00
                       0.0000000000E+00  0.0000000000E+00  0.0000000000E+00
                       0.0000000000E+00  0.0000000000E+00  0.0000000000E+00
-          fftalg         512
           irdden           1
           irdwfk           1
           istwfk        1
              ixc     -116133
           kptopt           0
P           mkmem           1
P          mkqmem           1
P          mk1mem           1
            natom           8
            nband          42
           nbdbuf           4
            ngfft          72      72      72
             nkpt           1
            nstep        2000
             nsym          48
           ntypat           3
              occ      2.000000  2.000000  2.000000  2.000000  2.000000  2.000000
                       2.000000  2.000000  2.000000  2.000000  2.000000  2.000000
                       2.000000  2.000000  2.000000  2.000000  2.000000  2.000000
                       2.000000  2.000000  2.000000  2.000000  2.000000  2.000000
                       2.000000  2.000000  2.000000  2.000000  2.000000  2.000000
                       2.000000  2.000000  2.000000  0.000000  0.000000  0.000000
                       0.000000  0.000000  0.000000  0.000000  0.000000  0.000000
        optdriver           1
            prtwf          -1
            rfdir           1       1       1
           rfelfd           2
            rprim      9.7568345788E+00  0.0000000000E+00  5.6331110705E+00
                       3.2522781929E+00  9.1988318581E+00  5.6331110705E+00
                       0.0000000000E+00  0.0000000000E+00  1.1266222141E+01
          spgroup         225
           strten      0.0000000000E+00  0.0000000000E+00  0.0000000000E+00
                       0.0000000000E+00  0.0000000000E+00  0.0000000000E+00
           symrel      1  0  0   0  1  0   0  0  1      -1  0  0   0 -1  0   0  0 -1
                       0 -1  1   0 -1  0   1 -1  0       0  1 -1   0  1  0  -1  1  0
                      -1  0  0  -1  0  1  -1  1  0       1  0  0   1  0 -1   1 -1  0
                       0  1 -1   1  0 -1   0  0 -1       0 -1  1  -1  0  1   0  0  1
                      -1  0  0  -1  1  0  -1  0  1       1  0  0   1 -1  0   1  0 -1
                       0 -1  1   1 -1  0   0 -1  0       0  1 -1  -1  1  0   0  1  0
                       1  0  0   0  0  1   0  1  0      -1  0  0   0  0 -1   0 -1  0
                       0  1 -1   0  0 -1   1  0 -1       0 -1  1   0  0  1  -1  0  1
                      -1  0  1  -1  1  0  -1  0  0       1  0 -1   1 -1  0   1  0  0
                       0 -1  0   1 -1  0   0 -1  1       0  1  0  -1  1  0   0  1 -1
                       1  0 -1   0  0 -1   0  1 -1      -1  0  1   0  0  1   0 -1  1
                       0  1  0   0  0  1   1  0  0       0 -1  0   0  0 -1  -1  0  0
                       1  0 -1   0  1 -1   0  0 -1      -1  0  1   0 -1  1   0  0  1
                       0 -1  0   0 -1  1   1 -1  0       0  1  0   0  1 -1  -1  1  0
                      -1  0  1  -1  0  0  -1  1  0       1  0 -1   1  0  0   1 -1  0
                       0  1  0   1  0  0   0  0  1       0 -1  0  -1  0  0   0  0 -1
                       0  0 -1   0  1 -1   1  0 -1       0  0  1   0 -1  1  -1  0  1
                       1 -1  0   0 -1  1   0 -1  0      -1  1  0   0  1 -1   0  1  0
                       0  0  1   1  0  0   0  1  0       0  0 -1  -1  0  0   0 -1  0
                      -1  1  0  -1  0  0  -1  0  1       1 -1  0   1  0  0   1  0 -1
                       0  0  1   0  1  0   1  0  0       0  0 -1   0 -1  0  -1  0  0
                       1 -1  0   0 -1  0   0 -1  1      -1  1  0   0  1  0   0  1 -1
                       0  0 -1   1  0 -1   0  1 -1       0  0  1  -1  0  1   0 -1  1
                      -1  1  0  -1  0  1  -1  0  0       1 -1  0   1  0 -1   1  0  0
           tolwfr      1.00000000E-20
            typat      1  2  3  3  3  3  3  3
           useylm           1
           xangst      0.0000000000E+00  0.0000000000E+00  0.0000000000E+00
                       3.4420629914E+00  2.4339060825E+00  5.9618279839E+00
                       4.2507412706E+00  1.2902622924E+00  7.3624998505E+00
                       2.6333847122E+00  3.5775498725E+00  7.3624998505E+00
                       2.6333847122E+00  3.5775498725E+00  4.5611561174E+00
                       5.0594195498E+00  3.5775498725E+00  5.9618279839E+00
                       1.8247064330E+00  1.2902622924E+00  5.9618279839E+00
                       4.2507412706E+00  1.2902622924E+00  4.5611561174E+00
            xcart      0.0000000000E+00  0.0000000000E+00  0.0000000000E+00
                       6.5045563858E+00  4.5994159291E+00  1.1266222141E+01
                       8.0327368632E+00  2.4382423723E+00  1.3913108371E+01
                       4.9763759085E+00  6.7605894858E+00  1.3913108371E+01
                       4.9763759085E+00  6.7605894858E+00  8.6193359112E+00
                       9.5609173404E+00  6.7605894858E+00  1.1266222141E+01
                       3.4481954313E+00  2.4382423723E+00  1.1266222141E+01
                       8.0327368632E+00  2.4382423723E+00  8.6193359112E+00
             xred      0.0000000000E+00  0.0000000000E+00  0.0000000000E+00
                       5.0000000000E-01  5.0000000000E-01  5.0000000000E-01
                       7.3494000000E-01  2.6506000000E-01  7.3494000000E-01
                       2.6506000000E-01  7.3494000000E-01  7.3494000000E-01
                       2.6506000000E-01  7.3494000000E-01  2.6506000000E-01
                       7.3494000000E-01  7.3494000000E-01  2.6506000000E-01
                       2.6506000000E-01  2.6506000000E-01  7.3494000000E-01
                       7.3494000000E-01  2.6506000000E-01  2.6506000000E-01
            znucl       20.00000   50.00000    9.00000

- Timing analysis has been suppressed with timopt=0

 Suggested references for the acknowledgment of ABINIT usage.

 Calculation completed.
.Delivered   6 WARNINGs and   5 COMMENTs to log file.