.Version 9.5.1 of ABINIT

 ABINIT is a project of the Universite Catholique de Louvain,
 Corning Inc. and other collaborators, see ~abinit/doc/developers/contributors.txt .
 acknowledgments of the ABINIT effort.

.Starting date : Tue 27 Apr 2021.
- ( at 18h25 )

- input  file    -> /scratch/users/j/a/jabreu/flow_simple_4atoms/flow/w145/t1/run.abi
- output file    -> /scratch/users/j/a/jabreu/flow_simple_4atoms/flow/w145/t1/run.abo
- root for input  files -> /scratch/users/j/a/jabreu/flow_simple_4atoms/flow/w145/t1/indata/in
- root for output files -> /scratch/users/j/a/jabreu/flow_simple_4atoms/flow/w145/t1/outdata/out

 Symmetries : space group P6_3 m c (#186); Bravais hP (primitive hexag.)
     intxc =       0      iscf =       7    lmnmax =      18     lnmax =       6
     mgfft =      80  mpssoang =       3    mqgrid =    3885     natom =       4
  nloc_mem =       1    nspden =       1   nspinor =       1    nsppol =       1
      nsym =      12    n1xccc =    2501    ntypat =       2    occopt =       1
   xclevel =       2
-    mband =          45        mffmem =           1         mkmem =           1
-   mkqmem =           1        mk1mem =           1           mpw =        9837
      nfft =      184320          nkpt =           1
  Rough estimation (10% accuracy) of disk space for files :

------------- Echo of variables that govern the present computation ------------
-
- outvars: echo of selected default values
-   iomode0 =  0 , fftalg0 =512 , wfoptalg0 =  0
-
- outvars: echo of global parameters not present in the input file
-  max_nthreads =    0
-
 -outvars: echo values of preprocessed input variables --------
            acell      1.0000000000E+00  1.0000000000E+00  1.0000000000E+00 Bohr
              amu      6.53900000E+01  1.27600000E+02
             ecut      4.20000000E+01 Hartree
-          fftalg         512
           irdden           1
           irdwfk           1
           istwfk        1
              ixc     -116133
           kptopt           0
P           mkmem           1
P          mkqmem           1
P          mk1mem           1
            natom           4
            nband          45
           nbdbuf           4
            ngfft          48      48      80
             nkpt           1
            nstep         100
             nsym          12
           ntypat           2
              occ      2.000000  2.000000  2.000000  2.000000  2.000000  2.000000
                       2.000000  2.000000  2.000000  2.000000  2.000000  2.000000
                       2.000000  2.000000  2.000000  2.000000  2.000000  2.000000
                       2.000000  2.000000  2.000000  2.000000  2.000000  2.000000
                       2.000000  2.000000  2.000000  2.000000  2.000000  2.000000
                       2.000000  2.000000  2.000000  2.000000  2.000000  2.000000
                       0.000000  0.000000  0.000000  0.000000  0.000000  0.000000
                       0.000000  0.000000  0.000000
        optdriver           1
            prtwf          -1
            rfdir           1       1       1
           rfelfd           2
            rprim      8.0875177007E+00  0.0000000000E+00  0.0000000000E+00
                      -4.0437588504E+00  7.0039957824E+00  0.0000000000E+00
                       0.0000000000E+00  0.0000000000E+00  1.3314447797E+01
          spgroup         186
           symrel      1  0  0   0  1  0   0  0  1       0  1  0   1  0  0   0  0  1
                       1  1  0  -1  0  0   0  0  1      -1  0  0   1  1  0   0  0  1
                       0  1  0  -1 -1  0   0  0  1      -1 -1  0   0  1  0   0  0  1
                      -1  0  0   0 -1  0   0  0  1       0 -1  0  -1  0  0   0  0  1
                      -1 -1  0   1  0  0   0  0  1       1  0  0  -1 -1  0   0  0  1
                       0 -1  0   1  1  0   0  0  1       1  1  0   0 -1  0   0  0  1
            tnons      0.0000000  0.0000000  0.0000000     0.0000000 -0.0000000  0.5000000
                      -0.0000000 -0.0000000  0.5000000     0.0000000  0.0000000  0.0000000
                      -0.0000000 -0.0000000  0.0000000    -0.0000000 -0.0000000  0.5000000
                      -0.0000000 -0.0000000  0.5000000    -0.0000000 -0.0000000  0.0000000
                       0.0000000 -0.0000000  0.0000000    -0.0000000 -0.0000000  0.5000000
                       0.0000000 -0.0000000  0.5000000     0.0000000 -0.0000000  0.0000000
           tolwfr      1.00000000E-20
            typat      1  1  2  2
           useylm           1
           xangst     -1.7639241746E-11  2.4709032914E+00  4.9108545165E-03
                       2.1398650206E+00  1.2354516457E+00  3.5277620141E+00
                      -1.7639241746E-11  2.4709032914E+00  2.6372275152E+00
                       2.1398650206E+00  1.2354516457E+00  6.1600786748E+00
            xcart     -3.3333336091E-11  4.6693305216E+00  9.2801701146E-03
                       4.0437588503E+00  2.3346652608E+00  6.6665040687E+00
                      -3.3333336091E-11  4.6693305216E+00  4.9836377538E+00
                       4.0437588503E+00  2.3346652608E+00  1.1640861652E+01
             xred      3.3333333333E-01  6.6666666667E-01  6.9700000000E-04
                       6.6666666667E-01  3.3333333333E-01  5.0069700000E-01
                       3.3333333333E-01  6.6666666667E-01  3.7430300000E-01
                       6.6666666667E-01  3.3333333333E-01  8.7430300000E-01
            znucl       30.00000   52.00000

 chkinp: Checking input parameters for consistency.

== DATASET  1 ==================================================================
-   mpi_nproc: 1, omp_nthreads: -1 (-1 if OMP is not activated)

--- !DatasetInfo
iteration_state: {dtset: 1, }
dimensions: {natom: 4, nkpt: 1, mband: 45, nsppol: 1, nspinor: 1, nspden: 1, mpw: 9837, }
cutoff_energies: {ecut:  42.0, pawecutdg:  -1.0, }
electrons: {nelect:   7.20000000E+01, charge:   0.00000000E+00, occopt:   1.00000000E+00, tsmear:   1.00000000E-02, }
meta: {optdriver: 1, rfelfd: 2, }
...

 Real(R)+Recip(G) space primitive vectors, cartesian coordinates (Bohr,Bohr^-1):
 R(1)=  8.0875177  0.0000000  0.0000000  G(1)=  0.1236473  0.0713878  0.0000000
 R(2)= -4.0437589  7.0039958  0.0000000  G(2)=  0.0000000  0.1427756  0.0000000
 R(3)=  0.0000000  0.0000000 13.3144478  G(3)=  0.0000000  0.0000000  0.0751064
 Unit cell volume ucvol=  7.5419609E+02 bohr^3
 Angles (23,13,12)=  9.00000000E+01  9.00000000E+01  1.20000000E+02 degrees

 getcut: wavevector=  0.0000  0.0000  0.0000  ngfft=  48  48  80
         ecut(hartree)=     42.000   => boxcut(ratio)=   2.03440

--- Pseudopotential description ------------------------------------------------
- pspini: atom type   1  psp file is /scratch/users/j/a/jabreu/pseudos/PBEsol/Zn.psp8
- pspatm: opening atomic psp file    /scratch/users/j/a/jabreu/pseudos/PBEsol/Zn.psp8
- Zn    ONCVPSP-3.3.0  r_core=   1.35823   1.66358   1.85211
- 30.00000  20.00000    180112                znucl, zion, pspdat
    8 -116133    2    4       600   0.00000   pspcod,pspxc,lmax,lloc,mmax,r2well
    5.99000000000000    2.50000000000000    0.00000000000000   rchrg,fchrg,qchrg
     nproj     2     2     2
     extension_switch     1
  pspatm : epsatm=   26.57343589
         --- l  ekb(1:nproj) -->
             0    2.830835   -1.519107
             1   -4.626739   -1.324150
             2   -6.948510   -2.555500
 pspatm: atomic psp has been read  and splines computed

- pspini: atom type   2  psp file is /scratch/users/j/a/jabreu/pseudos/PBEsol/Te.psp8
- pspatm: opening atomic psp file    /scratch/users/j/a/jabreu/pseudos/PBEsol/Te.psp8
- Te    ONCVPSP-3.3.0  r_core=   2.26547   1.91704   1.80604
- 52.00000  16.00000    180112                znucl, zion, pspdat
    8 -116133    2    4       600   0.00000   pspcod,pspxc,lmax,lloc,mmax,r2well
    5.99000000000000    5.00000000000000    0.00000000000000   rchrg,fchrg,qchrg
     nproj     2     2     2
     extension_switch     1
  pspatm : epsatm=   36.82679836
         --- l  ekb(1:nproj) -->
             0    6.345999    0.785432
             1    5.709019    1.070069
             2   -6.035173   -1.870937
 pspatm: atomic psp has been read  and splines computed

   9.12963373E+03                                ecore*ucvol(ha*bohr**3)

-inwffil : will read wavefunctions from disk file /scratch/users/j/a/jabreu/flow_simple_4atoms/flow/w145/t1/indata/in_WFK

 ==>  initialize data related to q vector <==

 The list of irreducible perturbations for this q vector is:
    1)    idir= 1    ipert=   5
    2)    idir= 2    ipert=   5
    3)    idir= 3    ipert=   5

 Perturbation wavevector (in red.coord.)   0.000000  0.000000  0.000000
 Perturbation : derivative vs k along direction   1

 dfpt_looppert : COMMENT -
  In a d/dk calculation, iscf is set to -3 automatically.
 The set of symmetries contains only one element for this perturbation.
 symkpt : not enough symmetry to change the number of k points.

[...]

 Initialisation of the first-order wave-functions :
  ireadwf=   0

--- !BeginCycle
iteration_state: {dtset: 1, }
solver: {iscf: 7, nstep: 100, nline: 4, wfoptalg: 0, }
tolerances: {tolwfr: 1.00E-20, }
...

     iter   2DEtotal(Ha)        deltaE(Ha) residm    vres2
-ETOT  1  -135.20169076242     -1.352E+02 3.591E-02 0.000E+00
 ETOT  2  -135.27880862835     -7.712E-02 2.599E-04 0.000E+00
 ETOT  3  -135.27918031293     -3.717E-04 1.407E-06 0.000E+00
 ETOT  4  -135.27918513514     -4.822E-06 2.814E-08 0.000E+00
 ETOT  5  -135.27918521258     -7.745E-08 4.856E-10 0.000E+00
 ETOT  6  -135.27918521397     -1.386E-09 1.216E-11 0.000E+00
 ETOT  7  -135.27918521400     -2.657E-11 2.254E-13 0.000E+00
 ETOT  8  -135.27918521400     -4.547E-13 5.968E-15 0.000E+00
 ETOT  9  -135.27918521400      5.684E-14 1.125E-16 0.000E+00
 ETOT 10  -135.27918521400      2.842E-14 3.049E-18 0.000E+00
 ETOT 11  -135.27918521400      2.842E-14 5.770E-20 0.000E+00
 ETOT 12  -135.27918521400      0.000E+00 9.858E-21 0.000E+00

 At SCF step   12   max residual=  9.86E-21 < tolwfr=  1.00E-20 =>converged.

 ----iterations are completed or convergence reached----

 dfpt_looppert: DFPT cycle converged with prtwf=-1. Will skip output of the 1st-order WFK file.
 dfpt_looppert : ek2=    1.1588586773E+02
          f-sum rule ratio=    1.5768522290E+00
 prteigrs : about to open file /scratch/users/j/a/jabreu/flow_simple_4atoms/flow/w145/t1/tmpdata/tmp_1WF1_EIG
 Expectation of eigenvalue derivatives (hartree) for nkpt=   1  k points:
  (in case of degenerate eigenvalues, averaged derivative)
 kpt#   1, nband= 45, wtk=  1.00000, kpt=  0.0000  0.0000  0.0000 (reduced coord)
   0.00000   -0.00000   -0.00000   -0.00000    0.00000    0.00000   -0.00000    0.00000
   0.00000    0.00000   -0.00000   -0.00000    0.00000    0.00000    0.00000    0.00000
   0.00000    0.00000    0.00000    0.00000   -0.00000   -0.00000   -0.00000   -0.00000
  -0.00000    0.00000    0.00000   -0.00000   -0.00000   -0.00000    0.00000    0.00000
   0.00000   -0.00000    0.00000    0.00000    0.00000   -0.00000   -0.00000   -0.00000
  -0.00000   -0.00000   -0.00000   -0.00000   -0.00016

 Eight components of 2nd-order total energy (hartree) are
 1,2,3: 0th-order hamiltonian combined with 1st-order wavefunctions
     kin0=   1.19684493E+02 eigvalue=   1.40872193E+01  local=  -5.25559798E+01
 4,5,6: 1st-order hamiltonian combined with 1st and 0th-order wfs
     kin1=  -1.82734889E+02  Hartree=   0.00000000E+00     xc=   0.00000000E+00
 7,8,9: eventually, occupation + non-local contributions
    edocc=   4.68011315E+01     enl0=   7.26232157E+00   enl1=  -8.78234816E+01
 1-9 gives the relaxation energy (to be shifted if some occ is /=2.0)
   erelax=  -1.35279185E+02
  No Ewald or frozen-wf contrib.: the relaxation energy is the total one
 2DEtotal=   -0.1352791852E+03 Ha. Also 2DEtotal=   -0.368113383713E+04 eV
    (  non-var. 2DEtotal :   -1.3527918521E+02 Ha)

 Perturbation wavevector (in red.coord.)   0.000000  0.000000  0.000000
 Perturbation : derivative vs k along direction   2
 The set of symmetries contains only one element for this perturbation.
 symkpt : not enough symmetry to change the number of k points.

[...]

 Perturbation wavevector (in red.coord.)   0.000000  0.000000  0.000000
 Perturbation : derivative vs k along direction   3
 The set of symmetries contains only one element for this perturbation.
 symkpt : not enough symmetry to change the number of k points.

-inwffil : will read wavefunctions from disk file /scratch/users/j/a/jabreu/flow_simple_4atoms/flow/w145/t1/indata/in_WFK

 Initialisation of the first-order wave-functions :
  ireadwf=   0

--- !BeginCycle
iteration_state: {dtset: 1, }
solver: {iscf: 7, nstep: 100, nline: 4, wfoptalg: 0, }
tolerances: {tolwfr: 1.00E-20, }
...

     iter   2DEtotal(Ha)        deltaE(Ha) residm    vres2
-ETOT  1  -33.354631766262     -3.335E+01 5.334E-02 0.000E+00
 ETOT  2  -33.373178079168     -1.855E-02 1.007E-04 0.000E+00
 ETOT  3  -33.373281478415     -1.034E-04 4.908E-07 0.000E+00
 ETOT  4  -33.373282648869     -1.170E-06 7.824E-09 0.000E+00
 ETOT  5  -33.373282664818     -1.595E-08 8.164E-11 0.000E+00
 ETOT  6  -33.373282665055     -2.376E-10 1.485E-12 0.000E+00
 ETOT  7  -33.373282665059     -3.780E-12 2.411E-14 0.000E+00
 ETOT  8  -33.373282665059     -4.263E-14 5.158E-16 0.000E+00
 ETOT  9  -33.373282665059      0.000E+00 1.110E-17 0.000E+00
 ETOT 10  -33.373282665059      7.105E-15 2.418E-19 0.000E+00
 ETOT 11  -33.373282665059      0.000E+00 9.234E-21 0.000E+00

 At SCF step   11   max residual=  9.23E-21 < tolwfr=  1.00E-20 =>converged.

 ----iterations are completed or convergence reached----

 dfpt_looppert: DFPT cycle converged with prtwf=-1. Will skip output of the 1st-order WFK file.
 dfpt_looppert : ek2=    3.2068297974E+01
          f-sum rule ratio=    1.3315647126E+00
 prteigrs : about to open file /scratch/users/j/a/jabreu/flow_simple_4atoms/flow/w145/t1/tmpdata/tmp_1WF1_EIG
 Expectation of eigenvalue derivatives (hartree) for nkpt=   1  k points:
  (in case of degenerate eigenvalues, averaged derivative)
 kpt#   1, nband= 45, wtk=  1.00000, kpt=  0.0000  0.0000  0.0000 (reduced coord)
   0.00000    0.00000    0.00000    0.00000    0.00000    0.00000    0.00000    0.00000
  -0.00000   -0.00000    0.00000    0.00000   -0.00000   -0.00000    0.00000    0.00000
   0.00000    0.00000    0.00000    0.00000   -0.00000   -0.00000   -0.00000    0.00000
   0.00000    0.00000    0.00000   -0.00000   -0.00000    0.00000    0.00000   -0.00000
  -0.00000   -0.00000   -0.00000   -0.00000    0.00000    0.00000   -0.00000   -0.00000
   0.00000    0.00000    0.00000    0.00000    0.00000

 Eight components of 2nd-order total energy (hartree) are
 1,2,3: 0th-order hamiltonian combined with 1st-order wavefunctions
     kin0=   3.48282983E+01 eigvalue=   3.75570289E+00  local=  -1.51908735E+01
 4,5,6: 1st-order hamiltonian combined with 1st and 0th-order wfs
     kin1=  -4.27010140E+01  Hartree=   0.00000000E+00     xc=   0.00000000E+00
 7,8,9: eventually, occupation + non-local contributions
    edocc=   8.44006596E+00     enl0=   1.54008897E+00   enl1=  -2.40455514E+01
 1-9 gives the relaxation energy (to be shifted if some occ is /=2.0)
   erelax=  -3.33732827E+01
  No Ewald or frozen-wf contrib.: the relaxation energy is the total one
 2DEtotal=   -0.3337328267E+02 Ha. Also 2DEtotal=   -0.908133205267E+03 eV
    (  non-var. 2DEtotal :   -3.3373282665E+01 Ha)

 CALCULATION OF EFFECTIVE MASSES
 NOTE : Additional infos (eff. mass eigenvalues, eigenvectors and, if degenerate, average mass) are available in stdout.

 COMMENTS:
 - At k-point ( 0.000, 0.000, 0.000), bands    35 through    36
   are DEGENERATE (effective mass tensor is therefore not defined).
   See Section IIIB Eqs. (67)-(70) and Appendix E of PRB 93 205147 (2016).
 - Angular average effective mass for Frohlich model is to be averaged over degenerate bands. See later.
 - Associated theta integrals calculated with ntheta=   1000 points.

 K-point ( 0.000, 0.000, 0.000) | band =    35
 Transport equivalent effective mass tensor:
             -0.0836680252              0.0000000200              0.0000000542
              0.0000000200             -0.0836682065             -0.0000001035
              0.0000000542             -0.0000001035             -1.0407342393
 Transport equivalent effective mass tensor eigenvalues:
             -1.0407342393             -0.0836682087             -0.0836680230
 Angular average effective mass 1/(<1/m>)=  -0.1206523503
 Angular average effective mass for Frohlich model (<m**0.5>)**2=  -0.1498389953
 Effective masses along directions: (cart. coord. / red. coord. -> eff. mass)
    1:   1.000000  0.000000  0.000000 /   0.894427 -0.447214  0.000000 ->  -0.0836681177
    2:   0.000000  1.000000  0.000000 /   0.000000  1.000000  0.000000 ->  -0.0836681140
    3:   0.000000  0.000000  1.000000 /   0.000000  0.000000  1.000000 ->  -1.0407294907
    4:   0.577350  0.577350  0.577350 /   0.510027  0.186683  0.839656 ->  -0.1206523431
    5:   0.000000  0.707107  0.707107 /   0.000000  0.465559  0.885017 ->  -0.1548846504
    6:   0.707107  0.000000  0.707107 /   0.502500 -0.251250  0.827265 ->  -0.1548844720
    7:   0.707107  0.707107  0.000000 /   0.939071  0.343724  0.000000 ->  -0.0836681162

 K-point ( 0.000, 0.000, 0.000) | band =    36
 Transport equivalent effective mass tensor:
             -1.0997889707             -0.0000002662             -0.0000002041
             -0.0000002662             -1.0997865380             -0.0000014484
             -0.0000002041             -0.0000014484             -1.0407342398
 Transport equivalent effective mass tensor eigenvalues:
             -1.0997889994             -1.0997865093             -1.0407342398
 Angular average effective mass 1/(<1/m>)=  -1.0793724439
 Angular average effective mass for Frohlich model (<m**0.5>)**2=  -1.0795937370
 Effective masses along directions: (cart. coord. / red. coord. -> eff. mass)
    1:   1.000000  0.000000  0.000000 /   0.894427 -0.447214  0.000000 ->  -1.0997877547
    2:   0.000000  1.000000  0.000000 /   0.000000  1.000000  0.000000 ->  -1.0997877549
    3:   0.000000  0.000000  1.000000 /   0.000000  0.000000  1.000000 ->  -1.0407389885
    4:   0.577350  0.577350  0.577350 /   0.510027  0.186683  0.839656 ->  -1.0793746125
    5:   0.000000  0.707107  0.707107 /   0.000000  0.465559  0.885017 ->  -1.0694439745
    6:   0.707107  0.000000  0.707107 /   0.502500 -0.251250  0.827265 ->  -1.0694494699
    7:   0.707107  0.707107  0.000000 /   0.939071  0.343724  0.000000 ->  -1.0997877522

 Angular average effective mass for Frohlich model, averaged over degenerate bands.
 Value of     (<<m**0.5>>)**2 =     5.084584E-01
 Absolute Value of <<m**0.5>> =     7.130627E-01

 K-point ( 0.000, 0.000, 0.000) | band =    37
 Effective mass tensor:
              0.0914548940             -0.0000000019             -0.0000000012
             -0.0000000019              0.0914548935              0.0000000001
             -0.0000000012              0.0000000001              0.0763354440
 Effective mass tensor eigenvalues:
              0.0763354440              0.0914548918              0.0914548957
 Angular average effective mass 1/(<1/m>)=   0.0857908149
 Angular average effective mass for Frohlich model (<m**0.5>)**2=   0.0859834302
 Effective masses along directions: (cart. coord. / red. coord. -> eff. mass)
    1:   1.000000  0.000000  0.000000 /   0.894427 -0.447214  0.000000 ->   0.0914548940
    2:   0.000000  1.000000  0.000000 /   0.000000  1.000000  0.000000 ->   0.0914548935
    3:   0.000000  0.000000  1.000000 /   0.000000  0.000000  1.000000 ->   0.0763354440
    4:   0.577350  0.577350  0.577350 /   0.510027  0.186683  0.839656 ->   0.0857908130
    5:   0.000000  0.707107  0.707107 /   0.000000  0.465559  0.885017 ->   0.0832139682
    6:   0.707107  0.000000  0.707107 /   0.502500 -0.251250  0.827265 ->   0.0832139671
    7:   0.707107  0.707107  0.000000 /   0.939071  0.343724  0.000000 ->   0.0914548918

 END OF EFFECTIVE MASSES SECTION

 ---- first-order wavefunction calculations are completed ----

 Total localisation tensor (bohr^2) in cartesian coordinates
  WARNING : still subject to testing - especially symmetries.
      direction              matrix element
   alpha     beta       real part   imaginary part
     1        1       8.5001535628    0.0000000000
     1        2      -2.9445393718    0.0000000000
     1        3       0.0000000000    0.0000000000
     2        1      -2.9445393718    0.0000000000
     2        2       5.1000917969    0.0000000000
     2        3       0.0000000000    0.0000000000
     3        1       0.0000000000    0.0000000000
     3        2       0.0000000000    0.0000000000
     3        3       4.0599031459    0.0000000000

 respfn : d/dk was computed, but no 2DTE, so no DDB output.

== END DATASET(S) ==============================================================

 -outvars: echo values of variables after computation  --------
            acell      1.0000000000E+00  1.0000000000E+00  1.0000000000E+00 Bohr
              amu      6.53900000E+01  1.27600000E+02
             ecut      4.20000000E+01 Hartree
           etotal     -3.3373282665E+01
            fcart      0.0000000000E+00  0.0000000000E+00  0.0000000000E+00
                       0.0000000000E+00  0.0000000000E+00  0.0000000000E+00
                       0.0000000000E+00  0.0000000000E+00  0.0000000000E+00
                       0.0000000000E+00  0.0000000000E+00  0.0000000000E+00
-          fftalg         512
           irdden           1
           irdwfk           1
           istwfk        1
              ixc     -116133
           kptopt           0
P           mkmem           1
P          mkqmem           1
P          mk1mem           1
            natom           4
            nband          45
           nbdbuf           4
            ngfft          48      48      80
             nkpt           1
            nstep         100
             nsym          12
           ntypat           2
              occ      2.000000  2.000000  2.000000  2.000000  2.000000  2.000000
                       2.000000  2.000000  2.000000  2.000000  2.000000  2.000000
                       2.000000  2.000000  2.000000  2.000000  2.000000  2.000000
                       2.000000  2.000000  2.000000  2.000000  2.000000  2.000000
                       2.000000  2.000000  2.000000  2.000000  2.000000  2.000000
                       2.000000  2.000000  2.000000  2.000000  2.000000  2.000000
                       0.000000  0.000000  0.000000  0.000000  0.000000  0.000000
                       0.000000  0.000000  0.000000
        optdriver           1
            prtwf          -1
            rfdir           1       1       1
           rfelfd           2
            rprim      8.0875177007E+00  0.0000000000E+00  0.0000000000E+00
                      -4.0437588504E+00  7.0039957824E+00  0.0000000000E+00
                       0.0000000000E+00  0.0000000000E+00  1.3314447797E+01
          spgroup         186
           strten      0.0000000000E+00  0.0000000000E+00  0.0000000000E+00
                       0.0000000000E+00  0.0000000000E+00  0.0000000000E+00
           symrel      1  0  0   0  1  0   0  0  1       0  1  0   1  0  0   0  0  1
                       1  1  0  -1  0  0   0  0  1      -1  0  0   1  1  0   0  0  1
                       0  1  0  -1 -1  0   0  0  1      -1 -1  0   0  1  0   0  0  1
                      -1  0  0   0 -1  0   0  0  1       0 -1  0  -1  0  0   0  0  1
                      -1 -1  0   1  0  0   0  0  1       1  0  0  -1 -1  0   0  0  1
                       0 -1  0   1  1  0   0  0  1       1  1  0   0 -1  0   0  0  1
            tnons      0.0000000  0.0000000  0.0000000     0.0000000 -0.0000000  0.5000000
                      -0.0000000 -0.0000000  0.5000000     0.0000000  0.0000000  0.0000000
                      -0.0000000 -0.0000000  0.0000000    -0.0000000 -0.0000000  0.5000000
                      -0.0000000 -0.0000000  0.5000000    -0.0000000 -0.0000000  0.0000000
                       0.0000000 -0.0000000  0.0000000    -0.0000000 -0.0000000  0.5000000
                       0.0000000 -0.0000000  0.5000000     0.0000000 -0.0000000  0.0000000
           tolwfr      1.00000000E-20
            typat      1  1  2  2
           useylm           1
           xangst     -1.7639241746E-11  2.4709032914E+00  4.9108545165E-03
                       2.1398650206E+00  1.2354516457E+00  3.5277620141E+00
                      -1.7639241746E-11  2.4709032914E+00  2.6372275152E+00
                       2.1398650206E+00  1.2354516457E+00  6.1600786748E+00
            xcart     -3.3333336091E-11  4.6693305216E+00  9.2801701146E-03
                       4.0437588503E+00  2.3346652608E+00  6.6665040687E+00
                      -3.3333336091E-11  4.6693305216E+00  4.9836377538E+00
                       4.0437588503E+00  2.3346652608E+00  1.1640861652E+01
             xred      3.3333333333E-01  6.6666666667E-01  6.9700000000E-04
                       6.6666666667E-01  3.3333333333E-01  5.0069700000E-01
                       3.3333333333E-01  6.6666666667E-01  3.7430300000E-01
                       6.6666666667E-01  3.3333333333E-01  8.7430300000E-01
            znucl       30.00000   52.00000

- Timing analysis has been suppressed with timopt=0

 Suggested references for the acknowledgment of ABINIT usage.

 Calculation completed.
.Delivered   6 WARNINGs and   5 COMMENTs to log file.