.Version 9.5.2 of ABINIT

 ABINIT is a project of the Universite Catholique de Louvain,
 Corning Inc. and other collaborators, see ~abinit/doc/developers/contributors.txt .
 acknowledgments of the ABINIT effort.

.Starting date : Wed 26 May 2021.
- ( at 02h35 )

- input  file    -> /scratch/users/j/a/jabreu/flow_simple_11atoms/flow/w247/t1/run.abi
- output file    -> /scratch/users/j/a/jabreu/flow_simple_11atoms/flow/w247/t1/run.abo
- root for input  files -> /scratch/users/j/a/jabreu/flow_simple_11atoms/flow/w247/t1/indata/in
- root for output files -> /scratch/users/j/a/jabreu/flow_simple_11atoms/flow/w247/t1/outdata/out

 Symmetries : space group P-3 (#147); Bravais hP (primitive hexag.)
     intxc =       0      iscf =       7    lmnmax =      18     lnmax =       6
     mgfft =      80  mpssoang =       3    mqgrid =    3936     natom =      12
  nloc_mem =       1    nspden =       1   nspinor =       1    nsppol =       1
      nsym =       6    n1xccc =    2501    ntypat =       3    occopt =       1
   xclevel =       2
-    mband =          61        mffmem =           1         mkmem =           2
-   mkqmem =           2        mk1mem =           2           mpw =       22476
      nfft =      414720          nkpt =           2
  Rough estimation (10% accuracy) of disk space for files :

------------- Echo of variables that govern the present computation ------------
-
- outvars: echo of selected default values
-   iomode0 =  0 , fftalg0 =512 , wfoptalg0 =  0
-
- outvars: echo of global parameters not present in the input file
-  max_nthreads =    0
-
 -outvars: echo values of preprocessed input variables --------
            acell      1.0000000000E+00  1.0000000000E+00  1.0000000000E+00 Bohr
              amu      3.90983000E+01  1.27600000E+02  1.59994000E+01
             ecut      4.40000000E+01 Hartree
-          fftalg         512
           irdden           1
           irdwfk           1
           istwfk        1    0
              ixc     -116133
              kpt      0.00000000E+00  0.00000000E+00  5.00000000E-01
                       3.33333333E-01  3.33333333E-01  0.00000000E+00
           kptopt           0
P           mkmem           2
P          mkqmem           2
P          mk1mem           2
            natom          12
            nband          61
           nbdbuf           4
            ngfft          72      72      80
             nkpt           2
            nstep        2000
             nsym           6
           ntypat           3
              occ      2.000000  2.000000  2.000000  2.000000  2.000000  2.000000
                       2.000000  2.000000  2.000000  2.000000  2.000000  2.000000
                       2.000000  2.000000  2.000000  2.000000  2.000000  2.000000
                       2.000000  2.000000  2.000000  2.000000  2.000000  2.000000
                       2.000000  2.000000  2.000000  2.000000  2.000000  2.000000
                       2.000000  2.000000  2.000000  2.000000  2.000000  2.000000
                       2.000000  2.000000  2.000000  2.000000  2.000000  2.000000
                       2.000000  2.000000  2.000000  2.000000  2.000000  2.000000
                       2.000000  2.000000  2.000000  2.000000  0.000000  0.000000
                       0.000000  0.000000  0.000000  0.000000  0.000000  0.000000
                       0.000000
        optdriver           1
            prtwf          -1
            rfdir           1       1       1
           rfelfd           2
            rprim      1.1880529189E+01  0.0000000000E+00  0.0000000000E+00
                      -5.9402645942E+00  1.0288840088E+01  0.0000000000E+00
                       0.0000000000E+00  0.0000000000E+00  1.3178355561E+01
          spgroup         147
           symrel      1  0  0   0  1  0   0  0  1      -1  0  0   0 -1  0   0  0 -1
                       0  1  0  -1 -1  0   0  0  1       0 -1  0   1  1  0   0  0 -1
                      -1 -1  0   1  0  0   0  0  1       1  1  0  -1  0  0   0  0 -1
           tolwfr      1.00000000E-20
            typat      1  1  1  1  2  2  3  3  3  3  3  3
           useylm           1
              wtk        0.50000    0.50000
           xangst      2.3266223291E-16 -2.0149140420E-16  0.0000000000E+00
                       1.7639946751E-11  3.6297464515E+00  2.6492891397E+00
                       2.3266223291E-16 -2.0149140420E-16  3.4868427048E+00
                       3.1434526363E+00  1.8148732257E+00  4.3243962698E+00
                       3.1434526363E+00  1.8148732257E+00  9.5898634909E-01
                       1.7639946751E-11  3.6297464515E+00  6.0146990604E+00
                       3.7158502137E+00  3.3907784641E+00  1.8188836022E+00
                       1.4924798772E+00  1.5226314497E+00  1.8188836022E+00
                       4.2220278179E+00  5.3120976342E-01  1.8188836022E+00
                      -5.7239757743E-01  2.0538412131E+00  5.1548018073E+00
                      -1.0785751816E+00  4.9134099138E+00  5.1548018073E+00
                       1.6509727591E+00  3.9219882275E+00  5.1548018073E+00
            xcart      4.3966790166E-16 -3.8076357206E-16  0.0000000000E+00
                       3.3334668359E-11  6.8592267251E+00  5.0064309209E+00
                       4.3966790166E-16 -3.8076357206E-16  6.5891777805E+00
                       5.9402645943E+00  3.4296133625E+00  8.1719246400E+00
                       5.9402645943E+00  3.4296133625E+00  1.8122215650E+00
                       3.3334668359E-11  6.8592267251E+00  1.1366133996E+01
                       7.0219392548E+00  6.4076426744E+00  3.4371918757E+00
                       2.8203782267E+00  2.8773564412E+00  3.4371918757E+00
                       7.9784763013E+00  1.0038409720E+00  3.4371918757E+00
                      -1.0816746605E+00  3.8811974132E+00  9.7411636852E+00
                      -2.0382117070E+00  9.2849991156E+00  9.7411636852E+00
                       3.1198863676E+00  7.4114836464E+00  9.7411636852E+00
             xred      1.8503717077E-17 -3.7007434154E-17  0.0000000000E+00
                       3.3333333333E-01  6.6666666667E-01  3.7989800000E-01
                       1.8503717077E-17 -3.7007434154E-17  5.0000000000E-01
                       6.6666666667E-01  3.3333333333E-01  6.2010200000E-01
                       6.6666666667E-01  3.3333333333E-01  1.3751500000E-01
                       3.3333333333E-01  6.6666666667E-01  8.6248500000E-01
                       9.0243400000E-01  6.2277600000E-01  2.6082100000E-01
                       3.7722400000E-01  2.7965800000E-01  2.6082100000E-01
                       7.2034200000E-01  9.7566000000E-02  2.6082100000E-01
                       9.7566000000E-02  3.7722400000E-01  7.3917900000E-01
                       2.7965800000E-01  9.0243400000E-01  7.3917900000E-01
                       6.2277600000E-01  7.2034200000E-01  7.3917900000E-01
            znucl       19.00000   52.00000    8.00000

 chkinp: Checking input parameters for consistency.

== DATASET  1 ==================================================================
-   mpi_nproc: 1, omp_nthreads: -1 (-1 if OMP is not activated)

--- !DatasetInfo
iteration_state: {dtset: 1, }
dimensions: {natom: 12, nkpt: 2, mband: 61, nsppol: 1, nspinor: 1, nspden: 1, mpw: 22476, }
cutoff_energies: {ecut:  44.0, pawecutdg:  -1.0, }
electrons: {nelect:   1.04000000E+02, charge:   0.00000000E+00, occopt:   1.00000000E+00, tsmear:   1.00000000E-02, }
meta: {optdriver: 1, rfelfd: 2, }
...

 Real(R)+Recip(G) space primitive vectors, cartesian coordinates (Bohr,Bohr^-1):
 R(1)= 11.8805292  0.0000000  0.0000000  G(1)=  0.0841713  0.0485963  0.0000000
 R(2)= -5.9402646 10.2888401  0.0000000  G(2)=  0.0000000  0.0971927  0.0000000
 R(3)=  0.0000000  0.0000000 13.1783556  G(3)=  0.0000000  0.0000000  0.0758820
 Unit cell volume ucvol=  1.6108809E+03 bohr^3
 Angles (23,13,12)=  9.00000000E+01  9.00000000E+01  1.20000000E+02 degrees

 getcut: wavevector=  0.0000  0.0000  0.0000  ngfft=  72  72  80
         ecut(hartree)=     44.000   => boxcut(ratio)=   2.02958

--- Pseudopotential description ------------------------------------------------
- pspini: atom type   1  psp file is /scratch/users/j/a/jabreu/pseudos/PBEsol/K.psp8
- pspatm: opening atomic psp file    /scratch/users/j/a/jabreu/pseudos/PBEsol/K.psp8
- K     ONCVPSP-3.3.0  r_core=   1.36296   1.46408   1.61068
- 19.00000   9.00000    180112                znucl, zion, pspdat
    8 -116133    2    4       400   0.00000   pspcod,pspxc,lmax,lloc,mmax,r2well
    3.99000000000000    5.00000000000000    0.00000000000000   rchrg,fchrg,qchrg
     nproj     2     2     2
     extension_switch     1
  pspatm : epsatm=    8.32487830
         --- l  ekb(1:nproj) -->
             0   10.921326    0.816676
             1    4.431000    0.560368
             2   -3.384038   -1.043186
 pspatm: atomic psp has been read  and splines computed

- pspini: atom type   2  psp file is /scratch/users/j/a/jabreu/pseudos/PBEsol/Te.psp8
- pspatm: opening atomic psp file    /scratch/users/j/a/jabreu/pseudos/PBEsol/Te.psp8
- Te    ONCVPSP-3.3.0  r_core=   2.26547   1.91704   1.80604
- 52.00000  16.00000    180112                znucl, zion, pspdat
    8 -116133    2    4       600   0.00000   pspcod,pspxc,lmax,lloc,mmax,r2well
    5.99000000000000    5.00000000000000    0.00000000000000   rchrg,fchrg,qchrg
     nproj     2     2     2
     extension_switch     1
  pspatm : epsatm=   36.82679836
         --- l  ekb(1:nproj) -->
             0    6.345999    0.785432
             1    5.709019    1.070069
             2   -6.035173   -1.870937
 pspatm: atomic psp has been read  and splines computed

- pspini: atom type   3  psp file is /scratch/users/j/a/jabreu/pseudos/PBEsol/O.psp8
- pspatm: opening atomic psp file    /scratch/users/j/a/jabreu/pseudos/PBEsol/O.psp8
- O     ONCVPSP-3.3.0  r_core=   1.35509   1.45563   1.26150
-  8.00000   6.00000    180112                znucl, zion, pspdat
    8 -116133    2    4       600   0.00000   pspcod,pspxc,lmax,lloc,mmax,r2well
    5.99000000000000    4.00000000000000    0.00000000000000   rchrg,fchrg,qchrg
     nproj     2     2     1
     extension_switch     1
  pspatm : epsatm=    6.22910522
         --- l  ekb(1:nproj) -->
             0    6.050032    0.820363
             1   -4.739617   -1.153841
             2   -1.335834
 pspatm: atomic psp has been read  and splines computed

   1.50100851E+04                                ecore*ucvol(ha*bohr**3)

 ==>  initialize data related to q vector <==

 The list of irreducible perturbations for this q vector is:
    1)    idir= 1    ipert=  13
    2)    idir= 2    ipert=  13
    3)    idir= 3    ipert=  13

 Perturbation wavevector (in red.coord.)   0.000000  0.000000  0.000000
 Perturbation : derivative vs k along direction   1

 dfpt_looppert : COMMENT -
  In a d/dk calculation, iscf is set to -3 automatically.
 The set of symmetries contains only one element for this perturbation.
 symkpt : not enough symmetry to change the number of k points.

 Initialisation of the first-order wave-functions :
  ireadwf=   0

--- !BeginCycle
iteration_state: {dtset: 1, }
[...]
 Expectation of eigenvalue derivatives (hartree) for nkpt=   2  k points:
  (in case of degenerate eigenvalues, averaged derivative)
 kpt#   1, nband= 61, wtk=  0.50000, kpt=  0.0000  0.0000  0.5000 (reduced coord)
  -0.00000   -0.00000    0.00000    0.00000   -0.00000   -0.00000   -0.00000   -0.00000
   0.00000    0.00000    0.00000   -0.00000    0.00000   -0.00000   -0.00000    0.00000
   0.00000    0.00000    0.00000    0.00000   -0.00000   -0.00000   -0.00000    0.00000
   0.00000    0.00000   -0.00000   -0.00000    0.00000   -0.00000   -0.00000   -0.00000
   0.00000   -0.00000    0.00000    0.00000    0.00000   -0.00000   -0.00000   -0.00000
  -0.00000   -0.00000   -0.00000   -0.00000   -0.00000   -0.00000   -0.00000    0.00000
   0.00000    0.00000    0.00000    0.00000    0.00000    0.00000    0.00000   -0.00000
  -0.00000    0.00000    0.00000    0.00006    0.01025
 prteigrs : prtvol=0 or 1, do not print more k-points.

 Eight components of 2nd-order total energy (hartree) are
 1,2,3: 0th-order hamiltonian combined with 1st-order wavefunctions
     kin0=   7.24190023E+01 eigvalue=   9.45343786E+00  local=  -3.75332474E+01
 4,5,6: 1st-order hamiltonian combined with 1st and 0th-order wfs
     kin1=  -7.79430707E+01  Hartree=   0.00000000E+00     xc=   0.00000000E+00
 7,8,9: eventually, occupation + non-local contributions
    edocc=   5.99891549E+00     enl0=   3.72225715E+00   enl1=  -3.01776601E+01
 1-9 gives the relaxation energy (to be shifted if some occ is /=2.0)
   erelax=  -5.40603654E+01
  No Ewald or frozen-wf contrib.: the relaxation energy is the total one
 2DEtotal=   -0.5406036542E+02 Ha. Also 2DEtotal=   -0.147105735511E+04 eV
    (  non-var. 2DEtotal :   -5.4060365421E+01 Ha)

 Perturbation wavevector (in red.coord.)   0.000000  0.000000  0.000000
 Perturbation : derivative vs k along direction   2
 The set of symmetries contains only one element for this perturbation.
 symkpt : not enough symmetry to change the number of k points.

[...]

 Perturbation wavevector (in red.coord.)   0.000000  0.000000  0.000000
 Perturbation : derivative vs k along direction   3
 The set of symmetries contains only one element for this perturbation.
 symkpt : not enough symmetry to change the number of k points.

 Initialisation of the first-order wave-functions :
  ireadwf=   0

--- !BeginCycle
iteration_state: {dtset: 1, }
solver: {iscf: 7, nstep: 2000, nline: 4, wfoptalg: 0, }
tolerances: {tolwfr: 1.00E-20, }
...

     iter   2DEtotal(Ha)        deltaE(Ha) residm    vres2
-ETOT  1  -32.860950066089     -3.286E+01 1.112E-01 0.000E+00
 ETOT  2  -32.931203823268     -7.025E-02 6.772E-03 0.000E+00
 ETOT  3  -32.931943345799     -7.395E-04 2.044E-03 0.000E+00
 ETOT  4  -32.931956303499     -1.296E-05 1.884E-04 0.000E+00
 ETOT  5  -32.931956593631     -2.901E-07 6.242E-05 0.000E+00
 ETOT  6  -32.931956601180     -7.549E-09 6.374E-06 0.000E+00
 ETOT  7  -32.931956601396     -2.158E-10 2.114E-06 0.000E+00
 ETOT  8  -32.931956601402     -6.715E-12 2.306E-07 0.000E+00
 ETOT  9  -32.931956601403     -2.132E-13 7.530E-08 0.000E+00
 ETOT 10  -32.931956601403     -1.421E-14 8.606E-09 0.000E+00
 ETOT 11  -32.931956601403      4.263E-14 2.761E-09 0.000E+00
 ETOT 12  -32.931956601403     -7.105E-15 3.264E-10 0.000E+00
 ETOT 13  -32.931956601403      7.105E-15 1.031E-10 0.000E+00
 ETOT 14  -32.931956601403      0.000E+00 1.250E-11 0.000E+00
 ETOT 15  -32.931956601403      0.000E+00 3.895E-12 0.000E+00
 ETOT 16  -32.931956601403      0.000E+00 4.817E-13 0.000E+00
 ETOT 17  -32.931956601403      0.000E+00 1.485E-13 0.000E+00
 ETOT 18  -32.931956601403      0.000E+00 1.865E-14 0.000E+00
 ETOT 19  -32.931956601403     -7.105E-15 5.700E-15 0.000E+00
 ETOT 20  -32.931956601403      7.105E-15 7.245E-16 0.000E+00
 ETOT 21  -32.931956601403     -7.105E-15 2.198E-16 0.000E+00
 ETOT 22  -32.931956601403      7.105E-15 2.821E-17 0.000E+00
 ETOT 23  -32.931956601403     -1.421E-14 8.512E-18 0.000E+00
 ETOT 24  -32.931956601403      7.105E-15 1.101E-18 0.000E+00
 ETOT 25  -32.931956601403      0.000E+00 3.306E-19 0.000E+00
 ETOT 26  -32.931956601403      0.000E+00 4.304E-20 0.000E+00
 ETOT 27  -32.931956601403      0.000E+00 1.287E-20 0.000E+00
 ETOT 28  -32.931956601403     -7.105E-15 9.977E-21 0.000E+00

 At SCF step   28   max residual=  9.98E-21 < tolwfr=  1.00E-20 =>converged.

 ----iterations are completed or convergence reached----

 dfpt_looppert: DFPT cycle converged with prtwf=-1. Will skip output of the 1st-order WFK file.
 dfpt_looppert : ek2=    4.7282521621E+01
          f-sum rule ratio=    1.0041029415E+00
 prteigrs : about to open file /scratch/users/j/a/jabreu/flow_simple_11atoms/flow/w247/t1/tmpdata/tmp_1WF1_EIG
 Expectation of eigenvalue derivatives (hartree) for nkpt=   2  k points:
  (in case of degenerate eigenvalues, averaged derivative)
 kpt#   1, nband= 61, wtk=  0.50000, kpt=  0.0000  0.0000  0.5000 (reduced coord)
  -0.00000   -0.00000    0.00000    0.00000   -0.00000   -0.00000   -0.00000   -0.00000
   0.00000    0.00000    0.00000   -0.00000   -0.00000    0.00000   -0.00000   -0.00000
  -0.00000   -0.00000   -0.00000   -0.00000    0.00000   -0.00000   -0.00000   -0.00000
  -0.00000    0.00000    0.00000    0.00000    0.00000   -0.00000   -0.00000   -0.00000
   0.00000   -0.00000    0.00000    0.00000    0.00000    0.00000    0.00000   -0.00000
   0.00000    0.00000   -0.00000   -0.00000   -0.00000   -0.00000    0.00000   -0.00000
  -0.00000   -0.00000   -0.00000   -0.00000    0.00000    0.00000    0.00000   -0.00000
  -0.00000   -0.00000   -0.00000    0.00000    0.00767
 prteigrs : prtvol=0 or 1, do not print more k-points.

 Eight components of 2nd-order total energy (hartree) are
 1,2,3: 0th-order hamiltonian combined with 1st-order wavefunctions
     kin0=   4.52121715E+01 eigvalue=   5.83895731E+00  local=  -2.34691204E+01
 4,5,6: 1st-order hamiltonian combined with 1st and 0th-order wfs
     kin1=  -4.74765190E+01  Hartree=   0.00000000E+00     xc=   0.00000000E+00
 7,8,9: eventually, occupation + non-local contributions
    edocc=   3.10760121E+00     enl0=   2.24234704E+00   enl1=  -1.83873942E+01
 1-9 gives the relaxation energy (to be shifted if some occ is /=2.0)
   erelax=  -3.29319566E+01
  No Ewald or frozen-wf contrib.: the relaxation energy is the total one
 2DEtotal=   -0.3293195660E+02 Ha. Also 2DEtotal=   -0.896124112342E+03 eV
    (  non-var. 2DEtotal :   -3.2931956601E+01 Ha)

 CALCULATION OF EFFECTIVE MASSES
 NOTE : Additional infos (eff. mass eigenvalues, eigenvectors and, if degenerate, average mass) are available in stdout.

 K-point ( 0.000, 0.000, 0.500) | band =    52
 Effective mass tensor:
             -3.7283726145             -0.0001210416              0.0002076989
             -0.0001210416             -3.7289340213             -0.0001117413
              0.0002076989             -0.0001117413             -1.0656766842
 Effective mass tensor eigenvalues:
             -3.7289590082             -3.7283476485             -1.0656766633
 Angular average effective mass 1/(<1/m>)=  -2.0342325846
 Angular average effective mass for Frohlich model (<m**0.5>)**2=  -2.2896999052
 Effective masses along directions: (cart. coord. / red. coord. -> eff. mass)
    1:   1.000000  0.000000  0.000000 /   0.894427 -0.447214  0.000000 ->  -3.7283725700
    2:   0.000000  1.000000  0.000000 /   0.000000  1.000000  0.000000 ->  -3.7289340057
    3:   0.000000  0.000000  1.000000 /   0.000000  0.000000  1.000000 ->  -1.0656766693
    4:   0.577350  0.577350  0.577350 /   0.650340  0.238041  0.721383 ->  -2.0341899724
    5:   0.000000  0.707107  0.707107 /   0.000000  0.615393  0.788220 ->  -1.6577042374
    6:   0.707107  0.000000  0.707107 /   0.634948 -0.317474  0.704309 ->  -1.6574278702
    7:   0.707107  0.707107  0.000000 /   0.939071  0.343724  0.000000 ->  -3.7287743341

 K-point ( 0.333, 0.333, 0.000) | band =    53
 Effective mass tensor:
              1.2039393752              0.0000022472             -0.0000095804
              0.0000022472              1.2039276462             -0.0000073547
             -0.0000095804             -0.0000073547              3.4276439304
 Effective mass tensor eigenvalues:
              1.2039272304              1.2039397909              3.4276439305
 Angular average effective mass 1/(<1/m>)=   1.5361243475
 Angular average effective mass for Frohlich model (<m**0.5>)**2=   1.6273554835
 Effective masses along directions: (cart. coord. / red. coord. -> eff. mass)
    1:   1.000000  0.000000  0.000000 /   0.894427 -0.447214  0.000000 ->   1.2039393751
    2:   0.000000  1.000000  0.000000 /   0.000000  1.000000  0.000000 ->   1.2039276462
    3:   0.000000  0.000000  1.000000 /   0.000000  0.000000  1.000000 ->   3.4276439303
    4:   0.577350  0.577350  0.577350 /   0.650340  0.238041  0.721383 ->   1.5361203307
    5:   0.000000  0.707107  0.707107 /   0.000000  0.615393  0.788220 ->   1.7819533241
    6:   0.707107  0.000000  0.707107 /   0.634948 -0.317474  0.704309 ->   1.7819644590
    7:   0.707107  0.707107  0.000000 /   0.939071  0.343724  0.000000 ->   1.2039357578

 END OF EFFECTIVE MASSES SECTION

 ---- first-order wavefunction calculations are completed ----

 Total localisation tensor (bohr^2) in cartesian coordinates
  WARNING : still subject to testing - especially symmetries.
      direction              matrix element
   alpha     beta       real part   imaginary part
     1        1       1.1551480790    0.0000000000
     1        2      -0.4001589681    0.0000000000
     1        3       0.0000000000    0.0000000000
     2        1      -0.4001589681    0.0000000000
     2        2       0.6930956639    0.0000000000
     2        3       0.0000000000    0.0000000000
     3        1       0.0000000000    0.0000000000
     3        2       0.0000000000    0.0000000000
     3        3       0.6479221928    0.0000000000

 respfn : d/dk was computed, but no 2DTE, so no DDB output.

== END DATASET(S) ==============================================================

 -outvars: echo values of variables after computation  --------
            acell      1.0000000000E+00  1.0000000000E+00  1.0000000000E+00 Bohr
              amu      3.90983000E+01  1.27600000E+02  1.59994000E+01
             ecut      4.40000000E+01 Hartree
           etotal     -3.2931956601E+01
            fcart      0.0000000000E+00  0.0000000000E+00  0.0000000000E+00
                       0.0000000000E+00  0.0000000000E+00  0.0000000000E+00
                       0.0000000000E+00  0.0000000000E+00  0.0000000000E+00
                       0.0000000000E+00  0.0000000000E+00  0.0000000000E+00
                       0.0000000000E+00  0.0000000000E+00  0.0000000000E+00
                       0.0000000000E+00  0.0000000000E+00  0.0000000000E+00
                       0.0000000000E+00  0.0000000000E+00  0.0000000000E+00
                       0.0000000000E+00  0.0000000000E+00  0.0000000000E+00
                       0.0000000000E+00  0.0000000000E+00  0.0000000000E+00
                       0.0000000000E+00  0.0000000000E+00  0.0000000000E+00
                       0.0000000000E+00  0.0000000000E+00  0.0000000000E+00
                       0.0000000000E+00  0.0000000000E+00  0.0000000000E+00
-          fftalg         512
           irdden           1
           irdwfk           1
           istwfk        1    0
              ixc     -116133
              kpt      0.00000000E+00  0.00000000E+00  5.00000000E-01
                       3.33333333E-01  3.33333333E-01  0.00000000E+00
           kptopt           0
P           mkmem           2
P          mkqmem           2
P          mk1mem           2
            natom          12
            nband          61
           nbdbuf           4
            ngfft          72      72      80
             nkpt           2
            nstep        2000
             nsym           6
           ntypat           3
              occ      2.000000  2.000000  2.000000  2.000000  2.000000  2.000000
                       2.000000  2.000000  2.000000  2.000000  2.000000  2.000000
                       2.000000  2.000000  2.000000  2.000000  2.000000  2.000000
                       2.000000  2.000000  2.000000  2.000000  2.000000  2.000000
                       2.000000  2.000000  2.000000  2.000000  2.000000  2.000000
                       2.000000  2.000000  2.000000  2.000000  2.000000  2.000000
                       2.000000  2.000000  2.000000  2.000000  2.000000  2.000000
                       2.000000  2.000000  2.000000  2.000000  2.000000  2.000000
                       2.000000  2.000000  2.000000  2.000000  0.000000  0.000000
                       0.000000  0.000000  0.000000  0.000000  0.000000  0.000000
                       0.000000
        optdriver           1
            prtwf          -1
            rfdir           1       1       1
           rfelfd           2
            rprim      1.1880529189E+01  0.0000000000E+00  0.0000000000E+00
                      -5.9402645942E+00  1.0288840088E+01  0.0000000000E+00
                       0.0000000000E+00  0.0000000000E+00  1.3178355561E+01
          spgroup         147
           strten      0.0000000000E+00  0.0000000000E+00  0.0000000000E+00
                       0.0000000000E+00  0.0000000000E+00  0.0000000000E+00
           symrel      1  0  0   0  1  0   0  0  1      -1  0  0   0 -1  0   0  0 -1
                       0  1  0  -1 -1  0   0  0  1       0 -1  0   1  1  0   0  0 -1
                      -1 -1  0   1  0  0   0  0  1       1  1  0  -1  0  0   0  0 -1
           tolwfr      1.00000000E-20
            typat      1  1  1  1  2  2  3  3  3  3  3  3
           useylm           1
              wtk        0.50000    0.50000
           xangst      2.3266223291E-16 -2.0149140420E-16  0.0000000000E+00
                       1.7639946751E-11  3.6297464515E+00  2.6492891397E+00
                       2.3266223291E-16 -2.0149140420E-16  3.4868427048E+00
                       3.1434526363E+00  1.8148732257E+00  4.3243962698E+00
                       3.1434526363E+00  1.8148732257E+00  9.5898634909E-01
                       1.7639946751E-11  3.6297464515E+00  6.0146990604E+00
                       3.7158502137E+00  3.3907784641E+00  1.8188836022E+00
                       1.4924798772E+00  1.5226314497E+00  1.8188836022E+00
                       4.2220278179E+00  5.3120976342E-01  1.8188836022E+00
                      -5.7239757743E-01  2.0538412131E+00  5.1548018073E+00
                      -1.0785751816E+00  4.9134099138E+00  5.1548018073E+00
                       1.6509727591E+00  3.9219882275E+00  5.1548018073E+00
            xcart      4.3966790166E-16 -3.8076357206E-16  0.0000000000E+00
                       3.3334668359E-11  6.8592267251E+00  5.0064309209E+00
                       4.3966790166E-16 -3.8076357206E-16  6.5891777805E+00
                       5.9402645943E+00  3.4296133625E+00  8.1719246400E+00
                       5.9402645943E+00  3.4296133625E+00  1.8122215650E+00
                       3.3334668359E-11  6.8592267251E+00  1.1366133996E+01
                       7.0219392548E+00  6.4076426744E+00  3.4371918757E+00
                       2.8203782267E+00  2.8773564412E+00  3.4371918757E+00
                       7.9784763013E+00  1.0038409720E+00  3.4371918757E+00
                      -1.0816746605E+00  3.8811974132E+00  9.7411636852E+00
                      -2.0382117070E+00  9.2849991156E+00  9.7411636852E+00
                       3.1198863676E+00  7.4114836464E+00  9.7411636852E+00
             xred      1.8503717077E-17 -3.7007434154E-17  0.0000000000E+00
                       3.3333333333E-01  6.6666666667E-01  3.7989800000E-01
                       1.8503717077E-17 -3.7007434154E-17  5.0000000000E-01
                       6.6666666667E-01  3.3333333333E-01  6.2010200000E-01
                       6.6666666667E-01  3.3333333333E-01  1.3751500000E-01
                       3.3333333333E-01  6.6666666667E-01  8.6248500000E-01
                       9.0243400000E-01  6.2277600000E-01  2.6082100000E-01
                       3.7722400000E-01  2.7965800000E-01  2.6082100000E-01
                       7.2034200000E-01  9.7566000000E-02  2.6082100000E-01
                       9.7566000000E-02  3.7722400000E-01  7.3917900000E-01
                       2.7965800000E-01  9.0243400000E-01  7.3917900000E-01
                       6.2277600000E-01  7.2034200000E-01  7.3917900000E-01
            znucl       19.00000   52.00000    8.00000

- Timing analysis has been suppressed with timopt=0

 Suggested references for the acknowledgment of ABINIT usage.

 Calculation completed.
.Delivered   2 WARNINGs and   5 COMMENTs to log file.