.Version 9.5.1 of ABINIT

 ABINIT is a project of the Universite Catholique de Louvain,
 Corning Inc. and other collaborators, see ~abinit/doc/developers/contributors.txt .
 acknowledgments of the ABINIT effort.

.Starting date : Wed  5 May 2021.
- ( at 20h05 )

- input  file    -> /scratch/users/j/a/jabreu/flow_simple_7atoms/flow/w183/t1/run.abi
- output file    -> /scratch/users/j/a/jabreu/flow_simple_7atoms/flow/w183/t1/run.abo
- root for input  files -> /scratch/users/j/a/jabreu/flow_simple_7atoms/flow/w183/t1/indata/in
- root for output files -> /scratch/users/j/a/jabreu/flow_simple_7atoms/flow/w183/t1/outdata/out

 Symmetries : space group R-3 m (#166); Bravais hR (rhombohedral)
     intxc =       0      iscf =       7    lmnmax =      18     lnmax =       6
     mgfft =     120  mpssoang =       3    mqgrid =    3001     natom =       7
  nloc_mem =       1    nspden =       1   nspinor =       1    nsppol =       1
      nsym =      12    n1xccc =    2501    ntypat =       3    occopt =       1
   xclevel =       2
-    mband =          42        mffmem =           1         mkmem =           2
-   mkqmem =           2        mk1mem =           2           mpw =       21388
      nfft =     1728000          nkpt =           2
  Rough estimation (10% accuracy) of disk space for files :

------------- Echo of variables that govern the present computation ------------
-
- outvars: echo of selected default values
-   iomode0 =  0 , fftalg0 =512 , wfoptalg0 =  0
-
- outvars: echo of global parameters not present in the input file
-  max_nthreads =    0
-
 -outvars: echo values of preprocessed input variables --------
            acell      1.0000000000E+00  1.0000000000E+00  1.0000000000E+00 Bohr
              amu      2.29897680E+01  1.12411000E+02  3.09737620E+01
             ecut      5.10000000E+01 Hartree
-          fftalg         512
           irdden           1
           irdwfk           1
           istwfk        1    1
              ixc     -116133
              kpt      5.00000000E-01  5.00000000E-01  5.00000000E-01
                       0.00000000E+00  0.00000000E+00  0.00000000E+00
           kptopt           0
P           mkmem           2
P          mkqmem           2
P          mk1mem           2
            natom           7
            nband          42
           nbdbuf           4
            ngfft         120     120     120
             nkpt           2
            nstep        2000
             nsym          12
           ntypat           3
              occ      2.000000  2.000000  2.000000  2.000000  2.000000  2.000000
                       2.000000  2.000000  2.000000  2.000000  2.000000  2.000000
                       2.000000  2.000000  2.000000  2.000000  2.000000  2.000000
                       2.000000  2.000000  2.000000  2.000000  2.000000  2.000000
                       2.000000  2.000000  2.000000  2.000000  2.000000  2.000000
                       2.000000  2.000000  2.000000  0.000000  0.000000  0.000000
                       0.000000  0.000000  0.000000  0.000000  0.000000  0.000000
        optdriver           1
            prtwf          -1
            rfdir           1       1       1
           rfelfd           2
            rprim      9.0464455732E+00  0.0000000000E+00  1.4280945741E+01
                       4.1426109144E+00  8.0421982269E+00  1.4280945741E+01
                       0.0000000000E+00  0.0000000000E+00  1.6905134983E+01
          spgroup         166
           symrel      1  0  0   0  1  0   0  0  1      -1  0  0   0 -1  0   0  0 -1
                       0  1  0   1  0  0   0  0  1       0 -1  0  -1  0  0   0  0 -1
                       0  0  1   1  0  0   0  1  0       0  0 -1  -1  0  0   0 -1  0
                       1  0  0   0  0  1   0  1  0      -1  0  0   0  0 -1   0 -1  0
                       0  1  0   0  0  1   1  0  0       0 -1  0   0  0 -1  -1  0  0
                       0  0  1   0  1  0   1  0  0       0  0 -1   0 -1  0  -1  0  0
           tolwfr      1.00000000E-20
            typat      1  1  1  1  2  3  3
           useylm           1
              wtk        0.50000    0.50000
           xangst      1.4452345483E+00  8.8125050739E-01  4.9822000169E+00
                       2.8292113583E+00  1.7251483145E+00  9.7532244120E+00
                       5.5341135478E+00  3.3744975012E+00  1.9077914131E+01
                       4.1501367377E+00  2.5305996941E+00  1.4306889736E+01
                       0.0000000000E+00  0.0000000000E+00  0.0000000000E+00
                       6.3246643066E+00  3.8565460782E+00  2.1803203260E+01
                       6.5468378945E-01  3.9920193045E-01  2.2569108874E+00
            xcart      2.7310974941E+00  1.6653221134E+00  9.4149935712E+00
                       5.3464346393E+00  3.2600578530E+00  1.8430923051E+01
                       1.0457958994E+01  6.3768761135E+00  3.6052032894E+01
                       7.8426218483E+00  4.7821403739E+00  2.7036103414E+01
                       0.0000000000E+00  0.0000000000E+00  0.0000000000E+00
                       1.1951883422E+01  7.2878159066E+00  4.1202082982E+01
                       1.2371730657E+00  7.5438232028E-01  4.2649434835E+00
             xred      2.0707300000E-01  2.0707300000E-01  2.0707300000E-01
                       4.0536900000E-01  4.0536900000E-01  4.0536900000E-01
                       7.9292700000E-01  7.9292700000E-01  7.9292700000E-01
                       5.9463100000E-01  5.9463100000E-01  5.9463100000E-01
                       0.0000000000E+00  0.0000000000E+00  0.0000000000E+00
                       9.0619700000E-01  9.0619700000E-01  9.0619700000E-01
                       9.3803000000E-02  9.3803000000E-02  9.3803000000E-02
            znucl       11.00000   48.00000   15.00000

 chkinp: Checking input parameters for consistency.

== DATASET  1 ==================================================================
-   mpi_nproc: 1, omp_nthreads: -1 (-1 if OMP is not activated)

--- !DatasetInfo
iteration_state: {dtset: 1, }
dimensions: {natom: 7, nkpt: 2, mband: 42, nsppol: 1, nspinor: 1, nspden: 1, mpw: 21388, }
cutoff_energies: {ecut:  51.0, pawecutdg:  -1.0, }
electrons: {nelect:   6.60000000E+01, charge:   0.00000000E+00, occopt:   1.00000000E+00, tsmear:   1.00000000E-02, }
meta: {optdriver: 1, rfelfd: 2, }
...

 Real(R)+Recip(G) space primitive vectors, cartesian coordinates (Bohr,Bohr^-1):
 R(1)=  9.0464456  0.0000000 14.2809457  G(1)=  0.1105407 -0.0569405  0.0000000
 R(2)=  4.1426109  8.0421982 14.2809457  G(2)=  0.0000000  0.1243441  0.0000000
 R(3)=  0.0000000  0.0000000 16.9051350  G(3)= -0.0933814 -0.0569405  0.0591536
 Unit cell volume ucvol=  1.2299045E+03 bohr^3
 Angles (23,13,12)=  3.23527309E+01  3.23527309E+01  3.23527309E+01 degrees

 getcut: wavevector=  0.0000  0.0000  0.0000  ngfft= 120 120 120
         ecut(hartree)=     51.000   => boxcut(ratio)=   2.20821

 getcut : COMMENT -
  Note that boxcut > 2.2 ; recall that boxcut=Gcut(box)/Gcut(sphere) = 2
  is sufficient for exact treatment of convolution.
  Such a large boxcut is a waste : you could raise ecut
  e.g. ecut=   62.171576 Hartrees makes boxcut=2

--- Pseudopotential description ------------------------------------------------
- pspini: atom type   1  psp file is /scratch/users/j/a/jabreu/pseudos/PBEsol/Na.psp8
- pspatm: opening atomic psp file    /scratch/users/j/a/jabreu/pseudos/PBEsol/Na.psp8
- Na    ONCVPSP-3.3.0  r_core=   1.20708   1.55069
- 11.00000   9.00000    180112                znucl, zion, pspdat
    8 -116133    1    4       400   0.00000   pspcod,pspxc,lmax,lloc,mmax,r2well
    3.99000000000000    0.00000000000000    0.00000000000000   rchrg,fchrg,qchrg
     nproj     2     2
     extension_switch     1
  pspatm : epsatm=    9.32878306
         --- l  ekb(1:nproj) -->
             0    2.657905   -0.678300
             1   -6.761319   -2.404728
 pspatm: atomic psp has been read  and splines computed

- pspini: atom type   2  psp file is /scratch/users/j/a/jabreu/pseudos/PBEsol/Cd.psp8
- pspatm: opening atomic psp file    /scratch/users/j/a/jabreu/pseudos/PBEsol/Cd.psp8
- Cd    ONCVPSP-3.3.0  r_core=   1.25838   1.30423   1.35174
- 48.00000  20.00000    180112                znucl, zion, pspdat
    8 -116133    2    4       600   0.00000   pspcod,pspxc,lmax,lloc,mmax,r2well
    5.99000000000000    6.00000000000000    0.00000000000000   rchrg,fchrg,qchrg
     nproj     2     2     2
     extension_switch     1
  pspatm : epsatm=   23.26728021
         --- l  ekb(1:nproj) -->
             0   63.701523    3.700425
             1    8.703569    1.290373
             2    0.983656   -0.721725
 pspatm: atomic psp has been read  and splines computed

- pspini: atom type   3  psp file is /scratch/users/j/a/jabreu/pseudos/PBEsol/P.psp8
- pspatm: opening atomic psp file    /scratch/users/j/a/jabreu/pseudos/PBEsol/P.psp8
- P     ONCVPSP-3.3.0  r_core=   1.46089   1.55067   1.70594
- 15.00000   5.00000    180112                znucl, zion, pspdat
    8 -116133    2    4       600   0.00000   pspcod,pspxc,lmax,lloc,mmax,r2well
    5.99000000000000    5.00000000000000    0.00000000000000   rchrg,fchrg,qchrg
     nproj     2     2     2
     extension_switch     1
  pspatm : epsatm=    7.31221086
         --- l  ekb(1:nproj) -->
             0    6.742364    1.063650
             1    3.449117    0.910422
             2   -3.077645   -0.799176
 pspatm: atomic psp has been read  and splines computed

   4.96365106E+03                                ecore*ucvol(ha*bohr**3)

-inwffil : will read wavefunctions from disk file /scratch/users/j/a/jabreu/flow_simple_7atoms/flow/w183/t1/indata/in_WFK

 ==>  initialize data related to q vector <==

 The list of irreducible perturbations for this q vector is:
    1)    idir= 1    ipert=   8
    2)    idir= 2    ipert=   8
    3)    idir= 3    ipert=   8

 Perturbation wavevector (in red.coord.)   0.000000  0.000000  0.000000
 Perturbation : derivative vs k along direction   1

 dfpt_looppert : COMMENT -
  In a d/dk calculation, iscf is set to -3 automatically.
 The set of symmetries contains only one element for this perturbation.
 symkpt : not enough symmetry to change the number of k points.

[...]

 Initialisation of the first-order wave-functions :
  ireadwf=   0

--- !BeginCycle
iteration_state: {dtset: 1, }
solver: {iscf: 7, nstep: 2000, nline: 4, wfoptalg: 0, }
tolerances: {tolwfr: 1.00E-20, }
...

     iter   2DEtotal(Ha)        deltaE(Ha) residm    vres2
-ETOT  1  -51.824429257157     -5.182E+01 1.846E-01 0.000E+00
 ETOT  2  -51.870108064602     -4.568E-02 2.434E-02 0.000E+00
 ETOT  3  -51.870243075113     -1.350E-04 9.678E-05 0.000E+00
 ETOT  4  -51.870245268220     -2.193E-06 3.505E-05 0.000E+00
 ETOT  5  -51.870245340690     -7.247E-08 3.523E-07 0.000E+00
 ETOT  6  -51.870245343626     -2.936E-09 6.126E-07 0.000E+00
 ETOT  7  -51.870245343756     -1.297E-10 6.580E-09 0.000E+00
 ETOT  8  -51.870245343762     -5.912E-12 1.402E-08 0.000E+00
 ETOT  9  -51.870245343762     -3.979E-13 1.807E-10 0.000E+00
 ETOT 10  -51.870245343762      3.553E-14 3.543E-10 0.000E+00
 ETOT 11  -51.870245343762     -1.421E-14 1.446E-11 0.000E+00
[...]
 prteigrs : about to open file /scratch/users/j/a/jabreu/flow_simple_7atoms/flow/w183/t1/tmpdata/tmp_1WF1_EIG
 Expectation of eigenvalue derivatives (hartree) for nkpt=   2  k points:
  (in case of degenerate eigenvalues, averaged derivative)
 kpt#   1, nband= 42, wtk=  0.50000, kpt=  0.5000  0.5000  0.5000 (reduced coord)
  -0.00000    0.00000    0.00000   -0.00000   -0.00000    0.00000    0.00000    0.00000
   0.00000   -0.00000    0.00000    0.00000    0.00000    0.00000   -0.00000   -0.00000
  -0.00000    0.00000    0.00000    0.00000   -0.00000    0.00000    0.00000    0.00000
   0.00000    0.00000   -0.00000    0.00000    0.00000    0.00000    0.00000   -0.00000
  -0.00000   -0.00000   -0.00000    0.00000    0.00000    0.00000   -0.00000   -0.00000
   0.00000   -0.00000
 prteigrs : prtvol=0 or 1, do not print more k-points.

 Eight components of 2nd-order total energy (hartree) are
 1,2,3: 0th-order hamiltonian combined with 1st-order wavefunctions
     kin0=   5.71729241E+01 eigvalue=   6.72405338E+00  local=  -2.61074388E+01
 4,5,6: 1st-order hamiltonian combined with 1st and 0th-order wfs
     kin1=  -9.62126408E+01  Hartree=   0.00000000E+00     xc=   0.00000000E+00
 7,8,9: eventually, occupation + non-local contributions
    edocc=   1.40899442E+01     enl0=  -9.23739673E-03   enl1=  -7.52784993E+00
 1-9 gives the relaxation energy (to be shifted if some occ is /=2.0)
   erelax=  -5.18702453E+01
  No Ewald or frozen-wf contrib.: the relaxation energy is the total one
 2DEtotal=   -0.5187024534E+02 Ha. Also 2DEtotal=   -0.141146115696E+04 eV
    (  non-var. 2DEtotal :   -5.1870245344E+01 Ha)

 Perturbation wavevector (in red.coord.)   0.000000  0.000000  0.000000
 Perturbation : derivative vs k along direction   2
 The set of symmetries contains only one element for this perturbation.
 symkpt : not enough symmetry to change the number of k points.

[...]

 Perturbation wavevector (in red.coord.)   0.000000  0.000000  0.000000
 Perturbation : derivative vs k along direction   3
 The set of symmetries contains only one element for this perturbation.
 symkpt : not enough symmetry to change the number of k points.

-inwffil : will read wavefunctions from disk file /scratch/users/j/a/jabreu/flow_simple_7atoms/flow/w183/t1/indata/in_WFK

 Initialisation of the first-order wave-functions :
  ireadwf=   0

--- !BeginCycle
iteration_state: {dtset: 1, }
solver: {iscf: 7, nstep: 2000, nline: 4, wfoptalg: 0, }
tolerances: {tolwfr: 1.00E-20, }
...

     iter   2DEtotal(Ha)        deltaE(Ha) residm    vres2
-ETOT  1  -51.825232622527     -5.183E+01 1.771E-01 0.000E+00
 ETOT  2  -51.870113648059     -4.488E-02 2.722E-02 0.000E+00
 ETOT  3  -51.870240008448     -1.264E-04 1.256E-04 0.000E+00
 ETOT  4  -51.870241914327     -1.906E-06 5.102E-05 0.000E+00
 ETOT  5  -51.870241973952     -5.963E-08 3.031E-07 0.000E+00
 ETOT  6  -51.870241976281     -2.329E-09 6.700E-07 0.000E+00
 ETOT  7  -51.870241976380     -9.970E-11 4.302E-09 0.000E+00
 ETOT  8  -51.870241976385     -4.540E-12 1.113E-08 0.000E+00
 ETOT  9  -51.870241976385     -1.137E-13 7.267E-11 0.000E+00
 ETOT 10  -51.870241976385      2.842E-14 2.007E-10 0.000E+00
 ETOT 11  -51.870241976385      1.421E-14 1.363E-12 0.000E+00
 ETOT 12  -51.870241976385      1.421E-14 3.748E-12 0.000E+00
 ETOT 13  -51.870241976385      2.132E-14 5.995E-14 0.000E+00
 ETOT 14  -51.870241976385      2.132E-14 1.260E-13 0.000E+00
 ETOT 15  -51.870241976385     -2.842E-14 5.010E-15 0.000E+00
 ETOT 16  -51.870241976385      2.842E-14 1.042E-14 0.000E+00
 ETOT 17  -51.870241976385      7.105E-15 4.195E-16 0.000E+00
 ETOT 18  -51.870241976385      0.000E+00 8.660E-16 0.000E+00
 ETOT 19  -51.870241976385     -1.421E-14 3.517E-17 0.000E+00
 ETOT 20  -51.870241976385      7.105E-15 7.212E-17 0.000E+00
 ETOT 21  -51.870241976385     -1.421E-14 2.951E-18 0.000E+00
 ETOT 22  -51.870241976385      7.105E-15 6.017E-18 0.000E+00
 ETOT 23  -51.870241976385     -7.105E-15 2.477E-19 0.000E+00
 ETOT 24  -51.870241976385      0.000E+00 5.024E-19 0.000E+00
 ETOT 25  -51.870241976385      0.000E+00 2.079E-20 0.000E+00
 ETOT 26  -51.870241976385      0.000E+00 9.954E-21 0.000E+00

 At SCF step   26   max residual=  9.95E-21 < tolwfr=  1.00E-20 =>converged.

 ----iterations are completed or convergence reached----

 dfpt_looppert: DFPT cycle converged with prtwf=-1. Will skip output of the 1st-order WFK file.
 dfpt_looppert : ek2=    8.0571995692E+01
          f-sum rule ratio=    1.1941200939E+00
 prteigrs : about to open file /scratch/users/j/a/jabreu/flow_simple_7atoms/flow/w183/t1/tmpdata/tmp_1WF1_EIG
 Expectation of eigenvalue derivatives (hartree) for nkpt=   2  k points:
  (in case of degenerate eigenvalues, averaged derivative)
 kpt#   1, nband= 42, wtk=  0.50000, kpt=  0.5000  0.5000  0.5000 (reduced coord)
   0.00000    0.00000    0.00000   -0.00000    0.00000    0.00000   -0.00000   -0.00000
  -0.00000   -0.00000   -0.00000   -0.00000   -0.00000   -0.00000    0.00000    0.00000
   0.00000   -0.00000   -0.00000   -0.00000    0.00000   -0.00000    0.00000    0.00000
   0.00000    0.00000    0.00000   -0.00000   -0.00000   -0.00000   -0.00000    0.00000
   0.00000    0.00000    0.00000   -0.00000   -0.00000   -0.00000    0.00000    0.00000
   0.00000   -0.00000
 prteigrs : prtvol=0 or 1, do not print more k-points.

 Eight components of 2nd-order total energy (hartree) are
 1,2,3: 0th-order hamiltonian combined with 1st-order wavefunctions
     kin0=   5.73461797E+01 eigvalue=   6.72737040E+00  local=  -2.61886069E+01
 4,5,6: 1st-order hamiltonian combined with 1st and 0th-order wfs
     kin1=  -9.62126391E+01  Hartree=   0.00000000E+00     xc=   0.00000000E+00
 7,8,9: eventually, occupation + non-local contributions
    edocc=   1.40436252E+01     enl0=  -5.83264104E-02   enl1=  -7.52784489E+00
 1-9 gives the relaxation energy (to be shifted if some occ is /=2.0)
   erelax=  -5.18702420E+01
  No Ewald or frozen-wf contrib.: the relaxation energy is the total one
 2DEtotal=   -0.5187024198E+02 Ha. Also 2DEtotal=   -0.141146106533E+04 eV
    (  non-var. 2DEtotal :   -5.1870241976E+01 Ha)

 CALCULATION OF EFFECTIVE MASSES
 NOTE : Additional infos (eff. mass eigenvalues, eigenvectors and, if degenerate, average mass) are available in stdout.

 COMMENTS:
 - At k-point ( 0.500, 0.500, 0.500), bands    32 through    33
   are DEGENERATE (effective mass tensor is therefore not defined).
   See Section IIIB Eqs. (67)-(70) and Appendix E of PRB 93 205147 (2016).
 - Angular average effective mass for Frohlich model is to be averaged over degenerate bands. See later.
 - Associated theta integrals calculated with ntheta=   1000 points.

 K-point ( 0.500, 0.500, 0.500) | band =    32
 Transport equivalent effective mass tensor:
             -0.4794298912             -0.0668071900             -0.3777054512
             -0.0668071900             -0.4106051857             -0.2303118147
             -0.3777054512             -0.2303118147             -1.6719419841
 Transport equivalent effective mass tensor eigenvalues:
             -1.8222440764             -0.3698683025             -0.3698646820
 Angular average effective mass 1/(<1/m>)=  -0.4381137638
 Angular average effective mass for Frohlich model (<m**0.5>)**2=  -0.4915205598
 Effective masses along directions: (cart. coord. / red. coord. -> eff. mass)
    1:   1.000000  0.000000  0.000000 /   0.909205  0.416349  0.000000 ->  -0.3403348782
    2:   0.000000  1.000000  0.000000 /   0.000000  1.000000  0.000000 ->  -0.3192397841
    3:   0.000000  0.000000  1.000000 /   0.542224  0.542224  0.641861 ->  -0.9512241742
    4:   0.577350  0.577350  0.577350 /   0.596301  0.676525  0.432134 ->  -0.7158852398
    5:   0.000000  0.707107  0.707107 /   0.454326  0.710175  0.537810 ->  -0.5643632345
    6:   0.707107  0.000000  0.707107 /   0.682164  0.538761  0.494358 ->  -0.6750408892
    7:   0.707107  0.707107  0.000000 /   0.596106  0.802906  0.000000 ->  -0.3700731253

 K-point ( 0.500, 0.500, 0.500) | band =    33
 Transport equivalent effective mass tensor:
            -23.6440650173             -0.3777288701             -2.1356220932
             -0.3777288701            -23.2548878400             -1.3022236171
             -2.1356220932             -1.3022236171            -30.3867691422
 Transport equivalent effective mass tensor eigenvalues:
            -31.2366033012            -23.0245784512            -23.0245402472
 Angular average effective mass 1/(<1/m>)=  -2.6835689956
 Angular average effective mass for Frohlich model (<m**0.5>)**2=  -3.3150816809
 Effective masses along directions: (cart. coord. / red. coord. -> eff. mass)
    1:   1.000000  0.000000  0.000000 /   0.909205  0.416349  0.000000 ->  -3.3952234286
    2:   0.000000  1.000000  0.000000 /   0.000000  1.000000  0.000000 ->  -4.8421785723
    3:   0.000000  0.000000  1.000000 /   0.542224  0.542224  0.641861 ->  -2.9205631616
    4:   0.577350  0.577350  0.577350 /   0.596301  0.676525  0.432134 ->  -1.7716288434
    5:   0.000000  0.707107  0.707107 /   0.454326  0.710175  0.537810 ->  -4.1803475425
    6:   0.707107  0.000000  0.707107 /   0.682164  0.538761  0.494358 ->  -4.0105816512
    7:   0.707107  0.707107  0.000000 /   0.596106  0.802906  0.000000 ->  -2.0803518198

 Angular average effective mass for Frohlich model, averaged over degenerate bands.
 Value of     (<<m**0.5>>)**2 =     1.589896E+00
 Absolute Value of <<m**0.5>> =     1.260911E+00

 K-point ( 0.000, 0.000, 0.000) | band =    34
 Effective mass tensor:
              0.2102524006             -0.0030722402             -0.0173690856
             -0.0030722402              0.2134174795             -0.0105910252
             -0.0173690856             -0.0105910252              0.1554138529
 Effective mass tensor eigenvalues:
              0.1485020973              0.2152908178              0.2152908179
 Angular average effective mass 1/(<1/m>)=   0.1872230094
 Angular average effective mass for Frohlich model (<m**0.5>)**2=   0.1890542245
 Effective masses along directions: (cart. coord. / red. coord. -> eff. mass)
    1:   1.000000  0.000000  0.000000 /   0.909205  0.416349  0.000000 ->   0.2082260703
    2:   0.000000  1.000000  0.000000 /   0.000000  1.000000  0.000000 ->   0.2126087805
    3:   0.000000  0.000000  1.000000 /   0.542224  0.542224  0.641861 ->   0.1534277851
    4:   0.577350  0.577350  0.577350 /   0.596301  0.676525  0.432134 ->   0.1669918895
    5:   0.000000  0.707107  0.707107 /   0.454326  0.710175  0.537810 ->   0.1682972493
    6:   0.707107  0.000000  0.707107 /   0.682164  0.538761  0.494358 ->   0.1612026396
    7:   0.707107  0.707107  0.000000 /   0.596106  0.802906  0.000000 ->   0.2062252053

 END OF EFFECTIVE MASSES SECTION

 ---- first-order wavefunction calculations are completed ----

 Total localisation tensor (bohr^2) in cartesian coordinates
  WARNING : still subject to testing - especially symmetries.
      direction              matrix element
   alpha     beta       real part   imaginary part
     1        1       2.9275348637    0.0000000000
     1        2       0.9851865305    0.0000000000
     1        3       5.5698077686    0.0000000000
     2        1       0.9851865305    0.0000000000
     2        2       1.9125777276    0.0000000000
     2        3       3.3962628107    0.0000000000
     3        1       5.5698077686    0.0000000000
     3        2       3.3962628107    0.0000000000
     3        3      20.5128124683    0.0000000000

 respfn : d/dk was computed, but no 2DTE, so no DDB output.

== END DATASET(S) ==============================================================

 -outvars: echo values of variables after computation  --------
            acell      1.0000000000E+00  1.0000000000E+00  1.0000000000E+00 Bohr
              amu      2.29897680E+01  1.12411000E+02  3.09737620E+01
             ecut      5.10000000E+01 Hartree
           etotal     -5.1870241976E+01
            fcart      0.0000000000E+00  0.0000000000E+00  0.0000000000E+00
                       0.0000000000E+00  0.0000000000E+00  0.0000000000E+00
                       0.0000000000E+00  0.0000000000E+00  0.0000000000E+00
                       0.0000000000E+00  0.0000000000E+00  0.0000000000E+00
                       0.0000000000E+00  0.0000000000E+00  0.0000000000E+00
                       0.0000000000E+00  0.0000000000E+00  0.0000000000E+00
                       0.0000000000E+00  0.0000000000E+00  0.0000000000E+00
-          fftalg         512
           irdden           1
           irdwfk           1
           istwfk        1    1
              ixc     -116133
              kpt      5.00000000E-01  5.00000000E-01  5.00000000E-01
                       0.00000000E+00  0.00000000E+00  0.00000000E+00
           kptopt           0
P           mkmem           2
P          mkqmem           2
P          mk1mem           2
            natom           7
            nband          42
           nbdbuf           4
            ngfft         120     120     120
             nkpt           2
            nstep        2000
             nsym          12
           ntypat           3
              occ      2.000000  2.000000  2.000000  2.000000  2.000000  2.000000
                       2.000000  2.000000  2.000000  2.000000  2.000000  2.000000
                       2.000000  2.000000  2.000000  2.000000  2.000000  2.000000
                       2.000000  2.000000  2.000000  2.000000  2.000000  2.000000
                       2.000000  2.000000  2.000000  2.000000  2.000000  2.000000
                       2.000000  2.000000  2.000000  0.000000  0.000000  0.000000
                       0.000000  0.000000  0.000000  0.000000  0.000000  0.000000
        optdriver           1
            prtwf          -1
            rfdir           1       1       1
           rfelfd           2
            rprim      9.0464455732E+00  0.0000000000E+00  1.4280945741E+01
                       4.1426109144E+00  8.0421982269E+00  1.4280945741E+01
                       0.0000000000E+00  0.0000000000E+00  1.6905134983E+01
          spgroup         166
           strten      0.0000000000E+00  0.0000000000E+00  0.0000000000E+00
                       0.0000000000E+00  0.0000000000E+00  0.0000000000E+00
           symrel      1  0  0   0  1  0   0  0  1      -1  0  0   0 -1  0   0  0 -1
                       0  1  0   1  0  0   0  0  1       0 -1  0  -1  0  0   0  0 -1
                       0  0  1   1  0  0   0  1  0       0  0 -1  -1  0  0   0 -1  0
                       1  0  0   0  0  1   0  1  0      -1  0  0   0  0 -1   0 -1  0
                       0  1  0   0  0  1   1  0  0       0 -1  0   0  0 -1  -1  0  0
                       0  0  1   0  1  0   1  0  0       0  0 -1   0 -1  0  -1  0  0
           tolwfr      1.00000000E-20
            typat      1  1  1  1  2  3  3
           useylm           1
              wtk        0.50000    0.50000
           xangst      1.4452345483E+00  8.8125050739E-01  4.9822000169E+00
                       2.8292113583E+00  1.7251483145E+00  9.7532244120E+00
                       5.5341135478E+00  3.3744975012E+00  1.9077914131E+01
                       4.1501367377E+00  2.5305996941E+00  1.4306889736E+01
                       0.0000000000E+00  0.0000000000E+00  0.0000000000E+00
                       6.3246643066E+00  3.8565460782E+00  2.1803203260E+01
                       6.5468378945E-01  3.9920193045E-01  2.2569108874E+00
            xcart      2.7310974941E+00  1.6653221134E+00  9.4149935712E+00
                       5.3464346393E+00  3.2600578530E+00  1.8430923051E+01
                       1.0457958994E+01  6.3768761135E+00  3.6052032894E+01
                       7.8426218483E+00  4.7821403739E+00  2.7036103414E+01
                       0.0000000000E+00  0.0000000000E+00  0.0000000000E+00
                       1.1951883422E+01  7.2878159066E+00  4.1202082982E+01
                       1.2371730657E+00  7.5438232028E-01  4.2649434835E+00
             xred      2.0707300000E-01  2.0707300000E-01  2.0707300000E-01
                       4.0536900000E-01  4.0536900000E-01  4.0536900000E-01
                       7.9292700000E-01  7.9292700000E-01  7.9292700000E-01
                       5.9463100000E-01  5.9463100000E-01  5.9463100000E-01
                       0.0000000000E+00  0.0000000000E+00  0.0000000000E+00
                       9.0619700000E-01  9.0619700000E-01  9.0619700000E-01
                       9.3803000000E-02  9.3803000000E-02  9.3803000000E-02
            znucl       11.00000   48.00000   15.00000

- Timing analysis has been suppressed with timopt=0

 Suggested references for the acknowledgment of ABINIT usage.

 Calculation completed.
.Delivered  14 WARNINGs and  15 COMMENTs to log file.