.Version 9.5.1 of ABINIT

 ABINIT is a project of the Universite Catholique de Louvain,
 Corning Inc. and other collaborators, see ~abinit/doc/developers/contributors.txt .
 acknowledgments of the ABINIT effort.

.Starting date : Wed  5 May 2021.
- ( at 14h19 )

- input  file    -> /scratch/users/j/a/jabreu/flow_simple_6atoms/flow/w265/t1/run.abi
- output file    -> /scratch/users/j/a/jabreu/flow_simple_6atoms/flow/w265/t1/run.abo
- root for input  files -> /scratch/users/j/a/jabreu/flow_simple_6atoms/flow/w265/t1/indata/in
- root for output files -> /scratch/users/j/a/jabreu/flow_simple_6atoms/flow/w265/t1/outdata/out

 Symmetries : space group P-3 m 1 (#164); Bravais hP (primitive hexag.)
     intxc =       0      iscf =       7    lmnmax =      32     lnmax =       8
     mgfft =      96  mpssoang =       4    mqgrid =    4506     natom =       6
  nloc_mem =       1    nspden =       1   nspinor =       1    nsppol =       1
      nsym =      12    n1xccc =    2501    ntypat =       3    occopt =       1
   xclevel =       2
-    mband =          34        mffmem =           1         mkmem =           2
-   mkqmem =           2        mk1mem =           2           mpw =       16227
      nfft =      345600          nkpt =           2
  Rough estimation (10% accuracy) of disk space for files :

------------- Echo of variables that govern the present computation ------------
-
- outvars: echo of selected default values
-   iomode0 =  0 , fftalg0 =512 , wfoptalg0 =  0
-
- outvars: echo of global parameters not present in the input file
-  max_nthreads =    0
-
 -outvars: echo values of preprocessed input variables --------
            acell      1.0000000000E+00  1.0000000000E+00  1.0000000000E+00 Bohr
              amu      6.94100000E+00  1.38905500E+02  1.21753000E+02
             ecut      5.20000000E+01 Hartree
-          fftalg         512
           irdden           1
           irdwfk           1
           istwfk        1    1
              ixc     -116133
              kpt      0.00000000E+00  0.00000000E+00  0.00000000E+00
                       5.00000000E-01  0.00000000E+00  5.00000000E-01
           kptopt           0
P           mkmem           2
P          mkqmem           2
P          mk1mem           2
            natom           6
            nband          34
           nbdbuf           4
            ngfft          60      60      96
             nkpt           2
            nstep        1000
             nsym          12
           ntypat           3
              occ      2.000000  2.000000  2.000000  2.000000  2.000000  2.000000
                       2.000000  2.000000  2.000000  2.000000  2.000000  2.000000
                       2.000000  2.000000  2.000000  2.000000  2.000000  2.000000
                       2.000000  2.000000  2.000000  2.000000  2.000000  2.000000
                       2.000000  0.000000  0.000000  0.000000  0.000000  0.000000
                       0.000000  0.000000  0.000000  0.000000
        optdriver           1
            prtwf          -1
            rfdir           1       1       1
           rfelfd           2
            rprim      8.6699274940E+00  0.0000000000E+00  0.0000000000E+00
                      -4.3349637470E+00  7.5083774588E+00  0.0000000000E+00
                       0.0000000000E+00  0.0000000000E+00  1.3878512148E+01
          spgroup         164
           symrel      1  0  0   0  1  0   0  0  1      -1  0  0   0 -1  0   0  0 -1
                      -1  0  0   1  1  0   0  0  1       1  0  0  -1 -1  0   0  0 -1
                       0  1  0  -1 -1  0   0  0  1       0 -1  0   1  1  0   0  0 -1
                       0 -1  0  -1  0  0   0  0  1       0  1  0   1  0  0   0  0 -1
                      -1 -1  0   1  0  0   0  0  1       1  1  0  -1  0  0   0  0 -1
                       1  1  0   0 -1  0   0  0  1      -1 -1  0   0  1  0   0  0 -1
           tolwfr      1.00000000E-20
            typat      1  1  1  2  3  3
           useylm           1
              wtk        0.50000    0.50000
           xangst      0.0000000000E+00  0.0000000000E+00  3.6720961590E+00
                       2.2939640150E+00  1.3244207416E+00  2.6110219412E+00
                       0.0000000000E+00  2.6488414831E+00  4.7331703767E+00
                       0.0000000000E+00  0.0000000000E+00  0.0000000000E+00
                       0.0000000000E+00  2.6488414831E+00  1.8897488137E+00
                       2.2939640150E+00  1.3244207416E+00  5.4544435042E+00
            xcart      0.0000000000E+00  0.0000000000E+00  6.9392560741E+00
                       4.3349637470E+00  2.5027924863E+00  4.9341163959E+00
                       0.0000000000E+00  5.0055849725E+00  8.9443957522E+00
                       0.0000000000E+00  0.0000000000E+00  0.0000000000E+00
                       0.0000000000E+00  5.0055849725E+00  3.5711077179E+00
                       4.3349637470E+00  2.5027924863E+00  1.0307404430E+01
             xred      0.0000000000E+00  0.0000000000E+00  5.0000000000E-01
                       6.6666666667E-01  3.3333333333E-01  3.5552200000E-01
                       3.3333333333E-01  6.6666666667E-01  6.4447800000E-01
                       0.0000000000E+00  0.0000000000E+00  0.0000000000E+00
                       3.3333333333E-01  6.6666666667E-01  2.5731200000E-01
                       6.6666666667E-01  3.3333333333E-01  7.4268800000E-01
            znucl        3.00000   57.00000   51.00000

 chkinp: Checking input parameters for consistency.

== DATASET  1 ==================================================================
-   mpi_nproc: 1, omp_nthreads: -1 (-1 if OMP is not activated)

--- !DatasetInfo
iteration_state: {dtset: 1, }
dimensions: {natom: 6, nkpt: 2, mband: 34, nsppol: 1, nspinor: 1, nspden: 1, mpw: 16227, }
cutoff_energies: {ecut:  52.0, pawecutdg:  -1.0, }
electrons: {nelect:   5.00000000E+01, charge:   0.00000000E+00, occopt:   1.00000000E+00, tsmear:   1.00000000E-02, }
meta: {optdriver: 1, rfelfd: 2, }
...

 Real(R)+Recip(G) space primitive vectors, cartesian coordinates (Bohr,Bohr^-1):
 R(1)=  8.6699275  0.0000000  0.0000000  G(1)=  0.1153412  0.0665923  0.0000000
 R(2)= -4.3349637  7.5083775  0.0000000  G(2)=  0.0000000  0.1331846  0.0000000
 R(3)=  0.0000000  0.0000000 13.8785121  G(3)=  0.0000000  0.0000000  0.0720538
 Unit cell volume ucvol=  9.0345073E+02 bohr^3
 Angles (23,13,12)=  9.00000000E+01  9.00000000E+01  1.20000000E+02 degrees

 getcut: wavevector=  0.0000  0.0000  0.0000  ngfft=  60  60  96
         ecut(hartree)=     52.000   => boxcut(ratio)=   2.13089

--- Pseudopotential description ------------------------------------------------
- pspini: atom type   1  psp file is /scratch/users/j/a/jabreu/pseudos/PBEsol/Li.psp8
- pspatm: opening atomic psp file    /scratch/users/j/a/jabreu/pseudos/PBEsol/Li.psp8
- Li    ONCVPSP-3.3.0  r_core=   1.40824   1.10935
-  3.00000   3.00000    180112                znucl, zion, pspdat
    8 -116133    1    4       400   0.00000   pspcod,pspxc,lmax,lloc,mmax,r2well
    3.99000000000000    0.00000000000000    0.00000000000000   rchrg,fchrg,qchrg
     nproj     2     2
     extension_switch     1
  pspatm : epsatm=    2.60859637
         --- l  ekb(1:nproj) -->
             0   -4.855856   -1.482423
             1   -2.171544   -0.427615
 pspatm: atomic psp has been read  and splines computed

- pspini: atom type   2  psp file is /scratch/users/j/a/jabreu/pseudos/PBEsol/La.psp8
- pspatm: opening atomic psp file    /scratch/users/j/a/jabreu/pseudos/PBEsol/La.psp8
- La    ONCVPSP-3.3.0  r_core=   2.11664   1.60878   1.85636   1.66739
- 57.00000  11.00000    180112                znucl, zion, pspdat
    8 -116133    3    4       600   0.00000   pspcod,pspxc,lmax,lloc,mmax,r2well
    5.99000000000000    5.00000000000000    0.00000000000000   rchrg,fchrg,qchrg
     nproj     2     2     2     2
     extension_switch     1
  pspatm : epsatm=   29.08531775
         --- l  ekb(1:nproj) -->
             0    6.695600    0.639047
             1    6.383649    1.151322
             2    3.612966    0.847811
             3  -13.718437   -4.858923
 pspatm: atomic psp has been read  and splines computed

- pspini: atom type   3  psp file is /scratch/users/j/a/jabreu/pseudos/PBEsol/Sb.psp8
- pspatm: opening atomic psp file    /scratch/users/j/a/jabreu/pseudos/PBEsol/Sb.psp8
- Sb    ONCVPSP-3.3.0  r_core=   1.81962   2.12485   1.81962
- 51.00000  15.00000    180112                znucl, zion, pspdat
    8 -116133    2    4       600   0.00000   pspcod,pspxc,lmax,lloc,mmax,r2well
    5.99000000000000    5.00000000000000    0.00000000000000   rchrg,fchrg,qchrg
     nproj     2     2     2
     extension_switch     1
  pspatm : epsatm=   26.35641246
         --- l  ekb(1:nproj) -->
             0    9.727814    1.485032
             1    5.505335    0.704623
             2   -4.710637   -1.436443
 pspatm: atomic psp has been read  and splines computed

   4.48119659E+03                                ecore*ucvol(ha*bohr**3)

-inwffil : will read wavefunctions from disk file /scratch/users/j/a/jabreu/flow_simple_6atoms/flow/w265/t1/indata/in_WFK

 ==>  initialize data related to q vector <==

 The list of irreducible perturbations for this q vector is:
    1)    idir= 1    ipert=   7
    2)    idir= 2    ipert=   7
    3)    idir= 3    ipert=   7

 Perturbation wavevector (in red.coord.)   0.000000  0.000000  0.000000
 Perturbation : derivative vs k along direction   1

 dfpt_looppert : COMMENT -
  In a d/dk calculation, iscf is set to -3 automatically.
 The set of symmetries contains only one element for this perturbation.
 symkpt : not enough symmetry to change the number of k points.

[...]

 Initialisation of the first-order wave-functions :
  ireadwf=   0

--- !BeginCycle
iteration_state: {dtset: 1, }
solver: {iscf: 7, nstep: 1000, nline: 4, wfoptalg: 0, }
tolerances: {tolwfr: 1.00E-20, }
...

     iter   2DEtotal(Ha)        deltaE(Ha) residm    vres2
-ETOT  1  -68.938473212749     -6.894E+01 3.520E-01 0.000E+00
 ETOT  2  -69.158530076776     -2.201E-01 7.339E-02 0.000E+00
 ETOT  3  -69.164363425800     -5.833E-03 2.600E-02 0.000E+00
 ETOT  4  -69.164616948364     -2.535E-04 2.885E-02 0.000E+00
 ETOT  5  -69.164630803610     -1.386E-05 1.305E-02 0.000E+00
 ETOT  6  -69.164631839897     -1.036E-06 1.363E-02 0.000E+00
 ETOT  7  -69.164631939002     -9.910E-08 7.402E-03 0.000E+00
 ETOT  8  -69.164631950637     -1.164E-08 7.079E-03 0.000E+00
 ETOT  9  -69.164631952125     -1.488E-09 4.221E-03 0.000E+00
 ETOT 10  -69.164631952384     -2.593E-10 4.025E-03 0.000E+00
 ETOT 11  -69.164631952432     -4.763E-11 2.409E-03 0.000E+00
 ETOT 12  -69.164631952441     -9.109E-12 2.293E-03 0.000E+00
 ETOT 13  -69.164631952442     -1.634E-12 1.497E-03 0.000E+00
 ETOT 14  -69.164631952443     -3.553E-13 1.371E-03 0.000E+00
 ETOT 15  -69.164631952443     -4.263E-14 9.142E-04 0.000E+00
 ETOT 16  -69.164631952443      1.137E-13 8.186E-04 0.000E+00
 ETOT 17  -69.164631952443      1.705E-13 5.443E-04 0.000E+00
 ETOT 18  -69.164631952443     -1.563E-13 4.879E-04 0.000E+00
 ETOT 19  -69.164631952443     -1.279E-13 3.260E-04 0.000E+00
[...]
   0.00000   -0.00000
 prteigrs : prtvol=0 or 1, do not print more k-points.

 Eight components of 2nd-order total energy (hartree) are
 1,2,3: 0th-order hamiltonian combined with 1st-order wavefunctions
     kin0=   1.51153284E+02 eigvalue=  -1.55058291E+00  local=  -9.12494518E+01
 4,5,6: 1st-order hamiltonian combined with 1st and 0th-order wfs
     kin1=  -8.73713361E+01  Hartree=   0.00000000E+00     xc=   0.00000000E+00
 7,8,9: eventually, occupation + non-local contributions
    edocc=   8.88935134E+00     enl0=   1.92203180E+00   enl1=  -5.09579278E+01
 1-9 gives the relaxation energy (to be shifted if some occ is /=2.0)
   erelax=  -6.91646320E+01
  No Ewald or frozen-wf contrib.: the relaxation energy is the total one
 2DEtotal=   -0.6916463195E+02 Ha. Also 2DEtotal=   -0.188206534959E+04 eV
    (  non-var. 2DEtotal :   -6.9164631952E+01 Ha)

 Perturbation wavevector (in red.coord.)   0.000000  0.000000  0.000000
 Perturbation : derivative vs k along direction   2
 The set of symmetries contains only one element for this perturbation.
 symkpt : not enough symmetry to change the number of k points.

[...]

 Perturbation wavevector (in red.coord.)   0.000000  0.000000  0.000000
 Perturbation : derivative vs k along direction   3
 The set of symmetries contains only one element for this perturbation.
 symkpt : not enough symmetry to change the number of k points.

-inwffil : will read wavefunctions from disk file /scratch/users/j/a/jabreu/flow_simple_6atoms/flow/w265/t1/indata/in_WFK

 Initialisation of the first-order wave-functions :
  ireadwf=   0

--- !BeginCycle
iteration_state: {dtset: 1, }
solver: {iscf: 7, nstep: 1000, nline: 4, wfoptalg: 0, }
tolerances: {tolwfr: 1.00E-20, }
...

     iter   2DEtotal(Ha)        deltaE(Ha) residm    vres2
-ETOT  1  -20.792318837697     -2.079E+01 1.345E-01 0.000E+00
 ETOT  2  -20.867380426448     -7.506E-02 8.408E-03 0.000E+00
 ETOT  3  -20.871552216102     -4.172E-03 2.881E-03 0.000E+00
 ETOT  4  -20.872088565381     -5.363E-04 1.418E-03 0.000E+00
 ETOT  5  -20.872186984877     -9.842E-05 8.152E-04 0.000E+00
 ETOT  6  -20.872208477599     -2.149E-05 6.199E-04 0.000E+00
 ETOT  7  -20.872213494637     -5.017E-06 3.863E-04 0.000E+00
 ETOT  8  -20.872214705410     -1.211E-06 3.848E-04 0.000E+00
 ETOT  9  -20.872215001415     -2.960E-07 2.054E-04 0.000E+00
 ETOT 10  -20.872215074265     -7.285E-08 2.370E-04 0.000E+00
 ETOT 11  -20.872215092270     -1.801E-08 1.175E-04 0.000E+00
 ETOT 12  -20.872215096660     -4.389E-09 1.415E-04 0.000E+00
 ETOT 13  -20.872215097785     -1.125E-09 6.606E-05 0.000E+00
 ETOT 14  -20.872215098098     -3.131E-10 8.279E-05 0.000E+00
 ETOT 15  -20.872215098186     -8.820E-11 3.707E-05 0.000E+00
 ETOT 16  -20.872215098211     -2.491E-11 4.670E-05 0.000E+00
 ETOT 17  -20.872215098218     -7.105E-12 2.091E-05 0.000E+00
 ETOT 18  -20.872215098220     -2.039E-12 2.611E-05 0.000E+00
 ETOT 19  -20.872215098221     -5.684E-13 1.232E-05 0.000E+00
 ETOT 20  -20.872215098221     -1.599E-13 1.527E-05 0.000E+00
 ETOT 21  -20.872215098221     -5.329E-14 7.123E-06 0.000E+00
 ETOT 22  -20.872215098221     -2.132E-14 8.840E-06 0.000E+00
 ETOT 23  -20.872215098221      3.553E-15 4.127E-06 0.000E+00
 ETOT 24  -20.872215098221     -7.105E-15 5.124E-06 0.000E+00
 ETOT 25  -20.872215098221      0.000E+00 2.393E-06 0.000E+00
 ETOT 26  -20.872215098221      3.553E-15 2.972E-06 0.000E+00
 ETOT 27  -20.872215098221      3.553E-15 1.387E-06 0.000E+00
 ETOT 28  -20.872215098221     -7.105E-15 1.724E-06 0.000E+00
 ETOT 29  -20.872215098221      0.000E+00 8.039E-07 0.000E+00
 ETOT 30  -20.872215098221      0.000E+00 1.000E-06 0.000E+00
 ETOT 31  -20.872215098221     -3.553E-15 4.651E-07 0.000E+00
 ETOT 32  -20.872215098221      3.553E-15 5.799E-07 0.000E+00
 ETOT 33  -20.872215098221     -3.553E-15 2.685E-07 0.000E+00
 ETOT 34  -20.872215098221      3.553E-15 3.360E-07 0.000E+00
 ETOT 35  -20.872215098221      3.553E-15 1.547E-07 0.000E+00
 ETOT 36  -20.872215098221      0.000E+00 1.945E-07 0.000E+00
 ETOT 37  -20.872215098221      0.000E+00 8.902E-08 0.000E+00
 ETOT 38  -20.872215098221      0.000E+00 1.125E-07 0.000E+00
 ETOT 39  -20.872215098221     -3.553E-15 5.124E-08 0.000E+00
 ETOT 40  -20.872215098221      0.000E+00 6.501E-08 0.000E+00
 ETOT 41  -20.872215098221      0.000E+00 2.954E-08 0.000E+00
 ETOT 42  -20.872215098221      3.553E-15 3.753E-08 0.000E+00
 ETOT 43  -20.872215098221      0.000E+00 1.706E-08 0.000E+00
 ETOT 44  -20.872215098221     -7.105E-15 2.166E-08 0.000E+00
 ETOT 45  -20.872215098221      3.553E-15 9.872E-09 0.000E+00
 ETOT 46  -20.872215098221      3.553E-15 1.249E-08 0.000E+00
 ETOT 47  -20.872215098221     -3.553E-15 5.721E-09 0.000E+00
 ETOT 48  -20.872215098221      0.000E+00 7.200E-09 0.000E+00
 ETOT 49  -20.872215098221      0.000E+00 3.319E-09 0.000E+00
 ETOT 50  -20.872215098221     -3.553E-15 4.147E-09 0.000E+00
 ETOT 51  -20.872215098221      1.066E-14 1.927E-09 0.000E+00
 ETOT 52  -20.872215098221     -3.553E-15 2.388E-09 0.000E+00
 ETOT 53  -20.872215098221      3.553E-15 1.120E-09 0.000E+00
 ETOT 54  -20.872215098221      3.553E-15 1.374E-09 0.000E+00
 ETOT 55  -20.872215098221      0.000E+00 6.512E-10 0.000E+00
 ETOT 56  -20.872215098221      0.000E+00 7.901E-10 0.000E+00
 ETOT 57  -20.872215098221     -7.105E-15 3.788E-10 0.000E+00
 ETOT 58  -20.872215098221      3.553E-15 4.543E-10 0.000E+00
 ETOT 59  -20.872215098221      0.000E+00 2.205E-10 0.000E+00
 ETOT 60  -20.872215098221      0.000E+00 2.611E-10 0.000E+00
 ETOT 61  -20.872215098221      3.553E-15 1.284E-10 0.000E+00
[...]
 ETOT  135  -20.872215098221      0.000E+00 3.899E-19 0.000E+00
 ETOT  136  -20.872215098221     -7.105E-15 3.609E-19 0.000E+00
 ETOT  137  -20.872215098221      7.105E-15 2.306E-19 0.000E+00
 ETOT  138  -20.872215098221      3.553E-15 2.134E-19 0.000E+00
 ETOT  139  -20.872215098221     -3.553E-15 1.364E-19 0.000E+00
 ETOT  140  -20.872215098221      3.553E-15 1.262E-19 0.000E+00
 ETOT  141  -20.872215098221     -3.553E-15 8.069E-20 0.000E+00
 ETOT  142  -20.872215098221      0.000E+00 7.459E-20 0.000E+00
 ETOT  143  -20.872215098221      7.105E-15 4.773E-20 0.000E+00
 ETOT  144  -20.872215098221     -7.105E-15 4.411E-20 0.000E+00
 ETOT  145  -20.872215098221      0.000E+00 2.824E-20 0.000E+00
 ETOT  146  -20.872215098221      0.000E+00 2.609E-20 0.000E+00
 ETOT  147  -20.872215098221     -1.066E-14 1.670E-20 0.000E+00
 ETOT  148  -20.872215098221      7.105E-15 1.543E-20 0.000E+00
 ETOT  149  -20.872215098221      3.553E-15 9.985E-21 0.000E+00

 At SCF step  149   max residual=  9.98E-21 < tolwfr=  1.00E-20 =>converged.

 ----iterations are completed or convergence reached----

 dfpt_looppert: DFPT cycle converged with prtwf=-1. Will skip output of the 1st-order WFK file.
 dfpt_looppert : ek2=    2.0496226746E+01
          f-sum rule ratio=    1.3112996513E+00
 prteigrs : about to open file /scratch/users/j/a/jabreu/flow_simple_6atoms/flow/w265/t1/tmpdata/tmp_1WF1_EIG
 Expectation of eigenvalue derivatives (hartree) for nkpt=   2  k points:
  (in case of degenerate eigenvalues, averaged derivative)
 kpt#   1, nband= 34, wtk=  0.50000, kpt=  0.0000  0.0000  0.0000 (reduced coord)
   0.00000   -0.00000   -0.00000   -0.00000   -0.00000   -0.00000   -0.00000   -0.00000
   0.00000   -0.00000    0.00000    0.00000   -0.00000   -0.00000    0.00000   -0.00000
  -0.00000    0.00000    0.00000   -0.00000   -0.00000   -0.00000    0.00000    0.00000
  -0.00000    0.00000   -0.00000   -0.00000    0.00000   -0.00000   -0.00000   -0.00000
  -0.00000   -0.00000
 prteigrs : prtvol=0 or 1, do not print more k-points.

 Eight components of 2nd-order total energy (hartree) are
 1,2,3: 0th-order hamiltonian combined with 1st-order wavefunctions
     kin0=   3.94422991E+01 eigvalue=  -1.00092391E+00  local=  -2.48934181E+01
 4,5,6: 1st-order hamiltonian combined with 1st and 0th-order wfs
     kin1=  -2.68766950E+01  Hartree=   0.00000000E+00     xc=   0.00000000E+00
 7,8,9: eventually, occupation + non-local contributions
    edocc=   3.61575611E+00     enl0=   3.70850189E+00   enl1=  -1.48677352E+01
 1-9 gives the relaxation energy (to be shifted if some occ is /=2.0)
   erelax=  -2.08722151E+01
  No Ewald or frozen-wf contrib.: the relaxation energy is the total one
 2DEtotal=   -0.2087221510E+02 Ha. Also 2DEtotal=   -0.567961857046E+03 eV
    (  non-var. 2DEtotal :   -2.0872215098E+01 Ha)

 CALCULATION OF EFFECTIVE MASSES
 NOTE : Additional infos (eff. mass eigenvalues, eigenvectors and, if degenerate, average mass) are available in stdout.

 K-point ( 0.000, 0.000, 0.000) | band =    25
 Effective mass tensor:
             -3.3743676819             -0.0000000033             -0.0000000000
             -0.0000000033             -3.3743677106             -0.0000000006
             -0.0000000000             -0.0000000006             -0.1321236596
 Effective mass tensor eigenvalues:
             -3.3743677110             -3.3743676815             -0.1321236596
 Angular average effective mass 1/(<1/m>)=  -0.3675853094
 Angular average effective mass for Frohlich model (<m**0.5>)**2=  -0.7295202330
 Effective masses along directions: (cart. coord. / red. coord. -> eff. mass)
    1:   1.000000  0.000000  0.000000 /   0.894427 -0.447214  0.000000 ->  -3.3743676819
    2:   0.000000  1.000000  0.000000 /   0.000000  1.000000  0.000000 ->  -3.3743677106
    3:   0.000000  0.000000  1.000000 /   0.000000  0.000000  1.000000 ->  -0.1321236596
    4:   0.577350  0.577350  0.577350 /   0.520127  0.190380  0.832601 ->  -0.3675853096
    5:   0.000000  0.707107  0.707107 /   0.000000  0.475835  0.879535 ->  -0.2542905507
    6:   0.707107  0.000000  0.707107 /   0.512151 -0.256076  0.819833 ->  -0.2542905506
    7:   0.707107  0.707107  0.000000 /   0.939071  0.343724  0.000000 ->  -3.3743676995

 K-point ( 0.500, 0.000, 0.500) | band =    26
 Effective mass tensor:
              0.8424779849              0.3928947695             -0.6254916660
              0.3928947695              0.3888021830             -0.3611277816
             -0.6254916660             -0.3611277816              0.6936665556
 Effective mass tensor eigenvalues:
              0.1352129859              0.1619642821              1.6277694555
 Angular average effective mass 1/(<1/m>)=   0.2115017805
 Angular average effective mass for Frohlich model (<m**0.5>)**2=   0.2600010818
 Effective masses along directions: (cart. coord. / red. coord. -> eff. mass)
    1:   1.000000  0.000000  0.000000 /   0.894427 -0.447214  0.000000 ->   0.2559314851
    2:   0.000000  1.000000  0.000000 /   0.000000  1.000000  0.000000 ->   0.1845506803
    3:   0.000000  0.000000  1.000000 /   0.000000  0.000000  1.000000 ->   0.2058283912
    4:   0.577350  0.577350  0.577350 /   0.520127  0.190380  0.832601 ->   0.1461129970
    5:   0.000000  0.707107  0.707107 /   0.000000  0.475835  0.879535 ->   0.1475085474
    6:   0.707107  0.000000  0.707107 /   0.512151 -0.256076  0.819833 ->   0.1384127989
    7:   0.707107  0.707107  0.000000 /   0.939071  0.343724  0.000000 ->   0.2981396826

 END OF EFFECTIVE MASSES SECTION

 ---- first-order wavefunction calculations are completed ----

 Total localisation tensor (bohr^2) in cartesian coordinates
  WARNING : still subject to testing - especially symmetries.
      direction              matrix element
   alpha     beta       real part   imaginary part
     1        1       6.5912245145    0.0000000000
     1        2      -2.6571408353    0.0000000000
     1        3       0.0000000000    0.0000000000
     2        1      -2.6571408353    0.0000000000
     2        2       4.6023029296    0.0000000000
     2        3       0.0000000000    0.0000000000
     3        1       0.0000000000    0.0000000000
     3        2       0.0000000000    0.0000000000
     3        3       5.0672170527    0.0000000000

 respfn : d/dk was computed, but no 2DTE, so no DDB output.

== END DATASET(S) ==============================================================

 -outvars: echo values of variables after computation  --------
            acell      1.0000000000E+00  1.0000000000E+00  1.0000000000E+00 Bohr
              amu      6.94100000E+00  1.38905500E+02  1.21753000E+02
             ecut      5.20000000E+01 Hartree
           etotal     -2.0872215098E+01
            fcart      0.0000000000E+00  0.0000000000E+00  0.0000000000E+00
                       0.0000000000E+00  0.0000000000E+00  0.0000000000E+00
                       0.0000000000E+00  0.0000000000E+00  0.0000000000E+00
                       0.0000000000E+00  0.0000000000E+00  0.0000000000E+00
                       0.0000000000E+00  0.0000000000E+00  0.0000000000E+00
                       0.0000000000E+00  0.0000000000E+00  0.0000000000E+00
-          fftalg         512
           irdden           1
           irdwfk           1
           istwfk        1    1
              ixc     -116133
              kpt      0.00000000E+00  0.00000000E+00  0.00000000E+00
                       5.00000000E-01  0.00000000E+00  5.00000000E-01
           kptopt           0
P           mkmem           2
P          mkqmem           2
P          mk1mem           2
            natom           6
            nband          34
           nbdbuf           4
            ngfft          60      60      96
             nkpt           2
            nstep        1000
             nsym          12
           ntypat           3
              occ      2.000000  2.000000  2.000000  2.000000  2.000000  2.000000
                       2.000000  2.000000  2.000000  2.000000  2.000000  2.000000
                       2.000000  2.000000  2.000000  2.000000  2.000000  2.000000
                       2.000000  2.000000  2.000000  2.000000  2.000000  2.000000
                       2.000000  0.000000  0.000000  0.000000  0.000000  0.000000
                       0.000000  0.000000  0.000000  0.000000
        optdriver           1
            prtwf          -1
            rfdir           1       1       1
           rfelfd           2
            rprim      8.6699274940E+00  0.0000000000E+00  0.0000000000E+00
                      -4.3349637470E+00  7.5083774588E+00  0.0000000000E+00
                       0.0000000000E+00  0.0000000000E+00  1.3878512148E+01
          spgroup         164
           strten      0.0000000000E+00  0.0000000000E+00  0.0000000000E+00
                       0.0000000000E+00  0.0000000000E+00  0.0000000000E+00
           symrel      1  0  0   0  1  0   0  0  1      -1  0  0   0 -1  0   0  0 -1
                      -1  0  0   1  1  0   0  0  1       1  0  0  -1 -1  0   0  0 -1
                       0  1  0  -1 -1  0   0  0  1       0 -1  0   1  1  0   0  0 -1
                       0 -1  0  -1  0  0   0  0  1       0  1  0   1  0  0   0  0 -1
                      -1 -1  0   1  0  0   0  0  1       1  1  0  -1  0  0   0  0 -1
                       1  1  0   0 -1  0   0  0  1      -1 -1  0   0  1  0   0  0 -1
           tolwfr      1.00000000E-20
            typat      1  1  1  2  3  3
           useylm           1
              wtk        0.50000    0.50000
           xangst      0.0000000000E+00  0.0000000000E+00  3.6720961590E+00
                       2.2939640150E+00  1.3244207416E+00  2.6110219412E+00
                       0.0000000000E+00  2.6488414831E+00  4.7331703767E+00
                       0.0000000000E+00  0.0000000000E+00  0.0000000000E+00
                       0.0000000000E+00  2.6488414831E+00  1.8897488137E+00
                       2.2939640150E+00  1.3244207416E+00  5.4544435042E+00
            xcart      0.0000000000E+00  0.0000000000E+00  6.9392560741E+00
                       4.3349637470E+00  2.5027924863E+00  4.9341163959E+00
                       0.0000000000E+00  5.0055849725E+00  8.9443957522E+00
                       0.0000000000E+00  0.0000000000E+00  0.0000000000E+00
                       0.0000000000E+00  5.0055849725E+00  3.5711077179E+00
                       4.3349637470E+00  2.5027924863E+00  1.0307404430E+01
             xred      0.0000000000E+00  0.0000000000E+00  5.0000000000E-01
                       6.6666666667E-01  3.3333333333E-01  3.5552200000E-01
                       3.3333333333E-01  6.6666666667E-01  6.4447800000E-01
                       0.0000000000E+00  0.0000000000E+00  0.0000000000E+00
                       3.3333333333E-01  6.6666666667E-01  2.5731200000E-01
                       6.6666666667E-01  3.3333333333E-01  7.4268800000E-01
            znucl        3.00000   57.00000   51.00000

- Timing analysis has been suppressed with timopt=0

 Suggested references for the acknowledgment of ABINIT usage.

 Calculation completed.
.Delivered  14 WARNINGs and   9 COMMENTs to log file.