.Version 9.5.1 of ABINIT

 ABINIT is a project of the Universite Catholique de Louvain,
 Corning Inc. and other collaborators, see ~abinit/doc/developers/contributors.txt .
 acknowledgments of the ABINIT effort.

.Starting date : Tue 27 Apr 2021.
- ( at 18h25 )

- input  file    -> /scratch/users/j/a/jabreu/flow_simple_4atoms/flow/w149/t1/run.abi
- output file    -> /scratch/users/j/a/jabreu/flow_simple_4atoms/flow/w149/t1/run.abo
- root for input  files -> /scratch/users/j/a/jabreu/flow_simple_4atoms/flow/w149/t1/indata/in
- root for output files -> /scratch/users/j/a/jabreu/flow_simple_4atoms/flow/w149/t1/outdata/out

 Symmetries : space group Fm -3 m (#225); Bravais cF (face-center cubic)
     intxc =       0      iscf =       7    lmnmax =      18     lnmax =       6
     mgfft =      60  mpssoang =       3    mqgrid =    3001     natom =       4
  nloc_mem =       1    nspden =       1   nspinor =       1    nsppol =       1
      nsym =      48    n1xccc =    2501    ntypat =       3    occopt =       1
   xclevel =       2
-    mband =          32        mffmem =           1         mkmem =           2
-   mkqmem =           2        mk1mem =           2           mpw =        9864
      nfft =      216000          nkpt =           2
  Rough estimation (10% accuracy) of disk space for files :

------------- Echo of variables that govern the present computation ------------
-
- outvars: echo of selected default values
-   iomode0 =  0 , fftalg0 =512 , wfoptalg0 =  0
-
- outvars: echo of global parameters not present in the input file
-  max_nthreads =    0
-
 -outvars: echo values of preprocessed input variables --------
            acell      1.0000000000E+00  1.0000000000E+00  1.0000000000E+00 Bohr
              amu      2.29897680E+01  2.04383300E+02  1.21753000E+02
             ecut      4.40000000E+01 Hartree
-          fftalg         512
           irdden           1
           irdwfk           1
           istwfk        0    1
              ixc     -116133
              kpt      1.53846154E-01  0.00000000E+00  1.53846154E-01
                       5.00000000E-01  5.00000000E-01  5.00000000E-01
           kptopt           0
P           mkmem           2
P          mkqmem           2
P          mk1mem           2
            natom           4
            nband          32
           nbdbuf           4
            ngfft          60      60      60
             nkpt           2
            nstep         100
             nsym          48
           ntypat           3
              occ      2.000000  2.000000  2.000000  2.000000  2.000000  2.000000
                       2.000000  2.000000  2.000000  2.000000  2.000000  2.000000
                       2.000000  2.000000  2.000000  2.000000  2.000000  2.000000
                       2.000000  2.000000  2.000000  2.000000  2.000000  0.000000
                       0.000000  0.000000  0.000000  0.000000  0.000000  0.000000
                       0.000000  0.000000
        optdriver           1
            prtwf          -1
            rfdir           1       1       1
           rfelfd           2
            rprim      8.6571859812E+00  0.0000000000E+00  4.9982286567E+00
                       2.8857286604E+00  8.1620732178E+00  4.9982286567E+00
                       0.0000000000E+00  0.0000000000E+00  9.9964573134E+00
          spgroup         225
           symrel      1  0  0   0  1  0   0  0  1      -1  0  0   0 -1  0   0  0 -1
                       0 -1  1   0 -1  0   1 -1  0       0  1 -1   0  1  0  -1  1  0
                      -1  0  0  -1  0  1  -1  1  0       1  0  0   1  0 -1   1 -1  0
                       0  1 -1   1  0 -1   0  0 -1       0 -1  1  -1  0  1   0  0  1
                      -1  0  0  -1  1  0  -1  0  1       1  0  0   1 -1  0   1  0 -1
                       0 -1  1   1 -1  0   0 -1  0       0  1 -1  -1  1  0   0  1  0
                       1  0  0   0  0  1   0  1  0      -1  0  0   0  0 -1   0 -1  0
                       0  1 -1   0  0 -1   1  0 -1       0 -1  1   0  0  1  -1  0  1
                      -1  0  1  -1  1  0  -1  0  0       1  0 -1   1 -1  0   1  0  0
                       0 -1  0   1 -1  0   0 -1  1       0  1  0  -1  1  0   0  1 -1
                       1  0 -1   0  0 -1   0  1 -1      -1  0  1   0  0  1   0 -1  1
                       0  1  0   0  0  1   1  0  0       0 -1  0   0  0 -1  -1  0  0
                       1  0 -1   0  1 -1   0  0 -1      -1  0  1   0 -1  1   0  0  1
                       0 -1  0   0 -1  1   1 -1  0       0  1  0   0  1 -1  -1  1  0
                      -1  0  1  -1  0  0  -1  1  0       1  0 -1   1  0  0   1 -1  0
                       0  1  0   1  0  0   0  0  1       0 -1  0  -1  0  0   0  0 -1
                       0  0 -1   0  1 -1   1  0 -1       0  0  1   0 -1  1  -1  0  1
                       1 -1  0   0 -1  1   0 -1  0      -1  1  0   0  1 -1   0  1  0
                       0  0  1   1  0  0   0  1  0       0  0 -1  -1  0  0   0 -1  0
                      -1  1  0  -1  0  0  -1  0  1       1 -1  0   1  0  0   1  0 -1
                       0  0  1   0  1  0   1  0  0       0  0 -1   0 -1  0  -1  0  0
                       1 -1  0   0 -1  0   0 -1  1      -1  1  0   0  1  0   0  1 -1
                       0  0 -1   1  0 -1   0  1 -1       0  0  1  -1  0  1   0 -1  1
                      -1  1  0  -1  0  1  -1  0  0       1 -1  0   1  0 -1   1  0  0
           tolwfr      1.00000000E-20
            typat      1  1  2  3
           useylm           1
              wtk        0.50000    0.50000
           xangst      1.5270618373E+00  1.0797957804E+00  2.6449486884E+00
                       4.5811855118E+00  3.2393873413E+00  7.9348460653E+00
                       0.0000000000E+00  0.0000000000E+00  0.0000000000E+00
                       3.0541236745E+00  2.1595915609E+00  5.2898973769E+00
            xcart      2.8857286604E+00  2.0405183044E+00  4.9982286567E+00
                       8.6571859812E+00  6.1215549133E+00  1.4994685970E+01
                       0.0000000000E+00  0.0000000000E+00  0.0000000000E+00
                       5.7714573208E+00  4.0810366089E+00  9.9964573134E+00
             xred      2.5000000000E-01  2.5000000000E-01  2.5000000000E-01
                       7.5000000000E-01  7.5000000000E-01  7.5000000000E-01
                       0.0000000000E+00  0.0000000000E+00  0.0000000000E+00
                       5.0000000000E-01  5.0000000000E-01  5.0000000000E-01
            znucl       11.00000   81.00000   51.00000

 chkinp: Checking input parameters for consistency.

== DATASET  1 ==================================================================
-   mpi_nproc: 1, omp_nthreads: -1 (-1 if OMP is not activated)

--- !DatasetInfo
iteration_state: {dtset: 1, }
dimensions: {natom: 4, nkpt: 2, mband: 32, nsppol: 1, nspinor: 1, nspden: 1, mpw: 9864, }
cutoff_energies: {ecut:  44.0, pawecutdg:  -1.0, }
electrons: {nelect:   4.60000000E+01, charge:   0.00000000E+00, occopt:   1.00000000E+00, tsmear:   1.00000000E-02, }
meta: {optdriver: 1, rfelfd: 2, }
...

 Real(R)+Recip(G) space primitive vectors, cartesian coordinates (Bohr,Bohr^-1):
 R(1)=  8.6571860  0.0000000  4.9982287  G(1)=  0.1155110 -0.0408393  0.0000000
 R(2)=  2.8857287  8.1620732  4.9982287  G(2)=  0.0000000  0.1225179  0.0000000
 R(3)=  0.0000000  0.0000000  9.9964573  G(3)= -0.0577555 -0.0408393  0.1000354
 Unit cell volume ucvol=  7.0635553E+02 bohr^3
 Angles (23,13,12)=  6.00000000E+01  6.00000000E+01  6.00000000E+01 degrees

 getcut: wavevector=  0.0000  0.0000  0.0000  ngfft=  60  60  60
         ecut(hartree)=     44.000   => boxcut(ratio)=   2.01008

--- Pseudopotential description ------------------------------------------------
- pspini: atom type   1  psp file is /scratch/users/j/a/jabreu/pseudos/PBEsol/Na.psp8
- pspatm: opening atomic psp file    /scratch/users/j/a/jabreu/pseudos/PBEsol/Na.psp8
- Na    ONCVPSP-3.3.0  r_core=   1.20708   1.55069
- 11.00000   9.00000    180112                znucl, zion, pspdat
    8 -116133    1    4       400   0.00000   pspcod,pspxc,lmax,lloc,mmax,r2well
    3.99000000000000    0.00000000000000    0.00000000000000   rchrg,fchrg,qchrg
     nproj     2     2
     extension_switch     1
  pspatm : epsatm=    9.32878306
         --- l  ekb(1:nproj) -->
             0    2.657905   -0.678300
             1   -6.761319   -2.404728
 pspatm: atomic psp has been read  and splines computed

- pspini: atom type   2  psp file is /scratch/users/j/a/jabreu/pseudos/PBEsol/Tl.psp8
- pspatm: opening atomic psp file    /scratch/users/j/a/jabreu/pseudos/PBEsol/Tl.psp8
- Tl    ONCVPSP-3.3.0  r_core=   2.10510   2.60929   2.00701
- 81.00000  13.00000    180112                znucl, zion, pspdat
    8 -116133    2    4       600   0.00000   pspcod,pspxc,lmax,lloc,mmax,r2well
    5.99000000000000    7.00000000000000    0.00000000000000   rchrg,fchrg,qchrg
     nproj     2     2     2
     extension_switch     1
  pspatm : epsatm=   37.24354552
         --- l  ekb(1:nproj) -->
             0    6.297242    0.908324
             1    4.393460    0.899003
             2   -2.697741   -0.589563
 pspatm: atomic psp has been read  and splines computed

- pspini: atom type   3  psp file is /scratch/users/j/a/jabreu/pseudos/PBEsol/Sb.psp8
- pspatm: opening atomic psp file    /scratch/users/j/a/jabreu/pseudos/PBEsol/Sb.psp8
- Sb    ONCVPSP-3.3.0  r_core=   1.81962   2.12485   1.81962
- 51.00000  15.00000    180112                znucl, zion, pspdat
    8 -116133    2    4       600   0.00000   pspcod,pspxc,lmax,lloc,mmax,r2well
    5.99000000000000    5.00000000000000    0.00000000000000   rchrg,fchrg,qchrg
     nproj     2     2     2
     extension_switch     1
  pspatm : epsatm=   26.35641246
         --- l  ekb(1:nproj) -->
             0    9.727814    1.485032
             1    5.505335    0.704623
             2   -4.710637   -1.436443
 pspatm: atomic psp has been read  and splines computed

   3.78384611E+03                                ecore*ucvol(ha*bohr**3)

-inwffil : will read wavefunctions from disk file /scratch/users/j/a/jabreu/flow_simple_4atoms/flow/w149/t1/indata/in_WFK

 ==>  initialize data related to q vector <==

 The list of irreducible perturbations for this q vector is:
    1)    idir= 1    ipert=   5
    2)    idir= 2    ipert=   5
    3)    idir= 3    ipert=   5

 Perturbation wavevector (in red.coord.)   0.000000  0.000000  0.000000
 Perturbation : derivative vs k along direction   1

 dfpt_looppert : COMMENT -
  In a d/dk calculation, iscf is set to -3 automatically.
 The set of symmetries contains only one element for this perturbation.
 symkpt : not enough symmetry to change the number of k points.

[...]

 Initialisation of the first-order wave-functions :
  ireadwf=   0

--- !BeginCycle
iteration_state: {dtset: 1, }
solver: {iscf: 7, nstep: 100, nline: 4, wfoptalg: 0, }
tolerances: {tolwfr: 1.00E-20, }
...

     iter   2DEtotal(Ha)        deltaE(Ha) residm    vres2
-ETOT  1  -66.212494698842     -6.621E+01 3.281E-02 0.000E+00
 ETOT  2  -66.232909266343     -2.041E-02 3.536E-04 0.000E+00
 ETOT  3  -66.232920192695     -1.093E-05 1.715E-06 0.000E+00
 ETOT  4  -66.232920233871     -4.118E-08 2.458E-07 0.000E+00
 ETOT  5  -66.232920234279     -4.078E-10 1.444E-09 0.000E+00
 ETOT  6  -66.232920234285     -5.784E-12 2.571E-10 0.000E+00
 ETOT  7  -66.232920234285     -4.263E-14 1.543E-12 0.000E+00
 ETOT  8  -66.232920234285     -4.263E-14 2.784E-13 0.000E+00
 ETOT  9  -66.232920234285     -4.263E-14 1.656E-15 0.000E+00
 ETOT 10  -66.232920234285      8.527E-14 3.034E-16 0.000E+00
 ETOT 11  -66.232920234285     -4.263E-14 1.803E-18 0.000E+00
 ETOT 12  -66.232920234285      4.263E-14 3.317E-19 0.000E+00
 ETOT 13  -66.232920234285     -1.421E-14 9.992E-21 0.000E+00

 At SCF step   13   max residual=  9.99E-21 < tolwfr=  1.00E-20 =>converged.

 ----iterations are completed or convergence reached----

 dfpt_looppert: DFPT cycle converged with prtwf=-1. Will skip output of the 1st-order WFK file.
 dfpt_looppert : ek2=    5.4518838084E+01
          f-sum rule ratio=    1.5465901342E+00
 prteigrs : about to open file /scratch/users/j/a/jabreu/flow_simple_4atoms/flow/w149/t1/tmpdata/tmp_1WF1_EIG
 Expectation of eigenvalue derivatives (hartree) for nkpt=   2  k points:
  (in case of degenerate eigenvalues, averaged derivative)
 kpt#   1, nband= 32, wtk=  0.50000, kpt=  0.1538  0.0000  0.1538 (reduced coord)
   0.00003   -0.00003    0.00002    0.00003    0.00003   -0.00001    0.00001   -0.00017
  -0.00017    0.00096   -0.00114    0.00012    0.00012   -0.00052    0.00069    0.00069
  -0.00161    0.00039    0.04239   -0.06411   -0.05887   -0.05887    0.00868   -0.11756
   0.02504    0.02504   -0.09004    0.18624    0.18624    0.05560    0.05147    0.19044
 prteigrs : prtvol=0 or 1, do not print more k-points.

 Eight components of 2nd-order total energy (hartree) are
 1,2,3: 0th-order hamiltonian combined with 1st-order wavefunctions
     kin0=   5.41806197E+01 eigvalue=   7.96608615E+00  local=  -2.77482520E+01
 4,5,6: 1st-order hamiltonian combined with 1st and 0th-order wfs
     kin1=  -8.43182971E+01  Hartree=   0.00000000E+00     xc=   0.00000000E+00
 7,8,9: eventually, occupation + non-local contributions
    edocc=   2.44354446E+01     enl0=   7.39902183E+00   enl1=  -4.81475434E+01
 1-9 gives the relaxation energy (to be shifted if some occ is /=2.0)
   erelax=  -6.62329202E+01
  No Ewald or frozen-wf contrib.: the relaxation energy is the total one
 2DEtotal=   -0.6623292023E+02 Ha. Also 2DEtotal=   -0.180228941666E+04 eV
    (  non-var. 2DEtotal :   -6.6232920234E+01 Ha)

 Perturbation wavevector (in red.coord.)   0.000000  0.000000  0.000000
 Perturbation : derivative vs k along direction   2
 The set of symmetries contains only one element for this perturbation.
 symkpt : not enough symmetry to change the number of k points.

[...]

 Perturbation wavevector (in red.coord.)   0.000000  0.000000  0.000000
 Perturbation : derivative vs k along direction   3
 The set of symmetries contains only one element for this perturbation.
 symkpt : not enough symmetry to change the number of k points.

-inwffil : will read wavefunctions from disk file /scratch/users/j/a/jabreu/flow_simple_4atoms/flow/w149/t1/indata/in_WFK

 Initialisation of the first-order wave-functions :
  ireadwf=   0

--- !BeginCycle
iteration_state: {dtset: 1, }
solver: {iscf: 7, nstep: 100, nline: 4, wfoptalg: 0, }
tolerances: {tolwfr: 1.00E-20, }
...

     iter   2DEtotal(Ha)        deltaE(Ha) residm    vres2
-ETOT  1  -66.212491446941     -6.621E+01 3.311E-02 0.000E+00
 ETOT  2  -66.232907842339     -2.042E-02 3.536E-04 0.000E+00
 ETOT  3  -66.232918811526     -1.097E-05 1.715E-06 0.000E+00
 ETOT  4  -66.232918852918     -4.139E-08 2.458E-07 0.000E+00
 ETOT  5  -66.232918853327     -4.086E-10 1.444E-09 0.000E+00
 ETOT  6  -66.232918853333     -5.699E-12 2.571E-10 0.000E+00
 ETOT  7  -66.232918853333     -5.684E-14 1.543E-12 0.000E+00
 ETOT  8  -66.232918853333      5.684E-14 2.784E-13 0.000E+00
 ETOT  9  -66.232918853333      1.421E-14 1.656E-15 0.000E+00
 ETOT 10  -66.232918853333      4.263E-14 3.034E-16 0.000E+00
 ETOT 11  -66.232918853333      1.421E-14 1.803E-18 0.000E+00
 ETOT 12  -66.232918853333      0.000E+00 3.317E-19 0.000E+00
 ETOT 13  -66.232918853333     -1.421E-14 9.655E-21 0.000E+00

 At SCF step   13   max residual=  9.65E-21 < tolwfr=  1.00E-20 =>converged.

 ----iterations are completed or convergence reached----

 dfpt_looppert: DFPT cycle converged with prtwf=-1. Will skip output of the 1st-order WFK file.
 dfpt_looppert : ek2=    5.4518838083E+01
          f-sum rule ratio=    1.5465900798E+00
 prteigrs : about to open file /scratch/users/j/a/jabreu/flow_simple_4atoms/flow/w149/t1/tmpdata/tmp_1WF1_EIG
 Expectation of eigenvalue derivatives (hartree) for nkpt=   2  k points:
  (in case of degenerate eigenvalues, averaged derivative)
 kpt#   1, nband= 32, wtk=  0.50000, kpt=  0.1538  0.0000  0.1538 (reduced coord)
   0.00003   -0.00003    0.00002    0.00003    0.00003   -0.00001    0.00001   -0.00017
  -0.00017    0.00096   -0.00114    0.00012    0.00012   -0.00052    0.00069    0.00069
  -0.00161    0.00039    0.04239   -0.06411   -0.05887   -0.05887    0.00868   -0.11756
   0.02504    0.02504   -0.09004    0.18624    0.18624    0.05560    0.05147    0.19044
 prteigrs : prtvol=0 or 1, do not print more k-points.

 Eight components of 2nd-order total energy (hartree) are
 1,2,3: 0th-order hamiltonian combined with 1st-order wavefunctions
     kin0=   5.41806212E+01 eigvalue=   7.96608650E+00  local=  -2.77482528E+01
 4,5,6: 1st-order hamiltonian combined with 1st and 0th-order wfs
     kin1=  -8.43182941E+01  Hartree=   0.00000000E+00     xc=   0.00000000E+00
 7,8,9: eventually, occupation + non-local contributions
    edocc=   2.44354422E+01     enl0=   7.39902177E+00   enl1=  -4.81475436E+01
 1-9 gives the relaxation energy (to be shifted if some occ is /=2.0)
   erelax=  -6.62329189E+01
  No Ewald or frozen-wf contrib.: the relaxation energy is the total one
 2DEtotal=   -0.6623291885E+02 Ha. Also 2DEtotal=   -0.180228937909E+04 eV
    (  non-var. 2DEtotal :   -6.6232918853E+01 Ha)

 CALCULATION OF EFFECTIVE MASSES
 NOTE : Additional infos (eff. mass eigenvalues, eigenvectors and, if degenerate, average mass) are available in stdout.

 K-point ( 0.154, 0.000, 0.154) | band =    23
 Effective mass tensor:
             -2.0295434807             -0.5476326253              0.6707102496
             -0.5476326253             -1.6423087376             -0.9485275312
              0.6707102496             -0.9485275312             -1.2550739945
 Effective mass tensor eigenvalues:
             -2.4167782240             -2.4167782235             -0.0933697653
 Angular average effective mass 1/(<1/m>)=  -0.2600182177
 Angular average effective mass for Frohlich model (<m**0.5>)**2=  -0.5183231000
 Effective masses along directions: (cart. coord. / red. coord. -> eff. mass)
    1:   1.000000  0.000000  0.000000 /   0.948683  0.316228  0.000000 ->  -0.4695212207
    2:   0.000000  1.000000  0.000000 /   0.000000  1.000000  0.000000 ->  -0.2600182177
    3:   0.000000  0.000000  1.000000 /   0.408248  0.408248  0.816497 ->  -0.1797933958
    4:   0.577350  0.577350  0.577350 /   0.585539  0.688047  0.428644 ->  -0.7106333168
    5:   0.000000  0.707107  0.707107 /   0.289489  0.762222  0.578977 ->  -1.9981920685
    6:   0.707107  0.000000  0.707107 /   0.731423  0.422287  0.535439 ->  -0.1466667243
    7:   0.707107  0.707107  0.000000 /   0.616798  0.787122  0.000000 ->  -1.7825684851

 K-point ( 0.500, 0.500, 0.500) | band =    24
 Effective mass tensor:
              0.1090389420              0.0309480372              0.0758068997
              0.0309480372              0.0871553750              0.0536035729
              0.0758068997              0.0536035729              0.1965732100
 Effective mass tensor eigenvalues:
              0.0652718081              0.0652718081              0.2622239109
 Angular average effective mass 1/(<1/m>)=   0.0870710143
 Angular average effective mass for Frohlich model (<m**0.5>)**2=   0.0955284191
 Effective masses along directions: (cart. coord. / red. coord. -> eff. mass)
    1:   1.000000  0.000000  0.000000 /   0.948683  0.316228  0.000000 ->   0.0783488113
    2:   0.000000  1.000000  0.000000 /   0.000000  1.000000  0.000000 ->   0.0712149633
    3:   0.000000  0.000000  1.000000 /   0.408248  0.408248  0.816497 ->   0.1307325143
    4:   0.577350  0.577350  0.577350 /   0.585539  0.688047  0.428644 ->   0.1908809966
    5:   0.000000  0.707107  0.707107 /   0.289489  0.762222  0.578977 ->   0.1296380144
    6:   0.707107  0.000000  0.707107 /   0.731423  0.422287  0.535439 ->   0.1730921718
    7:   0.707107  0.707107  0.000000 /   0.616798  0.787122  0.000000 ->   0.0862473351

 END OF EFFECTIVE MASSES SECTION

 ---- first-order wavefunction calculations are completed ----

 Total localisation tensor (bohr^2) in cartesian coordinates
  WARNING : still subject to testing - especially symmetries.
      direction              matrix element
   alpha     beta       real part   imaginary part
     1        1      13.0951691178    0.0000000000
     1        2       3.7038731679    0.0000000000
     1        3       9.0725993042    0.0000000000
     2        1       3.7038731679    0.0000000000
     2        2      10.4761353349    0.0000000000
     2        3       6.4152965117    0.0000000000
     3        1       9.0725993042    0.0000000000
     3        2       6.4152965117    0.0000000000
     3        3      23.5713043693    0.0000000000

 respfn : d/dk was computed, but no 2DTE, so no DDB output.

== END DATASET(S) ==============================================================

 -outvars: echo values of variables after computation  --------
            acell      1.0000000000E+00  1.0000000000E+00  1.0000000000E+00 Bohr
              amu      2.29897680E+01  2.04383300E+02  1.21753000E+02
             ecut      4.40000000E+01 Hartree
           etotal     -6.6232918853E+01
            fcart      0.0000000000E+00  0.0000000000E+00  0.0000000000E+00
                       0.0000000000E+00  0.0000000000E+00  0.0000000000E+00
                       0.0000000000E+00  0.0000000000E+00  0.0000000000E+00
                       0.0000000000E+00  0.0000000000E+00  0.0000000000E+00
-          fftalg         512
           irdden           1
           irdwfk           1
           istwfk        0    1
              ixc     -116133
              kpt      1.53846154E-01  0.00000000E+00  1.53846154E-01
                       5.00000000E-01  5.00000000E-01  5.00000000E-01
           kptopt           0
P           mkmem           2
P          mkqmem           2
P          mk1mem           2
            natom           4
            nband          32
           nbdbuf           4
            ngfft          60      60      60
             nkpt           2
            nstep         100
             nsym          48
           ntypat           3
              occ      2.000000  2.000000  2.000000  2.000000  2.000000  2.000000
                       2.000000  2.000000  2.000000  2.000000  2.000000  2.000000
                       2.000000  2.000000  2.000000  2.000000  2.000000  2.000000
                       2.000000  2.000000  2.000000  2.000000  2.000000  0.000000
                       0.000000  0.000000  0.000000  0.000000  0.000000  0.000000
                       0.000000  0.000000
        optdriver           1
            prtwf          -1
            rfdir           1       1       1
           rfelfd           2
            rprim      8.6571859812E+00  0.0000000000E+00  4.9982286567E+00
                       2.8857286604E+00  8.1620732178E+00  4.9982286567E+00
                       0.0000000000E+00  0.0000000000E+00  9.9964573134E+00
          spgroup         225
           strten      0.0000000000E+00  0.0000000000E+00  0.0000000000E+00
                       0.0000000000E+00  0.0000000000E+00  0.0000000000E+00
           symrel      1  0  0   0  1  0   0  0  1      -1  0  0   0 -1  0   0  0 -1
                       0 -1  1   0 -1  0   1 -1  0       0  1 -1   0  1  0  -1  1  0
                      -1  0  0  -1  0  1  -1  1  0       1  0  0   1  0 -1   1 -1  0
                       0  1 -1   1  0 -1   0  0 -1       0 -1  1  -1  0  1   0  0  1
                      -1  0  0  -1  1  0  -1  0  1       1  0  0   1 -1  0   1  0 -1
                       0 -1  1   1 -1  0   0 -1  0       0  1 -1  -1  1  0   0  1  0
                       1  0  0   0  0  1   0  1  0      -1  0  0   0  0 -1   0 -1  0
                       0  1 -1   0  0 -1   1  0 -1       0 -1  1   0  0  1  -1  0  1
                      -1  0  1  -1  1  0  -1  0  0       1  0 -1   1 -1  0   1  0  0
                       0 -1  0   1 -1  0   0 -1  1       0  1  0  -1  1  0   0  1 -1
                       1  0 -1   0  0 -1   0  1 -1      -1  0  1   0  0  1   0 -1  1
                       0  1  0   0  0  1   1  0  0       0 -1  0   0  0 -1  -1  0  0
                       1  0 -1   0  1 -1   0  0 -1      -1  0  1   0 -1  1   0  0  1
                       0 -1  0   0 -1  1   1 -1  0       0  1  0   0  1 -1  -1  1  0
                      -1  0  1  -1  0  0  -1  1  0       1  0 -1   1  0  0   1 -1  0
                       0  1  0   1  0  0   0  0  1       0 -1  0  -1  0  0   0  0 -1
                       0  0 -1   0  1 -1   1  0 -1       0  0  1   0 -1  1  -1  0  1
                       1 -1  0   0 -1  1   0 -1  0      -1  1  0   0  1 -1   0  1  0
                       0  0  1   1  0  0   0  1  0       0  0 -1  -1  0  0   0 -1  0
                      -1  1  0  -1  0  0  -1  0  1       1 -1  0   1  0  0   1  0 -1
                       0  0  1   0  1  0   1  0  0       0  0 -1   0 -1  0  -1  0  0
                       1 -1  0   0 -1  0   0 -1  1      -1  1  0   0  1  0   0  1 -1
                       0  0 -1   1  0 -1   0  1 -1       0  0  1  -1  0  1   0 -1  1
                      -1  1  0  -1  0  1  -1  0  0       1 -1  0   1  0 -1   1  0  0
           tolwfr      1.00000000E-20
            typat      1  1  2  3
           useylm           1
              wtk        0.50000    0.50000
           xangst      1.5270618373E+00  1.0797957804E+00  2.6449486884E+00
                       4.5811855118E+00  3.2393873413E+00  7.9348460653E+00
                       0.0000000000E+00  0.0000000000E+00  0.0000000000E+00
                       3.0541236745E+00  2.1595915609E+00  5.2898973769E+00
            xcart      2.8857286604E+00  2.0405183044E+00  4.9982286567E+00
                       8.6571859812E+00  6.1215549133E+00  1.4994685970E+01
                       0.0000000000E+00  0.0000000000E+00  0.0000000000E+00
                       5.7714573208E+00  4.0810366089E+00  9.9964573134E+00
             xred      2.5000000000E-01  2.5000000000E-01  2.5000000000E-01
                       7.5000000000E-01  7.5000000000E-01  7.5000000000E-01
                       0.0000000000E+00  0.0000000000E+00  0.0000000000E+00
                       5.0000000000E-01  5.0000000000E-01  5.0000000000E-01
            znucl       11.00000   81.00000   51.00000

- Timing analysis has been suppressed with timopt=0

 Suggested references for the acknowledgment of ABINIT usage.

 Calculation completed.
.Delivered  14 WARNINGs and   9 COMMENTs to log file.