.Version 9.5.1 of ABINIT

 ABINIT is a project of the Universite Catholique de Louvain,
 Corning Inc. and other collaborators, see ~abinit/doc/developers/contributors.txt .
 acknowledgments of the ABINIT effort.

.Starting date : Tue 27 Apr 2021.
- ( at 18h38 )

- input  file    -> /scratch/users/j/a/jabreu/flow_simple_4atoms/flow/w217/t1/run.abi
- output file    -> /scratch/users/j/a/jabreu/flow_simple_4atoms/flow/w217/t1/run.abo
- root for input  files -> /scratch/users/j/a/jabreu/flow_simple_4atoms/flow/w217/t1/indata/in
- root for output files -> /scratch/users/j/a/jabreu/flow_simple_4atoms/flow/w217/t1/outdata/out

 Symmetries : space group R-3 m (#166); Bravais hR (rhombohedral)
     intxc =       0      iscf =       7    lmnmax =      18     lnmax =       6
     mgfft =      80  mpssoang =       3    mqgrid =    3001     natom =       4
  nloc_mem =       1    nspden =       1   nspinor =       1    nsppol =       1
      nsym =      12    n1xccc =    2501    ntypat =       3    occopt =       1
   xclevel =       2
-    mband =          26        mffmem =           1         mkmem =           2
-   mkqmem =           2        mk1mem =           2           mpw =        6280
      nfft =      512000          nkpt =           2
  Rough estimation (10% accuracy) of disk space for files :

------------- Echo of variables that govern the present computation ------------
-
- outvars: echo of selected default values
-   iomode0 =  0 , fftalg0 =512 , wfoptalg0 =  0
-
- outvars: echo of global parameters not present in the input file
-  max_nthreads =    0
-
 -outvars: echo values of preprocessed input variables --------
            acell      1.0000000000E+00  1.0000000000E+00  1.0000000000E+00 Bohr
              amu      8.54678000E+01  2.04383300E+02  1.59994000E+01
             ecut      4.40000000E+01 Hartree
-          fftalg         512
           irdden           1
           irdwfk           1
           istwfk        1    1
              ixc     -116133
              kpt      5.00000000E-01 -2.77555756E-17 -2.77555756E-17
                       0.00000000E+00  0.00000000E+00  0.00000000E+00
           kptopt           0
P           mkmem           2
P          mkqmem           2
P          mk1mem           2
            natom           4
            nband          26
           nbdbuf           4
            ngfft          80      80      80
             nkpt           2
            nstep         100
             nsym          12
           ntypat           3
              occ      2.000000  2.000000  2.000000  2.000000  2.000000  2.000000
                       2.000000  2.000000  2.000000  2.000000  2.000000  2.000000
                       2.000000  2.000000  2.000000  2.000000  2.000000  0.000000
                       0.000000  0.000000  0.000000  0.000000  0.000000  0.000000
                       0.000000  0.000000
        optdriver           1
            prtwf          -1
            rfdir           1       1       1
           rfelfd           2
            rprim      6.3545750991E+00  0.0000000000E+00  1.0827502756E+01
                       2.9426128972E+00  5.6321979748E+00  1.0827502756E+01
                       0.0000000000E+00  0.0000000000E+00  1.2554498820E+01
          spgroup         166
           symrel      1  0  0   0  1  0   0  0  1      -1  0  0   0 -1  0   0  0 -1
                       0  1  0   1  0  0   0  0  1       0 -1  0  -1  0  0   0  0 -1
                       0  0  1   1  0  0   0  1  0       0  0 -1  -1  0  0   0 -1  0
                       1  0  0   0  0  1   0  1  0      -1  0  0   0  0 -1   0 -1  0
                       0  1  0   0  0  1   1  0  0       0 -1  0   0  0 -1  -1  0  0
                       0  0  1   0  1  0   1  0  0       0  0 -1   0 -1  0  -1  0  0
           tolwfr      1.00000000E-20
            typat      1  2  3  3
           useylm           1
              wtk        0.50000    0.50000
           xangst      2.4599299958E+00  1.4902154013E+00  9.0514450051E+00
                       0.0000000000E+00  0.0000000000E+00  0.0000000000E+00
                       1.3340397162E+00  8.0815573383E-01  4.9086710378E+00
                       3.5858202755E+00  2.1722750687E+00  1.3194218972E+01
            xcart      4.6485939981E+00  2.8160989874E+00  1.7104752166E+01
                       0.0000000000E+00  0.0000000000E+00  0.0000000000E+00
                       2.5209697139E+00  1.5271930097E+00  9.2760439379E+00
                       6.7762182824E+00  4.1050049651E+00  2.4933460395E+01
             xred      5.0000000000E-01  5.0000000000E-01  5.0000000000E-01
                       0.0000000000E+00  0.0000000000E+00  0.0000000000E+00
                       2.7115400000E-01  2.7115400000E-01  2.7115400000E-01
                       7.2884600000E-01  7.2884600000E-01  7.2884600000E-01
            znucl       37.00000   81.00000    8.00000

 chkinp: Checking input parameters for consistency.

== DATASET  1 ==================================================================
-   mpi_nproc: 1, omp_nthreads: -1 (-1 if OMP is not activated)

--- !DatasetInfo
iteration_state: {dtset: 1, }
dimensions: {natom: 4, nkpt: 2, mband: 26, nsppol: 1, nspinor: 1, nspden: 1, mpw: 6280, }
cutoff_energies: {ecut:  44.0, pawecutdg:  -1.0, }
electrons: {nelect:   3.40000000E+01, charge:   0.00000000E+00, occopt:   1.00000000E+00, tsmear:   1.00000000E-02, }
meta: {optdriver: 1, rfelfd: 2, }
...

 Real(R)+Recip(G) space primitive vectors, cartesian coordinates (Bohr,Bohr^-1):
 R(1)=  6.3545751  0.0000000 10.8275028  G(1)=  0.1573669 -0.0822183  0.0000000
 R(2)=  2.9426129  5.6321980 10.8275028  G(2)=  0.0000000  0.1775506  0.0000000
 R(3)=  0.0000000  0.0000000 12.5544988  G(3)= -0.1357195 -0.0822183  0.0796527
 Unit cell volume ucvol=  4.4932834E+02 bohr^3
 Angles (23,13,12)=  3.04083330E+01  3.04083330E+01  3.04083330E+01 degrees

 getcut: wavevector=  0.0000  0.0000  0.0000  ngfft=  80  80  80
         ecut(hartree)=     44.000   => boxcut(ratio)=   2.13490

--- Pseudopotential description ------------------------------------------------
- pspini: atom type   1  psp file is /scratch/users/j/a/jabreu/pseudos/PBEsol/Rb.psp8
- pspatm: opening atomic psp file    /scratch/users/j/a/jabreu/pseudos/PBEsol/Rb.psp8
- Rb    ONCVPSP-3.3.0  r_core=   1.71227   1.75361   1.90633
- 37.00000   9.00000    180112                znucl, zion, pspdat
    8 -116133    2    4       600   0.00000   pspcod,pspxc,lmax,lloc,mmax,r2well
    5.99000000000000    7.00000000000000    0.00000000000000   rchrg,fchrg,qchrg
     nproj     2     2     2
     extension_switch     1
  pspatm : epsatm=   34.48400912
         --- l  ekb(1:nproj) -->
             0    8.196957   -0.477221
             1    3.231347   -0.378736
             2   -1.047201    0.996637
 pspatm: atomic psp has been read  and splines computed

- pspini: atom type   2  psp file is /scratch/users/j/a/jabreu/pseudos/PBEsol/Tl.psp8
- pspatm: opening atomic psp file    /scratch/users/j/a/jabreu/pseudos/PBEsol/Tl.psp8
- Tl    ONCVPSP-3.3.0  r_core=   2.10510   2.60929   2.00701
- 81.00000  13.00000    180112                znucl, zion, pspdat
    8 -116133    2    4       600   0.00000   pspcod,pspxc,lmax,lloc,mmax,r2well
    5.99000000000000    7.00000000000000    0.00000000000000   rchrg,fchrg,qchrg
     nproj     2     2     2
     extension_switch     1
  pspatm : epsatm=   37.24354552
         --- l  ekb(1:nproj) -->
             0    6.297242    0.908324
             1    4.393460    0.899003
             2   -2.697741   -0.589563
 pspatm: atomic psp has been read  and splines computed

- pspini: atom type   3  psp file is /scratch/users/j/a/jabreu/pseudos/PBEsol/O.psp8
- pspatm: opening atomic psp file    /scratch/users/j/a/jabreu/pseudos/PBEsol/O.psp8
- O     ONCVPSP-3.3.0  r_core=   1.35509   1.45563   1.26150
-  8.00000   6.00000    180112                znucl, zion, pspdat
    8 -116133    2    4       600   0.00000   pspcod,pspxc,lmax,lloc,mmax,r2well
    5.99000000000000    4.00000000000000    0.00000000000000   rchrg,fchrg,qchrg
     nproj     2     2     1
     extension_switch     1
  pspatm : epsatm=    6.22910522
         --- l  ekb(1:nproj) -->
             0    6.050032    0.820363
             1   -4.739617   -1.153841
             2   -1.335834
 pspatm: atomic psp has been read  and splines computed

   2.86231601E+03                                ecore*ucvol(ha*bohr**3)

-inwffil : will read wavefunctions from disk file /scratch/users/j/a/jabreu/flow_simple_4atoms/flow/w217/t1/indata/in_WFK

 ==>  initialize data related to q vector <==

 The list of irreducible perturbations for this q vector is:
    1)    idir= 1    ipert=   5
    2)    idir= 2    ipert=   5
    3)    idir= 3    ipert=   5

 Perturbation wavevector (in red.coord.)   0.000000  0.000000  0.000000
 Perturbation : derivative vs k along direction   1

 dfpt_looppert : COMMENT -
  In a d/dk calculation, iscf is set to -3 automatically.
 The set of symmetries contains only one element for this perturbation.
 symkpt : not enough symmetry to change the number of k points.

[...]

 Initialisation of the first-order wave-functions :
  ireadwf=   0

--- !BeginCycle
iteration_state: {dtset: 1, }
solver: {iscf: 7, nstep: 100, nline: 4, wfoptalg: 0, }
tolerances: {tolwfr: 1.00E-20, }
...

     iter   2DEtotal(Ha)        deltaE(Ha) residm    vres2
-ETOT  1  -66.558095887818     -6.656E+01 3.177E-01 0.000E+00
 ETOT  2  -66.592120532429     -3.402E-02 1.351E-03 0.000E+00
 ETOT  3  -66.592200397576     -7.987E-05 1.644E-04 0.000E+00
 ETOT  4  -66.592201013730     -6.162E-07 3.066E-05 0.000E+00
 ETOT  5  -66.592201021473     -7.743E-09 4.270E-06 0.000E+00
 ETOT  6  -66.592201021587     -1.133E-10 6.310E-07 0.000E+00
 ETOT  7  -66.592201021588     -1.748E-12 1.527E-07 0.000E+00
 ETOT  8  -66.592201021588      4.263E-14 2.379E-08 0.000E+00
 ETOT  9  -66.592201021588     -1.421E-14 1.060E-08 0.000E+00
 ETOT 10  -66.592201021588      1.421E-14 1.134E-09 0.000E+00
 ETOT 11  -66.592201021588     -2.842E-14 5.933E-10 0.000E+00
 ETOT 12  -66.592201021588      0.000E+00 6.225E-11 0.000E+00
 ETOT 13  -66.592201021588      0.000E+00 3.378E-11 0.000E+00
 ETOT 14  -66.592201021588      0.000E+00 3.471E-12 0.000E+00
 ETOT 15  -66.592201021588      1.421E-14 1.943E-12 0.000E+00
 ETOT 16  -66.592201021588      1.421E-14 1.957E-13 0.000E+00
 ETOT 17  -66.592201021588      0.000E+00 1.125E-13 0.000E+00
 ETOT 18  -66.592201021588     -2.842E-14 1.113E-14 0.000E+00
 ETOT 19  -66.592201021588      0.000E+00 6.543E-15 0.000E+00
 ETOT 20  -66.592201021588      0.000E+00 6.370E-16 0.000E+00
 ETOT 21  -66.592201021588      0.000E+00 3.815E-16 0.000E+00
 ETOT 22  -66.592201021588      0.000E+00 3.662E-17 0.000E+00
 ETOT 23  -66.592201021588      0.000E+00 2.228E-17 0.000E+00
 ETOT 24  -66.592201021588      0.000E+00 2.113E-18 0.000E+00
 ETOT 25  -66.592201021588      0.000E+00 1.302E-18 0.000E+00
 ETOT 26  -66.592201021588      0.000E+00 1.222E-19 0.000E+00
 ETOT 27  -66.592201021588      0.000E+00 7.611E-20 0.000E+00
 ETOT 28  -66.592201021588      2.842E-14 9.738E-21 0.000E+00

 At SCF step   28   max residual=  9.74E-21 < tolwfr=  1.00E-20 =>converged.

 ----iterations are completed or convergence reached----

 dfpt_looppert: DFPT cycle converged with prtwf=-1. Will skip output of the 1st-order WFK file.
 dfpt_looppert : ek2=    8.4627756005E+01
          f-sum rule ratio=    1.1023675214E+00
 prteigrs : about to open file /scratch/users/j/a/jabreu/flow_simple_4atoms/flow/w217/t1/tmpdata/tmp_1WF1_EIG
 Expectation of eigenvalue derivatives (hartree) for nkpt=   2  k points:
  (in case of degenerate eigenvalues, averaged derivative)
 kpt#   1, nband= 26, wtk=  0.50000, kpt=  0.5000  0.0000  0.0000 (reduced coord)
  -0.00000    0.00000    0.00000   -0.00000    0.00000   -0.00000    0.00000   -0.00000
  -0.00000   -0.00000    0.00000   -0.00000   -0.00000   -0.00000   -0.00000    0.00000
   0.00000    0.00000    0.00000   -0.00000    0.00000    0.00000   -0.00000    0.00000
  -0.00131   -0.00004
 prteigrs : prtvol=0 or 1, do not print more k-points.

 Eight components of 2nd-order total energy (hartree) are
 1,2,3: 0th-order hamiltonian combined with 1st-order wavefunctions
     kin0=   6.95728374E+01 eigvalue=   3.09477346E+00  local=  -3.06419526E+01
 4,5,6: 1st-order hamiltonian combined with 1st and 0th-order wfs
     kin1=  -9.32908896E+01  Hartree=   0.00000000E+00     xc=   0.00000000E+00
 7,8,9: eventually, occupation + non-local contributions
    edocc=   2.04426988E+01     enl0=   4.12384393E+00   enl1=  -3.98935124E+01
 1-9 gives the relaxation energy (to be shifted if some occ is /=2.0)
   erelax=  -6.65922010E+01
  No Ewald or frozen-wf contrib.: the relaxation energy is the total one
 2DEtotal=   -0.6659220102E+02 Ha. Also 2DEtotal=   -0.181206594408E+04 eV
    (  non-var. 2DEtotal :   -6.6592201021E+01 Ha)

 Perturbation wavevector (in red.coord.)   0.000000  0.000000  0.000000
 Perturbation : derivative vs k along direction   2
 The set of symmetries contains only one element for this perturbation.
 symkpt : not enough symmetry to change the number of k points.

[...]

 Perturbation wavevector (in red.coord.)   0.000000  0.000000  0.000000
 Perturbation : derivative vs k along direction   3
 The set of symmetries contains only one element for this perturbation.
 symkpt : not enough symmetry to change the number of k points.

-inwffil : will read wavefunctions from disk file /scratch/users/j/a/jabreu/flow_simple_4atoms/flow/w217/t1/indata/in_WFK

 Initialisation of the first-order wave-functions :
  ireadwf=   0

--- !BeginCycle
iteration_state: {dtset: 1, }
solver: {iscf: 7, nstep: 100, nline: 4, wfoptalg: 0, }
tolerances: {tolwfr: 1.00E-20, }
...

     iter   2DEtotal(Ha)        deltaE(Ha) residm    vres2
-ETOT  1  -70.166407870881     -7.017E+01 6.546E-01 0.000E+00
 ETOT  2  -70.223692754724     -5.728E-02 4.282E-02 0.000E+00
 ETOT  3  -70.223922110195     -2.294E-04 4.148E-03 0.000E+00
 ETOT  4  -70.223924392213     -2.282E-06 7.033E-04 0.000E+00
 ETOT  5  -70.223924423180     -3.097E-08 1.456E-04 0.000E+00
 ETOT  6  -70.223924423631     -4.517E-10 3.251E-05 0.000E+00
 ETOT  7  -70.223924423638     -6.821E-12 1.288E-05 0.000E+00
 ETOT  8  -70.223924423638     -1.563E-13 2.170E-06 0.000E+00
 ETOT  9  -70.223924423638      5.684E-14 8.668E-07 0.000E+00
 ETOT 10  -70.223924423638      1.421E-14 1.508E-07 0.000E+00
 ETOT 11  -70.223924423638      0.000E+00 6.067E-08 0.000E+00
 ETOT 12  -70.223924423638      1.421E-14 1.066E-08 0.000E+00
 ETOT 13  -70.223924423638     -1.421E-14 4.330E-09 0.000E+00
 ETOT 14  -70.223924423638     -1.421E-14 7.608E-10 0.000E+00
 ETOT 15  -70.223924423638      2.842E-14 3.127E-10 0.000E+00
 ETOT 16  -70.223924423638     -2.842E-14 5.459E-11 0.000E+00
 ETOT 17  -70.223924423638      0.000E+00 2.277E-11 0.000E+00
 ETOT 18  -70.223924423638      0.000E+00 3.933E-12 0.000E+00
 ETOT 19  -70.223924423638      1.421E-14 1.667E-12 0.000E+00
 ETOT 20  -70.223924423638     -1.421E-14 2.846E-13 0.000E+00
 ETOT 21  -70.223924423638      0.000E+00 1.226E-13 0.000E+00
 ETOT 22  -70.223924423638      0.000E+00 2.067E-14 0.000E+00
 ETOT 23  -70.223924423638     -1.421E-14 9.035E-15 0.000E+00
 ETOT 24  -70.223924423638      2.842E-14 1.507E-15 0.000E+00
 ETOT 25  -70.223924423638     -1.421E-14 6.671E-16 0.000E+00
 ETOT 26  -70.223924423638     -1.421E-14 1.103E-16 0.000E+00
 ETOT 27  -70.223924423638      2.842E-14 4.930E-17 0.000E+00
 ETOT 28  -70.223924423638      0.000E+00 8.099E-18 0.000E+00
 ETOT 29  -70.223924423638     -1.421E-14 3.646E-18 0.000E+00
 ETOT 30  -70.223924423638      0.000E+00 5.960E-19 0.000E+00
 ETOT 31  -70.223924423638      0.000E+00 2.698E-19 0.000E+00
 ETOT 32  -70.223924423638      0.000E+00 4.395E-20 0.000E+00
 ETOT 33  -70.223924423638      0.000E+00 1.998E-20 0.000E+00
 ETOT 34  -70.223924423638      1.421E-14 9.743E-21 0.000E+00

 At SCF step   34   max residual=  9.74E-21 < tolwfr=  1.00E-20 =>converged.

 ----iterations are completed or convergence reached----

 dfpt_looppert: DFPT cycle converged with prtwf=-1. Will skip output of the 1st-order WFK file.
 dfpt_looppert : ek2=    8.4627756003E+01
          f-sum rule ratio=    1.1935662890E+00
 prteigrs : about to open file /scratch/users/j/a/jabreu/flow_simple_4atoms/flow/w217/t1/tmpdata/tmp_1WF1_EIG
 Expectation of eigenvalue derivatives (hartree) for nkpt=   2  k points:
  (in case of degenerate eigenvalues, averaged derivative)
 kpt#   1, nband= 26, wtk=  0.50000, kpt=  0.5000  0.0000  0.0000 (reduced coord)
   0.00000   -0.00000    0.00000    0.00000   -0.00000    0.00000   -0.00000   -0.00000
   0.00000    0.00000    0.00000    0.00000   -0.00000   -0.00000    0.00000    0.00000
   0.00000   -0.00000   -0.00000    0.00000   -0.00000    0.00000   -0.00000   -0.00000
   0.00105   -0.00031
 prteigrs : prtvol=0 or 1, do not print more k-points.

 Eight components of 2nd-order total energy (hartree) are
 1,2,3: 0th-order hamiltonian combined with 1st-order wavefunctions
     kin0=   6.89251075E+01 eigvalue=   3.03364298E+00  local=  -3.04484364E+01
 4,5,6: 1st-order hamiltonian combined with 1st and 0th-order wfs
     kin1=  -1.01008837E+02  Hartree=   0.00000000E+00     xc=   0.00000000E+00
 7,8,9: eventually, occupation + non-local contributions
    edocc=   2.45840718E+01     enl0=   4.12953864E+00   enl1=  -3.94390122E+01
 1-9 gives the relaxation energy (to be shifted if some occ is /=2.0)
   erelax=  -7.02239244E+01
  No Ewald or frozen-wf contrib.: the relaxation energy is the total one
 2DEtotal=   -0.7022392442E+02 Ha. Also 2DEtotal=   -0.191089016365E+04 eV
    (  non-var. 2DEtotal :   -7.0223924423E+01 Ha)

 CALCULATION OF EFFECTIVE MASSES
 NOTE : Additional infos (eff. mass eigenvalues, eigenvectors and, if degenerate, average mass) are available in stdout.

 K-point ( 0.500,-0.000,-0.000) | band =    17
 Effective mass tensor:
             -8.3220215453              3.5957829444             -1.5529386034
              3.5957829444             -2.3101431418              0.3158107939
             -1.5529386034              0.3158107939             -2.1446084121
 Effective mass tensor eigenvalues:
            -10.2945222958             -1.9539349293             -0.5283158740
 Angular average effective mass 1/(<1/m>)=  -1.1991683346
 Angular average effective mass for Frohlich model (<m**0.5>)**2=  -1.6654023532
 Effective masses along directions: (cart. coord. / red. coord. -> eff. mass)
    1:   1.000000  0.000000  0.000000 /   0.907430  0.420204  0.000000 ->  -2.1890469480
    2:   0.000000  1.000000  0.000000 /   0.000000  1.000000  0.000000 ->  -0.6884606923
    3:   0.000000  0.000000  1.000000 /   0.546812  0.546812  0.634029 ->  -1.6880535138
    4:   0.577350  0.577350  0.577350 /   0.596654  0.673753  0.435960 ->  -1.0552214315
    5:   0.000000  0.707107  0.707107 /   0.463471  0.704557  0.537395 ->  -1.3435232476
    6:   0.707107  0.000000  0.707107 /   0.677882  0.543270  0.495311 ->  -3.4027166846
    7:   0.707107  0.707107  0.000000 /   0.595401  0.803429  0.000000 ->  -0.6119295529

 K-point ( 0.000, 0.000, 0.000) | band =    18
 Effective mass tensor:
              0.2668078692              0.0006704117              0.0038823699
              0.0006704117              0.2662511752              0.0023351320
              0.0038823699              0.0023351320              0.2801193227
 Effective mass tensor eigenvalues:
              0.2657466054              0.2658772792              0.2815544825
 Angular average effective mass 1/(<1/m>)=   0.2708601271
 Angular average effective mass for Frohlich model (<m**0.5>)**2=   0.2709193074
 Effective masses along directions: (cart. coord. / red. coord. -> eff. mass)
    1:   1.000000  0.000000  0.000000 /   0.907430  0.420204  0.000000 ->   0.2667525316
    2:   0.000000  1.000000  0.000000 /   0.000000  1.000000  0.000000 ->   0.2662301829
    3:   0.000000  0.000000  1.000000 /   0.546812  0.546812  0.634029 ->   0.2800425202
    4:   0.577350  0.577350  0.577350 /   0.596654  0.673753  0.435960 ->   0.2754386099
    5:   0.000000  0.707107  0.707107 /   0.463471  0.704557  0.537395 ->   0.2753054044
    6:   0.707107  0.000000  0.707107 /   0.677882  0.543270  0.495311 ->   0.2771651384
    7:   0.707107  0.707107  0.000000 /   0.595401  0.803429  0.000000 ->   0.2671306757

 END OF EFFECTIVE MASSES SECTION

 ---- first-order wavefunction calculations are completed ----

 Total localisation tensor (bohr^2) in cartesian coordinates
  WARNING : still subject to testing - especially symmetries.
      direction              matrix element
   alpha     beta       real part   imaginary part
     1        1       2.3296238491    0.0000000000
     1        2       0.8626170241    0.0000000000
     1        3       4.8598268697    0.0000000000
     2        1       0.8626170241    0.0000000000
     2        2       1.6510597981    0.0000000000
     2        3       3.1740458334    0.0000000000
     3        1       4.8598268697    0.0000000000
     3        2       3.1740458334    0.0000000000
     3        3      19.7602149959    0.0000000000

 respfn : d/dk was computed, but no 2DTE, so no DDB output.

== END DATASET(S) ==============================================================

 -outvars: echo values of variables after computation  --------
            acell      1.0000000000E+00  1.0000000000E+00  1.0000000000E+00 Bohr
              amu      8.54678000E+01  2.04383300E+02  1.59994000E+01
             ecut      4.40000000E+01 Hartree
           etotal     -7.0223924424E+01
            fcart      0.0000000000E+00  0.0000000000E+00  0.0000000000E+00
                       0.0000000000E+00  0.0000000000E+00  0.0000000000E+00
                       0.0000000000E+00  0.0000000000E+00  0.0000000000E+00
                       0.0000000000E+00  0.0000000000E+00  0.0000000000E+00
-          fftalg         512
           irdden           1
           irdwfk           1
           istwfk        1    1
              ixc     -116133
              kpt      5.00000000E-01 -2.77555756E-17 -2.77555756E-17
                       0.00000000E+00  0.00000000E+00  0.00000000E+00
           kptopt           0
P           mkmem           2
P          mkqmem           2
P          mk1mem           2
            natom           4
            nband          26
           nbdbuf           4
            ngfft          80      80      80
             nkpt           2
            nstep         100
             nsym          12
           ntypat           3
              occ      2.000000  2.000000  2.000000  2.000000  2.000000  2.000000
                       2.000000  2.000000  2.000000  2.000000  2.000000  2.000000
                       2.000000  2.000000  2.000000  2.000000  2.000000  0.000000
                       0.000000  0.000000  0.000000  0.000000  0.000000  0.000000
                       0.000000  0.000000
        optdriver           1
            prtwf          -1
            rfdir           1       1       1
           rfelfd           2
            rprim      6.3545750991E+00  0.0000000000E+00  1.0827502756E+01
                       2.9426128972E+00  5.6321979748E+00  1.0827502756E+01
                       0.0000000000E+00  0.0000000000E+00  1.2554498820E+01
          spgroup         166
           strten      0.0000000000E+00  0.0000000000E+00  0.0000000000E+00
                       0.0000000000E+00  0.0000000000E+00  0.0000000000E+00
           symrel      1  0  0   0  1  0   0  0  1      -1  0  0   0 -1  0   0  0 -1
                       0  1  0   1  0  0   0  0  1       0 -1  0  -1  0  0   0  0 -1
                       0  0  1   1  0  0   0  1  0       0  0 -1  -1  0  0   0 -1  0
                       1  0  0   0  0  1   0  1  0      -1  0  0   0  0 -1   0 -1  0
                       0  1  0   0  0  1   1  0  0       0 -1  0   0  0 -1  -1  0  0
                       0  0  1   0  1  0   1  0  0       0  0 -1   0 -1  0  -1  0  0
           tolwfr      1.00000000E-20
            typat      1  2  3  3
           useylm           1
              wtk        0.50000    0.50000
           xangst      2.4599299958E+00  1.4902154013E+00  9.0514450051E+00
                       0.0000000000E+00  0.0000000000E+00  0.0000000000E+00
                       1.3340397162E+00  8.0815573383E-01  4.9086710378E+00
                       3.5858202755E+00  2.1722750687E+00  1.3194218972E+01
            xcart      4.6485939981E+00  2.8160989874E+00  1.7104752166E+01
                       0.0000000000E+00  0.0000000000E+00  0.0000000000E+00
                       2.5209697139E+00  1.5271930097E+00  9.2760439379E+00
                       6.7762182824E+00  4.1050049651E+00  2.4933460395E+01
             xred      5.0000000000E-01  5.0000000000E-01  5.0000000000E-01
                       0.0000000000E+00  0.0000000000E+00  0.0000000000E+00
                       2.7115400000E-01  2.7115400000E-01  2.7115400000E-01
                       7.2884600000E-01  7.2884600000E-01  7.2884600000E-01
            znucl       37.00000   81.00000    8.00000

- Timing analysis has been suppressed with timopt=0

 Suggested references for the acknowledgment of ABINIT usage.

 Calculation completed.
.Delivered  14 WARNINGs and   9 COMMENTs to log file.