.Version 9.5.1 of ABINIT

 ABINIT is a project of the Universite Catholique de Louvain,
 Corning Inc. and other collaborators, see ~abinit/doc/developers/contributors.txt .
 acknowledgments of the ABINIT effort.

.Starting date : Sat  1 May 2021.
- ( at 04h39 )

- input  file    -> /scratch/users/j/a/jabreu/flow_simple_6atoms/flow/w142/t1/run.abi
- output file    -> /scratch/users/j/a/jabreu/flow_simple_6atoms/flow/w142/t1/run.abo
- root for input  files -> /scratch/users/j/a/jabreu/flow_simple_6atoms/flow/w142/t1/indata/in
- root for output files -> /scratch/users/j/a/jabreu/flow_simple_6atoms/flow/w142/t1/outdata/out

 Symmetries : space group P4/n m m (#129); Bravais tP (primitive tetrag.)
     intxc =       0      iscf =       7    lmnmax =      18     lnmax =       6
     mgfft =      75  mpssoang =       3    mqgrid =    3659     natom =       6
  nloc_mem =       1    nspden =       1   nspinor =       1    nsppol =       1
      nsym =      16    n1xccc =    2501    ntypat =       3    occopt =       1
   xclevel =       2
-    mband =          27        mffmem =           1         mkmem =           1
-   mkqmem =           1        mk1mem =           1           mpw =        9741
      nfft =      172800          nkpt =           1
  Rough estimation (10% accuracy) of disk space for files :

------------- Echo of variables that govern the present computation ------------
-
- outvars: echo of selected default values
-   iomode0 =  0 , fftalg0 =512 , wfoptalg0 =  0
-
- outvars: echo of global parameters not present in the input file
-  max_nthreads =    0
-
 -outvars: echo values of preprocessed input variables --------
            acell      1.0000000000E+00  1.0000000000E+00  1.0000000000E+00 Bohr
              amu      2.29897680E+01  6.94100000E+00  3.20660000E+01
             ecut      4.40000000E+01 Hartree
-          fftalg         512
           irdden           1
           irdwfk           1
           istwfk        1
              ixc     -116133
           kptopt           0
P           mkmem           1
P          mkqmem           1
P          mk1mem           1
            natom           6
            nband          27
           nbdbuf           4
            ngfft          48      48      75
             nkpt           1
            nstep        1000
             nsym          16
           ntypat           3
              occ      2.000000  2.000000  2.000000  2.000000  2.000000  2.000000
                       2.000000  2.000000  2.000000  2.000000  2.000000  2.000000
                       2.000000  2.000000  2.000000  2.000000  2.000000  2.000000
                       0.000000  0.000000  0.000000  0.000000  0.000000  0.000000
                       0.000000  0.000000  0.000000
        optdriver           1
            prtwf          -1
            rfdir           1       1       1
           rfelfd           2
            rprim      7.5461472787E+00  0.0000000000E+00  0.0000000000E+00
                       0.0000000000E+00  7.5461472787E+00  0.0000000000E+00
                       0.0000000000E+00  0.0000000000E+00  1.2251444405E+01
          spgroup         129
           symrel      1  0  0   0  1  0   0  0  1      -1  0  0   0 -1  0   0  0 -1
                      -1  0  0   0  1  0   0  0 -1       1  0  0   0 -1  0   0  0  1
                      -1  0  0   0 -1  0   0  0  1       1  0  0   0  1  0   0  0 -1
                       1  0  0   0 -1  0   0  0 -1      -1  0  0   0  1  0   0  0  1
                       0  1  0   1  0  0   0  0  1       0 -1  0  -1  0  0   0  0 -1
                       0 -1  0   1  0  0   0  0 -1       0  1  0  -1  0  0   0  0  1
                       0 -1  0  -1  0  0   0  0  1       0  1  0   1  0  0   0  0 -1
                       0  1  0  -1  0  0   0  0 -1       0 -1  0   1  0  0   0  0  1
            tnons      0.0000000  0.0000000  0.0000000     0.5000000  0.5000000 -0.0000000
                       0.5000000  0.5000000 -0.0000000     0.0000000  0.0000000  0.0000000
                      -0.0000000  0.0000000  0.0000000     0.5000000  0.5000000 -0.0000000
                       0.5000000  0.5000000 -0.0000000    -0.0000000  0.0000000  0.0000000
                       0.5000000  0.5000000  0.0000000     0.0000000 -0.0000000 -0.0000000
                       0.0000000 -0.0000000 -0.0000000     0.5000000  0.5000000  0.0000000
                       0.5000000  0.5000000  0.0000000     0.0000000  0.0000000 -0.0000000
                       0.0000000  0.0000000 -0.0000000     0.5000000  0.5000000  0.0000000
           tolwfr      1.00000000E-20
            typat      1  1  2  2  3  3
           useylm           1
           xangst      1.9966245763E+00  0.0000000000E+00  4.2111140161E+00
                       0.0000000000E+00  1.9966245763E+00  2.2720711355E+00
                       1.9966245763E+00  1.9966245763E+00  0.0000000000E+00
                       0.0000000000E+00  0.0000000000E+00  0.0000000000E+00
                       1.9966245763E+00  0.0000000000E+00  1.4023777802E+00
                       0.0000000000E+00  1.9966245763E+00  5.0808073715E+00
            xcart      3.7730736393E+00  0.0000000000E+00  7.9578522049E+00
                       0.0000000000E+00  3.7730736393E+00  4.2935922005E+00
                       3.7730736393E+00  3.7730736393E+00  0.0000000000E+00
                       0.0000000000E+00  0.0000000000E+00  0.0000000000E+00
                       3.7730736393E+00  0.0000000000E+00  2.6501099393E+00
                       0.0000000000E+00  3.7730736393E+00  9.6013344661E+00
             xred      5.0000000000E-01  0.0000000000E+00  6.4954400000E-01
                       0.0000000000E+00  5.0000000000E-01  3.5045600000E-01
                       5.0000000000E-01  5.0000000000E-01  0.0000000000E+00
                       0.0000000000E+00  0.0000000000E+00  0.0000000000E+00
                       5.0000000000E-01  0.0000000000E+00  2.1631000000E-01
                       0.0000000000E+00  5.0000000000E-01  7.8369000000E-01
            znucl       11.00000    3.00000   16.00000

 chkinp: Checking input parameters for consistency.

== DATASET  1 ==================================================================
-   mpi_nproc: 1, omp_nthreads: -1 (-1 if OMP is not activated)

--- !DatasetInfo
iteration_state: {dtset: 1, }
dimensions: {natom: 6, nkpt: 1, mband: 27, nsppol: 1, nspinor: 1, nspden: 1, mpw: 9741, }
cutoff_energies: {ecut:  44.0, pawecutdg:  -1.0, }
electrons: {nelect:   3.60000000E+01, charge:   0.00000000E+00, occopt:   1.00000000E+00, tsmear:   1.00000000E-02, }
meta: {optdriver: 1, rfelfd: 2, }
...

 Real(R)+Recip(G) space primitive vectors, cartesian coordinates (Bohr,Bohr^-1):
 R(1)=  7.5461473  0.0000000  0.0000000  G(1)=  0.1325180  0.0000000  0.0000000
 R(2)=  0.0000000  7.5461473  0.0000000  G(2)=  0.0000000  0.1325180  0.0000000
 R(3)=  0.0000000  0.0000000 12.2514444  G(3)=  0.0000000  0.0000000  0.0816230
 Unit cell volume ucvol=  6.9765040E+02 bohr^3
 Angles (23,13,12)=  9.00000000E+01  9.00000000E+01  9.00000000E+01 degrees

 getcut: wavevector=  0.0000  0.0000  0.0000  ngfft=  48  48  75
         ecut(hartree)=     44.000   => boxcut(ratio)=   2.02280

--- Pseudopotential description ------------------------------------------------
- pspini: atom type   1  psp file is /scratch/users/j/a/jabreu/pseudos/PBEsol/Na.psp8
- pspatm: opening atomic psp file    /scratch/users/j/a/jabreu/pseudos/PBEsol/Na.psp8
- Na    ONCVPSP-3.3.0  r_core=   1.20708   1.55069
- 11.00000   9.00000    180112                znucl, zion, pspdat
    8 -116133    1    4       400   0.00000   pspcod,pspxc,lmax,lloc,mmax,r2well
    3.99000000000000    0.00000000000000    0.00000000000000   rchrg,fchrg,qchrg
     nproj     2     2
     extension_switch     1
  pspatm : epsatm=    9.32878306
         --- l  ekb(1:nproj) -->
             0    2.657905   -0.678300
             1   -6.761319   -2.404728
 pspatm: atomic psp has been read  and splines computed

- pspini: atom type   2  psp file is /scratch/users/j/a/jabreu/pseudos/PBEsol/Li.psp8
- pspatm: opening atomic psp file    /scratch/users/j/a/jabreu/pseudos/PBEsol/Li.psp8
- Li    ONCVPSP-3.3.0  r_core=   1.40824   1.10935
-  3.00000   3.00000    180112                znucl, zion, pspdat
    8 -116133    1    4       400   0.00000   pspcod,pspxc,lmax,lloc,mmax,r2well
    3.99000000000000    0.00000000000000    0.00000000000000   rchrg,fchrg,qchrg
     nproj     2     2
     extension_switch     1
  pspatm : epsatm=    2.60859637
         --- l  ekb(1:nproj) -->
             0   -4.855856   -1.482423
             1   -2.171544   -0.427615
 pspatm: atomic psp has been read  and splines computed

- pspini: atom type   3  psp file is /scratch/users/j/a/jabreu/pseudos/PBEsol/S.psp8
- pspatm: opening atomic psp file    /scratch/users/j/a/jabreu/pseudos/PBEsol/S.psp8
- S     ONCVPSP-3.3.0  r_core=   1.45376   1.45376   1.61851
- 16.00000   6.00000    180112                znucl, zion, pspdat
    8 -116133    2    4       600   0.00000   pspcod,pspxc,lmax,lloc,mmax,r2well
    5.99000000000000    6.00000000000000    0.00000000000000   rchrg,fchrg,qchrg
     nproj     2     2     2
     extension_switch     1
  pspatm : epsatm=    8.71840985
         --- l  ekb(1:nproj) -->
             0    6.834532    0.579453
             1    3.282851    0.896984
             2   -3.496974   -0.974265
 pspatm: atomic psp has been read  and splines computed

   1.48721683E+03                                ecore*ucvol(ha*bohr**3)

-inwffil : will read wavefunctions from disk file /scratch/users/j/a/jabreu/flow_simple_6atoms/flow/w142/t1/indata/in_WFK

 ==>  initialize data related to q vector <==

 The list of irreducible perturbations for this q vector is:
    1)    idir= 1    ipert=   7
    2)    idir= 2    ipert=   7
    3)    idir= 3    ipert=   7

 Perturbation wavevector (in red.coord.)   0.000000  0.000000  0.000000
 Perturbation : derivative vs k along direction   1

 dfpt_looppert : COMMENT -
  In a d/dk calculation, iscf is set to -3 automatically.
 The set of symmetries contains only one element for this perturbation.
 symkpt : not enough symmetry to change the number of k points.

[...]

 Initialisation of the first-order wave-functions :
  ireadwf=   0

--- !BeginCycle
iteration_state: {dtset: 1, }
solver: {iscf: 7, nstep: 1000, nline: 4, wfoptalg: 0, }
tolerances: {tolwfr: 1.00E-20, }
...

     iter   2DEtotal(Ha)        deltaE(Ha) residm    vres2
-ETOT  1  -33.960065575418     -3.396E+01 2.057E-02 0.000E+00
 ETOT  2  -33.965841549002     -5.776E-03 7.912E-06 0.000E+00
 ETOT  3  -33.965843013247     -1.464E-06 5.674E-09 0.000E+00
 ETOT  4  -33.965843014289     -1.042E-09 1.184E-11 0.000E+00
 ETOT  5  -33.965843014290     -8.527E-13 1.857E-14 0.000E+00
 ETOT  6  -33.965843014290      1.421E-14 8.228E-17 0.000E+00
 ETOT  7  -33.965843014290      3.553E-14 1.780E-19 0.000E+00
 ETOT  8  -33.965843014290     -7.105E-15 8.640E-21 0.000E+00

 At SCF step    8   max residual=  8.64E-21 < tolwfr=  1.00E-20 =>converged.

 ----iterations are completed or convergence reached----

 dfpt_looppert: DFPT cycle converged with prtwf=-1. Will skip output of the 1st-order WFK file.
 dfpt_looppert : ek2=    4.9916218711E+01
          f-sum rule ratio=    1.2926891157E+00
 prteigrs : about to open file /scratch/users/j/a/jabreu/flow_simple_6atoms/flow/w142/t1/tmpdata/tmp_1WF1_EIG
 Expectation of eigenvalue derivatives (hartree) for nkpt=   1  k points:
  (in case of degenerate eigenvalues, averaged derivative)
 kpt#   1, nband= 27, wtk=  1.00000, kpt=  0.0000  0.0000  0.0000 (reduced coord)
   0.00000    0.00000    0.00000    0.00000   -0.00000   -0.00000   -0.00000   -0.00000
  -0.00000   -0.00000    0.00000   -0.00000   -0.00000   -0.00000   -0.00000   -0.00000
   0.00000    0.00000   -0.00000    0.00000    0.00000    0.00000    0.00000    0.00000
  -0.00000   -0.00000   -0.00214

 Eight components of 2nd-order total energy (hartree) are
 1,2,3: 0th-order hamiltonian combined with 1st-order wavefunctions
     kin0=   2.37003933E+01 eigvalue=   4.26133915E+00  local=  -8.83021822E+00
 4,5,6: 1st-order hamiltonian combined with 1st and 0th-order wfs
     kin1=  -6.45261526E+01  Hartree=   0.00000000E+00     xc=   0.00000000E+00
 7,8,9: eventually, occupation + non-local contributions
    edocc=   1.51403552E+01     enl0=  -3.06026372E-01   enl1=  -3.40553341E+00
 1-9 gives the relaxation energy (to be shifted if some occ is /=2.0)
   erelax=  -3.39658430E+01
  No Ewald or frozen-wf contrib.: the relaxation energy is the total one
 2DEtotal=   -0.3396584301E+02 Ha. Also 2DEtotal=   -0.924257592390E+03 eV
    (  non-var. 2DEtotal :   -3.3965843014E+01 Ha)

 Perturbation wavevector (in red.coord.)   0.000000  0.000000  0.000000
 Perturbation : derivative vs k along direction   2
 The set of symmetries contains only one element for this perturbation.
 symkpt : not enough symmetry to change the number of k points.

[...]

 Perturbation wavevector (in red.coord.)   0.000000  0.000000  0.000000
 Perturbation : derivative vs k along direction   3
 The set of symmetries contains only one element for this perturbation.
 symkpt : not enough symmetry to change the number of k points.

-inwffil : will read wavefunctions from disk file /scratch/users/j/a/jabreu/flow_simple_6atoms/flow/w142/t1/indata/in_WFK

 Initialisation of the first-order wave-functions :
  ireadwf=   0

--- !BeginCycle
iteration_state: {dtset: 1, }
solver: {iscf: 7, nstep: 1000, nline: 4, wfoptalg: 0, }
tolerances: {tolwfr: 1.00E-20, }
...

     iter   2DEtotal(Ha)        deltaE(Ha) residm    vres2
-ETOT  1  -11.342175478330     -1.134E+01 8.073E-03 0.000E+00
 ETOT  2  -11.344345987935     -2.171E-03 2.860E-06 0.000E+00
 ETOT  3  -11.344346608118     -6.202E-07 7.475E-09 0.000E+00
 ETOT  4  -11.344346608590     -4.723E-10 2.403E-11 0.000E+00
 ETOT  5  -11.344346608591     -6.501E-13 9.371E-14 0.000E+00
 ETOT  6  -11.344346608591     -1.421E-14 5.130E-16 0.000E+00
 ETOT  7  -11.344346608591     -7.105E-15 2.144E-18 0.000E+00
 ETOT  8  -11.344346608591      5.329E-15 1.593E-20 0.000E+00
 ETOT  9  -11.344346608591      1.776E-15 9.418E-21 0.000E+00

 At SCF step    9   max residual=  9.42E-21 < tolwfr=  1.00E-20 =>converged.

 ----iterations are completed or convergence reached----

 dfpt_looppert: DFPT cycle converged with prtwf=-1. Will skip output of the 1st-order WFK file.
 dfpt_looppert : ek2=    1.8937281978E+01
          f-sum rule ratio=    1.1224936511E+00
 prteigrs : about to open file /scratch/users/j/a/jabreu/flow_simple_6atoms/flow/w142/t1/tmpdata/tmp_1WF1_EIG
 Expectation of eigenvalue derivatives (hartree) for nkpt=   1  k points:
  (in case of degenerate eigenvalues, averaged derivative)
 kpt#   1, nband= 27, wtk=  1.00000, kpt=  0.0000  0.0000  0.0000 (reduced coord)
  -0.00000   -0.00000    0.00000   -0.00000   -0.00000    0.00000    0.00000    0.00000
   0.00000    0.00000    0.00000    0.00000    0.00000    0.00000    0.00000    0.00000
   0.00000    0.00000   -0.00000    0.00000   -0.00000   -0.00000   -0.00000   -0.00000
   0.00000   -0.00000   -0.00001

 Eight components of 2nd-order total energy (hartree) are
 1,2,3: 0th-order hamiltonian combined with 1st-order wavefunctions
     kin0=   9.28881635E+00 eigvalue=   1.61112066E+00  local=  -3.57884298E+00
 4,5,6: 1st-order hamiltonian combined with 1st and 0th-order wfs
     kin1=  -2.12569788E+01  Hartree=   0.00000000E+00     xc=   0.00000000E+00
 7,8,9: eventually, occupation + non-local contributions
    edocc=   4.06852107E+00     enl0=  -4.52684840E-02   enl1=  -1.43171443E+00
 1-9 gives the relaxation energy (to be shifted if some occ is /=2.0)
   erelax=  -1.13443466E+01
  No Ewald or frozen-wf contrib.: the relaxation energy is the total one
 2DEtotal=   -0.1134434661E+02 Ha. Also 2DEtotal=   -0.308695370207E+03 eV
    (  non-var. 2DEtotal :   -1.1344346609E+01 Ha)

 CALCULATION OF EFFECTIVE MASSES
 NOTE : Additional infos (eff. mass eigenvalues, eigenvectors and, if degenerate, average mass) are available in stdout.

 COMMENTS:
 - At k-point ( 0.000, 0.000, 0.000), bands    17 through    18
   are DEGENERATE (effective mass tensor is therefore not defined).
   See Section IIIB Eqs. (67)-(70) and Appendix E of PRB 93 205147 (2016).
 - Angular average effective mass for Frohlich model is to be averaged over degenerate bands. See later.
 - Associated theta integrals calculated with ntheta=   1000 points.

 K-point ( 0.000, 0.000, 0.000) | band =    17
 Transport equivalent effective mass tensor:
             -0.3342685149              0.0000047162              0.0000029310
              0.0000047162             -0.3342684989              0.0000005012
              0.0000029310              0.0000005012             -3.0285196296
 Transport equivalent effective mass tensor eigenvalues:
             -3.0285196296             -0.3342732231             -0.3342637907
 Angular average effective mass 1/(<1/m>)=  -0.4435165747
 Angular average effective mass for Frohlich model (<m**0.5>)**2=  -0.5338836439
 Effective masses along directions: (cart. coord. / red. coord. -> eff. mass)
    1:   1.000000  0.000000  0.000000 /   1.000000  0.000000  0.000000 ->  -0.2731860745
    2:   0.000000  1.000000  0.000000 /   0.000000  1.000000  0.000000 ->  -0.2731860602
    3:   0.000000  0.000000  1.000000 /   0.000000  0.000000  1.000000 ->  -2.7195631893
    4:   0.577350  0.577350  0.577350 /   0.464445  0.464445  0.754043 ->  -0.5324256280
    5:   0.000000  0.707107  0.707107 /   0.000000  0.524440  0.851447 ->  -0.4964977659
    6:   0.707107  0.000000  0.707107 /   0.524440  0.000000  0.851447 ->  -0.4964978459
    7:   0.707107  0.707107  0.000000 /   0.707107  0.707107  0.000000 ->  -0.3797326454

 K-point ( 0.000, 0.000, 0.000) | band =    18
 Transport equivalent effective mass tensor:
            -44.8715701203              0.0003528384              0.0003811559
              0.0003528384            -44.8717384020              0.0000403366
              0.0003811559              0.0000403366           -157.0836389022
 Transport equivalent effective mass tensor eigenvalues:
           -157.0836389035            -44.8720169929            -44.8712915281
 Angular average effective mass 1/(<1/m>)=  -2.2038431093
 Angular average effective mass for Frohlich model (<m**0.5>)**2=  -3.1670664726
 Effective masses along directions: (cart. coord. / red. coord. -> eff. mass)
    1:   1.000000  0.000000  0.000000 /   1.000000  0.000000  0.000000 -> -29.0063624415
    2:   0.000000  1.000000  0.000000 /   0.000000  1.000000  0.000000 -> -29.0065425047
    3:   0.000000  0.000000  1.000000 /   0.000000  0.000000  1.000000 ->  -2.7195634882
    4:   0.577350  0.577350  0.577350 /   0.464445  0.464445  0.754043 ->  -1.2043903323
    5:   0.000000  0.707107  0.707107 /   0.000000  0.524440  0.851447 ->  -4.9728651728
    6:   0.707107  0.000000  0.707107 /   0.524440  0.000000  0.851447 ->  -4.9726589738
    7:   0.707107  0.707107  0.000000 /   0.707107  0.707107  0.000000 ->  -0.9419829227

 Angular average effective mass for Frohlich model, averaged over degenerate bands.
 Value of     (<<m**0.5>>)**2 =     1.575400E+00
 Absolute Value of <<m**0.5>> =     1.255149E+00

 K-point ( 0.000, 0.000, 0.000) | band =    19
 Effective mass tensor:
              0.3155689375              0.0000000187              0.0000000052
              0.0000000187              0.3155689453              0.0000000200
              0.0000000052              0.0000000200              0.2904006123
 Effective mass tensor eigenvalues:
              0.2904006123              0.3155689224              0.3155689605
 Angular average effective mass 1/(<1/m>)=   0.3067083799
 Angular average effective mass for Frohlich model (<m**0.5>)**2=   0.3068516768
 Effective masses along directions: (cart. coord. / red. coord. -> eff. mass)
    1:   1.000000  0.000000  0.000000 /   1.000000  0.000000  0.000000 ->   0.3155689375
    2:   0.000000  1.000000  0.000000 /   0.000000  1.000000  0.000000 ->   0.3155689453
    3:   0.000000  0.000000  1.000000 /   0.000000  0.000000  1.000000 ->   0.2904006123
    4:   0.577350  0.577350  0.577350 /   0.464445  0.464445  0.754043 ->   0.3067084089
    5:   0.000000  0.707107  0.707107 /   0.000000  0.524440  0.851447 ->   0.3024621281
    6:   0.707107  0.000000  0.707107 /   0.524440  0.000000  0.851447 ->   0.3024621098
    7:   0.707107  0.707107  0.000000 /   0.707107  0.707107  0.000000 ->   0.3155689601

 END OF EFFECTIVE MASSES SECTION

 ---- first-order wavefunction calculations are completed ----

 Total localisation tensor (bohr^2) in cartesian coordinates
  WARNING : still subject to testing - especially symmetries.
      direction              matrix element
   alpha     beta       real part   imaginary part
     1        1       1.7091102515    0.0000000000
     1        2       0.0000000000    0.0000000000
     1        3       0.0000000000    0.0000000000
     2        1       0.0000000000    0.0000000000
     2        2       1.7091102947    0.0000000000
     2        3       0.0000000000    0.0000000000
     3        1       0.0000000000    0.0000000000
     3        2       0.0000000000    0.0000000000
     3        3       1.2535266434    0.0000000000

 respfn : d/dk was computed, but no 2DTE, so no DDB output.

== END DATASET(S) ==============================================================

 -outvars: echo values of variables after computation  --------
            acell      1.0000000000E+00  1.0000000000E+00  1.0000000000E+00 Bohr
              amu      2.29897680E+01  6.94100000E+00  3.20660000E+01
             ecut      4.40000000E+01 Hartree
           etotal     -1.1344346609E+01
            fcart      0.0000000000E+00  0.0000000000E+00  0.0000000000E+00
                       0.0000000000E+00  0.0000000000E+00  0.0000000000E+00
                       0.0000000000E+00  0.0000000000E+00  0.0000000000E+00
                       0.0000000000E+00  0.0000000000E+00  0.0000000000E+00
                       0.0000000000E+00  0.0000000000E+00  0.0000000000E+00
                       0.0000000000E+00  0.0000000000E+00  0.0000000000E+00
-          fftalg         512
           irdden           1
           irdwfk           1
           istwfk        1
              ixc     -116133
           kptopt           0
P           mkmem           1
P          mkqmem           1
P          mk1mem           1
            natom           6
            nband          27
           nbdbuf           4
            ngfft          48      48      75
             nkpt           1
            nstep        1000
             nsym          16
           ntypat           3
              occ      2.000000  2.000000  2.000000  2.000000  2.000000  2.000000
                       2.000000  2.000000  2.000000  2.000000  2.000000  2.000000
                       2.000000  2.000000  2.000000  2.000000  2.000000  2.000000
                       0.000000  0.000000  0.000000  0.000000  0.000000  0.000000
                       0.000000  0.000000  0.000000
        optdriver           1
            prtwf          -1
            rfdir           1       1       1
           rfelfd           2
            rprim      7.5461472787E+00  0.0000000000E+00  0.0000000000E+00
                       0.0000000000E+00  7.5461472787E+00  0.0000000000E+00
                       0.0000000000E+00  0.0000000000E+00  1.2251444405E+01
          spgroup         129
           strten      0.0000000000E+00  0.0000000000E+00  0.0000000000E+00
                       0.0000000000E+00  0.0000000000E+00  0.0000000000E+00
           symrel      1  0  0   0  1  0   0  0  1      -1  0  0   0 -1  0   0  0 -1
                      -1  0  0   0  1  0   0  0 -1       1  0  0   0 -1  0   0  0  1
                      -1  0  0   0 -1  0   0  0  1       1  0  0   0  1  0   0  0 -1
                       1  0  0   0 -1  0   0  0 -1      -1  0  0   0  1  0   0  0  1
                       0  1  0   1  0  0   0  0  1       0 -1  0  -1  0  0   0  0 -1
                       0 -1  0   1  0  0   0  0 -1       0  1  0  -1  0  0   0  0  1
                       0 -1  0  -1  0  0   0  0  1       0  1  0   1  0  0   0  0 -1
                       0  1  0  -1  0  0   0  0 -1       0 -1  0   1  0  0   0  0  1
            tnons      0.0000000  0.0000000  0.0000000     0.5000000  0.5000000 -0.0000000
                       0.5000000  0.5000000 -0.0000000     0.0000000  0.0000000  0.0000000
                      -0.0000000  0.0000000  0.0000000     0.5000000  0.5000000 -0.0000000
                       0.5000000  0.5000000 -0.0000000    -0.0000000  0.0000000  0.0000000
                       0.5000000  0.5000000  0.0000000     0.0000000 -0.0000000 -0.0000000
                       0.0000000 -0.0000000 -0.0000000     0.5000000  0.5000000  0.0000000
                       0.5000000  0.5000000  0.0000000     0.0000000  0.0000000 -0.0000000
                       0.0000000  0.0000000 -0.0000000     0.5000000  0.5000000  0.0000000
           tolwfr      1.00000000E-20
            typat      1  1  2  2  3  3
           useylm           1
           xangst      1.9966245763E+00  0.0000000000E+00  4.2111140161E+00
                       0.0000000000E+00  1.9966245763E+00  2.2720711355E+00
                       1.9966245763E+00  1.9966245763E+00  0.0000000000E+00
                       0.0000000000E+00  0.0000000000E+00  0.0000000000E+00
                       1.9966245763E+00  0.0000000000E+00  1.4023777802E+00
                       0.0000000000E+00  1.9966245763E+00  5.0808073715E+00
            xcart      3.7730736393E+00  0.0000000000E+00  7.9578522049E+00
                       0.0000000000E+00  3.7730736393E+00  4.2935922005E+00
                       3.7730736393E+00  3.7730736393E+00  0.0000000000E+00
                       0.0000000000E+00  0.0000000000E+00  0.0000000000E+00
                       3.7730736393E+00  0.0000000000E+00  2.6501099393E+00
                       0.0000000000E+00  3.7730736393E+00  9.6013344661E+00
             xred      5.0000000000E-01  0.0000000000E+00  6.4954400000E-01
                       0.0000000000E+00  5.0000000000E-01  3.5045600000E-01
                       5.0000000000E-01  5.0000000000E-01  0.0000000000E+00
                       0.0000000000E+00  0.0000000000E+00  0.0000000000E+00
                       5.0000000000E-01  0.0000000000E+00  2.1631000000E-01
                       0.0000000000E+00  5.0000000000E-01  7.8369000000E-01
            znucl       11.00000    3.00000   16.00000

- Timing analysis has been suppressed with timopt=0

 Suggested references for the acknowledgment of ABINIT usage.

 Calculation completed.
.Delivered   6 WARNINGs and   5 COMMENTs to log file.