.Version 9.7.2 of ABINIT

 ABINIT is a project of the Universite Catholique de Louvain,
 Corning Inc. and other collaborators, see ~abinit/doc/developers/contributors.txt .
 acknowledgments of the ABINIT effort.

.Starting date : Wed  1 Dec 2021.
- ( at 22h04 )

- input  file    -> /scratch/users/j/a/jabreu/flow_simple_remain_atoms/flow/w276/t1/run.abi
- output file    -> /scratch/users/j/a/jabreu/flow_simple_remain_atoms/flow/w276/t1/run.abo
- root for input  files -> /scratch/users/j/a/jabreu/flow_simple_remain_atoms/flow/w276/t1/indata/in
- root for output files -> /scratch/users/j/a/jabreu/flow_simple_remain_atoms/flow/w276/t1/outdata/out

 Symmetries : space group P-3 m 1 (#164); Bravais hP (primitive hexag.)
     intxc =       0      iscf =       7    lmnmax =      18     lnmax =       6
     mgfft =      90  mpssoang =       3    mqgrid =    4143     natom =       5
  nloc_mem =       1    nspden =       1   nspinor =       1    nsppol =       1
      nsym =      12    n1xccc =    2501    ntypat =       3    occopt =       1
   xclevel =       2
-    mband =          29        mffmem =           1         mkmem =           2
-   mkqmem =           2        mk1mem =           2           mpw =       10816
      nfft =      207360          nkpt =           2
  Rough estimation (10% accuracy) of disk space for files :

------------- Echo of variables that govern the present computation ------------
-
- outvars: echo of selected default values
-   iomode0 =  0 , fftalg0 =512 , wfoptalg0 =  0
-
- outvars: echo of global parameters not present in the input file
-  max_nthreads =    0
-
 -outvars: echo values of preprocessed input variables --------
            acell      1.0000000000E+00  1.0000000000E+00  1.0000000000E+00 Bohr
              amu      1.37327000E+02  2.43050000E+01  3.09737620E+01
             ecut      4.20000000E+01 Hartree
-          fftalg         512
           irdden           1
           irdwfk           1
           istwfk        1    1
              ixc     -116133
              kpt      0.00000000E+00  0.00000000E+00  0.00000000E+00
                       5.00000000E-01  0.00000000E+00  0.00000000E+00
           kptopt           0
P           mkmem           2
P          mkqmem           2
P          mk1mem           2
            natom           5
            nband          29
           nbdbuf           4
            ngfft          48      48      90
             nkpt           2
            nstep        2000
             nsym          12
           ntypat           3
              occ      2.000000  2.000000  2.000000  2.000000  2.000000  2.000000
                       2.000000  2.000000  2.000000  2.000000  2.000000  2.000000
                       2.000000  2.000000  2.000000  2.000000  2.000000  2.000000
                       2.000000  2.000000  0.000000  0.000000  0.000000  0.000000
                       0.000000  0.000000  0.000000  0.000000  0.000000
        optdriver           1
            prtwf          -1
            rfdir           1       1       1
           rfelfd           2
            rprim      8.2140759474E+00  0.0000000000E+00  0.0000000000E+00
                      -4.1070379737E+00  7.1135984391E+00  0.0000000000E+00
                       0.0000000000E+00  0.0000000000E+00  1.4198411619E+01
          spgroup         164
           symrel      1  0  0   0  1  0   0  0  1      -1  0  0   0 -1  0   0  0 -1
                      -1  0  0   1  1  0   0  0  1       1  0  0  -1 -1  0   0  0 -1
                       0  1  0  -1 -1  0   0  0  1       0 -1  0   1  1  0   0  0 -1
                       0 -1  0  -1  0  0   0  0  1       0  1  0   1  0  0   0  0 -1
                      -1 -1  0   1  0  0   0  0  1       1  1  0  -1  0  0   0  0 -1
                       1  1  0   0 -1  0   0  0  1      -1 -1  0   0  1  0   0  0 -1
           tolwfr      1.00000000E-20
            typat      1  2  2  3  3
           useylm           1
              wtk        0.50000    0.50000
           xangst      0.0000000000E+00  0.0000000000E+00  0.0000000000E+00
                       2.1733508905E+00  1.2547847217E+00  2.8260361494E+00
                       0.0000000000E+00  2.5095694434E+00  4.6874396778E+00
                       2.1733508905E+00  1.2547847217E+00  5.4543551824E+00
                       0.0000000000E+00  2.5095694434E+00  2.0591206448E+00
            xcart      0.0000000000E+00  0.0000000000E+00  0.0000000000E+00
                       4.1070379737E+00  2.3711994797E+00  5.3404343640E+00
                       0.0000000000E+00  4.7423989594E+00  8.8579772554E+00
                       4.1070379737E+00  2.3711994797E+00  1.0307237526E+01
                       0.0000000000E+00  4.7423989594E+00  3.8911740932E+00
             xred      0.0000000000E+00  0.0000000000E+00  0.0000000000E+00
                       6.6666666667E-01  3.3333333333E-01  3.7612900000E-01
                       3.3333333333E-01  6.6666666667E-01  6.2387100000E-01
                       6.6666666667E-01  3.3333333333E-01  7.2594300000E-01
                       3.3333333333E-01  6.6666666667E-01  2.7405700000E-01
            znucl       56.00000   12.00000   15.00000

 chkinp: Checking input parameters for consistency.

== DATASET  1 ==================================================================
-   mpi_nproc: 1, omp_nthreads: -1 (-1 if OMP is not activated)

--- !DatasetInfo
iteration_state: {dtset: 1, }
dimensions: {natom: 5, nkpt: 2, mband: 29, nsppol: 1, nspinor: 1, nspden: 1, mpw: 10816, }
cutoff_energies: {ecut:  42.0, pawecutdg:  -1.0, }
electrons: {nelect:   4.00000000E+01, charge:   0.00000000E+00, occopt:   1.00000000E+00, tsmear:   1.00000000E-02, }
meta: {optdriver: 1, rfelfd: 2, }
...

 Real(R)+Recip(G) space primitive vectors, cartesian coordinates (Bohr,Bohr^-1):
 R(1)=  8.2140759  0.0000000  0.0000000  G(1)=  0.1217422  0.0702879  0.0000000
 R(2)= -4.1070380  7.1135984  0.0000000  G(2)=  0.0000000  0.1405758  0.0000000
 R(3)=  0.0000000  0.0000000 14.1984116  G(3)=  0.0000000  0.0000000  0.0704304
 Unit cell volume ucvol=  8.2963645E+02 bohr^3
 Angles (23,13,12)=  9.00000000E+01  9.00000000E+01  1.20000000E+02 degrees

 getcut: wavevector=  0.0000  0.0000  0.0000  ngfft=  48  48  90
         ecut(hartree)=     42.000   => boxcut(ratio)=   2.00305

--- Pseudopotential description ------------------------------------------------
- pspini: atom type   1  psp file is /scratch/users/j/a/jabreu/pseudos/PBEsol/Ba.psp8
- pspatm: opening atomic psp file    /scratch/users/j/a/jabreu/pseudos/PBEsol/Ba.psp8
- Ba    ONCVPSP-3.3.0  r_core=   2.15444   1.91218   2.15444
- 56.00000  10.00000    180112                znucl, zion, pspdat
    8 -116133    2    4       600   0.00000   pspcod,pspxc,lmax,lloc,mmax,r2well
    5.99000000000000    5.00000000000000    0.00000000000000   rchrg,fchrg,qchrg
     nproj     2     2     2
     extension_switch     1
  pspatm : epsatm=   26.37418029
         --- l  ekb(1:nproj) -->
             0    6.652372    0.677024
             1    5.027722    0.408462
             2    2.543237    0.416854
 pspatm: atomic psp has been read  and splines computed

- pspini: atom type   2  psp file is /scratch/users/j/a/jabreu/pseudos/PBEsol/Mg.psp8
- pspatm: opening atomic psp file    /scratch/users/j/a/jabreu/pseudos/PBEsol/Mg.psp8
- Mg    ONCVPSP-3.3.0  r_core=   1.16056   1.56380
- 12.00000  10.00000    180112                znucl, zion, pspdat
    8 -116133    1    4       400   0.00000   pspcod,pspxc,lmax,lloc,mmax,r2well
    3.99000000000000    0.00000000000000    0.00000000000000   rchrg,fchrg,qchrg
     nproj     2     2
     extension_switch     1
  pspatm : epsatm=    9.18164846
         --- l  ekb(1:nproj) -->
             0    2.230603   -0.826587
             1   -6.503151   -2.501445
 pspatm: atomic psp has been read  and splines computed

- pspini: atom type   3  psp file is /scratch/users/j/a/jabreu/pseudos/PBEsol/P.psp8
- pspatm: opening atomic psp file    /scratch/users/j/a/jabreu/pseudos/PBEsol/P.psp8
- P     ONCVPSP-3.3.0  r_core=   1.46089   1.55067   1.70594
- 15.00000   5.00000    180112                znucl, zion, pspdat
    8 -116133    2    4       600   0.00000   pspcod,pspxc,lmax,lloc,mmax,r2well
    5.99000000000000    5.00000000000000    0.00000000000000   rchrg,fchrg,qchrg
     nproj     2     2     2
     extension_switch     1
  pspatm : epsatm=    7.31221086
         --- l  ekb(1:nproj) -->
             0    6.742364    1.063650
             1    3.449117    0.910422
             2   -3.077645   -0.799176
 pspatm: atomic psp has been read  and splines computed

   2.37447596E+03                                ecore*ucvol(ha*bohr**3)

 ==>  initialize data related to q vector <==

 The list of irreducible perturbations for this q vector is:
    1)    idir= 1    ipert=   6
    2)    idir= 2    ipert=   6
    3)    idir= 3    ipert=   6

 Perturbation wavevector (in red.coord.)   0.000000  0.000000  0.000000
 Perturbation : derivative vs k along direction   1

 dfpt_looppert : COMMENT -
  In a d/dk calculation, iscf is set to -3 automatically.
 The set of symmetries contains only one element for this perturbation.
 symkpt : not enough symmetry to change the number of k points.

 Initialisation of the first-order wave-functions :
  ireadwf=   0

--- !BeginCycle
iteration_state: {dtset: 1, }
solver: {iscf: 7, nstep: 2000, nline: 4, wfoptalg: 0, }
tolerances: {tolwfr: 1.00E-20, }
...

     iter   2DEtotal(Ha)        deltaE(Ha) residm    vres2
-ETOT  1  -41.661105163374     -4.166E+01 4.086E-02 0.000E+00
 ETOT  2  -41.668441108313     -7.336E-03 6.487E-03 0.000E+00
 ETOT  3  -41.668449489843     -8.382E-06 1.006E-04 0.000E+00
 ETOT  4  -41.668449514170     -2.433E-08 5.018E-05 0.000E+00
 ETOT  5  -41.668449514260     -9.007E-11 1.993E-06 0.000E+00
 ETOT  6  -41.668449514260     -4.547E-13 1.192E-06 0.000E+00
 ETOT  7  -41.668449514260     -2.132E-14 8.113E-08 0.000E+00
 ETOT  8  -41.668449514260      7.105E-15 4.488E-08 0.000E+00
 ETOT  9  -41.668449514260     -2.842E-14 3.363E-09 0.000E+00
 ETOT 10  -41.668449514260      0.000E+00 1.832E-09 0.000E+00
 ETOT 11  -41.668449514260      7.105E-15 1.376E-10 0.000E+00
 ETOT 12  -41.668449514260     -1.421E-14 7.649E-11 0.000E+00
 ETOT 13  -41.668449514260      0.000E+00 5.709E-12 0.000E+00
 ETOT 14  -41.668449514260      1.421E-14 3.222E-12 0.000E+00
 ETOT 15  -41.668449514260     -7.105E-15 2.394E-13 0.000E+00
 ETOT 16  -41.668449514260      7.105E-15 1.363E-13 0.000E+00
 ETOT 17  -41.668449514260     -7.105E-15 1.010E-14 0.000E+00
 ETOT 18  -41.668449514260      7.105E-15 5.777E-15 0.000E+00
 ETOT 19  -41.668449514260     -7.105E-15 4.274E-16 0.000E+00
 ETOT 20  -41.668449514260      0.000E+00 2.452E-16 0.000E+00
 ETOT 21  -41.668449514260     -7.105E-15 1.813E-17 0.000E+00
 ETOT 22  -41.668449514260      1.421E-14 1.042E-17 0.000E+00
 ETOT 23  -41.668449514260     -7.105E-15 7.701E-19 0.000E+00
 ETOT 24  -41.668449514260     -7.105E-15 4.429E-19 0.000E+00
 ETOT 25  -41.668449514260      7.105E-15 3.274E-20 0.000E+00
 ETOT 26  -41.668449514260      0.000E+00 1.884E-20 0.000E+00
 ETOT 27  -41.668449514260      7.105E-15 9.934E-21 0.000E+00

 At SCF step   27   max residual=  9.93E-21 < tolwfr=  1.00E-20 =>converged.

 ----iterations are completed or convergence reached----

 dfpt_looppert: DFPT cycle converged with prtwf=-1. Will skip output of the 1st-order WFK file.
 dfpt_looppert : ek2=    6.2412421419E+01
          f-sum rule ratio=    1.2194479777E+00
 prteigrs : about to open file /scratch/users/j/a/jabreu/flow_simple_remain_atoms/flow/w276/t1/tmpdata/tmp_1WF1_EIG
 Expectation of eigenvalue derivatives (hartree) for nkpt=   2  k points:
  (in case of degenerate eigenvalues, averaged derivative)
 kpt#   1, nband= 29, wtk=  0.50000, kpt=  0.0000  0.0000  0.0000 (reduced coord)
   0.00000   -0.00000    0.00000    0.00000   -0.00000   -0.00000   -0.00000   -0.00000
   0.00000   -0.00000    0.00000    0.00000   -0.00000    0.00000   -0.00000    0.00000
   0.00000   -0.00000    0.00000    0.00000    0.00000    0.00000    0.00000    0.00000
   0.00000   -0.00000   -0.00000    0.00000    0.00000
 prteigrs : prtvol=0 or 1, do not print more k-points.

 Eight components of 2nd-order total energy (hartree) are
 1,2,3: 0th-order hamiltonian combined with 1st-order wavefunctions
     kin0=   2.99876754E+01 eigvalue=   4.57888147E+00  local=  -1.42280235E+01
 4,5,6: 1st-order hamiltonian combined with 1st and 0th-order wfs
     kin1=  -7.61087011E+01  Hartree=   0.00000000E+00     xc=   0.00000000E+00
 7,8,9: eventually, occupation + non-local contributions
    edocc=   1.98211511E+01     enl0=   1.50876504E+00   enl1=  -7.22819794E+00
 1-9 gives the relaxation energy (to be shifted if some occ is /=2.0)
   erelax=  -4.16684495E+01
  No Ewald or frozen-wf contrib.: the relaxation energy is the total one
 2DEtotal=   -0.4166844951E+02 Ha. Also 2DEtotal=   -0.113385617458E+04 eV
    (  non-var. 2DEtotal :   -4.1668449514E+01 Ha)

 Perturbation wavevector (in red.coord.)   0.000000  0.000000  0.000000
 Perturbation : derivative vs k along direction   2
 The set of symmetries contains only one element for this perturbation.
 symkpt : not enough symmetry to change the number of k points.

[...]

 Perturbation wavevector (in red.coord.)   0.000000  0.000000  0.000000
 Perturbation : derivative vs k along direction   3
 The set of symmetries contains only one element for this perturbation.
 symkpt : not enough symmetry to change the number of k points.

 Initialisation of the first-order wave-functions :
  ireadwf=   0

--- !BeginCycle
iteration_state: {dtset: 1, }
solver: {iscf: 7, nstep: 2000, nline: 4, wfoptalg: 0, }
tolerances: {tolwfr: 1.00E-20, }
...

     iter   2DEtotal(Ha)        deltaE(Ha) residm    vres2
-ETOT  1  -9.8796225611033     -9.880E+00 4.407E-02 0.000E+00
 ETOT  2  -9.8820912163123     -2.469E-03 4.653E-03 0.000E+00
 ETOT  3  -9.8820946889643     -3.473E-06 2.389E-04 0.000E+00
 ETOT  4  -9.8820946998737     -1.091E-08 3.980E-05 0.000E+00
 ETOT  5  -9.8820946999130     -3.931E-11 2.387E-06 0.000E+00
 ETOT  6  -9.8820946999132     -1.350E-13 4.586E-07 0.000E+00
 ETOT  7  -9.8820946999131      1.421E-14 3.849E-08 0.000E+00
 ETOT  8  -9.8820946999132     -3.375E-14 8.402E-09 0.000E+00
 ETOT  9  -9.8820946999132     -3.553E-15 1.030E-09 0.000E+00
 ETOT 10  -9.8820946999132      5.329E-15 2.786E-10 0.000E+00
 ETOT 11  -9.8820946999132     -5.329E-15 4.167E-11 0.000E+00
 ETOT 12  -9.8820946999132      3.553E-15 1.179E-11 0.000E+00
 ETOT 13  -9.8820946999132      0.000E+00 1.874E-12 0.000E+00
 ETOT 14  -9.8820946999132      0.000E+00 5.210E-13 0.000E+00
 ETOT 15  -9.8820946999132     -3.553E-15 8.547E-14 0.000E+00
 ETOT 16  -9.8820946999132      0.000E+00 2.322E-14 0.000E+00
 ETOT 17  -9.8820946999132      0.000E+00 3.899E-15 0.000E+00
 ETOT 18  -9.8820946999132     -1.776E-15 1.038E-15 0.000E+00
 ETOT 19  -9.8820946999132      5.329E-15 1.774E-16 0.000E+00
 ETOT 20  -9.8820946999132      0.000E+00 4.644E-17 0.000E+00
 ETOT 21  -9.8820946999132      0.000E+00 8.049E-18 0.000E+00
 ETOT 22  -9.8820946999132      0.000E+00 2.078E-18 0.000E+00
 ETOT 23  -9.8820946999132      3.553E-15 3.641E-19 0.000E+00
 ETOT 24  -9.8820946999132     -1.776E-15 9.296E-20 0.000E+00
 ETOT 25  -9.8820946999132     -5.329E-15 1.644E-20 0.000E+00
 ETOT 26  -9.8820946999132      1.776E-15 9.875E-21 0.000E+00

 At SCF step   26   max residual=  9.88E-21 < tolwfr=  1.00E-20 =>converged.

 ----iterations are completed or convergence reached----

 dfpt_looppert: DFPT cycle converged with prtwf=-1. Will skip output of the 1st-order WFK file.
 dfpt_looppert : ek2=    1.5666435637E+01
          f-sum rule ratio=    1.1404120994E+00
 prteigrs : about to open file /scratch/users/j/a/jabreu/flow_simple_remain_atoms/flow/w276/t1/tmpdata/tmp_1WF1_EIG
 Expectation of eigenvalue derivatives (hartree) for nkpt=   2  k points:
  (in case of degenerate eigenvalues, averaged derivative)
 kpt#   1, nband= 29, wtk=  0.50000, kpt=  0.0000  0.0000  0.0000 (reduced coord)
   0.00000    0.00000   -0.00000   -0.00000    0.00000    0.00000   -0.00000   -0.00000
   0.00000    0.00000   -0.00000   -0.00000   -0.00000    0.00000   -0.00000    0.00000
   0.00000    0.00000    0.00000    0.00000    0.00000    0.00000    0.00000   -0.00000
  -0.00000   -0.00000   -0.00000    0.00000    0.00000
 prteigrs : prtvol=0 or 1, do not print more k-points.

 Eight components of 2nd-order total energy (hartree) are
 1,2,3: 0th-order hamiltonian combined with 1st-order wavefunctions
     kin0=   8.11930961E+00 eigvalue=   1.12124572E+00  local=  -3.95251363E+00
 4,5,6: 1st-order hamiltonian combined with 1st and 0th-order wfs
     kin1=  -1.78661928E+01  Hartree=   0.00000000E+00     xc=   0.00000000E+00
 7,8,9: eventually, occupation + non-local contributions
    edocc=   4.21461577E+00     enl0=   3.79437237E-01   enl1=  -1.89799664E+00
 1-9 gives the relaxation energy (to be shifted if some occ is /=2.0)
   erelax=  -9.88209470E+00
  No Ewald or frozen-wf contrib.: the relaxation energy is the total one
 2DEtotal=   -0.9882094700E+01 Ha. Also 2DEtotal=   -0.268905472220E+03 eV
    (  non-var. 2DEtotal :   -9.8820946998E+00 Ha)

 CALCULATION OF EFFECTIVE MASSES
 NOTE : Additional infos (eff. mass eigenvalues, eigenvectors and, if degenerate, average mass) are available in stdout.

 COMMENTS:
 - At k-point ( 0.000, 0.000, 0.000), bands    19 through    20
   are DEGENERATE (effective mass tensor is therefore not defined).
   See Section IIIB Eqs. (67)-(70) and Appendix E of PRB 93 205147 (2016).
 - Angular average effective mass for Frohlich model is to be averaged over degenerate bands. See later.
 - Associated theta integrals calculated with ntheta=   1000 points.

 K-point ( 0.000, 0.000, 0.000) | band =    19
 Transport equivalent effective mass tensor:
             -0.1752644949              0.0000000000             -0.0000000000
              0.0000000000             -0.1752648172             -0.0000007817
             -0.0000000000             -0.0000007817             -0.8942926946
 Transport equivalent effective mass tensor eigenvalues:
             -0.8942926946             -0.1752648172             -0.1752644949
 Angular average effective mass 1/(<1/m>)=  -0.2062986582
 Angular average effective mass for Frohlich model (<m**0.5>)**2=  -0.2323691481
 Effective masses along directions: (cart. coord. / red. coord. -> eff. mass)
    1:   1.000000  0.000000  0.000000 /   0.894427 -0.447214  0.000000 ->  -0.1521156740
    2:   0.000000  1.000000  0.000000 /   0.000000  1.000000  0.000000 ->  -0.1521156741
    3:   0.000000  0.000000  1.000000 /   0.000000  0.000000  1.000000 ->  -0.8762826763
    4:   0.577350  0.577350  0.577350 /   0.492554  0.180287  0.851403 ->  -0.2305207847
    5:   0.000000  0.707107  0.707107 /   0.000000  0.447938  0.894064 ->  -0.2145241649
    6:   0.707107  0.000000  0.707107 /   0.485765 -0.242882  0.839667 ->  -0.2450113595
    7:   0.707107  0.707107  0.000000 /   0.939071  0.343724  0.000000 ->  -0.1521156740

 K-point ( 0.000, 0.000, 0.000) | band =    20
 Transport equivalent effective mass tensor:
             -2.6419149527              0.0000000000             -0.0000000000
              0.0000000000             -2.6419098491              0.0000015939
             -0.0000000000              0.0000015939             -5.6932372211
 Transport equivalent effective mass tensor eigenvalues:
             -5.6932372211             -2.6419149527             -2.6419098491
 Angular average effective mass 1/(<1/m>)=  -0.8863422634
 Angular average effective mass for Frohlich model (<m**0.5>)**2=  -0.9944143608
 Effective masses along directions: (cart. coord. / red. coord. -> eff. mass)
    1:   1.000000  0.000000  0.000000 /   0.894427 -0.447214  0.000000 ->  -0.8011333556
    2:   0.000000  1.000000  0.000000 /   0.000000  1.000000  0.000000 ->  -0.8011333560
    3:   0.000000  0.000000  1.000000 /   0.000000  0.000000  1.000000 ->  -0.8762826764
    4:   0.577350  0.577350  0.577350 /   0.492554  0.180287  0.851403 ->  -0.6106609265
    5:   0.000000  0.707107  0.707107 /   0.000000  0.447938  0.894064 ->  -2.5589006483
    6:   0.707107  0.000000  0.707107 /   0.485765 -0.242882  0.839667 ->  -1.0300476014
    7:   0.707107  0.707107  0.000000 /   0.939071  0.343724  0.000000 ->  -0.8011333561

 Angular average effective mass for Frohlich model, averaged over degenerate bands.
 Value of     (<<m**0.5>>)**2 =     5.470452E-01
 Absolute Value of <<m**0.5>> =     7.396251E-01

 K-point ( 0.500, 0.000, 0.000) | band =    21
 Effective mass tensor:
              0.7325883220              0.3286242233             -0.1758744104
              0.3286242233              0.3531256553             -0.1015408315
             -0.1758744104             -0.1015408315              1.4123459476
 Effective mass tensor eigenvalues:
              0.1633943963              0.8490973033              1.4855682254
 Angular average effective mass 1/(<1/m>)=   0.3763631236
 Angular average effective mass for Frohlich model (<m**0.5>)**2=   0.4964367466
 Effective masses along directions: (cart. coord. / red. coord. -> eff. mass)
    1:   1.000000  0.000000  0.000000 /   0.894427 -0.447214  0.000000 ->   0.4219774989
    2:   0.000000  1.000000  0.000000 /   0.000000  1.000000  0.000000 ->   0.2053371706
    3:   0.000000  0.000000  1.000000 /   0.000000  0.000000  1.000000 ->   1.3676300492
    4:   0.577350  0.577350  0.577350 /   0.492554  0.180287  0.851403 ->   0.7352345699
    5:   0.000000  0.707107  0.707107 /   0.000000  0.447938  0.894064 ->   0.3470880155
    6:   0.707107  0.000000  0.707107 /   0.485765 -0.242882  0.839667 ->   0.5917430959
    7:   0.707107  0.707107  0.000000 /   0.939071  0.343724  0.000000 ->   0.6874544851

 END OF EFFECTIVE MASSES SECTION

 ---- first-order wavefunction calculations are completed ----

 Total localisation tensor (bohr^2) in cartesian coordinates
  WARNING : still subject to testing - especially symmetries.
      direction              matrix element
   alpha     beta       real part   imaginary part
     1        1       4.0644362829    0.0000000000
     1        2      -1.7299223692    0.0000000000
     1        3       0.0000000000    0.0000000000
     2        1      -1.7299223692    0.0000000000
     2        2       2.9963134366    0.0000000000
     2        3       0.0000000000    0.0000000000
     3        1       0.0000000000    0.0000000000
     3        2       0.0000000000    0.0000000000
     3        3       2.3031474704    0.0000000000

 respfn : d/dk was computed, but no 2DTE, so no DDB output.

== END DATASET(S) ==============================================================

 -outvars: echo values of variables after computation  --------
            acell      1.0000000000E+00  1.0000000000E+00  1.0000000000E+00 Bohr
              amu      1.37327000E+02  2.43050000E+01  3.09737620E+01
             ecut      4.20000000E+01 Hartree
           etotal     -9.8820946999E+00
            fcart      0.0000000000E+00  0.0000000000E+00  0.0000000000E+00
                       0.0000000000E+00  0.0000000000E+00  0.0000000000E+00
                       0.0000000000E+00  0.0000000000E+00  0.0000000000E+00
                       0.0000000000E+00  0.0000000000E+00  0.0000000000E+00
                       0.0000000000E+00  0.0000000000E+00  0.0000000000E+00
-          fftalg         512
           irdden           1
           irdwfk           1
           istwfk        1    1
              ixc     -116133
              kpt      0.00000000E+00  0.00000000E+00  0.00000000E+00
                       5.00000000E-01  0.00000000E+00  0.00000000E+00
           kptopt           0
P           mkmem           2
P          mkqmem           2
P          mk1mem           2
            natom           5
            nband          29
           nbdbuf           4
            ngfft          48      48      90
             nkpt           2
            nstep        2000
             nsym          12
           ntypat           3
              occ      2.000000  2.000000  2.000000  2.000000  2.000000  2.000000
                       2.000000  2.000000  2.000000  2.000000  2.000000  2.000000
                       2.000000  2.000000  2.000000  2.000000  2.000000  2.000000
                       2.000000  2.000000  0.000000  0.000000  0.000000  0.000000
                       0.000000  0.000000  0.000000  0.000000  0.000000
        optdriver           1
            prtwf          -1
            rfdir           1       1       1
           rfelfd           2
            rprim      8.2140759474E+00  0.0000000000E+00  0.0000000000E+00
                      -4.1070379737E+00  7.1135984391E+00  0.0000000000E+00
                       0.0000000000E+00  0.0000000000E+00  1.4198411619E+01
          spgroup         164
           strten      0.0000000000E+00  0.0000000000E+00  0.0000000000E+00
                       0.0000000000E+00  0.0000000000E+00  0.0000000000E+00
           symrel      1  0  0   0  1  0   0  0  1      -1  0  0   0 -1  0   0  0 -1
                      -1  0  0   1  1  0   0  0  1       1  0  0  -1 -1  0   0  0 -1
                       0  1  0  -1 -1  0   0  0  1       0 -1  0   1  1  0   0  0 -1
                       0 -1  0  -1  0  0   0  0  1       0  1  0   1  0  0   0  0 -1
                      -1 -1  0   1  0  0   0  0  1       1  1  0  -1  0  0   0  0 -1
                       1  1  0   0 -1  0   0  0  1      -1 -1  0   0  1  0   0  0 -1
           tolwfr      1.00000000E-20
            typat      1  2  2  3  3
           useylm           1
              wtk        0.50000    0.50000
           xangst      0.0000000000E+00  0.0000000000E+00  0.0000000000E+00
                       2.1733508905E+00  1.2547847217E+00  2.8260361494E+00
                       0.0000000000E+00  2.5095694434E+00  4.6874396778E+00
                       2.1733508905E+00  1.2547847217E+00  5.4543551824E+00
                       0.0000000000E+00  2.5095694434E+00  2.0591206448E+00
            xcart      0.0000000000E+00  0.0000000000E+00  0.0000000000E+00
                       4.1070379737E+00  2.3711994797E+00  5.3404343640E+00
                       0.0000000000E+00  4.7423989594E+00  8.8579772554E+00
                       4.1070379737E+00  2.3711994797E+00  1.0307237526E+01
                       0.0000000000E+00  4.7423989594E+00  3.8911740932E+00
             xred      0.0000000000E+00  0.0000000000E+00  0.0000000000E+00
                       6.6666666667E-01  3.3333333333E-01  3.7612900000E-01
                       3.3333333333E-01  6.6666666667E-01  6.2387100000E-01
                       6.6666666667E-01  3.3333333333E-01  7.2594300000E-01
                       3.3333333333E-01  6.6666666667E-01  2.7405700000E-01
            znucl       56.00000   12.00000   15.00000

- Timing analysis has been suppressed with timopt=0

 Suggested references for the acknowledgment of ABINIT usage.

 Calculation completed.
.Delivered   2 WARNINGs and   5 COMMENTs to log file.