.Version 9.5.2 of ABINIT

 ABINIT is a project of the Universite Catholique de Louvain,
 Corning Inc. and other collaborators, see ~abinit/doc/developers/contributors.txt .
 acknowledgments of the ABINIT effort.

.Starting date : Mon 31 May 2021.
- ( at 21h55 )

- input  file    -> /scratch/users/j/a/jabreu/flow_simple_11atoms/flow/w327/t1/run.abi
- output file    -> /scratch/users/j/a/jabreu/flow_simple_11atoms/flow/w327/t1/run.abo
- root for input  files -> /scratch/users/j/a/jabreu/flow_simple_11atoms/flow/w327/t1/indata/in
- root for output files -> /scratch/users/j/a/jabreu/flow_simple_11atoms/flow/w327/t1/outdata/out

 Symmetries : space group R-3 m (#166); Bravais hR (rhombohedral)
     intxc =       0      iscf =       7    lmnmax =      18     lnmax =       6
     mgfft =      75  mpssoang =       3    mqgrid =    3001     natom =      11
  nloc_mem =       1    nspden =       1   nspinor =       1    nsppol =       1
      nsym =      12    n1xccc =    2501    ntypat =       4    occopt =       1
   xclevel =       2
-    mband =          45        mffmem =           1         mkmem =           1
-   mkqmem =           1        mk1mem =           1           mpw =       13161
      nfft =      421875          nkpt =           1
  Rough estimation (10% accuracy) of disk space for files :

------------- Echo of variables that govern the present computation ------------
-
- outvars: echo of selected default values
-   iomode0 =  0 , fftalg0 =512 , wfoptalg0 =  0
-
- outvars: echo of global parameters not present in the input file
-  max_nthreads =    0
-
 -outvars: echo values of preprocessed input variables --------
            acell      1.0000000000E+00  1.0000000000E+00  1.0000000000E+00 Bohr
              amu      3.90983000E+01  9.12240000E+01  1.08110000E+01
                       1.59994000E+01
             ecut      4.40000000E+01 Hartree
-          fftalg         512
           irdden           1
           irdwfk           1
           istwfk        1
              ixc     -116133
           kptopt           0
P           mkmem           1
P          mkqmem           1
P          mk1mem           1
            natom          11
            nband          45
           nbdbuf           4
            ngfft          75      75      75
             nkpt           1
            nstep        2000
             nsym          12
           ntypat           4
              occ      2.000000  2.000000  2.000000  2.000000  2.000000  2.000000
                       2.000000  2.000000  2.000000  2.000000  2.000000  2.000000
                       2.000000  2.000000  2.000000  2.000000  2.000000  2.000000
                       2.000000  2.000000  2.000000  2.000000  2.000000  2.000000
                       2.000000  2.000000  2.000000  2.000000  2.000000  2.000000
                       2.000000  2.000000  2.000000  2.000000  2.000000  2.000000
                       0.000000  0.000000  0.000000  0.000000  0.000000  0.000000
                       0.000000  0.000000  0.000000
        optdriver           1
            prtwf          -1
            rfdir           1       1       1
           rfelfd           2
            rprim      9.1435093512E+00  0.0000000000E+00  8.3336510639E+00
                       3.6801901080E+00  8.3701830341E+00  8.3336510639E+00
                       0.0000000000E+00  0.0000000000E+00  1.2371479431E+01
          spgroup         166
           symrel      1  0  0   0  1  0   0  0  1      -1  0  0   0 -1  0   0  0 -1
                       0  1  0   1  0  0   0  0  1       0 -1  0  -1  0  0   0  0 -1
                       0  0  1   1  0  0   0  1  0       0  0 -1  -1  0  0   0 -1  0
                       1  0  0   0  0  1   0  1  0      -1  0  0   0  0 -1   0 -1  0
                       0  1  0   0  0  1   1  0  0       0 -1  0   0  0 -1  -1  0  0
                       0  0  1   0  1  0   1  0  0       0  0 -1   0 -1  0  -1  0  0
           tolwfr      1.00000000E-20
            typat      1  1  2  3  3  4  4  4  4  4  4
           useylm           1
           xangst      1.4320855114E+00  9.3473945555E-01  3.2429033814E+00
                       5.3539239722E+00  3.4945706378E+00  1.2123757985E+01
                       0.0000000000E+00  0.0000000000E+00  0.0000000000E+00
                       2.7431153996E+00  1.7904644484E+00  6.2116808907E+00
                       4.0428940840E+00  2.6388456450E+00  9.1549804754E+00
                       2.6037084305E+00  3.1263177967E+00  5.8959990910E+00
                       2.8761327812E+00  3.3041324504E+00  9.4706622751E+00
                       5.0621594945E+00  3.3041324504E+00  8.5052998158E+00
                       4.1823010532E+00  1.3029922967E+00  9.4706622751E+00
                       3.9098767024E+00  1.1251776430E+00  5.8959990910E+00
                       1.7238499891E+00  1.1251776430E+00  6.8613615503E+00
            xcart      2.7062494154E+00  1.7664015766E+00  6.1281992662E+00
                       1.0117450044E+01  6.6037814575E+00  2.2910582292E+01
                       0.0000000000E+00  0.0000000000E+00  0.0000000000E+00
                       5.1837368561E+00  3.3834874581E+00  1.1738375708E+01
                       7.6399626031E+00  4.9866955760E+00  1.7300405850E+01
                       4.9202958635E+00  5.9078844400E+00  1.1141823562E+01
                       5.4351032783E+00  6.2439054379E+00  1.7896957997E+01
                       9.5660950856E+00  6.2439054379E+00  1.6072687330E+01
                       7.9034035957E+00  2.4622985941E+00  1.7896957997E+01
                       7.3885961809E+00  2.1262775962E+00  1.1141823562E+01
                       3.2576043736E+00  2.1262775962E+00  1.2966094229E+01
             xred      2.1103500000E-01  2.1103500000E-01  2.1103500000E-01
                       7.8896500000E-01  7.8896500000E-01  7.8896500000E-01
                       0.0000000000E+00  0.0000000000E+00  0.0000000000E+00
                       4.0423100000E-01  4.0423100000E-01  4.0423100000E-01
                       5.9576900000E-01  5.9576900000E-01  5.9576900000E-01
                       2.5403000000E-01  7.0582500000E-01  2.5403000000E-01
                       2.9417500000E-01  7.4597000000E-01  7.4597000000E-01
                       7.4597000000E-01  7.4597000000E-01  2.9417500000E-01
                       7.4597000000E-01  2.9417500000E-01  7.4597000000E-01
                       7.0582500000E-01  2.5403000000E-01  2.5403000000E-01
                       2.5403000000E-01  2.5403000000E-01  7.0582500000E-01
            znucl       19.00000   40.00000    5.00000    8.00000

 chkinp: Checking input parameters for consistency.

== DATASET  1 ==================================================================
-   mpi_nproc: 1, omp_nthreads: -1 (-1 if OMP is not activated)

--- !DatasetInfo
iteration_state: {dtset: 1, }
dimensions: {natom: 11, nkpt: 1, mband: 45, nsppol: 1, nspinor: 1, nspden: 1, mpw: 13161, }
cutoff_energies: {ecut:  44.0, pawecutdg:  -1.0, }
electrons: {nelect:   7.20000000E+01, charge:   0.00000000E+00, occopt:   1.00000000E+00, tsmear:   1.00000000E-02, }
meta: {optdriver: 1, rfelfd: 2, }
...

 Real(R)+Recip(G) space primitive vectors, cartesian coordinates (Bohr,Bohr^-1):
 R(1)=  9.1435094  0.0000000  8.3336511  G(1)=  0.1093672 -0.0480864  0.0000000
 R(2)=  3.6801901  8.3701830  8.3336511  G(2)=  0.0000000  0.1194717  0.0000000
 R(3)=  0.0000000  0.0000000 12.3714794  G(3)= -0.0736717 -0.0480864  0.0808311
 Unit cell volume ucvol=  9.4682454E+02 bohr^3
 Angles (23,13,12)=  4.76530793E+01  4.76530793E+01  4.76530793E+01 degrees

 getcut: wavevector=  0.0000  0.0000  0.0000  ngfft=  75  75  75
         ecut(hartree)=     44.000   => boxcut(ratio)=   2.00318

--- Pseudopotential description ------------------------------------------------
- pspini: atom type   1  psp file is /scratch/users/j/a/jabreu/pseudos/PBEsol/K.psp8
- pspatm: opening atomic psp file    /scratch/users/j/a/jabreu/pseudos/PBEsol/K.psp8
- K     ONCVPSP-3.3.0  r_core=   1.36296   1.46408   1.61068
- 19.00000   9.00000    180112                znucl, zion, pspdat
    8 -116133    2    4       400   0.00000   pspcod,pspxc,lmax,lloc,mmax,r2well
    3.99000000000000    5.00000000000000    0.00000000000000   rchrg,fchrg,qchrg
     nproj     2     2     2
     extension_switch     1
  pspatm : epsatm=    8.32487830
         --- l  ekb(1:nproj) -->
             0   10.921326    0.816676
             1    4.431000    0.560368
             2   -3.384038   -1.043186
 pspatm: atomic psp has been read  and splines computed

- pspini: atom type   2  psp file is /scratch/users/j/a/jabreu/pseudos/PBEsol/Zr.psp8
- pspatm: opening atomic psp file    /scratch/users/j/a/jabreu/pseudos/PBEsol/Zr.psp8
- Zr    ONCVPSP-3.3.0  r_core=   1.56507   1.56507   1.51006
- 40.00000  12.00000    180112                znucl, zion, pspdat
    8 -116133    2    4       600   0.00000   pspcod,pspxc,lmax,lloc,mmax,r2well
    5.99000000000000    5.00000000000000    0.00000000000000   rchrg,fchrg,qchrg
     nproj     2     2     2
     extension_switch     1
  pspatm : epsatm=   18.88750170
         --- l  ekb(1:nproj) -->
             0   10.584966    0.890424
             1    5.814585    0.741293
             2    1.525459    0.487901
 pspatm: atomic psp has been read  and splines computed

[...]

- pspini: atom type   4  psp file is /scratch/users/j/a/jabreu/pseudos/PBEsol/O.psp8
- pspatm: opening atomic psp file    /scratch/users/j/a/jabreu/pseudos/PBEsol/O.psp8
- O     ONCVPSP-3.3.0  r_core=   1.35509   1.45563   1.26150
-  8.00000   6.00000    180112                znucl, zion, pspdat
    8 -116133    2    4       600   0.00000   pspcod,pspxc,lmax,lloc,mmax,r2well
    5.99000000000000    4.00000000000000    0.00000000000000   rchrg,fchrg,qchrg
     nproj     2     2     1
     extension_switch     1
  pspatm : epsatm=    6.22910522
         --- l  ekb(1:nproj) -->
             0    6.050032    0.820363
             1   -4.739617   -1.153841
             2   -1.335834
 pspatm: atomic psp has been read  and splines computed

   5.71067863E+03                                ecore*ucvol(ha*bohr**3)

 ==>  initialize data related to q vector <==

 The list of irreducible perturbations for this q vector is:
    1)    idir= 1    ipert=  12
    2)    idir= 2    ipert=  12
    3)    idir= 3    ipert=  12

 Perturbation wavevector (in red.coord.)   0.000000  0.000000  0.000000
 Perturbation : derivative vs k along direction   1

 dfpt_looppert : COMMENT -
  In a d/dk calculation, iscf is set to -3 automatically.
 The set of symmetries contains only one element for this perturbation.
 symkpt : not enough symmetry to change the number of k points.

 Initialisation of the first-order wave-functions :
  ireadwf=   0

--- !BeginCycle
iteration_state: {dtset: 1, }
solver: {iscf: 7, nstep: 2000, nline: 4, wfoptalg: 0, }
tolerances: {tolwfr: 1.00E-20, }
...

     iter   2DEtotal(Ha)        deltaE(Ha) residm    vres2
-ETOT  1  -43.554937977083     -4.355E+01 4.520E-02 0.000E+00
 ETOT  2  -43.680805560181     -1.259E-01 1.182E-02 0.000E+00
 ETOT  3  -43.682795126388     -1.990E-03 1.066E-03 0.000E+00
[...]
 ETOT 23  -43.682841840391      7.105E-15 9.558E-18 0.000E+00
 ETOT 24  -43.682841840391     -7.105E-15 5.387E-18 0.000E+00
 ETOT 25  -43.682841840391     -1.421E-14 4.281E-19 0.000E+00
 ETOT 26  -43.682841840391      2.132E-14 2.408E-19 0.000E+00
 ETOT 27  -43.682841840391      7.105E-15 1.919E-20 0.000E+00
 ETOT 28  -43.682841840391     -2.842E-14 1.077E-20 0.000E+00
 ETOT 29  -43.682841840391     -2.842E-14 9.900E-21 0.000E+00

 At SCF step   29   max residual=  9.90E-21 < tolwfr=  1.00E-20 =>converged.

 ----iterations are completed or convergence reached----

 dfpt_looppert: DFPT cycle converged with prtwf=-1. Will skip output of the 1st-order WFK file.
 dfpt_looppert : ek2=    8.1143235144E+01
          f-sum rule ratio=    1.1062296202E+00
 prteigrs : about to open file /scratch/users/j/a/jabreu/flow_simple_11atoms/flow/w327/t1/tmpdata/tmp_1WF1_EIG
 Expectation of eigenvalue derivatives (hartree) for nkpt=   1  k points:
  (in case of degenerate eigenvalues, averaged derivative)
 kpt#   1, nband= 45, wtk=  1.00000, kpt=  0.0000  0.0000  0.0000 (reduced coord)
  -0.00000    0.00000    0.00000   -0.00000   -0.00000   -0.00000   -0.00000    0.00000
   0.00000    0.00000    0.00000    0.00000   -0.00000   -0.00000   -0.00000   -0.00000
   0.00000    0.00000    0.00000   -0.00000    0.00000    0.00000   -0.00000   -0.00000
  -0.00000   -0.00000    0.00000    0.00000   -0.00000   -0.00000   -0.00000   -0.00000
   0.00000    0.00000   -0.00000    0.00000    0.00000    0.00000    0.00000    0.00000
   0.00000   -0.00000    0.00000   -0.00429    0.00001

 Eight components of 2nd-order total energy (hartree) are
 1,2,3: 0th-order hamiltonian combined with 1st-order wavefunctions
     kin0=   6.73704281E+01 eigvalue=   1.65397653E+00  local=  -3.46388321E+01
 4,5,6: 1st-order hamiltonian combined with 1st and 0th-order wfs
     kin1=  -8.97630502E+01  Hartree=   0.00000000E+00     xc=   0.00000000E+00
 7,8,9: eventually, occupation + non-local contributions
    edocc=   1.01056719E+01     enl0=  -8.08402590E-01   enl1=   2.39736652E+00
 1-9 gives the relaxation energy (to be shifted if some occ is /=2.0)
   erelax=  -4.36828418E+01
  No Ewald or frozen-wf contrib.: the relaxation energy is the total one
 2DEtotal=   -0.4368284184E+02 Ha. Also 2DEtotal=   -0.118867057741E+04 eV
    (  non-var. 2DEtotal :   -4.3682841840E+01 Ha)

 Perturbation wavevector (in red.coord.)   0.000000  0.000000  0.000000
 Perturbation : derivative vs k along direction   2
 The set of symmetries contains only one element for this perturbation.
 symkpt : not enough symmetry to change the number of k points.

[...]

 Perturbation wavevector (in red.coord.)   0.000000  0.000000  0.000000
 Perturbation : derivative vs k along direction   3
 The set of symmetries contains only one element for this perturbation.
 symkpt : not enough symmetry to change the number of k points.

 Initialisation of the first-order wave-functions :
  ireadwf=   0

--- !BeginCycle
iteration_state: {dtset: 1, }
solver: {iscf: 7, nstep: 2000, nline: 4, wfoptalg: 0, }
tolerances: {tolwfr: 1.00E-20, }
...

     iter   2DEtotal(Ha)        deltaE(Ha) residm    vres2
-ETOT  1  -43.554805405521     -4.355E+01 4.519E-02 0.000E+00
 ETOT  2  -43.680741253087     -1.259E-01 1.182E-02 0.000E+00
 ETOT  3  -43.682696707177     -1.955E-03 1.065E-03 0.000E+00
 ETOT  4  -43.682740453530     -4.375E-05 3.153E-04 0.000E+00
 ETOT  5  -43.682741648093     -1.195E-06 3.141E-05 0.000E+00
 ETOT  6  -43.682741684189     -3.610E-08 1.112E-05 0.000E+00
 ETOT  7  -43.682741685359     -1.169E-09 1.029E-06 0.000E+00
 ETOT  8  -43.682741685398     -3.960E-11 4.293E-07 0.000E+00
 ETOT  9  -43.682741685400     -1.393E-12 3.661E-08 0.000E+00
 ETOT 10  -43.682741685400     -1.421E-14 1.737E-08 0.000E+00
 ETOT 11  -43.682741685400     -2.132E-14 1.399E-09 0.000E+00
 ETOT 12  -43.682741685400     -4.974E-14 7.286E-10 0.000E+00
 ETOT 13  -43.682741685400      6.395E-14 5.722E-11 0.000E+00
 ETOT 14  -43.682741685400     -2.132E-14 3.140E-11 0.000E+00
 ETOT 15  -43.682741685400      2.842E-14 2.451E-12 0.000E+00
 ETOT 16  -43.682741685400      0.000E+00 1.375E-12 0.000E+00
 ETOT 17  -43.682741685400     -1.421E-14 1.075E-13 0.000E+00
 ETOT 18  -43.682741685400      0.000E+00 6.072E-14 0.000E+00
 ETOT 19  -43.682741685400     -1.421E-14 4.766E-15 0.000E+00
 ETOT 20  -43.682741685400      0.000E+00 2.696E-15 0.000E+00
 ETOT 21  -43.682741685400      0.000E+00 2.124E-16 0.000E+00
 ETOT 22  -43.682741685400      1.421E-14 1.200E-16 0.000E+00
 ETOT 23  -43.682741685400     -7.105E-15 9.496E-18 0.000E+00
 ETOT 24  -43.682741685400      2.132E-14 5.355E-18 0.000E+00
 ETOT 25  -43.682741685400      0.000E+00 4.251E-19 0.000E+00
 ETOT 26  -43.682741685400     -2.132E-14 2.392E-19 0.000E+00
 ETOT 27  -43.682741685400      2.132E-14 1.905E-20 0.000E+00
 ETOT 28  -43.682741685400      0.000E+00 1.070E-20 0.000E+00
 ETOT 29  -43.682741685400      0.000E+00 9.876E-21 0.000E+00

 At SCF step   29   max residual=  9.88E-21 < tolwfr=  1.00E-20 =>converged.

 ----iterations are completed or convergence reached----

 dfpt_looppert: DFPT cycle converged with prtwf=-1. Will skip output of the 1st-order WFK file.
 dfpt_looppert : ek2=    8.1143235145E+01
          f-sum rule ratio=    1.1062274740E+00
 prteigrs : about to open file /scratch/users/j/a/jabreu/flow_simple_11atoms/flow/w327/t1/tmpdata/tmp_1WF1_EIG
 Expectation of eigenvalue derivatives (hartree) for nkpt=   1  k points:
  (in case of degenerate eigenvalues, averaged derivative)
 kpt#   1, nband= 45, wtk=  1.00000, kpt=  0.0000  0.0000  0.0000 (reduced coord)
   0.00000    0.00000   -0.00000   -0.00000    0.00000    0.00000    0.00000   -0.00000
  -0.00000   -0.00000    0.00000    0.00000   -0.00000   -0.00000    0.00000    0.00000
   0.00000    0.00000   -0.00000   -0.00000   -0.00000   -0.00000   -0.00000    0.00000
   0.00000    0.00000   -0.00000   -0.00000    0.00000    0.00000    0.00000    0.00000
   0.00000    0.00000    0.00000   -0.00000   -0.00000    0.00000    0.00000   -0.00000
  -0.00000    0.00000   -0.00000    0.00142    0.00005

 Eight components of 2nd-order total energy (hartree) are
 1,2,3: 0th-order hamiltonian combined with 1st-order wavefunctions
     kin0=   6.73993617E+01 eigvalue=   1.50265099E+00  local=  -3.46643508E+01
 4,5,6: 1st-order hamiltonian combined with 1st and 0th-order wfs
     kin1=  -8.97628760E+01  Hartree=   0.00000000E+00     xc=   0.00000000E+00
 7,8,9: eventually, occupation + non-local contributions
    edocc=   1.01290213E+01     enl0=  -6.83941387E-01   enl1=   2.39739268E+00
 1-9 gives the relaxation energy (to be shifted if some occ is /=2.0)
   erelax=  -4.36827417E+01
  No Ewald or frozen-wf contrib.: the relaxation energy is the total one
 2DEtotal=   -0.4368274169E+02 Ha. Also 2DEtotal=   -0.118866785206E+04 eV
    (  non-var. 2DEtotal :   -4.3682741685E+01 Ha)

 CALCULATION OF EFFECTIVE MASSES
 NOTE : Additional infos (eff. mass eigenvalues, eigenvectors and, if degenerate, average mass) are available in stdout.

 K-point ( 0.000, 0.000, 0.000) | band =    36
 Effective mass tensor:
             -2.7910270886             -1.0643004528             -3.6924803511
             -1.0643004528             -1.8549329677             -2.4101649087
             -3.6924803511             -2.4101649087             -9.5218707433
 Effective mass tensor eigenvalues:
            -11.8471954352             -1.1604116273             -1.1602237372
 Angular average effective mass 1/(<1/m>)=  -1.6592240742
 Angular average effective mass for Frohlich model (<m**0.5>)**2=  -2.0178704849
 Effective masses along directions: (cart. coord. / red. coord. -> eff. mass)
    1:   1.000000  0.000000  0.000000 /   0.927677  0.373383  0.000000 ->  -1.3456168254
    2:   0.000000  1.000000  0.000000 /   0.000000  1.000000  0.000000 ->  -1.2325044947
    3:   0.000000  0.000000  1.000000 /   0.487729  0.487729  0.724044 ->  -3.9437716185
    4:   0.577350  0.577350  0.577350 /   0.591169  0.689495  0.418468 ->  -3.9196758156
    5:   0.000000  0.707107  0.707107 /   0.372127  0.745884  0.552430 ->  -2.8002748586
    6:   0.707107  0.000000  0.707107 /   0.711821  0.489308  0.503874 ->  -4.3522778096
    7:   0.707107  0.707107  0.000000 /   0.604464  0.796632  0.000000 ->  -1.4288792704

 K-point ( 0.000, 0.000, 0.000) | band =    37
 Effective mass tensor:
              0.9520019903              0.0641562846              0.2225964654
              0.0641562846              0.8955799741              0.1452911777
              0.2225964654              0.1452911777              1.3577575531
 Effective mass tensor eigenvalues:
              0.8536963629              0.8537066192              1.4979365353
 Angular average effective mass 1/(<1/m>)=   0.9965703741
 Angular average effective mass for Frohlich model (<m**0.5>)**2=   1.0154785709
 Effective masses along directions: (cart. coord. / red. coord. -> eff. mass)
    1:   1.000000  0.000000  0.000000 /   0.927677  0.373383  0.000000 ->   0.9136597469
    2:   0.000000  1.000000  0.000000 /   0.000000  1.000000  0.000000 ->   0.8782554253
    3:   0.000000  0.000000  1.000000 /   0.487729  0.487729  0.724044 ->   1.2866634500
    4:   0.577350  0.577350  0.577350 /   0.591169  0.689495  0.418468 ->   1.2850061622
    5:   0.000000  0.707107  0.707107 /   0.372127  0.745884  0.552430 ->   1.1844197717
    6:   0.707107  0.000000  0.707107 /   0.711821  0.489308  0.503874 ->   1.3127095629
    7:   0.707107  0.707107  0.000000 /   0.604464  0.796632  0.000000 ->   0.9377402995

 END OF EFFECTIVE MASSES SECTION

 ---- first-order wavefunction calculations are completed ----

 Total localisation tensor (bohr^2) in cartesian coordinates
  WARNING : still subject to testing - especially symmetries.
      direction              matrix element
   alpha     beta       real part   imaginary part
     1        1       1.1303176452    0.0000000000
     1        2       0.3584086455    0.0000000000
     1        3       1.2434205574    0.0000000000
     2        1       0.3584086455    0.0000000000
     2        2       0.8151605966    0.0000000000
     2        3       0.8116027983    0.0000000000
     3        1       1.2434205574    0.0000000000
     3        2       0.8116027983    0.0000000000
     3        3       3.3968867006    0.0000000000

 respfn : d/dk was computed, but no 2DTE, so no DDB output.

== END DATASET(S) ==============================================================

 -outvars: echo values of variables after computation  --------
            acell      1.0000000000E+00  1.0000000000E+00  1.0000000000E+00 Bohr
              amu      3.90983000E+01  9.12240000E+01  1.08110000E+01
                       1.59994000E+01
             ecut      4.40000000E+01 Hartree
           etotal     -4.3682741685E+01
            fcart      0.0000000000E+00  0.0000000000E+00  0.0000000000E+00
                       0.0000000000E+00  0.0000000000E+00  0.0000000000E+00
                       0.0000000000E+00  0.0000000000E+00  0.0000000000E+00
                       0.0000000000E+00  0.0000000000E+00  0.0000000000E+00
                       0.0000000000E+00  0.0000000000E+00  0.0000000000E+00
                       0.0000000000E+00  0.0000000000E+00  0.0000000000E+00
                       0.0000000000E+00  0.0000000000E+00  0.0000000000E+00
                       0.0000000000E+00  0.0000000000E+00  0.0000000000E+00
                       0.0000000000E+00  0.0000000000E+00  0.0000000000E+00
                       0.0000000000E+00  0.0000000000E+00  0.0000000000E+00
                       0.0000000000E+00  0.0000000000E+00  0.0000000000E+00
-          fftalg         512
           irdden           1
           irdwfk           1
           istwfk        1
              ixc     -116133
           kptopt           0
P           mkmem           1
P          mkqmem           1
P          mk1mem           1
            natom          11
            nband          45
           nbdbuf           4
            ngfft          75      75      75
             nkpt           1
            nstep        2000
             nsym          12
           ntypat           4
              occ      2.000000  2.000000  2.000000  2.000000  2.000000  2.000000
                       2.000000  2.000000  2.000000  2.000000  2.000000  2.000000
                       2.000000  2.000000  2.000000  2.000000  2.000000  2.000000
                       2.000000  2.000000  2.000000  2.000000  2.000000  2.000000
                       2.000000  2.000000  2.000000  2.000000  2.000000  2.000000
                       2.000000  2.000000  2.000000  2.000000  2.000000  2.000000
                       0.000000  0.000000  0.000000  0.000000  0.000000  0.000000
                       0.000000  0.000000  0.000000
        optdriver           1
            prtwf          -1
            rfdir           1       1       1
           rfelfd           2
            rprim      9.1435093512E+00  0.0000000000E+00  8.3336510639E+00
                       3.6801901080E+00  8.3701830341E+00  8.3336510639E+00
                       0.0000000000E+00  0.0000000000E+00  1.2371479431E+01
          spgroup         166
           strten      0.0000000000E+00  0.0000000000E+00  0.0000000000E+00
                       0.0000000000E+00  0.0000000000E+00  0.0000000000E+00
           symrel      1  0  0   0  1  0   0  0  1      -1  0  0   0 -1  0   0  0 -1
                       0  1  0   1  0  0   0  0  1       0 -1  0  -1  0  0   0  0 -1
                       0  0  1   1  0  0   0  1  0       0  0 -1  -1  0  0   0 -1  0
                       1  0  0   0  0  1   0  1  0      -1  0  0   0  0 -1   0 -1  0
                       0  1  0   0  0  1   1  0  0       0 -1  0   0  0 -1  -1  0  0
                       0  0  1   0  1  0   1  0  0       0  0 -1   0 -1  0  -1  0  0
           tolwfr      1.00000000E-20
            typat      1  1  2  3  3  4  4  4  4  4  4
           useylm           1
           xangst      1.4320855114E+00  9.3473945555E-01  3.2429033814E+00
                       5.3539239722E+00  3.4945706378E+00  1.2123757985E+01
                       0.0000000000E+00  0.0000000000E+00  0.0000000000E+00
                       2.7431153996E+00  1.7904644484E+00  6.2116808907E+00
                       4.0428940840E+00  2.6388456450E+00  9.1549804754E+00
                       2.6037084305E+00  3.1263177967E+00  5.8959990910E+00
                       2.8761327812E+00  3.3041324504E+00  9.4706622751E+00
                       5.0621594945E+00  3.3041324504E+00  8.5052998158E+00
                       4.1823010532E+00  1.3029922967E+00  9.4706622751E+00
                       3.9098767024E+00  1.1251776430E+00  5.8959990910E+00
                       1.7238499891E+00  1.1251776430E+00  6.8613615503E+00
            xcart      2.7062494154E+00  1.7664015766E+00  6.1281992662E+00
                       1.0117450044E+01  6.6037814575E+00  2.2910582292E+01
                       0.0000000000E+00  0.0000000000E+00  0.0000000000E+00
                       5.1837368561E+00  3.3834874581E+00  1.1738375708E+01
                       7.6399626031E+00  4.9866955760E+00  1.7300405850E+01
                       4.9202958635E+00  5.9078844400E+00  1.1141823562E+01
                       5.4351032783E+00  6.2439054379E+00  1.7896957997E+01
                       9.5660950856E+00  6.2439054379E+00  1.6072687330E+01
                       7.9034035957E+00  2.4622985941E+00  1.7896957997E+01
                       7.3885961809E+00  2.1262775962E+00  1.1141823562E+01
                       3.2576043736E+00  2.1262775962E+00  1.2966094229E+01
             xred      2.1103500000E-01  2.1103500000E-01  2.1103500000E-01
                       7.8896500000E-01  7.8896500000E-01  7.8896500000E-01
                       0.0000000000E+00  0.0000000000E+00  0.0000000000E+00
                       4.0423100000E-01  4.0423100000E-01  4.0423100000E-01
                       5.9576900000E-01  5.9576900000E-01  5.9576900000E-01
                       2.5403000000E-01  7.0582500000E-01  2.5403000000E-01
                       2.9417500000E-01  7.4597000000E-01  7.4597000000E-01
                       7.4597000000E-01  7.4597000000E-01  2.9417500000E-01
                       7.4597000000E-01  2.9417500000E-01  7.4597000000E-01
                       7.0582500000E-01  2.5403000000E-01  2.5403000000E-01
                       2.5403000000E-01  2.5403000000E-01  7.0582500000E-01
            znucl       19.00000   40.00000    5.00000    8.00000

- Timing analysis has been suppressed with timopt=0

 Suggested references for the acknowledgment of ABINIT usage.

 Calculation completed.
.Delivered   2 WARNINGs and   5 COMMENTs to log file.