.Version 9.5.1 of ABINIT

 ABINIT is a project of the Universite Catholique de Louvain,
 Corning Inc. and other collaborators, see ~abinit/doc/developers/contributors.txt .
 acknowledgments of the ABINIT effort.

.Starting date : Tue  4 May 2021.
- ( at 19h49 )

- input  file    -> /scratch/users/j/a/jabreu/flow_simple_6atoms/flow/w240/t1/run.abi
- output file    -> /scratch/users/j/a/jabreu/flow_simple_6atoms/flow/w240/t1/run.abo
- root for input  files -> /scratch/users/j/a/jabreu/flow_simple_6atoms/flow/w240/t1/indata/in
- root for output files -> /scratch/users/j/a/jabreu/flow_simple_6atoms/flow/w240/t1/outdata/out

 Symmetries : space group P4/n m m (#129); Bravais tP (primitive tetrag.)
     intxc =       0      iscf =       7    lmnmax =      18     lnmax =       6
     mgfft =      90  mpssoang =       3    mqgrid =    4007     natom =       6
  nloc_mem =       1    nspden =       1   nspinor =       1    nsppol =       1
      nsym =      16    n1xccc =    2501    ntypat =       3    occopt =       1
   xclevel =       2
-    mband =          37        mffmem =           1         mkmem =           2
-   mkqmem =           2        mk1mem =           2           mpw =       12968
      nfft =      225000          nkpt =           2
  Rough estimation (10% accuracy) of disk space for files :

------------- Echo of variables that govern the present computation ------------
-
- outvars: echo of selected default values
-   iomode0 =  0 , fftalg0 =512 , wfoptalg0 =  0
-
- outvars: echo of global parameters not present in the input file
-  max_nthreads =    0
-
 -outvars: echo values of preprocessed input variables --------
            acell      1.0000000000E+00  1.0000000000E+00  1.0000000000E+00 Bohr
              amu      3.90983000E+01  6.94100000E+00  7.89600000E+01
             ecut      4.30000000E+01 Hartree
-          fftalg         512
           irdden           1
           irdwfk           1
           istwfk        1    1
              ixc     -116133
              kpt      0.00000000E+00  0.00000000E+00  5.00000000E-01
                       0.00000000E+00  0.00000000E+00  0.00000000E+00
           kptopt           0
P           mkmem           2
P          mkqmem           2
P          mk1mem           2
            natom           6
            nband          37
           nbdbuf           4
            ngfft          50      50      90
             nkpt           2
            nstep        1000
             nsym          16
           ntypat           3
              occ      2.000000  2.000000  2.000000  2.000000  2.000000  2.000000
                       2.000000  2.000000  2.000000  2.000000  2.000000  2.000000
                       2.000000  2.000000  2.000000  2.000000  2.000000  2.000000
                       2.000000  2.000000  2.000000  2.000000  2.000000  2.000000
                       2.000000  2.000000  2.000000  2.000000  0.000000  0.000000
                       0.000000  0.000000  0.000000  0.000000  0.000000  0.000000
                       0.000000
        optdriver           1
            prtwf          -1
            rfdir           1       1       1
           rfelfd           2
            rprim      8.4156368949E+00  0.0000000000E+00  0.0000000000E+00
                       0.0000000000E+00  8.4156368949E+00  0.0000000000E+00
                       0.0000000000E+00  0.0000000000E+00  1.3573703236E+01
          spgroup         129
           symrel      1  0  0   0  1  0   0  0  1      -1  0  0   0 -1  0   0  0 -1
                      -1  0  0   0  1  0   0  0 -1       1  0  0   0 -1  0   0  0  1
                      -1  0  0   0 -1  0   0  0  1       1  0  0   0  1  0   0  0 -1
                       1  0  0   0 -1  0   0  0 -1      -1  0  0   0  1  0   0  0  1
                       0  1  0   1  0  0   0  0  1       0 -1  0  -1  0  0   0  0 -1
                       0 -1  0   1  0  0   0  0 -1       0  1  0  -1  0  0   0  0  1
                       0 -1  0  -1  0  0   0  0  1       0  1  0   1  0  0   0  0 -1
                       0  1  0  -1  0  0   0  0 -1       0 -1  0   1  0  0   0  0  1
            tnons      0.0000000  0.0000000  0.0000000     0.5000000  0.5000000 -0.0000000
                       0.5000000  0.5000000 -0.0000000     0.0000000 -0.0000000  0.0000000
                       0.0000000 -0.0000000  0.0000000     0.5000000  0.5000000 -0.0000000
                       0.5000000  0.5000000 -0.0000000     0.0000000  0.0000000  0.0000000
                       0.5000000  0.5000000  0.0000000    -0.0000000  0.0000000 -0.0000000
                       0.0000000  0.0000000 -0.0000000     0.5000000  0.5000000  0.0000000
                       0.5000000  0.5000000  0.0000000     0.0000000  0.0000000 -0.0000000
                      -0.0000000  0.0000000 -0.0000000     0.5000000  0.5000000  0.0000000
           tolwfr      1.00000000E-20
            typat      1  1  2  2  3  3
           useylm           1
              wtk        0.50000    0.50000
           xangst      0.0000000000E+00  2.2266816203E+00  4.7497320118E+00
                       2.2266816203E+00  0.0000000000E+00  2.4331623768E+00
                       0.0000000000E+00  0.0000000000E+00  0.0000000000E+00
                       2.2266816203E+00  2.2266816203E+00  0.0000000000E+00
                       0.0000000000E+00  2.2266816203E+00  1.3866290301E+00
                       2.2266816203E+00  0.0000000000E+00  5.7962653585E+00
            xcart      0.0000000000E+00  4.2078184474E+00  8.9756927070E+00
                       4.2078184474E+00  0.0000000000E+00  4.5980105289E+00
                       0.0000000000E+00  0.0000000000E+00  0.0000000000E+00
                       4.2078184474E+00  4.2078184474E+00  0.0000000000E+00
                       0.0000000000E+00  4.2078184474E+00  2.6203491149E+00
                       4.2078184474E+00  0.0000000000E+00  1.0953354121E+01
             xred      0.0000000000E+00  5.0000000000E-01  6.6125600000E-01
                       5.0000000000E-01  0.0000000000E+00  3.3874400000E-01
                       0.0000000000E+00  0.0000000000E+00  0.0000000000E+00
                       5.0000000000E-01  5.0000000000E-01  0.0000000000E+00
                       0.0000000000E+00  5.0000000000E-01  1.9304600000E-01
                       5.0000000000E-01  0.0000000000E+00  8.0695400000E-01
            znucl       19.00000    3.00000   34.00000

 chkinp: Checking input parameters for consistency.

== DATASET  1 ==================================================================
-   mpi_nproc: 1, omp_nthreads: -1 (-1 if OMP is not activated)

--- !DatasetInfo
iteration_state: {dtset: 1, }
dimensions: {natom: 6, nkpt: 2, mband: 37, nsppol: 1, nspinor: 1, nspden: 1, mpw: 12968, }
cutoff_energies: {ecut:  43.0, pawecutdg:  -1.0, }
electrons: {nelect:   5.60000000E+01, charge:   0.00000000E+00, occopt:   1.00000000E+00, tsmear:   1.00000000E-02, }
meta: {optdriver: 1, rfelfd: 2, }
...

 Real(R)+Recip(G) space primitive vectors, cartesian coordinates (Bohr,Bohr^-1):
 R(1)=  8.4156369  0.0000000  0.0000000  G(1)=  0.1188264  0.0000000  0.0000000
 R(2)=  0.0000000  8.4156369  0.0000000  G(2)=  0.0000000  0.1188264  0.0000000
 R(3)=  0.0000000  0.0000000 13.5737032  G(3)=  0.0000000  0.0000000  0.0736719
 Unit cell volume ucvol=  9.6132963E+02 bohr^3
 Angles (23,13,12)=  9.00000000E+01  9.00000000E+01  9.00000000E+01 degrees

 getcut: wavevector=  0.0000  0.0000  0.0000  ngfft=  50  50  90
         ecut(hartree)=     43.000   => boxcut(ratio)=   2.01272

--- Pseudopotential description ------------------------------------------------
- pspini: atom type   1  psp file is /scratch/users/j/a/jabreu/pseudos/PBEsol/K.psp8
- pspatm: opening atomic psp file    /scratch/users/j/a/jabreu/pseudos/PBEsol/K.psp8
- K     ONCVPSP-3.3.0  r_core=   1.36296   1.46408   1.61068
- 19.00000   9.00000    180112                znucl, zion, pspdat
    8 -116133    2    4       400   0.00000   pspcod,pspxc,lmax,lloc,mmax,r2well
    3.99000000000000    5.00000000000000    0.00000000000000   rchrg,fchrg,qchrg
     nproj     2     2     2
     extension_switch     1
  pspatm : epsatm=    8.32487830
         --- l  ekb(1:nproj) -->
             0   10.921326    0.816676
             1    4.431000    0.560368
             2   -3.384038   -1.043186
 pspatm: atomic psp has been read  and splines computed

- pspini: atom type   2  psp file is /scratch/users/j/a/jabreu/pseudos/PBEsol/Li.psp8
- pspatm: opening atomic psp file    /scratch/users/j/a/jabreu/pseudos/PBEsol/Li.psp8
- Li    ONCVPSP-3.3.0  r_core=   1.40824   1.10935
-  3.00000   3.00000    180112                znucl, zion, pspdat
    8 -116133    1    4       400   0.00000   pspcod,pspxc,lmax,lloc,mmax,r2well
    3.99000000000000    0.00000000000000    0.00000000000000   rchrg,fchrg,qchrg
     nproj     2     2
     extension_switch     1
  pspatm : epsatm=    2.60859637
         --- l  ekb(1:nproj) -->
             0   -4.855856   -1.482423
             1   -2.171544   -0.427615
 pspatm: atomic psp has been read  and splines computed

- pspini: atom type   3  psp file is /scratch/users/j/a/jabreu/pseudos/PBEsol/Se.psp8
- pspatm: opening atomic psp file    /scratch/users/j/a/jabreu/pseudos/PBEsol/Se.psp8
- Se    ONCVPSP-3.3.0  r_core=   1.81943   1.50330   1.90835
- 34.00000  16.00000    180112                znucl, zion, pspdat
    8 -116133    2    4       600   0.00000   pspcod,pspxc,lmax,lloc,mmax,r2well
    5.99000000000000    5.00000000000000    0.00000000000000   rchrg,fchrg,qchrg
     nproj     2     2     2
     extension_switch     1
  pspatm : epsatm=   29.17862020
         --- l  ekb(1:nproj) -->
             0    8.973804    1.019550
             1    6.849857    1.297308
             2   -9.203962   -3.731027
 pspatm: atomic psp has been read  and splines computed

   4.49255463E+03                                ecore*ucvol(ha*bohr**3)

-inwffil : will read wavefunctions from disk file /scratch/users/j/a/jabreu/flow_simple_6atoms/flow/w240/t1/indata/in_WFK

 ==>  initialize data related to q vector <==

 The list of irreducible perturbations for this q vector is:
    1)    idir= 1    ipert=   7
    2)    idir= 2    ipert=   7
    3)    idir= 3    ipert=   7

 Perturbation wavevector (in red.coord.)   0.000000  0.000000  0.000000
 Perturbation : derivative vs k along direction   1

 dfpt_looppert : COMMENT -
  In a d/dk calculation, iscf is set to -3 automatically.
 The set of symmetries contains only one element for this perturbation.
 symkpt : not enough symmetry to change the number of k points.

[...]

 Initialisation of the first-order wave-functions :
  ireadwf=   0

--- !BeginCycle
iteration_state: {dtset: 1, }
solver: {iscf: 7, nstep: 1000, nline: 4, wfoptalg: 0, }
tolerances: {tolwfr: 1.00E-20, }
...

     iter   2DEtotal(Ha)        deltaE(Ha) residm    vres2
-ETOT  1  -62.696400385210     -6.270E+01 2.142E-01 0.000E+00
 ETOT  2  -62.763685869090     -6.729E-02 5.352E-03 0.000E+00
 ETOT  3  -62.764312446060     -6.266E-04 9.608E-04 0.000E+00
 ETOT  4  -62.764329331352     -1.689E-05 3.932E-05 0.000E+00
 ETOT  5  -62.764329883361     -5.520E-07 1.545E-05 0.000E+00
[...]
  (in case of degenerate eigenvalues, averaged derivative)
 kpt#   1, nband= 37, wtk=  0.50000, kpt=  0.0000  0.0000  0.5000 (reduced coord)
  -0.00000   -0.00000   -0.00000   -0.00000    0.00000    0.00000    0.00000   -0.00000
   0.00000   -0.00000    0.00000    0.00000   -0.00000   -0.00000    0.00000   -0.00000
  -0.00000   -0.00000   -0.00000   -0.00000    0.00000   -0.00000   -0.00000    0.00000
   0.00000    0.00000   -0.00000   -0.00000    0.00000   -0.00000   -0.00000   -0.00000
  -0.00000    0.00000    0.00000   -0.00000    0.06291
 prteigrs : prtvol=0 or 1, do not print more k-points.

 Eight components of 2nd-order total energy (hartree) are
 1,2,3: 0th-order hamiltonian combined with 1st-order wavefunctions
     kin0=   6.61323895E+01 eigvalue=   1.09609261E+01  local=  -2.95989535E+01
 4,5,6: 1st-order hamiltonian combined with 1st and 0th-order wfs
     kin1=  -7.10180711E+01  Hartree=   0.00000000E+00     xc=   0.00000000E+00
 7,8,9: eventually, occupation + non-local contributions
    edocc=   1.12067582E+01     enl0=   4.06320966E+00   enl1=  -5.45105887E+01
 1-9 gives the relaxation energy (to be shifted if some occ is /=2.0)
   erelax=  -6.27643299E+01
  No Ewald or frozen-wf contrib.: the relaxation energy is the total one
 2DEtotal=   -0.6276432990E+02 Ha. Also 2DEtotal=   -0.170790427375E+04 eV
    (  non-var. 2DEtotal :   -6.2764329904E+01 Ha)

 Perturbation wavevector (in red.coord.)   0.000000  0.000000  0.000000
 Perturbation : derivative vs k along direction   2
 The set of symmetries contains only one element for this perturbation.
 symkpt : not enough symmetry to change the number of k points.

[...]

 Perturbation wavevector (in red.coord.)   0.000000  0.000000  0.000000
 Perturbation : derivative vs k along direction   3
 The set of symmetries contains only one element for this perturbation.
 symkpt : not enough symmetry to change the number of k points.

-inwffil : will read wavefunctions from disk file /scratch/users/j/a/jabreu/flow_simple_6atoms/flow/w240/t1/indata/in_WFK

 Initialisation of the first-order wave-functions :
  ireadwf=   0

--- !BeginCycle
iteration_state: {dtset: 1, }
solver: {iscf: 7, nstep: 1000, nline: 4, wfoptalg: 0, }
tolerances: {tolwfr: 1.00E-20, }
...

     iter   2DEtotal(Ha)        deltaE(Ha) residm    vres2
-ETOT  1  -22.607010775697     -2.261E+01 6.348E-02 0.000E+00
 ETOT  2  -22.632577939401     -2.557E-02 7.826E-03 0.000E+00
 ETOT  3  -22.632777648876     -1.997E-04 7.676E-04 0.000E+00
 ETOT  4  -22.632781395188     -3.746E-06 8.197E-05 0.000E+00
 ETOT  5  -22.632781486911     -9.172E-08 1.119E-05 0.000E+00
 ETOT  6  -22.632781489587     -2.675E-09 1.202E-06 0.000E+00
 ETOT  7  -22.632781489673     -8.597E-11 1.664E-07 0.000E+00
 ETOT  8  -22.632781489675     -2.906E-12 1.850E-08 0.000E+00
 ETOT  9  -22.632781489676     -1.101E-13 2.497E-09 0.000E+00
 ETOT 10  -22.632781489676     -7.105E-15 2.874E-10 0.000E+00
 ETOT 11  -22.632781489676     -2.132E-14 3.767E-11 0.000E+00
 ETOT 12  -22.632781489676      1.421E-14 4.480E-12 0.000E+00
 ETOT 13  -22.632781489676      3.553E-15 5.702E-13 0.000E+00
 ETOT 14  -22.632781489676     -3.553E-15 7.003E-14 0.000E+00
 ETOT 15  -22.632781489676      3.553E-15 8.650E-15 0.000E+00
 ETOT 16  -22.632781489676     -7.105E-15 1.098E-15 0.000E+00
 ETOT 17  -22.632781489676      3.553E-15 1.314E-16 0.000E+00
 ETOT 18  -22.632781489676     -3.553E-15 1.728E-17 0.000E+00
 ETOT 19  -22.632781489676     -7.105E-15 2.000E-18 0.000E+00
 ETOT 20  -22.632781489676      0.000E+00 2.730E-19 0.000E+00
 ETOT 21  -22.632781489676      0.000E+00 3.850E-20 0.000E+00
 ETOT 22  -22.632781489676      3.553E-15 9.980E-21 0.000E+00

 At SCF step   22   max residual=  9.98E-21 < tolwfr=  1.00E-20 =>converged.

 ----iterations are completed or convergence reached----

 dfpt_looppert: DFPT cycle converged with prtwf=-1. Will skip output of the 1st-order WFK file.
 dfpt_looppert : ek2=    2.3998332131E+01
          f-sum rule ratio=    1.0154159764E+00
 prteigrs : about to open file /scratch/users/j/a/jabreu/flow_simple_6atoms/flow/w240/t1/tmpdata/tmp_1WF1_EIG
 Expectation of eigenvalue derivatives (hartree) for nkpt=   2  k points:
  (in case of degenerate eigenvalues, averaged derivative)
 kpt#   1, nband= 37, wtk=  0.50000, kpt=  0.0000  0.0000  0.5000 (reduced coord)
  -0.00000    0.00000   -0.00000   -0.00000   -0.00000   -0.00000   -0.00000    0.00000
  -0.00000   -0.00000   -0.00000    0.00000   -0.00000    0.00000   -0.00000   -0.00000
  -0.00000   -0.00000   -0.00000   -0.00000   -0.00000    0.00000    0.00000    0.00000
   0.00000   -0.00000   -0.00000   -0.00000    0.00000   -0.00000   -0.00000   -0.00000
  -0.00000   -0.00000    0.00021   -0.00000   -0.00000
 prteigrs : prtvol=0 or 1, do not print more k-points.

 Eight components of 2nd-order total energy (hartree) are
 1,2,3: 0th-order hamiltonian combined with 1st-order wavefunctions
     kin0=   2.52114790E+01 eigvalue=   4.30839975E+00  local=  -1.14346609E+01
 4,5,6: 1st-order hamiltonian combined with 1st and 0th-order wfs
     kin1=  -2.43682899E+01  Hartree=   0.00000000E+00     xc=   0.00000000E+00
 7,8,9: eventually, occupation + non-local contributions
    edocc=   2.75938030E+00     enl0=   1.78818335E+00   enl1=  -2.08972731E+01
 1-9 gives the relaxation energy (to be shifted if some occ is /=2.0)
   erelax=  -2.26327815E+01
  No Ewald or frozen-wf contrib.: the relaxation energy is the total one
 2DEtotal=   -0.2263278149E+02 Ha. Also 2DEtotal=   -0.615869304935E+03 eV
    (  non-var. 2DEtotal :   -2.2632781490E+01 Ha)

 CALCULATION OF EFFECTIVE MASSES
 NOTE : Additional infos (eff. mass eigenvalues, eigenvectors and, if degenerate, average mass) are available in stdout.

 COMMENTS:
 - At k-point ( 0.000, 0.000, 0.500), bands    27 through    28
   are DEGENERATE (effective mass tensor is therefore not defined).
   See Section IIIB Eqs. (67)-(70) and Appendix E of PRB 93 205147 (2016).
 - Angular average effective mass for Frohlich model is to be averaged over degenerate bands. See later.
 - Associated theta integrals calculated with ntheta=   1000 points.

 K-point ( 0.000, 0.000, 0.500) | band =    27
 Transport equivalent effective mass tensor:
             -0.4486864545              0.0001014431              0.0000372678
              0.0001014431             -0.4486474626              0.0000040229
              0.0000372678              0.0000040229            -14.5296100760
 Transport equivalent effective mass tensor eigenvalues:
            -14.5296100761             -0.4487702580             -0.4485636590
 Angular average effective mass 1/(<1/m>)=  -0.6240704493
 Angular average effective mass for Frohlich model (<m**0.5>)**2=  -0.8508682912
 Effective masses along directions: (cart. coord. / red. coord. -> eff. mass)
    1:   1.000000  0.000000  0.000000 /   1.000000  0.000000  0.000000 ->  -0.3729205071
    2:   0.000000  1.000000  0.000000 /   0.000000  1.000000  0.000000 ->  -0.3729205072
    3:   0.000000  0.000000  1.000000 /   0.000000  0.000000  1.000000 -> -13.1551471332
    4:   0.577350  0.577350  0.577350 /   0.466177  0.466177  0.751903 ->  -0.7488460453
    5:   0.000000  0.707107  0.707107 /   0.000000  0.526937  0.849904 ->  -0.7253382965
    6:   0.707107  0.000000  0.707107 /   0.526937  0.000000  0.849904 ->  -0.7253537487
    7:   0.707107  0.707107  0.000000 /   0.707107  0.707107  0.000000 ->  -0.5088657619

 K-point ( 0.000, 0.000, 0.500) | band =    28
 Transport equivalent effective mass tensor:
             -2.2095873191              0.0001907569              0.0004904099
              0.0001907569             -2.2104094778             -0.0000616911
              0.0004904099             -0.0000616911            -28.3920028367
 Transport equivalent effective mass tensor eigenvalues:
            -28.3920028460             -2.2104515799             -2.2095452076
 Angular average effective mass 1/(<1/m>)=  -1.9177580964
 Angular average effective mass for Frohlich model (<m**0.5>)**2=  -2.4784702609
 Effective masses along directions: (cart. coord. / red. coord. -> eff. mass)
    1:   1.000000  0.000000  0.000000 /   1.000000  0.000000  0.000000 ->  -2.3340746775
    2:   0.000000  1.000000  0.000000 /   0.000000  1.000000  0.000000 ->  -2.3340746776
    3:   0.000000  0.000000  1.000000 /   0.000000  0.000000  1.000000 -> -13.2421504939
    4:   0.577350  0.577350  0.577350 /   0.466177  0.466177  0.751903 ->  -1.2683046663
    5:   0.000000  0.707107  0.707107 /   0.000000  0.526937  0.849904 ->  -3.9669648148
    6:   0.707107  0.000000  0.707107 /   0.526937  0.000000  0.849904 ->  -3.9660090068
    7:   0.707107  0.707107  0.000000 /   0.707107  0.707107  0.000000 ->  -0.8735019572

 Angular average effective mass for Frohlich model, averaged over degenerate bands.
 Value of     (<<m**0.5>>)**2 =     1.558429E+00
 Absolute Value of <<m**0.5>> =     1.248371E+00

 K-point ( 0.000, 0.000, 0.000) | band =    29
 Effective mass tensor:
              0.2785967940              0.0000000000              0.0000000003
              0.0000000000              0.2785967940             -0.0000000001
              0.0000000003             -0.0000000001              0.2435608812
 Effective mass tensor eigenvalues:
              0.2435608812              0.2785967940              0.2785967940
 Angular average effective mass 1/(<1/m>)=   0.2658494302
 Angular average effective mass for Frohlich model (<m**0.5>)**2=   0.2661770342
 Effective masses along directions: (cart. coord. / red. coord. -> eff. mass)
    1:   1.000000  0.000000  0.000000 /   1.000000  0.000000  0.000000 ->   0.2785967940
    2:   0.000000  1.000000  0.000000 /   0.000000  1.000000  0.000000 ->   0.2785967940
    3:   0.000000  0.000000  1.000000 /   0.000000  0.000000  1.000000 ->   0.2435608812
    4:   0.577350  0.577350  0.577350 /   0.466177  0.466177  0.751903 ->   0.2658494304
    5:   0.000000  0.707107  0.707107 /   0.000000  0.526937  0.849904 ->   0.2599034118
    6:   0.707107  0.000000  0.707107 /   0.526937  0.000000  0.849904 ->   0.2599034121
    7:   0.707107  0.707107  0.000000 /   0.707107  0.707107  0.000000 ->   0.2785967940

 END OF EFFECTIVE MASSES SECTION

 ---- first-order wavefunction calculations are completed ----

 Total localisation tensor (bohr^2) in cartesian coordinates
  WARNING : still subject to testing - especially symmetries.
      direction              matrix element
   alpha     beta       real part   imaginary part
     1        1       1.2803060715    0.0000000000
     1        2       0.0000000000    0.0000000000
     1        3       0.0000000000    0.0000000000
     2        1       0.0000000000    0.0000000000
     2        2       1.2803080452    0.0000000000
     2        3       0.0000000000    0.0000000000
     3        1       0.0000000000    0.0000000000
     3        2       0.0000000000    0.0000000000
     3        3       0.8831090922    0.0000000000

 respfn : d/dk was computed, but no 2DTE, so no DDB output.

== END DATASET(S) ==============================================================

 -outvars: echo values of variables after computation  --------
            acell      1.0000000000E+00  1.0000000000E+00  1.0000000000E+00 Bohr
              amu      3.90983000E+01  6.94100000E+00  7.89600000E+01
             ecut      4.30000000E+01 Hartree
           etotal     -2.2632781490E+01
            fcart      0.0000000000E+00  0.0000000000E+00  0.0000000000E+00
                       0.0000000000E+00  0.0000000000E+00  0.0000000000E+00
                       0.0000000000E+00  0.0000000000E+00  0.0000000000E+00
                       0.0000000000E+00  0.0000000000E+00  0.0000000000E+00
                       0.0000000000E+00  0.0000000000E+00  0.0000000000E+00
                       0.0000000000E+00  0.0000000000E+00  0.0000000000E+00
-          fftalg         512
           irdden           1
           irdwfk           1
           istwfk        1    1
              ixc     -116133
              kpt      0.00000000E+00  0.00000000E+00  5.00000000E-01
                       0.00000000E+00  0.00000000E+00  0.00000000E+00
           kptopt           0
P           mkmem           2
P          mkqmem           2
P          mk1mem           2
            natom           6
            nband          37
           nbdbuf           4
            ngfft          50      50      90
             nkpt           2
            nstep        1000
             nsym          16
           ntypat           3
              occ      2.000000  2.000000  2.000000  2.000000  2.000000  2.000000
                       2.000000  2.000000  2.000000  2.000000  2.000000  2.000000
                       2.000000  2.000000  2.000000  2.000000  2.000000  2.000000
                       2.000000  2.000000  2.000000  2.000000  2.000000  2.000000
                       2.000000  2.000000  2.000000  2.000000  0.000000  0.000000
                       0.000000  0.000000  0.000000  0.000000  0.000000  0.000000
                       0.000000
        optdriver           1
            prtwf          -1
            rfdir           1       1       1
           rfelfd           2
            rprim      8.4156368949E+00  0.0000000000E+00  0.0000000000E+00
                       0.0000000000E+00  8.4156368949E+00  0.0000000000E+00
                       0.0000000000E+00  0.0000000000E+00  1.3573703236E+01
          spgroup         129
           strten      0.0000000000E+00  0.0000000000E+00  0.0000000000E+00
                       0.0000000000E+00  0.0000000000E+00  0.0000000000E+00
           symrel      1  0  0   0  1  0   0  0  1      -1  0  0   0 -1  0   0  0 -1
                      -1  0  0   0  1  0   0  0 -1       1  0  0   0 -1  0   0  0  1
                      -1  0  0   0 -1  0   0  0  1       1  0  0   0  1  0   0  0 -1
                       1  0  0   0 -1  0   0  0 -1      -1  0  0   0  1  0   0  0  1
                       0  1  0   1  0  0   0  0  1       0 -1  0  -1  0  0   0  0 -1
                       0 -1  0   1  0  0   0  0 -1       0  1  0  -1  0  0   0  0  1
                       0 -1  0  -1  0  0   0  0  1       0  1  0   1  0  0   0  0 -1
                       0  1  0  -1  0  0   0  0 -1       0 -1  0   1  0  0   0  0  1
            tnons      0.0000000  0.0000000  0.0000000     0.5000000  0.5000000 -0.0000000
                       0.5000000  0.5000000 -0.0000000     0.0000000 -0.0000000  0.0000000
                       0.0000000 -0.0000000  0.0000000     0.5000000  0.5000000 -0.0000000
                       0.5000000  0.5000000 -0.0000000     0.0000000  0.0000000  0.0000000
                       0.5000000  0.5000000  0.0000000    -0.0000000  0.0000000 -0.0000000
                       0.0000000  0.0000000 -0.0000000     0.5000000  0.5000000  0.0000000
                       0.5000000  0.5000000  0.0000000     0.0000000  0.0000000 -0.0000000
                      -0.0000000  0.0000000 -0.0000000     0.5000000  0.5000000  0.0000000
           tolwfr      1.00000000E-20
            typat      1  1  2  2  3  3
           useylm           1
              wtk        0.50000    0.50000
           xangst      0.0000000000E+00  2.2266816203E+00  4.7497320118E+00
                       2.2266816203E+00  0.0000000000E+00  2.4331623768E+00
                       0.0000000000E+00  0.0000000000E+00  0.0000000000E+00
                       2.2266816203E+00  2.2266816203E+00  0.0000000000E+00
                       0.0000000000E+00  2.2266816203E+00  1.3866290301E+00
                       2.2266816203E+00  0.0000000000E+00  5.7962653585E+00
            xcart      0.0000000000E+00  4.2078184474E+00  8.9756927070E+00
                       4.2078184474E+00  0.0000000000E+00  4.5980105289E+00
                       0.0000000000E+00  0.0000000000E+00  0.0000000000E+00
                       4.2078184474E+00  4.2078184474E+00  0.0000000000E+00
                       0.0000000000E+00  4.2078184474E+00  2.6203491149E+00
                       4.2078184474E+00  0.0000000000E+00  1.0953354121E+01
             xred      0.0000000000E+00  5.0000000000E-01  6.6125600000E-01
                       5.0000000000E-01  0.0000000000E+00  3.3874400000E-01
                       0.0000000000E+00  0.0000000000E+00  0.0000000000E+00
                       5.0000000000E-01  5.0000000000E-01  0.0000000000E+00
                       0.0000000000E+00  5.0000000000E-01  1.9304600000E-01
                       5.0000000000E-01  0.0000000000E+00  8.0695400000E-01
            znucl       19.00000    3.00000   34.00000

- Timing analysis has been suppressed with timopt=0

 Suggested references for the acknowledgment of ABINIT usage.

 Calculation completed.
.Delivered  14 WARNINGs and   9 COMMENTs to log file.