.Version 9.5.1 of ABINIT

 ABINIT is a project of the Universite Catholique de Louvain,
 Corning Inc. and other collaborators, see ~abinit/doc/developers/contributors.txt .
 acknowledgments of the ABINIT effort.

.Starting date : Tue  4 May 2021.
- ( at 19h29 )

- input  file    -> /scratch/users/j/a/jabreu/flow_simple_6atoms/flow/w192/t1/run.abi
- output file    -> /scratch/users/j/a/jabreu/flow_simple_6atoms/flow/w192/t1/run.abo
- root for input  files -> /scratch/users/j/a/jabreu/flow_simple_6atoms/flow/w192/t1/indata/in
- root for output files -> /scratch/users/j/a/jabreu/flow_simple_6atoms/flow/w192/t1/outdata/out

 Symmetries : space group P4/n m m (#129); Bravais tP (primitive tetrag.)
     intxc =       0      iscf =       7    lmnmax =      18     lnmax =       6
     mgfft =      90  mpssoang =       3    mqgrid =    4257     natom =       6
  nloc_mem =       1    nspden =       1   nspinor =       1    nsppol =       1
      nsym =      16    n1xccc =    2501    ntypat =       3    occopt =       1
   xclevel =       2
-    mband =          33        mffmem =           1         mkmem =           2
-   mkqmem =           2        mk1mem =           2           mpw =       15363
      nfft =      262440          nkpt =           2
  Rough estimation (10% accuracy) of disk space for files :

------------- Echo of variables that govern the present computation ------------
-
- outvars: echo of selected default values
-   iomode0 =  0 , fftalg0 =512 , wfoptalg0 =  0
-
- outvars: echo of global parameters not present in the input file
-  max_nthreads =    0
-
 -outvars: echo values of preprocessed input variables --------
            acell      1.0000000000E+00  1.0000000000E+00  1.0000000000E+00 Bohr
              amu      8.54678000E+01  2.29897680E+01  3.20660000E+01
             ecut      4.40000000E+01 Hartree
-          fftalg         512
           irdden           1
           irdwfk           1
           istwfk        1    1
              ixc     -116133
              kpt      0.00000000E+00  3.08148791E-33  5.00000000E-01
                       0.00000000E+00  0.00000000E+00  0.00000000E+00
           kptopt           0
P           mkmem           2
P          mkqmem           2
P          mk1mem           2
            natom           6
            nband          33
           nbdbuf           4
            ngfft          54      54      90
             nkpt           2
            nstep        1000
             nsym          16
           ntypat           3
              occ      2.000000  2.000000  2.000000  2.000000  2.000000  2.000000
                       2.000000  2.000000  2.000000  2.000000  2.000000  2.000000
                       2.000000  2.000000  2.000000  2.000000  2.000000  2.000000
                       2.000000  2.000000  2.000000  2.000000  2.000000  2.000000
                       0.000000  0.000000  0.000000  0.000000  0.000000  0.000000
                       0.000000  0.000000  0.000000
        optdriver           1
            prtwf          -1
            rfdir           1       1       1
           rfelfd           2
            rprim      8.7880647809E+00  0.0000000000E+00  0.0000000000E+00
                       0.0000000000E+00  8.7880647809E+00  0.0000000000E+00
                       0.0000000000E+00  0.0000000000E+00  1.4254962656E+01
          spgroup         129
           symrel      1  0  0   0  1  0   0  0  1      -1  0  0   0 -1  0   0  0 -1
                      -1  0  0   0  1  0   0  0 -1       1  0  0   0 -1  0   0  0  1
                      -1  0  0   0 -1  0   0  0  1       1  0  0   0  1  0   0  0 -1
                       1  0  0   0 -1  0   0  0 -1      -1  0  0   0  1  0   0  0  1
                       0  1  0   1  0  0   0  0  1       0 -1  0  -1  0  0   0  0 -1
                       0 -1  0   1  0  0   0  0 -1       0  1  0  -1  0  0   0  0  1
                       0 -1  0  -1  0  0   0  0  1       0  1  0   1  0  0   0  0 -1
                       0  1  0  -1  0  0   0  0 -1       0 -1  0   1  0  0   0  0  1
            tnons      0.0000000  0.0000000  0.0000000     0.5000000  0.5000000  0.0000000
                       0.5000000  0.5000000  0.0000000     0.0000000 -0.0000000  0.0000000
                       0.0000000 -0.0000000  0.0000000     0.5000000  0.5000000  0.0000000
                       0.5000000  0.5000000  0.0000000     0.0000000  0.0000000  0.0000000
                       0.5000000  0.5000000  0.0000000    -0.0000000  0.0000000  0.0000000
                       0.0000000  0.0000000  0.0000000     0.5000000  0.5000000  0.0000000
                       0.5000000  0.5000000  0.0000000     0.0000000  0.0000000  0.0000000
                      -0.0000000  0.0000000  0.0000000     0.5000000  0.5000000  0.0000000
           tolwfr      1.00000000E-20
            typat      1  1  2  2  3  3
           useylm           1
              wtk        0.50000    0.50000
           xangst      0.0000000000E+00  2.3252217948E+00  2.6534065106E+00
                       2.3252217948E+00  0.0000000000E+00  4.8899948364E+00
                       0.0000000000E+00  0.0000000000E+00  0.0000000000E+00
                       2.3252217948E+00  2.3252217948E+00  0.0000000000E+00
                       2.3252217948E+00  0.0000000000E+00  1.5735987814E+00
                       0.0000000000E+00  2.3252217948E+00  5.9698025656E+00
            xcart      0.0000000000E+00  4.3940323904E+00  5.0142116243E+00
                       4.3940323904E+00  0.0000000000E+00  9.2407510320E+00
                       0.0000000000E+00  0.0000000000E+00  0.0000000000E+00
                       4.3940323904E+00  4.3940323904E+00  0.0000000000E+00
                       4.3940323904E+00  0.0000000000E+00  2.9736707399E+00
                       0.0000000000E+00  4.3940323904E+00  1.1281291916E+01
             xred      0.0000000000E+00  5.0000000000E-01  3.5175200000E-01
                       5.0000000000E-01  0.0000000000E+00  6.4824800000E-01
                       0.0000000000E+00  0.0000000000E+00  0.0000000000E+00
                       5.0000000000E-01  5.0000000000E-01  0.0000000000E+00
                       5.0000000000E-01  0.0000000000E+00  2.0860600000E-01
                       0.0000000000E+00  5.0000000000E-01  7.9139400000E-01
            znucl       37.00000   11.00000   16.00000

 chkinp: Checking input parameters for consistency.

== DATASET  1 ==================================================================
-   mpi_nproc: 1, omp_nthreads: -1 (-1 if OMP is not activated)

--- !DatasetInfo
iteration_state: {dtset: 1, }
dimensions: {natom: 6, nkpt: 2, mband: 33, nsppol: 1, nspinor: 1, nspden: 1, mpw: 15363, }
cutoff_energies: {ecut:  44.0, pawecutdg:  -1.0, }
electrons: {nelect:   4.80000000E+01, charge:   0.00000000E+00, occopt:   1.00000000E+00, tsmear:   1.00000000E-02, }
meta: {optdriver: 1, rfelfd: 2, }
...

 Real(R)+Recip(G) space primitive vectors, cartesian coordinates (Bohr,Bohr^-1):
 R(1)=  8.7880648  0.0000000  0.0000000  G(1)=  0.1137907  0.0000000  0.0000000
 R(2)=  0.0000000  8.7880648  0.0000000  G(2)=  0.0000000  0.1137907  0.0000000
 R(3)=  0.0000000  0.0000000 14.2549627  G(3)=  0.0000000  0.0000000  0.0701510
 Unit cell volume ucvol=  1.1009119E+03 bohr^3
 Angles (23,13,12)=  9.00000000E+01  9.00000000E+01  9.00000000E+01 degrees

 getcut: wavevector=  0.0000  0.0000  0.0000  ngfft=  54  54  90
         ecut(hartree)=     44.000   => boxcut(ratio)=   2.05783

--- Pseudopotential description ------------------------------------------------
- pspini: atom type   1  psp file is /scratch/users/j/a/jabreu/pseudos/PBEsol/Rb.psp8
- pspatm: opening atomic psp file    /scratch/users/j/a/jabreu/pseudos/PBEsol/Rb.psp8
- Rb    ONCVPSP-3.3.0  r_core=   1.71227   1.75361   1.90633
- 37.00000   9.00000    180112                znucl, zion, pspdat
    8 -116133    2    4       600   0.00000   pspcod,pspxc,lmax,lloc,mmax,r2well
    5.99000000000000    7.00000000000000    0.00000000000000   rchrg,fchrg,qchrg
     nproj     2     2     2
     extension_switch     1
  pspatm : epsatm=   34.48400912
         --- l  ekb(1:nproj) -->
             0    8.196957   -0.477221
             1    3.231347   -0.378736
             2   -1.047201    0.996637
 pspatm: atomic psp has been read  and splines computed

- pspini: atom type   2  psp file is /scratch/users/j/a/jabreu/pseudos/PBEsol/Na.psp8
- pspatm: opening atomic psp file    /scratch/users/j/a/jabreu/pseudos/PBEsol/Na.psp8
- Na    ONCVPSP-3.3.0  r_core=   1.20708   1.55069
- 11.00000   9.00000    180112                znucl, zion, pspdat
    8 -116133    1    4       400   0.00000   pspcod,pspxc,lmax,lloc,mmax,r2well
    3.99000000000000    0.00000000000000    0.00000000000000   rchrg,fchrg,qchrg
     nproj     2     2
     extension_switch     1
  pspatm : epsatm=    9.32878306
         --- l  ekb(1:nproj) -->
             0    2.657905   -0.678300
             1   -6.761319   -2.404728
 pspatm: atomic psp has been read  and splines computed

- pspini: atom type   3  psp file is /scratch/users/j/a/jabreu/pseudos/PBEsol/S.psp8
- pspatm: opening atomic psp file    /scratch/users/j/a/jabreu/pseudos/PBEsol/S.psp8
- S     ONCVPSP-3.3.0  r_core=   1.45376   1.45376   1.61851
- 16.00000   6.00000    180112                znucl, zion, pspdat
    8 -116133    2    4       600   0.00000   pspcod,pspxc,lmax,lloc,mmax,r2well
    5.99000000000000    6.00000000000000    0.00000000000000   rchrg,fchrg,qchrg
     nproj     2     2     2
     extension_switch     1
  pspatm : epsatm=    8.71840985
         --- l  ekb(1:nproj) -->
             0    6.834532    0.579453
             1    3.282851    0.896984
             2   -3.496974   -0.974265
 pspatm: atomic psp has been read  and splines computed

   5.04299539E+03                                ecore*ucvol(ha*bohr**3)

-inwffil : will read wavefunctions from disk file /scratch/users/j/a/jabreu/flow_simple_6atoms/flow/w192/t1/indata/in_WFK

 ==>  initialize data related to q vector <==

 The list of irreducible perturbations for this q vector is:
    1)    idir= 1    ipert=   7
    2)    idir= 2    ipert=   7
    3)    idir= 3    ipert=   7

 Perturbation wavevector (in red.coord.)   0.000000  0.000000  0.000000
 Perturbation : derivative vs k along direction   1

 dfpt_looppert : COMMENT -
  In a d/dk calculation, iscf is set to -3 automatically.
 The set of symmetries contains only one element for this perturbation.
 symkpt : not enough symmetry to change the number of k points.

[...]

 Initialisation of the first-order wave-functions :
  ireadwf=   0

--- !BeginCycle
iteration_state: {dtset: 1, }
solver: {iscf: 7, nstep: 1000, nline: 4, wfoptalg: 0, }
tolerances: {tolwfr: 1.00E-20, }
...

     iter   2DEtotal(Ha)        deltaE(Ha) residm    vres2
-ETOT  1  -29.592685436961     -2.959E+01 3.533E-02 0.000E+00
 ETOT  2  -29.609036598127     -1.635E-02 2.432E-04 0.000E+00
 ETOT  3  -29.609098957497     -6.236E-05 1.435E-05 0.000E+00
 ETOT  4  -29.609099354927     -3.974E-07 2.595E-07 0.000E+00
 ETOT  5  -29.609099357732     -2.805E-09 2.906E-08 0.000E+00
 ETOT  6  -29.609099357752     -2.039E-11 7.136E-10 0.000E+00
[...]

 At SCF step   16   max residual=  9.93E-21 < tolwfr=  1.00E-20 =>converged.

 ----iterations are completed or convergence reached----

 dfpt_looppert: DFPT cycle converged with prtwf=-1. Will skip output of the 1st-order WFK file.
 dfpt_looppert : ek2=    4.9073210370E+01
          f-sum rule ratio=    1.1494263800E+00
 prteigrs : about to open file /scratch/users/j/a/jabreu/flow_simple_6atoms/flow/w192/t1/tmpdata/tmp_1WF1_EIG
 Expectation of eigenvalue derivatives (hartree) for nkpt=   2  k points:
  (in case of degenerate eigenvalues, averaged derivative)
 kpt#   1, nband= 33, wtk=  0.50000, kpt=  0.0000  0.0000  0.5000 (reduced coord)
   0.00000   -0.00000   -0.00000   -0.00000    0.00000    0.00000   -0.00000    0.00000
  -0.00000   -0.00000   -0.00000    0.00000    0.00000    0.00000   -0.00000   -0.00000
   0.00000   -0.00000   -0.00000    0.00000    0.00000    0.00000   -0.00000   -0.00000
  -0.00000    0.00000    0.00000    0.00000   -0.00000    0.00000    0.00000   -0.00000
  -0.00041
 prteigrs : prtvol=0 or 1, do not print more k-points.

 Eight components of 2nd-order total energy (hartree) are
 1,2,3: 0th-order hamiltonian combined with 1st-order wavefunctions
     kin0=   2.97854274E+01 eigvalue=   3.67356966E+00  local=  -1.35559406E+01
 4,5,6: 1st-order hamiltonian combined with 1st and 0th-order wfs
     kin1=  -5.64060426E+01  Hartree=   0.00000000E+00     xc=   0.00000000E+00
 7,8,9: eventually, occupation + non-local contributions
    edocc=   1.01568835E+01     enl0=  -4.50840590E-01   enl1=  -2.81215616E+00
 1-9 gives the relaxation energy (to be shifted if some occ is /=2.0)
   erelax=  -2.96090994E+01
  No Ewald or frozen-wf contrib.: the relaxation energy is the total one
 2DEtotal=   -0.2960909936E+02 Ha. Also 2DEtotal=   -0.805704568373E+03 eV
    (  non-var. 2DEtotal :   -2.9609099358E+01 Ha)

 Perturbation wavevector (in red.coord.)   0.000000  0.000000  0.000000
 Perturbation : derivative vs k along direction   2
 The set of symmetries contains only one element for this perturbation.
 symkpt : not enough symmetry to change the number of k points.

[...]

 Perturbation wavevector (in red.coord.)   0.000000  0.000000  0.000000
 Perturbation : derivative vs k along direction   3
 The set of symmetries contains only one element for this perturbation.
 symkpt : not enough symmetry to change the number of k points.

-inwffil : will read wavefunctions from disk file /scratch/users/j/a/jabreu/flow_simple_6atoms/flow/w192/t1/indata/in_WFK

 Initialisation of the first-order wave-functions :
  ireadwf=   0

--- !BeginCycle
iteration_state: {dtset: 1, }
solver: {iscf: 7, nstep: 1000, nline: 4, wfoptalg: 0, }
tolerances: {tolwfr: 1.00E-20, }
...

     iter   2DEtotal(Ha)        deltaE(Ha) residm    vres2
-ETOT  1  -10.053522890942     -1.005E+01 3.841E-02 0.000E+00
 ETOT  2  -10.059822847056     -6.300E-03 1.432E-03 0.000E+00
 ETOT  3  -10.059843648022     -2.080E-05 2.329E-05 0.000E+00
 ETOT  4  -10.059843776760     -1.287E-07 1.746E-06 0.000E+00
 ETOT  5  -10.059843777691     -9.309E-10 5.102E-08 0.000E+00
 ETOT  6  -10.059843777698     -7.157E-12 5.477E-09 0.000E+00
 ETOT  7  -10.059843777698     -2.665E-14 1.831E-10 0.000E+00
 ETOT  8  -10.059843777698     -1.421E-14 1.914E-11 0.000E+00
 ETOT  9  -10.059843777698     -2.487E-14 6.997E-13 0.000E+00
 ETOT 10  -10.059843777698      5.329E-15 7.320E-14 0.000E+00
 ETOT 11  -10.059843777698      0.000E+00 2.815E-15 0.000E+00
 ETOT 12  -10.059843777698      0.000E+00 3.086E-16 0.000E+00
 ETOT 13  -10.059843777698      3.553E-15 1.195E-17 0.000E+00
 ETOT 14  -10.059843777698      1.776E-15 1.391E-18 0.000E+00
 ETOT 15  -10.059843777698     -5.329E-15 5.320E-20 0.000E+00
 ETOT 16  -10.059843777698      0.000E+00 9.633E-21 0.000E+00

 At SCF step   16   max residual=  9.63E-21 < tolwfr=  1.00E-20 =>converged.

 ----iterations are completed or convergence reached----

 dfpt_looppert: DFPT cycle converged with prtwf=-1. Will skip output of the 1st-order WFK file.
 dfpt_looppert : ek2=    1.8650857413E+01
          f-sum rule ratio=    1.0151284287E+00
 prteigrs : about to open file /scratch/users/j/a/jabreu/flow_simple_6atoms/flow/w192/t1/tmpdata/tmp_1WF1_EIG
 Expectation of eigenvalue derivatives (hartree) for nkpt=   2  k points:
  (in case of degenerate eigenvalues, averaged derivative)
 kpt#   1, nband= 33, wtk=  0.50000, kpt=  0.0000  0.0000  0.5000 (reduced coord)
  -0.00000   -0.00000    0.00000    0.00000    0.00000    0.00000   -0.00000    0.00000
   0.00000    0.00000    0.00000    0.00000    0.00000    0.00000   -0.00000   -0.00000
   0.00000   -0.00000   -0.00000    0.00000   -0.00000   -0.00000    0.00000    0.00000
   0.00000   -0.00000    0.00000    0.00000   -0.00000   -0.00000   -0.00000    0.00000
   0.00108
 prteigrs : prtvol=0 or 1, do not print more k-points.

 Eight components of 2nd-order total energy (hartree) are
 1,2,3: 0th-order hamiltonian combined with 1st-order wavefunctions
     kin0=   1.22923577E+01 eigvalue=   1.50405951E+00  local=  -5.67216754E+00
 4,5,6: 1st-order hamiltonian combined with 1st and 0th-order wfs
     kin1=  -1.89330156E+01  Hartree=   0.00000000E+00     xc=   0.00000000E+00
 7,8,9: eventually, occupation + non-local contributions
    edocc=   2.18351806E+00     enl0=  -2.47923980E-01   enl1=  -1.18667197E+00
 1-9 gives the relaxation energy (to be shifted if some occ is /=2.0)
   erelax=  -1.00598438E+01
  No Ewald or frozen-wf contrib.: the relaxation energy is the total one
 2DEtotal=   -0.1005984378E+02 Ha. Also 2DEtotal=   -0.273742270607E+03 eV
    (  non-var. 2DEtotal :   -1.0059843778E+01 Ha)

 CALCULATION OF EFFECTIVE MASSES
 NOTE : Additional infos (eff. mass eigenvalues, eigenvectors and, if degenerate, average mass) are available in stdout.

 COMMENTS:
 - At k-point ( 0.000, 0.000, 0.500), bands    23 through    24
   are DEGENERATE (effective mass tensor is therefore not defined).
   See Section IIIB Eqs. (67)-(70) and Appendix E of PRB 93 205147 (2016).
 - Angular average effective mass for Frohlich model is to be averaged over degenerate bands. See later.
 - Associated theta integrals calculated with ntheta=   1000 points.

 K-point ( 0.000, 0.000, 0.500) | band =    23
 Transport equivalent effective mass tensor:
             -0.6009449107             -0.0006439788              0.0015132695
             -0.0006439788             -0.6007992350             -0.0013565014
              0.0015132695             -0.0013565014             -4.2793979829
 Transport equivalent effective mass tensor eigenvalues:
             -4.2793991055             -0.6015201440             -0.6002228791
 Angular average effective mass 1/(<1/m>)=  -0.8347665083
 Angular average effective mass for Frohlich model (<m**0.5>)**2=  -0.9760994188
 Effective masses along directions: (cart. coord. / red. coord. -> eff. mass)
    1:   1.000000  0.000000  0.000000 /   1.000000  0.000000  0.000000 ->  -0.5643147221
    2:   0.000000  1.000000  0.000000 /   0.000000  1.000000  0.000000 ->  -0.5642546740
    3:   0.000000  0.000000  1.000000 /   0.000000  0.000000  1.000000 ->  -4.2101139253
    4:   0.577350  0.577350  0.577350 /   0.464682  0.464682  0.753752 ->  -0.8850149226
    5:   0.000000  0.707107  0.707107 /   0.000000  0.524781  0.851237 ->  -0.9957957512
    6:   0.707107  0.000000  0.707107 /   0.524781  0.000000  0.851237 ->  -0.9952145833
    7:   0.707107  0.707107  0.000000 /   0.707107  0.707107  0.000000 ->  -0.6342514795

 K-point ( 0.000, 0.000, 0.500) | band =    24
 Transport equivalent effective mass tensor:
             -2.6671701873             -0.0000004058              0.0024037458
             -0.0000004058             -2.6680123297             -0.0022243779
              0.0024037458             -0.0022243779             -5.1667579213
 Transport equivalent effective mass tensor eigenvalues:
             -5.1667622130             -2.6680103573             -2.6671678680
 Angular average effective mass 1/(<1/m>)=  -2.7562185510
 Angular average effective mass for Frohlich model (<m**0.5>)**2=  -2.8460566196
 Effective masses along directions: (cart. coord. / red. coord. -> eff. mass)
    1:   1.000000  0.000000  0.000000 /   1.000000  0.000000  0.000000 ->  -3.0109401787
    2:   0.000000  1.000000  0.000000 /   0.000000  1.000000  0.000000 ->  -3.0109416449
    3:   0.000000  0.000000  1.000000 /   0.000000  0.000000  1.000000 ->  -4.2338890864
    4:   0.577350  0.577350  0.577350 /   0.464682  0.464682  0.753752 ->  -2.3225820052
    5:   0.000000  0.707107  0.707107 /   0.000000  0.524781  0.851237 ->  -3.5202616230
    6:   0.707107  0.000000  0.707107 /   0.524781  0.000000  0.851237 ->  -3.5091148324
    7:   0.707107  0.707107  0.000000 /   0.707107  0.707107  0.000000 ->  -1.8971043354

 Angular average effective mass for Frohlich model, averaged over degenerate bands.
 Value of     (<<m**0.5>>)**2 =     1.788911E+00
 Absolute Value of <<m**0.5>> =     1.337502E+00

 K-point ( 0.000, 0.000, 0.000) | band =    25
 Effective mass tensor:
              0.2738687875             -0.0000000000              0.0000000000
             -0.0000000000              0.2738687875             -0.0000000000
              0.0000000000             -0.0000000000              0.2661302260
 Effective mass tensor eigenvalues:
              0.2661302260              0.2738687875              0.2738687875
 Angular average effective mass 1/(<1/m>)=   0.2712397420
 Angular average effective mass for Frohlich model (<m**0.5>)**2=   0.2712546728
 Effective masses along directions: (cart. coord. / red. coord. -> eff. mass)
    1:   1.000000  0.000000  0.000000 /   1.000000  0.000000  0.000000 ->   0.2738687875
    2:   0.000000  1.000000  0.000000 /   0.000000  1.000000  0.000000 ->   0.2738687875
    3:   0.000000  0.000000  1.000000 /   0.000000  0.000000  1.000000 ->   0.2661302260
    4:   0.577350  0.577350  0.577350 /   0.464682  0.464682  0.753752 ->   0.2712397420
    5:   0.000000  0.707107  0.707107 /   0.000000  0.524781  0.851237 ->   0.2699440573
    6:   0.707107  0.000000  0.707107 /   0.524781  0.000000  0.851237 ->   0.2699440573
    7:   0.707107  0.707107  0.000000 /   0.707107  0.707107  0.000000 ->   0.2738687875

 END OF EFFECTIVE MASSES SECTION

 ---- first-order wavefunction calculations are completed ----

 Total localisation tensor (bohr^2) in cartesian coordinates
  WARNING : still subject to testing - especially symmetries.
      direction              matrix element
   alpha     beta       real part   imaginary part
     1        1       1.3943937416    0.0000000000
     1        2       0.0000000000    0.0000000000
     1        3       0.0000000000    0.0000000000
     2        1       0.0000000000    0.0000000000
     2        2       1.3944253407    0.0000000000
     2        3       0.0000000000    0.0000000000
     3        1       0.0000000000    0.0000000000
     3        2       0.0000000000    0.0000000000
     3        3       0.9655679813    0.0000000000

 respfn : d/dk was computed, but no 2DTE, so no DDB output.

== END DATASET(S) ==============================================================

 -outvars: echo values of variables after computation  --------
            acell      1.0000000000E+00  1.0000000000E+00  1.0000000000E+00 Bohr
              amu      8.54678000E+01  2.29897680E+01  3.20660000E+01
             ecut      4.40000000E+01 Hartree
           etotal     -1.0059843778E+01
            fcart      0.0000000000E+00  0.0000000000E+00  0.0000000000E+00
                       0.0000000000E+00  0.0000000000E+00  0.0000000000E+00
                       0.0000000000E+00  0.0000000000E+00  0.0000000000E+00
                       0.0000000000E+00  0.0000000000E+00  0.0000000000E+00
                       0.0000000000E+00  0.0000000000E+00  0.0000000000E+00
                       0.0000000000E+00  0.0000000000E+00  0.0000000000E+00
-          fftalg         512
           irdden           1
           irdwfk           1
           istwfk        1    1
              ixc     -116133
              kpt      0.00000000E+00  3.08148791E-33  5.00000000E-01
                       0.00000000E+00  0.00000000E+00  0.00000000E+00
           kptopt           0
P           mkmem           2
P          mkqmem           2
P          mk1mem           2
            natom           6
            nband          33
           nbdbuf           4
            ngfft          54      54      90
             nkpt           2
            nstep        1000
             nsym          16
           ntypat           3
              occ      2.000000  2.000000  2.000000  2.000000  2.000000  2.000000
                       2.000000  2.000000  2.000000  2.000000  2.000000  2.000000
                       2.000000  2.000000  2.000000  2.000000  2.000000  2.000000
                       2.000000  2.000000  2.000000  2.000000  2.000000  2.000000
                       0.000000  0.000000  0.000000  0.000000  0.000000  0.000000
                       0.000000  0.000000  0.000000
        optdriver           1
            prtwf          -1
            rfdir           1       1       1
           rfelfd           2
            rprim      8.7880647809E+00  0.0000000000E+00  0.0000000000E+00
                       0.0000000000E+00  8.7880647809E+00  0.0000000000E+00
                       0.0000000000E+00  0.0000000000E+00  1.4254962656E+01
          spgroup         129
           strten      0.0000000000E+00  0.0000000000E+00  0.0000000000E+00
                       0.0000000000E+00  0.0000000000E+00  0.0000000000E+00
           symrel      1  0  0   0  1  0   0  0  1      -1  0  0   0 -1  0   0  0 -1
                      -1  0  0   0  1  0   0  0 -1       1  0  0   0 -1  0   0  0  1
                      -1  0  0   0 -1  0   0  0  1       1  0  0   0  1  0   0  0 -1
                       1  0  0   0 -1  0   0  0 -1      -1  0  0   0  1  0   0  0  1
                       0  1  0   1  0  0   0  0  1       0 -1  0  -1  0  0   0  0 -1
                       0 -1  0   1  0  0   0  0 -1       0  1  0  -1  0  0   0  0  1
                       0 -1  0  -1  0  0   0  0  1       0  1  0   1  0  0   0  0 -1
                       0  1  0  -1  0  0   0  0 -1       0 -1  0   1  0  0   0  0  1
            tnons      0.0000000  0.0000000  0.0000000     0.5000000  0.5000000  0.0000000
                       0.5000000  0.5000000  0.0000000     0.0000000 -0.0000000  0.0000000
                       0.0000000 -0.0000000  0.0000000     0.5000000  0.5000000  0.0000000
                       0.5000000  0.5000000  0.0000000     0.0000000  0.0000000  0.0000000
                       0.5000000  0.5000000  0.0000000    -0.0000000  0.0000000  0.0000000
                       0.0000000  0.0000000  0.0000000     0.5000000  0.5000000  0.0000000
                       0.5000000  0.5000000  0.0000000     0.0000000  0.0000000  0.0000000
                      -0.0000000  0.0000000  0.0000000     0.5000000  0.5000000  0.0000000
           tolwfr      1.00000000E-20
            typat      1  1  2  2  3  3
           useylm           1
              wtk        0.50000    0.50000
           xangst      0.0000000000E+00  2.3252217948E+00  2.6534065106E+00
                       2.3252217948E+00  0.0000000000E+00  4.8899948364E+00
                       0.0000000000E+00  0.0000000000E+00  0.0000000000E+00
                       2.3252217948E+00  2.3252217948E+00  0.0000000000E+00
                       2.3252217948E+00  0.0000000000E+00  1.5735987814E+00
                       0.0000000000E+00  2.3252217948E+00  5.9698025656E+00
            xcart      0.0000000000E+00  4.3940323904E+00  5.0142116243E+00
                       4.3940323904E+00  0.0000000000E+00  9.2407510320E+00
                       0.0000000000E+00  0.0000000000E+00  0.0000000000E+00
                       4.3940323904E+00  4.3940323904E+00  0.0000000000E+00
                       4.3940323904E+00  0.0000000000E+00  2.9736707399E+00
                       0.0000000000E+00  4.3940323904E+00  1.1281291916E+01
             xred      0.0000000000E+00  5.0000000000E-01  3.5175200000E-01
                       5.0000000000E-01  0.0000000000E+00  6.4824800000E-01
                       0.0000000000E+00  0.0000000000E+00  0.0000000000E+00
                       5.0000000000E-01  5.0000000000E-01  0.0000000000E+00
                       5.0000000000E-01  0.0000000000E+00  2.0860600000E-01
                       0.0000000000E+00  5.0000000000E-01  7.9139400000E-01
            znucl       37.00000   11.00000   16.00000

- Timing analysis has been suppressed with timopt=0

 Suggested references for the acknowledgment of ABINIT usage.

 Calculation completed.
.Delivered  14 WARNINGs and   9 COMMENTs to log file.