.Version 9.5.1 of ABINIT

 ABINIT is a project of the Universite Catholique de Louvain,
 Corning Inc. and other collaborators, see ~abinit/doc/developers/contributors.txt .
 acknowledgments of the ABINIT effort.

.Starting date : Wed 19 May 2021.
- ( at 01h40 )

- input  file    -> /scratch/users/j/a/jabreu/flow_simple_8atoms/flow/w465/t1/run.abi
- output file    -> /scratch/users/j/a/jabreu/flow_simple_8atoms/flow/w465/t1/run.abo
- root for input  files -> /scratch/users/j/a/jabreu/flow_simple_8atoms/flow/w465/t1/indata/in
- root for output files -> /scratch/users/j/a/jabreu/flow_simple_8atoms/flow/w465/t1/outdata/out

 Symmetries : space group R-3 (#148); Bravais hR (rhombohedral)
     intxc =       0      iscf =       7    lmnmax =      32     lnmax =       8
     mgfft =      60  mpssoang =       4    mqgrid =    3001     natom =       8
  nloc_mem =       1    nspden =       1   nspinor =       1    nsppol =       1
      nsym =       6    n1xccc =    2501    ntypat =       3    occopt =       1
   xclevel =       2
-    mband =          49        mffmem =           1         mkmem =           1
-   mkqmem =           1        mk1mem =           1           mpw =        8718
      nfft =      216000          nkpt =           1
  Rough estimation (10% accuracy) of disk space for files :

------------- Echo of variables that govern the present computation ------------
-
- outvars: echo of selected default values
-   iomode0 =  0 , fftalg0 =512 , wfoptalg0 =  0
-
- outvars: echo of global parameters not present in the input file
-  max_nthreads =    0
-
 -outvars: echo values of preprocessed input variables --------
            acell      1.0000000000E+00  1.0000000000E+00  1.0000000000E+00 Bohr
              amu      6.53900000E+01  1.95080000E+02  1.89984032E+01
             ecut      4.20000000E+01 Hartree
-          fftalg         512
           irdden           1
           irdwfk           1
           istwfk        1
              ixc     -116133
              kpt      5.00000000E-01  5.00000000E-01  0.00000000E+00
           kptopt           0
P           mkmem           1
P          mkqmem           1
P          mk1mem           1
            natom           8
            nband          49
           nbdbuf           4
            ngfft          60      60      60
             nkpt           1
            nstep        2000
             nsym           6
           ntypat           3
              occ      2.000000  2.000000  2.000000  2.000000  2.000000  2.000000
                       2.000000  2.000000  2.000000  2.000000  2.000000  2.000000
                       2.000000  2.000000  2.000000  2.000000  2.000000  2.000000
                       2.000000  2.000000  2.000000  2.000000  2.000000  2.000000
                       2.000000  2.000000  2.000000  2.000000  2.000000  2.000000
                       2.000000  2.000000  2.000000  2.000000  2.000000  2.000000
                       2.000000  2.000000  2.000000  2.000000  0.000000  0.000000
                       0.000000  0.000000  0.000000  0.000000  0.000000  0.000000
                       0.000000
        optdriver           1
            prtwf          -1
            rfdir           1       1       1
           rfelfd           2
            rprim      8.3880992109E+00  0.0000000000E+00  5.8294701589E+00
                       3.0476958724E+00  7.8148421764E+00  5.8294701589E+00
                       0.0000000000E+00  0.0000000000E+00  1.0214838751E+01
          spgroup         148
           symrel      1  0  0   0  1  0   0  0  1      -1  0  0   0 -1  0   0  0 -1
                       0  0  1   1  0  0   0  1  0       0  0 -1  -1  0  0   0 -1  0
                       0  1  0   0  0  1   1  0  0       0 -1  0   0  0 -1  -1  0  0
           tolwfr      1.00000000E-20
            typat      1  2  3  3  3  3  3  3
           useylm           1
           xangst      3.0257810601E+00  2.0677181842E+00  5.7875526744E+00
                       0.0000000000E+00  0.0000000000E+00  0.0000000000E+00
                       3.9942428970E+00  1.6114017290E+00  4.0762416408E+00
                       1.8892525635E+00  4.0936271068E-01  5.6062005574E+00
                       4.3892497934E+00  9.9964662704E-01  6.8243287605E+00
                       4.1623095567E+00  3.7260736578E+00  5.9689047915E+00
                       2.0573192232E+00  2.5240346394E+00  7.4988637081E+00
                       1.6623123268E+00  3.1357897414E+00  4.7507765884E+00
            xcart      5.7178975416E+00  3.9074210882E+00  1.0936889534E+01
                       0.0000000000E+00  0.0000000000E+00  0.0000000000E+00
                       7.5480251835E+00  3.0451079579E+00  7.7029803526E+00
                       3.5701699409E+00  7.7358341220E-01  1.0594183699E+01
                       8.2944800383E+00  1.8890583548E+00  1.2896112398E+01
                       7.8656251424E+00  7.0412587642E+00  1.1279595369E+01
                       3.8877698998E+00  4.7697342185E+00  1.4170798716E+01
                       3.1413150450E+00  5.9257838216E+00  8.9776666705E+00
             xred      5.0000000000E-01  5.0000000000E-01  5.0000000000E-01
                       0.0000000000E+00  0.0000000000E+00  0.0000000000E+00
                       7.5827300000E-01  3.8965700000E-01  9.8989000000E-02
                       3.8965700000E-01  9.8989000000E-02  7.5827300000E-01
                       9.0101100000E-01  2.4172700000E-01  6.1034300000E-01
                       6.1034300000E-01  9.0101100000E-01  2.4172700000E-01
                       2.4172700000E-01  6.1034300000E-01  9.0101100000E-01
                       9.8989000000E-02  7.5827300000E-01  3.8965700000E-01
            znucl       30.00000   78.00000    9.00000

 chkinp: Checking input parameters for consistency.

== DATASET  1 ==================================================================
-   mpi_nproc: 1, omp_nthreads: -1 (-1 if OMP is not activated)

--- !DatasetInfo
iteration_state: {dtset: 1, }
dimensions: {natom: 8, nkpt: 1, mband: 49, nsppol: 1, nspinor: 1, nspden: 1, mpw: 8718, }
cutoff_energies: {ecut:  42.0, pawecutdg:  -1.0, }
electrons: {nelect:   8.00000000E+01, charge:   0.00000000E+00, occopt:   1.00000000E+00, tsmear:   1.00000000E-02, }
meta: {optdriver: 1, rfelfd: 2, }
...

 Real(R)+Recip(G) space primitive vectors, cartesian coordinates (Bohr,Bohr^-1):
 R(1)=  8.3880992  0.0000000  5.8294702  G(1)=  0.1192165 -0.0464930  0.0000000
 R(2)=  3.0476959  7.8148422  5.8294702  G(2)=  0.0000000  0.1279616  0.0000000
 R(3)=  0.0000000  0.0000000 10.2148388  G(3)= -0.0680353 -0.0464930  0.0978968
 Unit cell volume ucvol=  6.6959975E+02 bohr^3
 Angles (23,13,12)=  5.52018915E+01  5.52018915E+01  5.52018915E+01 degrees

 getcut: wavevector=  0.0000  0.0000  0.0000  ngfft=  60  60  60
         ecut(hartree)=     42.000   => boxcut(ratio)=   2.01343

--- Pseudopotential description ------------------------------------------------
- pspini: atom type   1  psp file is /scratch/users/j/a/jabreu/pseudos/PBEsol/Zn.psp8
- pspatm: opening atomic psp file    /scratch/users/j/a/jabreu/pseudos/PBEsol/Zn.psp8
- Zn    ONCVPSP-3.3.0  r_core=   1.35823   1.66358   1.85211
- 30.00000  20.00000    180112                znucl, zion, pspdat
    8 -116133    2    4       600   0.00000   pspcod,pspxc,lmax,lloc,mmax,r2well
    5.99000000000000    2.50000000000000    0.00000000000000   rchrg,fchrg,qchrg
     nproj     2     2     2
     extension_switch     1
  pspatm : epsatm=   26.57343589
         --- l  ekb(1:nproj) -->
             0    2.830835   -1.519107
             1   -4.626739   -1.324150
             2   -6.948510   -2.555500
 pspatm: atomic psp has been read  and splines computed

- pspini: atom type   2  psp file is /scratch/users/j/a/jabreu/pseudos/PBEsol/Pt.psp8
- pspatm: opening atomic psp file    /scratch/users/j/a/jabreu/pseudos/PBEsol/Pt.psp8
- Pt    ONCVPSP-3.3.0  r_core=   1.45722   1.45722   1.45722   1.91724
- 78.00000  18.00000    180112                znucl, zion, pspdat
    8 -116133    3    4       500   0.00000   pspcod,pspxc,lmax,lloc,mmax,r2well
    4.99000000000000    5.00000000000000    0.00000000000000   rchrg,fchrg,qchrg
     nproj     2     2     2     2
     extension_switch     1
  pspatm : epsatm=   26.54019552
         --- l  ekb(1:nproj) -->
             0   18.149684    1.747248
             1    8.048135    1.208190
             2    2.365973    0.348456
             3    3.491561    0.381218
 pspatm: atomic psp has been read  and splines computed

- pspini: atom type   3  psp file is /scratch/users/j/a/jabreu/pseudos/PBEsol/F.psp8
- pspatm: opening atomic psp file    /scratch/users/j/a/jabreu/pseudos/PBEsol/F.psp8
- F     ONCVPSP-3.3.0  r_core=   1.30942   1.45782   1.60379
-  9.00000   7.00000    180112                znucl, zion, pspdat
    8 -116133    2    4       600   0.00000   pspcod,pspxc,lmax,lloc,mmax,r2well
    5.99000000000000    2.50000000000000    0.00000000000000   rchrg,fchrg,qchrg
     nproj     2     2     1
     extension_switch     1
  pspatm : epsatm=    4.89824824
         --- l  ekb(1:nproj) -->
             0    6.506434    1.065875
             1   -3.978753   -1.295852
             2   -2.394754
 pspatm: atomic psp has been read  and splines computed

   6.60024967E+03                                ecore*ucvol(ha*bohr**3)

-inwffil : will read wavefunctions from disk file /scratch/users/j/a/jabreu/flow_simple_8atoms/flow/w465/t1/indata/in_WFK

 ==>  initialize data related to q vector <==

 The list of irreducible perturbations for this q vector is:
    1)    idir= 1    ipert=   9
    2)    idir= 2    ipert=   9
    3)    idir= 3    ipert=   9

 Perturbation wavevector (in red.coord.)   0.000000  0.000000  0.000000
 Perturbation : derivative vs k along direction   1

 dfpt_looppert : COMMENT -
  In a d/dk calculation, iscf is set to -3 automatically.
 The set of symmetries contains only one element for this perturbation.
 symkpt : not enough symmetry to change the number of k points.

[...]

 Initialisation of the first-order wave-functions :
  ireadwf=   0

--- !BeginCycle
iteration_state: {dtset: 1, }
solver: {iscf: 7, nstep: 2000, nline: 4, wfoptalg: 0, }
tolerances: {tolwfr: 1.00E-20, }
...

     iter   2DEtotal(Ha)        deltaE(Ha) residm    vres2
-ETOT  1  -56.778837839892     -5.678E+01 2.752E-02 0.000E+00
 ETOT  2  -56.828894268510     -5.006E-02 1.554E-03 0.000E+00
 ETOT  3  -56.829224012434     -3.297E-04 7.123E-05 0.000E+00
 ETOT  4  -56.829228343216     -4.331E-06 3.733E-06 0.000E+00
 ETOT  5  -56.829228409109     -6.589E-08 2.741E-07 0.000E+00
 ETOT  6  -56.829228410193     -1.084E-09 1.592E-08 0.000E+00
 ETOT  7  -56.829228410212     -1.874E-11 1.254E-09 0.000E+00
 ETOT  8  -56.829228410213     -4.263E-13 7.336E-11 0.000E+00
 ETOT  9  -56.829228410213      5.684E-14 5.928E-12 0.000E+00
 ETOT 10  -56.829228410212      4.263E-14 3.503E-13 0.000E+00
 ETOT 11  -56.829228410212      1.421E-14 2.877E-14 0.000E+00
 ETOT 12  -56.829228410212      2.842E-14 1.718E-15 0.000E+00
 ETOT 13  -56.829228410212     -1.421E-14 1.430E-16 0.000E+00
 ETOT 14  -56.829228410212      0.000E+00 8.633E-18 0.000E+00
 ETOT 15  -56.829228410212     -1.421E-14 7.260E-19 0.000E+00
 ETOT 16  -56.829228410212      7.105E-15 4.427E-20 0.000E+00
 ETOT 17  -56.829228410212     -7.105E-15 9.885E-21 0.000E+00

 At SCF step   17   max residual=  9.88E-21 < tolwfr=  1.00E-20 =>converged.

 ----iterations are completed or convergence reached----

 dfpt_looppert: DFPT cycle converged with prtwf=-1. Will skip output of the 1st-order WFK file.
 dfpt_looppert : ek2=    1.0342827845E+02
          f-sum rule ratio=    9.8820138771E-01
 prteigrs : about to open file /scratch/users/j/a/jabreu/flow_simple_8atoms/flow/w465/t1/tmpdata/tmp_1WF1_EIG
 Expectation of eigenvalue derivatives (hartree) for nkpt=   1  k points:
  (in case of degenerate eigenvalues, averaged derivative)
 kpt#   1, nband= 49, wtk=  1.00000, kpt=  0.5000  0.5000  0.0000 (reduced coord)
  -0.00000    0.00000   -0.00000   -0.00000   -0.00000   -0.00000   -0.00000   -0.00000
  -0.00000    0.00000    0.00000    0.00000   -0.00000   -0.00000   -0.00000   -0.00000
  -0.00000    0.00000   -0.00000    0.00000    0.00000   -0.00000   -0.00000    0.00000
   0.00000    0.00000   -0.00000    0.00000    0.00000   -0.00000    0.00000   -0.00000
  -0.00000    0.00000   -0.00000    0.00000   -0.00000   -0.00000   -0.00000   -0.00000
  -0.00000    0.00000   -0.00000   -0.00000    0.00000    0.00000   -0.00000    0.00000
  -0.00143

 Eight components of 2nd-order total energy (hartree) are
 1,2,3: 0th-order hamiltonian combined with 1st-order wavefunctions
     kin0=   8.21328280E+01 eigvalue=   2.35385759E+00  local=  -3.39447955E+01
 4,5,6: 1st-order hamiltonian combined with 1st and 0th-order wfs
     kin1=  -1.02207968E+02  Hartree=   0.00000000E+00     xc=   0.00000000E+00
 7,8,9: eventually, occupation + non-local contributions
    edocc=   6.95443370E+00     enl0=  -6.67095316E-01   enl1=  -1.14504885E+01
 1-9 gives the relaxation energy (to be shifted if some occ is /=2.0)
   erelax=  -5.68292284E+01
  No Ewald or frozen-wf contrib.: the relaxation energy is the total one
 2DEtotal=   -0.5682922841E+02 Ha. Also 2DEtotal=   -0.154640194874E+04 eV
    (  non-var. 2DEtotal :   -5.6829228410E+01 Ha)

 Perturbation wavevector (in red.coord.)   0.000000  0.000000  0.000000
 Perturbation : derivative vs k along direction   2
 The set of symmetries contains only one element for this perturbation.
 symkpt : not enough symmetry to change the number of k points.

[...]

 Perturbation wavevector (in red.coord.)   0.000000  0.000000  0.000000
 Perturbation : derivative vs k along direction   3
 The set of symmetries contains only one element for this perturbation.
 symkpt : not enough symmetry to change the number of k points.

-inwffil : will read wavefunctions from disk file /scratch/users/j/a/jabreu/flow_simple_8atoms/flow/w465/t1/indata/in_WFK

 Initialisation of the first-order wave-functions :
  ireadwf=   0

--- !BeginCycle
iteration_state: {dtset: 1, }
solver: {iscf: 7, nstep: 2000, nline: 4, wfoptalg: 0, }
tolerances: {tolwfr: 1.00E-20, }
...

     iter   2DEtotal(Ha)        deltaE(Ha) residm    vres2
-ETOT  1  -56.668158041681     -5.667E+01 2.002E-02 0.000E+00
 ETOT  2  -56.714691445976     -4.653E-02 8.818E-04 0.000E+00
 ETOT  3  -56.714997729033     -3.063E-04 1.591E-05 0.000E+00
 ETOT  4  -56.715001639546     -3.911E-06 1.799E-06 0.000E+00
 ETOT  5  -56.715001698067     -5.852E-08 5.171E-08 0.000E+00
 ETOT  6  -56.715001699017     -9.494E-10 7.037E-09 0.000E+00
 ETOT  7  -56.715001699033     -1.619E-11 2.075E-10 0.000E+00
 ETOT  8  -56.715001699033     -3.411E-13 2.912E-11 0.000E+00
 ETOT  9  -56.715001699033     -7.105E-15 8.639E-13 0.000E+00
 ETOT 10  -56.715001699033     -7.105E-15 1.229E-13 0.000E+00
 ETOT 11  -56.715001699033      4.263E-14 3.661E-15 0.000E+00
 ETOT 12  -56.715001699033      4.263E-14 5.258E-16 0.000E+00
 ETOT 13  -56.715001699033      7.105E-15 1.574E-17 0.000E+00
 ETOT 14  -56.715001699033     -7.105E-15 2.277E-18 0.000E+00
 ETOT 15  -56.715001699033      0.000E+00 6.862E-20 0.000E+00
 ETOT 16  -56.715001699033     -1.421E-14 9.991E-21 0.000E+00

 At SCF step   16   max residual=  9.99E-21 < tolwfr=  1.00E-20 =>converged.

 ----iterations are completed or convergence reached----

 dfpt_looppert: DFPT cycle converged with prtwf=-1. Will skip output of the 1st-order WFK file.
 dfpt_looppert : ek2=    1.0342827845E+02
          f-sum rule ratio=    9.8568349195E-01
 prteigrs : about to open file /scratch/users/j/a/jabreu/flow_simple_8atoms/flow/w465/t1/tmpdata/tmp_1WF1_EIG
 Expectation of eigenvalue derivatives (hartree) for nkpt=   1  k points:
  (in case of degenerate eigenvalues, averaged derivative)
 kpt#   1, nband= 49, wtk=  1.00000, kpt=  0.5000  0.5000  0.0000 (reduced coord)
  -0.00000   -0.00000   -0.00000   -0.00000    0.00000    0.00000    0.00000   -0.00000
   0.00000   -0.00000    0.00000   -0.00000   -0.00000    0.00000   -0.00000    0.00000
  -0.00000   -0.00000    0.00000    0.00000   -0.00000   -0.00000    0.00000   -0.00000
  -0.00000    0.00000    0.00000   -0.00000   -0.00000    0.00000   -0.00000    0.00000
   0.00000   -0.00000    0.00000    0.00000    0.00000   -0.00000   -0.00000   -0.00000
   0.00000   -0.00000    0.00000    0.00000   -0.00000   -0.00000    0.00000   -0.00000
   0.00276

 Eight components of 2nd-order total energy (hartree) are
 1,2,3: 0th-order hamiltonian combined with 1st-order wavefunctions
     kin0=   8.28087695E+01 eigvalue=   2.40052716E+00  local=  -3.42918852E+01
 4,5,6: 1st-order hamiltonian combined with 1st and 0th-order wfs
     kin1=  -1.01947547E+02  Hartree=   0.00000000E+00     xc=   0.00000000E+00
 7,8,9: eventually, occupation + non-local contributions
    edocc=   6.56796106E+00     enl0=  -7.70370789E-01   enl1=  -1.14824567E+01
 1-9 gives the relaxation energy (to be shifted if some occ is /=2.0)
   erelax=  -5.67150017E+01
  No Ewald or frozen-wf contrib.: the relaxation energy is the total one
 2DEtotal=   -0.5671500170E+02 Ha. Also 2DEtotal=   -0.154329368185E+04 eV
    (  non-var. 2DEtotal :   -5.6715001699E+01 Ha)

 CALCULATION OF EFFECTIVE MASSES
 NOTE : Additional infos (eff. mass eigenvalues, eigenvectors and, if degenerate, average mass) are available in stdout.

 K-point ( 0.500, 0.500, 0.000) | band =    40
 Effective mass tensor:
             -2.6635821072             -0.7978076707              0.9535769031
             -0.7978076707             -5.4997900466              1.5575829864
              0.9535769031              1.5575829864             -3.9723168035
 Effective mass tensor eigenvalues:
             -6.8106341946             -3.1638058661             -2.1612488965
 Angular average effective mass 1/(<1/m>)=  -3.2411420743
 Angular average effective mass for Frohlich model (<m**0.5>)**2=  -3.4402467269
 Effective masses along directions: (cart. coord. / red. coord. -> eff. mass)
    1:   1.000000  0.000000  0.000000 /   0.939884  0.341493  0.000000 ->  -2.3979165987
    2:   0.000000  1.000000  0.000000 /   0.000000  1.000000  0.000000 ->  -4.8152414856
    3:   0.000000  0.000000  1.000000 /   0.444095  0.444095  0.778177 ->  -3.3233955783
    4:   0.577350  0.577350  0.577350 /   0.587771  0.690067  0.422294 ->  -2.5626800784
    5:   0.000000  0.707107  0.707107 /   0.323613  0.757441  0.567060 ->  -3.0577633963
    6:   0.707107  0.000000  0.707107 /   0.724325  0.452254  0.520403 ->  -2.2477214071
    7:   0.707107  0.707107  0.000000 /   0.611188  0.791485  0.000000 ->  -3.6206548011

 K-point ( 0.500, 0.500, 0.000) | band =    41
 Effective mass tensor:
              2.7303780889              1.1013909555             -0.9622095856
              1.1013909555              5.9614060466             -1.8779885844
             -0.9622095856             -1.8779885844              2.8839971674
 Effective mass tensor eigenvalues:
              1.7342960198              2.5535641372              7.2879211459
 Angular average effective mass 1/(<1/m>)=   2.7138866455
 Angular average effective mass for Frohlich model (<m**0.5>)**2=   2.9642058047
 Effective masses along directions: (cart. coord. / red. coord. -> eff. mass)
    1:   1.000000  0.000000  0.000000 /   0.939884  0.341493  0.000000 ->   2.3617690416
    2:   0.000000  1.000000  0.000000 /   0.000000  1.000000  0.000000 ->   4.6449296324
    3:   0.000000  0.000000  1.000000 /   0.444095  0.444095  0.778177 ->   2.1425859121
    4:   0.577350  0.577350  0.577350 /   0.587771  0.690067  0.422294 ->   2.0001131268
    5:   0.000000  0.707107  0.707107 /   0.323613  0.757441  0.567060 ->   2.1411343427
    6:   0.707107  0.000000  0.707107 /   0.724325  0.452254  0.520403 ->   1.7898489048
    7:   0.707107  0.707107  0.000000 /   0.611188  0.791485  0.000000 ->   3.6111266311

 END OF EFFECTIVE MASSES SECTION

 ---- first-order wavefunction calculations are completed ----

 Total localisation tensor (bohr^2) in cartesian coordinates
  WARNING : still subject to testing - especially symmetries.
      direction              matrix element
   alpha     beta       real part   imaginary part
     1        1       0.5404376531    0.0000000000
     1        2       0.1597660560    0.0000000000
     1        3       0.4514634005    0.0000000000
     2        1       0.1597660560    0.0000000000
     2        2       0.4096689976    0.0000000000
     2        3       0.3055919931    0.0000000000
     3        1       0.4514634005    0.0000000000
     3        2       0.3055919931    0.0000000000
     3        3       1.1596342582    0.0000000000

 respfn : d/dk was computed, but no 2DTE, so no DDB output.

== END DATASET(S) ==============================================================

 -outvars: echo values of variables after computation  --------
            acell      1.0000000000E+00  1.0000000000E+00  1.0000000000E+00 Bohr
              amu      6.53900000E+01  1.95080000E+02  1.89984032E+01
             ecut      4.20000000E+01 Hartree
           etotal     -5.6715001699E+01
            fcart      0.0000000000E+00  0.0000000000E+00  0.0000000000E+00
                       0.0000000000E+00  0.0000000000E+00  0.0000000000E+00
                       0.0000000000E+00  0.0000000000E+00  0.0000000000E+00
                       0.0000000000E+00  0.0000000000E+00  0.0000000000E+00
                       0.0000000000E+00  0.0000000000E+00  0.0000000000E+00
                       0.0000000000E+00  0.0000000000E+00  0.0000000000E+00
                       0.0000000000E+00  0.0000000000E+00  0.0000000000E+00
                       0.0000000000E+00  0.0000000000E+00  0.0000000000E+00
-          fftalg         512
           irdden           1
           irdwfk           1
           istwfk        1
              ixc     -116133
              kpt      5.00000000E-01  5.00000000E-01  0.00000000E+00
           kptopt           0
P           mkmem           1
P          mkqmem           1
P          mk1mem           1
            natom           8
            nband          49
           nbdbuf           4
            ngfft          60      60      60
             nkpt           1
            nstep        2000
             nsym           6
           ntypat           3
              occ      2.000000  2.000000  2.000000  2.000000  2.000000  2.000000
                       2.000000  2.000000  2.000000  2.000000  2.000000  2.000000
                       2.000000  2.000000  2.000000  2.000000  2.000000  2.000000
                       2.000000  2.000000  2.000000  2.000000  2.000000  2.000000
                       2.000000  2.000000  2.000000  2.000000  2.000000  2.000000
                       2.000000  2.000000  2.000000  2.000000  2.000000  2.000000
                       2.000000  2.000000  2.000000  2.000000  0.000000  0.000000
                       0.000000  0.000000  0.000000  0.000000  0.000000  0.000000
                       0.000000
        optdriver           1
            prtwf          -1
            rfdir           1       1       1
           rfelfd           2
            rprim      8.3880992109E+00  0.0000000000E+00  5.8294701589E+00
                       3.0476958724E+00  7.8148421764E+00  5.8294701589E+00
                       0.0000000000E+00  0.0000000000E+00  1.0214838751E+01
          spgroup         148
           strten      0.0000000000E+00  0.0000000000E+00  0.0000000000E+00
                       0.0000000000E+00  0.0000000000E+00  0.0000000000E+00
           symrel      1  0  0   0  1  0   0  0  1      -1  0  0   0 -1  0   0  0 -1
                       0  0  1   1  0  0   0  1  0       0  0 -1  -1  0  0   0 -1  0
                       0  1  0   0  0  1   1  0  0       0 -1  0   0  0 -1  -1  0  0
           tolwfr      1.00000000E-20
            typat      1  2  3  3  3  3  3  3
           useylm           1
           xangst      3.0257810601E+00  2.0677181842E+00  5.7875526744E+00
                       0.0000000000E+00  0.0000000000E+00  0.0000000000E+00
                       3.9942428970E+00  1.6114017290E+00  4.0762416408E+00
                       1.8892525635E+00  4.0936271068E-01  5.6062005574E+00
                       4.3892497934E+00  9.9964662704E-01  6.8243287605E+00
                       4.1623095567E+00  3.7260736578E+00  5.9689047915E+00
                       2.0573192232E+00  2.5240346394E+00  7.4988637081E+00
                       1.6623123268E+00  3.1357897414E+00  4.7507765884E+00
            xcart      5.7178975416E+00  3.9074210882E+00  1.0936889534E+01
                       0.0000000000E+00  0.0000000000E+00  0.0000000000E+00
                       7.5480251835E+00  3.0451079579E+00  7.7029803526E+00
                       3.5701699409E+00  7.7358341220E-01  1.0594183699E+01
                       8.2944800383E+00  1.8890583548E+00  1.2896112398E+01
                       7.8656251424E+00  7.0412587642E+00  1.1279595369E+01
                       3.8877698998E+00  4.7697342185E+00  1.4170798716E+01
                       3.1413150450E+00  5.9257838216E+00  8.9776666705E+00
             xred      5.0000000000E-01  5.0000000000E-01  5.0000000000E-01
                       0.0000000000E+00  0.0000000000E+00  0.0000000000E+00
                       7.5827300000E-01  3.8965700000E-01  9.8989000000E-02
                       3.8965700000E-01  9.8989000000E-02  7.5827300000E-01
                       9.0101100000E-01  2.4172700000E-01  6.1034300000E-01
                       6.1034300000E-01  9.0101100000E-01  2.4172700000E-01
                       2.4172700000E-01  6.1034300000E-01  9.0101100000E-01
                       9.8989000000E-02  7.5827300000E-01  3.8965700000E-01
            znucl       30.00000   78.00000    9.00000

- Timing analysis has been suppressed with timopt=0

 Suggested references for the acknowledgment of ABINIT usage.

 Calculation completed.
.Delivered   6 WARNINGs and   5 COMMENTs to log file.