.Version 9.5.1 of ABINIT

 ABINIT is a project of the Universite Catholique de Louvain,
 Corning Inc. and other collaborators, see ~abinit/doc/developers/contributors.txt .
 acknowledgments of the ABINIT effort.

.Starting date : Wed  5 May 2021.
- ( at 19h40 )

- input  file    -> /scratch/users/j/a/jabreu/flow_simple_7atoms/flow/w126/t1/run.abi
- output file    -> /scratch/users/j/a/jabreu/flow_simple_7atoms/flow/w126/t1/run.abo
- root for input  files -> /scratch/users/j/a/jabreu/flow_simple_7atoms/flow/w126/t1/indata/in
- root for output files -> /scratch/users/j/a/jabreu/flow_simple_7atoms/flow/w126/t1/outdata/out

 Symmetries : space group P-6 m 2 (#187); Bravais hP (primitive hexag.)
     intxc =       0      iscf =       7    lmnmax =      18     lnmax =       6
     mgfft =      60  mpssoang =       3    mqgrid =    3001     natom =       7
  nloc_mem =       1    nspden =       1   nspinor =       1    nsppol =       1
      nsym =      12    n1xccc =    2501    ntypat =       5    occopt =       1
   xclevel =       2
-    mband =          33        mffmem =           1         mkmem =           2
-   mkqmem =           2        mk1mem =           2           mpw =       10778
      nfft =      194400          nkpt =           2
  Rough estimation (10% accuracy) of disk space for files :

------------- Echo of variables that govern the present computation ------------
-
- outvars: echo of selected default values
-   iomode0 =  0 , fftalg0 =512 , wfoptalg0 =  0
-
- outvars: echo of global parameters not present in the input file
-  max_nthreads =    0
-
 -outvars: echo values of preprocessed input variables --------
            acell      1.0000000000E+00  1.0000000000E+00  1.0000000000E+00 Bohr
              amu      8.54678000E+01  8.76200000E+01  1.20110000E+01
                       1.59994000E+01  1.89984032E+01
             ecut      4.40000000E+01 Hartree
-          fftalg         512
           irdden           1
           irdwfk           1
           istwfk        1    1
              ixc     -116133
              kpt      0.00000000E+00  0.00000000E+00  5.00000000E-01
                       0.00000000E+00  0.00000000E+00  0.00000000E+00
           kptopt           0
P           mkmem           2
P          mkqmem           2
P          mk1mem           2
            natom           7
            nband          33
           nbdbuf           4
            ngfft          60      60      54
             nkpt           2
            nstep        2000
             nsym          12
           ntypat           5
              occ      2.000000  2.000000  2.000000  2.000000  2.000000  2.000000
                       2.000000  2.000000  2.000000  2.000000  2.000000  2.000000
                       2.000000  2.000000  2.000000  2.000000  2.000000  2.000000
                       2.000000  2.000000  2.000000  2.000000  2.000000  2.000000
                       0.000000  0.000000  0.000000  0.000000  0.000000  0.000000
                       0.000000  0.000000  0.000000
        optdriver           1
            prtwf          -1
            rfdir           1       1       1
           rfelfd           2
            rprim      9.9572123694E+00  0.0000000000E+00  0.0000000000E+00
                      -4.9786061847E+00  8.6231988628E+00  0.0000000000E+00
                       0.0000000000E+00  0.0000000000E+00  8.9902815011E+00
          spgroup         187
           symrel      1  0  0   0  1  0   0  0  1       0 -1  0  -1  0  0   0  0 -1
                      -1 -1  0   1  0  0   0  0 -1      -1  0  0   1  1  0   0  0  1
                       0  1  0  -1 -1  0   0  0  1       1  1  0   0 -1  0   0  0 -1
                       1  0  0   0  1  0   0  0 -1       0 -1  0  -1  0  0   0  0  1
                      -1 -1  0   1  0  0   0  0  1      -1  0  0   1  1  0   0  0 -1
                       0  1  0  -1 -1  0   0  0 -1       1  1  0   0 -1  0   0  0  1
            tnons      0.0000000  0.0000000  0.0000000     0.0000000  0.0000000  0.0000000
                       0.0000000  0.0000000  0.0000000     0.0000000  0.0000000  0.0000000
                       0.0000000 -0.0000000  0.0000000     0.0000000 -0.0000000  0.0000000
                       0.0000000  0.0000000  0.0000000     0.0000000  0.0000000  0.0000000
                       0.0000000  0.0000000  0.0000000     0.0000000  0.0000000  0.0000000
                       0.0000000 -0.0000000  0.0000000     0.0000000 -0.0000000  0.0000000
           tolwfr      1.00000000E-20
            typat      1  2  3  4  4  4  5
           useylm           1
              wtk        0.50000    0.50000
           xangst      2.6345649238E+00  1.5210667676E+00  0.0000000000E+00
                       2.6345651415E-10 -1.5210702711E-10  2.3787260346E+00
                       2.6345638709E-10  3.0421335354E+00  2.3787260346E+00
                       1.1195636336E+00  2.3957531703E+00  2.3787260346E+00
                       2.6345638709E-10  4.3348942656E+00  2.3787260346E+00
                      -1.1195636331E+00  2.3957531703E+00  2.3787260346E+00
                       2.6345651415E-10 -1.5210702711E-10  0.0000000000E+00
            xcart      4.9786061852E+00  2.8743996206E+00  0.0000000000E+00
                       4.9786065966E-10 -2.8744062412E-10  4.4951407506E+00
                       4.9786041956E-10  5.7487992416E+00  4.4951407506E+00
                       2.1156686559E+00  4.5273173739E+00  4.4951407506E+00
                       4.9786041956E-10  8.1917629770E+00  4.4951407506E+00
                      -2.1156686549E+00  4.5273173739E+00  4.4951407506E+00
                       4.9786065966E-10 -2.8744062412E-10  0.0000000000E+00
             xred      6.6666666670E-01  3.3333333330E-01  0.0000000000E+00
                       3.3333299084E-11 -3.3333410106E-11  5.0000000000E-01
                       3.3333333337E-01  6.6666666663E-01  5.0000000000E-01
                       4.7498400003E-01  5.2501599997E-01  5.0000000000E-01
                       4.7498400003E-01  9.4996799997E-01  5.0000000000E-01
                       5.0032000033E-02  5.2501599997E-01  5.0000000000E-01
                       3.3333299084E-11 -3.3333410106E-11  0.0000000000E+00
            znucl       37.00000   38.00000    6.00000    8.00000    9.00000

 chkinp: Checking input parameters for consistency.

== DATASET  1 ==================================================================
-   mpi_nproc: 1, omp_nthreads: -1 (-1 if OMP is not activated)

--- !DatasetInfo
iteration_state: {dtset: 1, }
dimensions: {natom: 7, nkpt: 2, mband: 33, nsppol: 1, nspinor: 1, nspden: 1, mpw: 10778, }
cutoff_energies: {ecut:  44.0, pawecutdg:  -1.0, }
electrons: {nelect:   4.80000000E+01, charge:   0.00000000E+00, occopt:   1.00000000E+00, tsmear:   1.00000000E-02, }
meta: {optdriver: 1, rfelfd: 2, }
...

 Real(R)+Recip(G) space primitive vectors, cartesian coordinates (Bohr,Bohr^-1):
 R(1)=  9.9572124  0.0000000  0.0000000  G(1)=  0.1004297  0.0579831  0.0000000
 R(2)= -4.9786062  8.6231989  0.0000000  G(2)=  0.0000000  0.1159662  0.0000000
 R(3)=  0.0000000  0.0000000  8.9902815  G(3)=  0.0000000  0.0000000  0.1112312
 Unit cell volume ucvol=  7.7193274E+02 bohr^3
 Angles (23,13,12)=  9.00000000E+01  9.00000000E+01  1.20000000E+02 degrees

 getcut: wavevector=  0.0000  0.0000  0.0000  ngfft=  60  60  54
         ecut(hartree)=     44.000   => boxcut(ratio)=   2.01154

--- Pseudopotential description ------------------------------------------------
- pspini: atom type   1  psp file is /scratch/users/j/a/jabreu/pseudos/PBEsol/Rb.psp8
- pspatm: opening atomic psp file    /scratch/users/j/a/jabreu/pseudos/PBEsol/Rb.psp8
- Rb    ONCVPSP-3.3.0  r_core=   1.71227   1.75361   1.90633
- 37.00000   9.00000    180112                znucl, zion, pspdat
    8 -116133    2    4       600   0.00000   pspcod,pspxc,lmax,lloc,mmax,r2well
    5.99000000000000    7.00000000000000    0.00000000000000   rchrg,fchrg,qchrg
     nproj     2     2     2
     extension_switch     1
  pspatm : epsatm=   34.48400912
         --- l  ekb(1:nproj) -->
             0    8.196957   -0.477221
             1    3.231347   -0.378736
             2   -1.047201    0.996637
 pspatm: atomic psp has been read  and splines computed

- pspini: atom type   2  psp file is /scratch/users/j/a/jabreu/pseudos/PBEsol/Sr.psp8
- pspatm: opening atomic psp file    /scratch/users/j/a/jabreu/pseudos/PBEsol/Sr.psp8
- Sr    ONCVPSP-3.3.0  r_core=   1.66721   1.31335   1.51547
- 38.00000  10.00000    180112                znucl, zion, pspdat
    8 -116133    2    4       600   0.00000   pspcod,pspxc,lmax,lloc,mmax,r2well
    5.99000000000000    6.00000000000000    0.00000000000000   rchrg,fchrg,qchrg
     nproj     2     2     2
     extension_switch     1
  pspatm : epsatm=   12.46450977
         --- l  ekb(1:nproj) -->
             0   10.029206    1.044171
             1    7.472414    1.670829
             2    4.142950    0.968140
 pspatm: atomic psp has been read  and splines computed

[...]

- pspini: atom type   5  psp file is /scratch/users/j/a/jabreu/pseudos/PBEsol/F.psp8
- pspatm: opening atomic psp file    /scratch/users/j/a/jabreu/pseudos/PBEsol/F.psp8
- F     ONCVPSP-3.3.0  r_core=   1.30942   1.45782   1.60379
-  9.00000   7.00000    180112                znucl, zion, pspdat
    8 -116133    2    4       600   0.00000   pspcod,pspxc,lmax,lloc,mmax,r2well
    5.99000000000000    2.50000000000000    0.00000000000000   rchrg,fchrg,qchrg
     nproj     2     2     1
     extension_switch     1
  pspatm : epsatm=    4.89824824
         --- l  ekb(1:nproj) -->
             0    6.506434    1.065875
             1   -3.978753   -1.295852
             2   -2.394754
 pspatm: atomic psp has been read  and splines computed

   3.59439255E+03                                ecore*ucvol(ha*bohr**3)

-inwffil : will read wavefunctions from disk file /scratch/users/j/a/jabreu/flow_simple_7atoms/flow/w126/t1/indata/in_WFK

 ==>  initialize data related to q vector <==

 The list of irreducible perturbations for this q vector is:
    1)    idir= 1    ipert=   8
    2)    idir= 2    ipert=   8
    3)    idir= 3    ipert=   8

 Perturbation wavevector (in red.coord.)   0.000000  0.000000  0.000000
 Perturbation : derivative vs k along direction   1

 dfpt_looppert : COMMENT -
  In a d/dk calculation, iscf is set to -3 automatically.
 The set of symmetries contains only one element for this perturbation.
 symkpt : not enough symmetry to change the number of k points.

[...]

 Initialisation of the first-order wave-functions :
  ireadwf=   0

--- !BeginCycle
iteration_state: {dtset: 1, }
solver: {iscf: 7, nstep: 2000, nline: 4, wfoptalg: 0, }
tolerances: {tolwfr: 1.00E-20, }
...

     iter   2DEtotal(Ha)        deltaE(Ha) residm    vres2
-ETOT  1  -28.549042253434     -2.855E+01 4.546E-02 0.000E+00
 ETOT  2  -28.586419877330     -3.738E-02 1.497E-02 0.000E+00
 ETOT  3  -28.586784671550     -3.648E-04 4.717E-04 0.000E+00
 ETOT  4  -28.586790234132     -5.563E-06 3.216E-04 0.000E+00
 ETOT  5  -28.586790331677     -9.754E-08 1.656E-05 0.000E+00
 ETOT  6  -28.586790333516     -1.839E-09 1.446E-05 0.000E+00
 ETOT  7  -28.586790333552     -3.630E-11 7.769E-07 0.000E+00
 ETOT  8  -28.586790333553     -6.928E-13 6.955E-07 0.000E+00
 ETOT  9  -28.586790333553     -6.040E-14 3.769E-08 0.000E+00
 ETOT 10  -28.586790333553     -3.553E-15 3.374E-08 0.000E+00
 ETOT 11  -28.586790333553     -7.105E-15 1.841E-09 0.000E+00
 ETOT 12  -28.586790333553     -7.105E-15 1.641E-09 0.000E+00
 ETOT 13  -28.586790333553      1.421E-14 9.011E-11 0.000E+00
 ETOT 14  -28.586790333553     -7.105E-15 7.997E-11 0.000E+00
 ETOT 15  -28.586790333553     -3.553E-15 4.416E-12 0.000E+00
 ETOT 16  -28.586790333553      0.000E+00 3.902E-12 0.000E+00
 ETOT 17  -28.586790333553      1.066E-14 2.166E-13 0.000E+00
 ETOT 18  -28.586790333553     -7.105E-15 1.906E-13 0.000E+00
 ETOT 19  -28.586790333553      0.000E+00 1.063E-14 0.000E+00
 ETOT 20  -28.586790333553      7.105E-15 9.318E-15 0.000E+00
 ETOT 21  -28.586790333553     -7.105E-15 5.222E-16 0.000E+00
 ETOT 22  -28.586790333553      0.000E+00 4.560E-16 0.000E+00
 ETOT 23  -28.586790333553      1.421E-14 2.567E-17 0.000E+00
 ETOT 24  -28.586790333553     -1.421E-14 2.234E-17 0.000E+00
 ETOT 25  -28.586790333553     -7.105E-15 1.263E-18 0.000E+00
 ETOT 26  -28.586790333553      7.105E-15 1.096E-18 0.000E+00
 ETOT 27  -28.586790333553     -7.105E-15 6.214E-20 0.000E+00
 ETOT 28  -28.586790333553      7.105E-15 5.377E-20 0.000E+00
 ETOT 29  -28.586790333553      0.000E+00 9.990E-21 0.000E+00

 At SCF step   29   max residual=  9.99E-21 < tolwfr=  1.00E-20 =>converged.

 ----iterations are completed or convergence reached----

 dfpt_looppert: DFPT cycle converged with prtwf=-1. Will skip output of the 1st-order WFK file.
 dfpt_looppert : ek2=    5.0967597979E+01
          f-sum rule ratio=    1.1139178320E+00
 prteigrs : about to open file /scratch/users/j/a/jabreu/flow_simple_7atoms/flow/w126/t1/tmpdata/tmp_1WF1_EIG
 Expectation of eigenvalue derivatives (hartree) for nkpt=   2  k points:
  (in case of degenerate eigenvalues, averaged derivative)
 kpt#   1, nband= 33, wtk=  0.50000, kpt=  0.0000  0.0000  0.5000 (reduced coord)
   0.00000    0.00000   -0.00000    0.00000   -0.00000   -0.00000    0.00000    0.00000
  -0.00000    0.00000    0.00000    0.00000   -0.00000   -0.00000    0.00000    0.00000
  -0.00000   -0.00000   -0.00000    0.00000    0.00000    0.00000    0.00000    0.00000
  -0.00000   -0.00000   -0.00000   -0.00000    0.00000    0.00000   -0.00000    0.00021
  -0.01569
 prteigrs : prtvol=0 or 1, do not print more k-points.

 Eight components of 2nd-order total energy (hartree) are
 1,2,3: 0th-order hamiltonian combined with 1st-order wavefunctions
     kin0=   3.47925140E+01 eigvalue=   1.92005054E+00  local=  -1.65990916E+01
 4,5,6: 1st-order hamiltonian combined with 1st and 0th-order wfs
     kin1=  -5.67737162E+01  Hartree=   0.00000000E+00     xc=   0.00000000E+00
 7,8,9: eventually, occupation + non-local contributions
    edocc=   9.28663770E+00     enl0=  -8.13320324E-01   enl1=  -3.99864425E-01
 1-9 gives the relaxation energy (to be shifted if some occ is /=2.0)
   erelax=  -2.85867903E+01
  No Ewald or frozen-wf contrib.: the relaxation energy is the total one
 2DEtotal=   -0.2858679033E+02 Ha. Also 2DEtotal=   -0.777886125092E+03 eV
    (  non-var. 2DEtotal :   -2.8586790333E+01 Ha)

 Perturbation wavevector (in red.coord.)   0.000000  0.000000  0.000000
 Perturbation : derivative vs k along direction   2
 The set of symmetries contains only one element for this perturbation.
 symkpt : not enough symmetry to change the number of k points.

[...]

 Perturbation wavevector (in red.coord.)   0.000000  0.000000  0.000000
 Perturbation : derivative vs k along direction   3
 The set of symmetries contains only one element for this perturbation.
 symkpt : not enough symmetry to change the number of k points.

-inwffil : will read wavefunctions from disk file /scratch/users/j/a/jabreu/flow_simple_7atoms/flow/w126/t1/indata/in_WFK

 Initialisation of the first-order wave-functions :
  ireadwf=   0

--- !BeginCycle
iteration_state: {dtset: 1, }
solver: {iscf: 7, nstep: 2000, nline: 4, wfoptalg: 0, }
tolerances: {tolwfr: 1.00E-20, }
...

     iter   2DEtotal(Ha)        deltaE(Ha) residm    vres2
-ETOT  1  -24.164628015047     -2.416E+01 1.419E-01 0.000E+00
 ETOT  2  -24.186738922508     -2.211E-02 1.183E-02 0.000E+00
 ETOT  3  -24.186875980912     -1.371E-04 5.096E-04 0.000E+00
 ETOT  4  -24.186877619754     -1.639E-06 9.210E-05 0.000E+00
 ETOT  5  -24.186877642671     -2.292E-08 4.649E-06 0.000E+00
 ETOT  6  -24.186877643028     -3.567E-10 1.008E-06 0.000E+00
 ETOT  7  -24.186877643034     -6.267E-12 4.754E-08 0.000E+00
 ETOT  8  -24.186877643034     -1.350E-13 1.225E-08 0.000E+00
 ETOT  9  -24.186877643034     -1.066E-14 5.436E-10 0.000E+00
 ETOT 10  -24.186877643034      0.000E+00 1.654E-10 0.000E+00
 ETOT 11  -24.186877643034     -1.776E-14 6.977E-12 0.000E+00
 ETOT 12  -24.186877643034      2.132E-14 2.471E-12 0.000E+00
 ETOT 13  -24.186877643034      0.000E+00 1.002E-13 0.000E+00
 ETOT 14  -24.186877643034      0.000E+00 3.974E-14 0.000E+00
 ETOT 15  -24.186877643034      3.553E-15 1.567E-15 0.000E+00
 ETOT 16  -24.186877643034     -3.553E-15 6.666E-16 0.000E+00
 ETOT 17  -24.186877643034      0.000E+00 2.579E-17 0.000E+00
 ETOT 18  -24.186877643034      0.000E+00 1.141E-17 0.000E+00
 ETOT 19  -24.186877643034      0.000E+00 4.360E-19 0.000E+00
 ETOT 20  -24.186877643034      0.000E+00 1.971E-19 0.000E+00
 ETOT 21  -24.186877643034      0.000E+00 9.749E-21 0.000E+00

 At SCF step   21   max residual=  9.75E-21 < tolwfr=  1.00E-20 =>converged.

 ----iterations are completed or convergence reached----

 dfpt_looppert: DFPT cycle converged with prtwf=-1. Will skip output of the 1st-order WFK file.
 dfpt_looppert : ek2=    4.6890448731E+01
          f-sum rule ratio=    1.0081993767E+00
 prteigrs : about to open file /scratch/users/j/a/jabreu/flow_simple_7atoms/flow/w126/t1/tmpdata/tmp_1WF1_EIG
 Expectation of eigenvalue derivatives (hartree) for nkpt=   2  k points:
  (in case of degenerate eigenvalues, averaged derivative)
 kpt#   1, nband= 33, wtk=  0.50000, kpt=  0.0000  0.0000  0.5000 (reduced coord)
  -0.00000   -0.00000   -0.00000   -0.00000   -0.00000   -0.00000    0.00000    0.00000
   0.00000    0.00000   -0.00000   -0.00000   -0.00000   -0.00000   -0.00000   -0.00000
   0.00000    0.00000    0.00000    0.00000    0.00000   -0.00000   -0.00000   -0.00000
  -0.00000   -0.00000   -0.00000   -0.00000   -0.00000   -0.00000    0.00000   -0.00397
  -0.00656
 prteigrs : prtvol=0 or 1, do not print more k-points.

 Eight components of 2nd-order total energy (hartree) are
 1,2,3: 0th-order hamiltonian combined with 1st-order wavefunctions
     kin0=   3.30848388E+01 eigvalue=   2.33804575E+00  local=  -1.59497353E+01
 4,5,6: 1st-order hamiltonian combined with 1st and 0th-order wfs
     kin1=  -4.72749212E+01  Hartree=   0.00000000E+00     xc=   0.00000000E+00
 7,8,9: eventually, occupation + non-local contributions
    edocc=   4.67341810E+00     enl0=   4.03102617E-02   enl1=  -1.09883410E+00
 1-9 gives the relaxation energy (to be shifted if some occ is /=2.0)
   erelax=  -2.41868776E+01
  No Ewald or frozen-wf contrib.: the relaxation energy is the total one
 2DEtotal=   -0.2418687764E+02 Ha. Also 2DEtotal=   -0.658158411919E+03 eV
    (  non-var. 2DEtotal :   -2.4186877643E+01 Ha)

 CALCULATION OF EFFECTIVE MASSES
 NOTE : Additional infos (eff. mass eigenvalues, eigenvectors and, if degenerate, average mass) are available in stdout.

 K-point ( 0.000, 0.000, 0.500) | band =    24
 Effective mass tensor:
             -1.2170568360             -0.0011357792             -0.0024011893
             -0.0011357792             -1.2164577646              0.0024966938
             -0.0024011893              0.0024966938           -224.4385524967
 Effective mass tensor eigenvalues:
           -224.4385525504             -1.2179319128             -1.2155826340
 Angular average effective mass 1/(<1/m>)=  -1.8202002533
 Angular average effective mass for Frohlich model (<m**0.5>)**2=  -2.7419916602
 Effective masses along directions: (cart. coord. / red. coord. -> eff. mass)
    1:   1.000000  0.000000  0.000000 /   0.894427 -0.447214  0.000000 ->  -1.2170557498
    2:   0.000000  1.000000  0.000000 /   0.000000  1.000000  0.000000 ->  -1.2164566769
    3:   0.000000  0.000000  1.000000 /   0.000000  0.000000  1.000000 -> **************
    4:   0.577350  0.577350  0.577350 /   0.716264  0.262171  0.646709 ->  -1.8218955577
    5:   0.000000  0.707107  0.707107 /   0.000000  0.692220  0.721687 ->  -2.4197444575
    6:   0.707107  0.000000  0.707107 /   0.695853 -0.347927  0.628280 ->  -2.4210348845
    7:   0.707107  0.707107  0.000000 /   0.939071  0.343724  0.000000 ->  -1.2178930057

 K-point ( 0.000, 0.000, 0.000) | band =    25
 Effective mass tensor:
              0.5632926723             -0.0000000007              0.0000000000
             -0.0000000007              0.5632926714             -0.0000000000
              0.0000000000             -0.0000000000              0.5575328708
 Effective mass tensor eigenvalues:
              0.5575328708              0.5632926710              0.5632926727
 Angular average effective mass 1/(<1/m>)=   0.5613595605
 Angular average effective mass for Frohlich model (<m**0.5>)**2=   0.5613635208
 Effective masses along directions: (cart. coord. / red. coord. -> eff. mass)
    1:   1.000000  0.000000  0.000000 /   0.894427 -0.447214  0.000000 ->   0.5632926723
    2:   0.000000  1.000000  0.000000 /   0.000000  1.000000  0.000000 ->   0.5632926714
    3:   0.000000  0.000000  1.000000 /   0.000000  0.000000  1.000000 ->   0.5575328708
    4:   0.577350  0.577350  0.577350 /   0.716264  0.262171  0.646709 ->   0.5613595600
    5:   0.000000  0.707107  0.707107 /   0.000000  0.692220  0.721687 ->   0.5603979716
    6:   0.707107  0.000000  0.707107 /   0.695853 -0.347927  0.628280 ->   0.5603979720
    7:   0.707107  0.707107  0.000000 /   0.939071  0.343724  0.000000 ->   0.5632926711

 END OF EFFECTIVE MASSES SECTION

 ---- first-order wavefunction calculations are completed ----

 Total localisation tensor (bohr^2) in cartesian coordinates
  WARNING : still subject to testing - especially symmetries.
      direction              matrix element
   alpha     beta       real part   imaginary part
     1        1       1.2954650946    0.0000000000
     1        2      -0.4487230577    0.0000000000
     1        3       0.0000000000    0.0000000000
     2        1      -0.4487230577    0.0000000000
     2        2       0.7772111345    0.0000000000
     2        3       0.0000000000    0.0000000000
     3        1       0.0000000000    0.0000000000
     3        2       0.0000000000    0.0000000000
     3        3       0.5724439076    0.0000000000

 respfn : d/dk was computed, but no 2DTE, so no DDB output.

== END DATASET(S) ==============================================================

 -outvars: echo values of variables after computation  --------
            acell      1.0000000000E+00  1.0000000000E+00  1.0000000000E+00 Bohr
              amu      8.54678000E+01  8.76200000E+01  1.20110000E+01
                       1.59994000E+01  1.89984032E+01
             ecut      4.40000000E+01 Hartree
           etotal     -2.4186877643E+01
            fcart      0.0000000000E+00  0.0000000000E+00  0.0000000000E+00
                       0.0000000000E+00  0.0000000000E+00  0.0000000000E+00
                       0.0000000000E+00  0.0000000000E+00  0.0000000000E+00
                       0.0000000000E+00  0.0000000000E+00  0.0000000000E+00
                       0.0000000000E+00  0.0000000000E+00  0.0000000000E+00
                       0.0000000000E+00  0.0000000000E+00  0.0000000000E+00
                       0.0000000000E+00  0.0000000000E+00  0.0000000000E+00
-          fftalg         512
           irdden           1
           irdwfk           1
           istwfk        1    1
              ixc     -116133
              kpt      0.00000000E+00  0.00000000E+00  5.00000000E-01
                       0.00000000E+00  0.00000000E+00  0.00000000E+00
           kptopt           0
P           mkmem           2
P          mkqmem           2
P          mk1mem           2
            natom           7
            nband          33
           nbdbuf           4
            ngfft          60      60      54
             nkpt           2
            nstep        2000
             nsym          12
           ntypat           5
              occ      2.000000  2.000000  2.000000  2.000000  2.000000  2.000000
                       2.000000  2.000000  2.000000  2.000000  2.000000  2.000000
                       2.000000  2.000000  2.000000  2.000000  2.000000  2.000000
                       2.000000  2.000000  2.000000  2.000000  2.000000  2.000000
                       0.000000  0.000000  0.000000  0.000000  0.000000  0.000000
                       0.000000  0.000000  0.000000
        optdriver           1
            prtwf          -1
            rfdir           1       1       1
           rfelfd           2
            rprim      9.9572123694E+00  0.0000000000E+00  0.0000000000E+00
                      -4.9786061847E+00  8.6231988628E+00  0.0000000000E+00
                       0.0000000000E+00  0.0000000000E+00  8.9902815011E+00
          spgroup         187
           strten      0.0000000000E+00  0.0000000000E+00  0.0000000000E+00
                       0.0000000000E+00  0.0000000000E+00  0.0000000000E+00
           symrel      1  0  0   0  1  0   0  0  1       0 -1  0  -1  0  0   0  0 -1
                      -1 -1  0   1  0  0   0  0 -1      -1  0  0   1  1  0   0  0  1
                       0  1  0  -1 -1  0   0  0  1       1  1  0   0 -1  0   0  0 -1
                       1  0  0   0  1  0   0  0 -1       0 -1  0  -1  0  0   0  0  1
                      -1 -1  0   1  0  0   0  0  1      -1  0  0   1  1  0   0  0 -1
                       0  1  0  -1 -1  0   0  0 -1       1  1  0   0 -1  0   0  0  1
            tnons      0.0000000  0.0000000  0.0000000     0.0000000  0.0000000  0.0000000
                       0.0000000  0.0000000  0.0000000     0.0000000  0.0000000  0.0000000
                       0.0000000 -0.0000000  0.0000000     0.0000000 -0.0000000  0.0000000
                       0.0000000  0.0000000  0.0000000     0.0000000  0.0000000  0.0000000
                       0.0000000  0.0000000  0.0000000     0.0000000  0.0000000  0.0000000
                       0.0000000 -0.0000000  0.0000000     0.0000000 -0.0000000  0.0000000
           tolwfr      1.00000000E-20
            typat      1  2  3  4  4  4  5
           useylm           1
              wtk        0.50000    0.50000
           xangst      2.6345649238E+00  1.5210667676E+00  0.0000000000E+00
                       2.6345651415E-10 -1.5210702711E-10  2.3787260346E+00
                       2.6345638709E-10  3.0421335354E+00  2.3787260346E+00
                       1.1195636336E+00  2.3957531703E+00  2.3787260346E+00
                       2.6345638709E-10  4.3348942656E+00  2.3787260346E+00
                      -1.1195636331E+00  2.3957531703E+00  2.3787260346E+00
                       2.6345651415E-10 -1.5210702711E-10  0.0000000000E+00
            xcart      4.9786061852E+00  2.8743996206E+00  0.0000000000E+00
                       4.9786065966E-10 -2.8744062412E-10  4.4951407506E+00
                       4.9786041956E-10  5.7487992416E+00  4.4951407506E+00
                       2.1156686559E+00  4.5273173739E+00  4.4951407506E+00
                       4.9786041956E-10  8.1917629770E+00  4.4951407506E+00
                      -2.1156686549E+00  4.5273173739E+00  4.4951407506E+00
                       4.9786065966E-10 -2.8744062412E-10  0.0000000000E+00
             xred      6.6666666670E-01  3.3333333330E-01  0.0000000000E+00
                       3.3333299084E-11 -3.3333410106E-11  5.0000000000E-01
                       3.3333333337E-01  6.6666666663E-01  5.0000000000E-01
                       4.7498400003E-01  5.2501599997E-01  5.0000000000E-01
                       4.7498400003E-01  9.4996799997E-01  5.0000000000E-01
                       5.0032000033E-02  5.2501599997E-01  5.0000000000E-01
                       3.3333299084E-11 -3.3333410106E-11  0.0000000000E+00
            znucl       37.00000   38.00000    6.00000    8.00000    9.00000

- Timing analysis has been suppressed with timopt=0

 Suggested references for the acknowledgment of ABINIT usage.

 Calculation completed.
.Delivered  14 WARNINGs and   9 COMMENTs to log file.