.Version 9.5.1 of ABINIT

 ABINIT is a project of the Universite Catholique de Louvain,
 Corning Inc. and other collaborators, see ~abinit/doc/developers/contributors.txt .
 acknowledgments of the ABINIT effort.

.Starting date : Wed 19 May 2021.
- ( at 01h23 )

- input  file    -> /scratch/users/j/a/jabreu/flow_simple_8atoms/flow/w431/t1/run.abi
- output file    -> /scratch/users/j/a/jabreu/flow_simple_8atoms/flow/w431/t1/run.abo
- root for input  files -> /scratch/users/j/a/jabreu/flow_simple_8atoms/flow/w431/t1/indata/in
- root for output files -> /scratch/users/j/a/jabreu/flow_simple_8atoms/flow/w431/t1/outdata/out

 Symmetries : space group Fd -3 m (#227); Bravais cF (face-center cubic)
     intxc =       0      iscf =       7    lmnmax =      32     lnmax =       8
     mgfft =      72  mpssoang =       4    mqgrid =    3001     natom =       8
  nloc_mem =       1    nspden =       1   nspinor =       1    nsppol =       1
      nsym =      48    n1xccc =    2501    ntypat =       3    occopt =       1
   xclevel =       2
-    mband =          41        mffmem =           1         mkmem =           2
-   mkqmem =           2        mk1mem =           2           mpw =       15353
      nfft =      373248          nkpt =           2
  Rough estimation (10% accuracy) of disk space for files :

------------- Echo of variables that govern the present computation ------------
-
- outvars: echo of selected default values
-   iomode0 =  0 , fftalg0 =512 , wfoptalg0 =  0
-
- outvars: echo of global parameters not present in the input file
-  max_nthreads =    0
-
 -outvars: echo values of preprocessed input variables --------
            acell      1.0000000000E+00  1.0000000000E+00  1.0000000000E+00 Bohr
              amu      1.32905430E+02  9.29063800E+01  1.40067400E+01
             ecut      4.20000000E+01 Hartree
-          fftalg         512
           irdden           1
           irdwfk           1
           istwfk        1    1
              ixc     -116133
              kpt      5.00000000E-01  5.00000000E-01  5.00000000E-01
                       0.00000000E+00  0.00000000E+00  0.00000000E+00
           kptopt           0
P           mkmem           2
P          mkqmem           2
P          mk1mem           2
            natom           8
            nband          41
           nbdbuf           4
            ngfft          72      72      72
             nkpt           2
            nstep        2000
             nsym          48
           ntypat           3
              occ      2.000000  2.000000  2.000000  2.000000  2.000000  2.000000
                       2.000000  2.000000  2.000000  2.000000  2.000000  2.000000
                       2.000000  2.000000  2.000000  2.000000  2.000000  2.000000
                       2.000000  2.000000  2.000000  2.000000  2.000000  2.000000
                       2.000000  2.000000  2.000000  2.000000  2.000000  2.000000
                       2.000000  2.000000  0.000000  0.000000  0.000000  0.000000
                       0.000000  0.000000  0.000000  0.000000  0.000000
        optdriver           1
            prtwf          -1
            rfdir           1       1       1
           rfelfd           2
            rprim      1.0256321823E+01  0.0000000000E+00  5.9214901652E+00
                       3.4187739409E+00  9.6697529477E+00  5.9214901652E+00
                       0.0000000000E+00  0.0000000000E+00  1.1842980330E+01
          spgroup         227
           symrel      1  0  0   0  1  0   0  0  1      -1  0  0   0 -1  0   0  0 -1
                       0 -1  1   0 -1  0   1 -1  0       0  1 -1   0  1  0  -1  1  0
                      -1  0  0  -1  0  1  -1  1  0       1  0  0   1  0 -1   1 -1  0
                       0  1 -1   1  0 -1   0  0 -1       0 -1  1  -1  0  1   0  0  1
                      -1  0  0  -1  1  0  -1  0  1       1  0  0   1 -1  0   1  0 -1
                       0 -1  1   1 -1  0   0 -1  0       0  1 -1  -1  1  0   0  1  0
                       1  0  0   0  0  1   0  1  0      -1  0  0   0  0 -1   0 -1  0
                       0  1 -1   0  0 -1   1  0 -1       0 -1  1   0  0  1  -1  0  1
                      -1  0  1  -1  1  0  -1  0  0       1  0 -1   1 -1  0   1  0  0
                       0 -1  0   1 -1  0   0 -1  1       0  1  0  -1  1  0   0  1 -1
                       1  0 -1   0  0 -1   0  1 -1      -1  0  1   0  0  1   0 -1  1
                       0  1  0   0  0  1   1  0  0       0 -1  0   0  0 -1  -1  0  0
                       1  0 -1   0  1 -1   0  0 -1      -1  0  1   0 -1  1   0  0  1
                       0 -1  0   0 -1  1   1 -1  0       0  1  0   0  1 -1  -1  1  0
                      -1  0  1  -1  0  0  -1  1  0       1  0 -1   1  0  0   1 -1  0
                       0  1  0   1  0  0   0  0  1       0 -1  0  -1  0  0   0  0 -1
                       0  0 -1   0  1 -1   1  0 -1       0  0  1   0 -1  1  -1  0  1
                       1 -1  0   0 -1  1   0 -1  0      -1  1  0   0  1 -1   0  1  0
                       0  0  1   1  0  0   0  1  0       0  0 -1  -1  0  0   0 -1  0
                      -1  1  0  -1  0  0  -1  0  1       1 -1  0   1  0  0   1  0 -1
                       0  0  1   0  1  0   1  0  0       0  0 -1   0 -1  0  -1  0  0
                       1 -1  0   0 -1  0   0 -1  1      -1  1  0   0  1  0   0  1 -1
                       0  0 -1   1  0 -1   0  1 -1       0  0  1  -1  0  1   0 -1  1
                      -1  1  0  -1  0  1  -1  0  0       1 -1  0   1  0 -1   1  0  0
            tnons      0.0000000  0.0000000  0.0000000     0.2500000  0.2500000  0.2500000
                      -0.0000000  0.0000000  0.0000000     0.2500000  0.2500000  0.2500000
                       0.0000000 -0.0000000  0.0000000     0.2500000  0.2500000  0.2500000
                       0.0000000 -0.0000000  0.0000000     0.2500000  0.2500000  0.2500000
                       0.0000000  0.0000000  0.0000000     0.2500000  0.2500000  0.2500000
                       0.0000000  0.0000000  0.0000000     0.2500000  0.2500000  0.2500000
                       0.0000000 -0.0000000  0.0000000     0.2500000  0.2500000  0.2500000
                      -0.0000000 -0.0000000  0.0000000     0.2500000  0.2500000  0.2500000
                       0.0000000  0.0000000  0.0000000     0.2500000  0.2500000  0.2500000
                       0.0000000  0.0000000  0.0000000     0.2500000  0.2500000  0.2500000
                       0.0000000 -0.0000000  0.0000000     0.2500000  0.2500000  0.2500000
                      -0.0000000 -0.0000000  0.0000000     0.2500000  0.2500000  0.2500000
                       0.0000000  0.0000000  0.0000000     0.2500000  0.2500000  0.2500000
                      -0.0000000  0.0000000  0.0000000     0.2500000  0.2500000  0.2500000
                       0.0000000 -0.0000000  0.0000000     0.2500000  0.2500000  0.2500000
                       0.0000000 -0.0000000  0.0000000     0.2500000  0.2500000  0.2500000
                      -0.0000000  0.0000000  0.0000000     0.2500000  0.2500000  0.2500000
                       0.0000000  0.0000000  0.0000000     0.2500000  0.2500000  0.2500000
                       0.0000000 -0.0000000  0.0000000     0.2500000  0.2500000  0.2500000
                       0.0000000 -0.0000000  0.0000000     0.2500000  0.2500000  0.2500000
                      -0.0000000  0.0000000  0.0000000     0.2500000  0.2500000  0.2500000
                       0.0000000  0.0000000  0.0000000     0.2500000  0.2500000  0.2500000
                       0.0000000 -0.0000000  0.0000000     0.2500000  0.2500000  0.2500000
                       0.0000000 -0.0000000  0.0000000     0.2500000  0.2500000  0.2500000
           tolwfr      1.00000000E-20
            typat      1  1  2  2  3  3  3  3
           useylm           1
              wtk        0.50000    0.50000
           xangst      5.4274117525E+00  3.8377596545E+00  9.4005529089E+00
                       3.6182745017E+00  2.5585064363E+00  6.2670352726E+00
                       1.8091372508E+00  1.2792532182E+00  3.1335176363E+00
                       0.0000000000E+00  0.0000000000E+00  0.0000000000E+00
                       9.0456862542E-01  6.3962660908E-01  1.5667588182E+00
                       9.0456862542E-01  6.3962660908E-01  4.7002764545E+00
                       3.6182745017E+00  6.3962660908E-01  3.1335176363E+00
                       1.8091372508E+00  3.1981330454E+00  3.1335176363E+00
            xcart      1.0256321823E+01  7.2523147108E+00  1.7764470496E+01
                       6.8375478817E+00  4.8348764738E+00  1.1842980330E+01
                       3.4187739409E+00  2.4174382369E+00  5.9214901652E+00
                       0.0000000000E+00  0.0000000000E+00  0.0000000000E+00
                       1.7093869704E+00  1.2087191185E+00  2.9607450826E+00
                       1.7093869704E+00  1.2087191185E+00  8.8822352478E+00
                       6.8375478817E+00  1.2087191185E+00  5.9214901652E+00
                       3.4187739409E+00  6.0435955923E+00  5.9214901652E+00
             xred      7.5000000000E-01  7.5000000000E-01  7.5000000000E-01
                       5.0000000000E-01  5.0000000000E-01  5.0000000000E-01
                       2.5000000000E-01  2.5000000000E-01  2.5000000000E-01
                       0.0000000000E+00  0.0000000000E+00  0.0000000000E+00
                       1.2500000000E-01  1.2500000000E-01  1.2500000000E-01
                       1.2500000000E-01  1.2500000000E-01  6.2500000000E-01
                       6.2500000000E-01  1.2500000000E-01  1.2500000000E-01
                       1.2500000000E-01  6.2500000000E-01  1.2500000000E-01
            znucl       55.00000   41.00000    7.00000

 chkinp: Checking input parameters for consistency.

== DATASET  1 ==================================================================
-   mpi_nproc: 1, omp_nthreads: -1 (-1 if OMP is not activated)

--- !DatasetInfo
iteration_state: {dtset: 1, }
dimensions: {natom: 8, nkpt: 2, mband: 41, nsppol: 1, nspinor: 1, nspden: 1, mpw: 15353, }
cutoff_energies: {ecut:  42.0, pawecutdg:  -1.0, }
electrons: {nelect:   6.40000000E+01, charge:   0.00000000E+00, occopt:   1.00000000E+00, tsmear:   1.00000000E-02, }
meta: {optdriver: 1, rfelfd: 2, }
...

 Real(R)+Recip(G) space primitive vectors, cartesian coordinates (Bohr,Bohr^-1):
 R(1)= 10.2563218  0.0000000  5.9214902  G(1)=  0.0975008 -0.0344718  0.0000000
 R(2)=  3.4187739  9.6697529  5.9214902  G(2)=  0.0000000  0.1034153  0.0000000
 R(3)=  0.0000000  0.0000000 11.8429803  G(3)= -0.0487504 -0.0344718  0.0844382
 Unit cell volume ucvol=  1.1745406E+03 bohr^3
 Angles (23,13,12)=  6.00000000E+01  6.00000000E+01  6.00000000E+01 degrees

 getcut: wavevector=  0.0000  0.0000  0.0000  ngfft=  72  72  72
         ecut(hartree)=     42.000   => boxcut(ratio)=   2.08392

--- Pseudopotential description ------------------------------------------------
- pspini: atom type   1  psp file is /scratch/users/j/a/jabreu/pseudos/PBEsol/Cs.psp8
- pspatm: opening atomic psp file    /scratch/users/j/a/jabreu/pseudos/PBEsol/Cs.psp8
- Cs    ONCVPSP-3.3.0  r_core=   2.27353   1.85623   2.01788   1.90105
[...]
 ETOT 64  -33.018903062390      0.000E+00 4.233E-20 0.000E+00
 ETOT 65  -33.018903062390     -7.105E-15 1.118E-20 0.000E+00
 ETOT 66  -33.018903062390      7.105E-15 9.891E-21 0.000E+00

 At SCF step   66   max residual=  9.89E-21 < tolwfr=  1.00E-20 =>converged.

 ----iterations are completed or convergence reached----

 dfpt_looppert: DFPT cycle converged with prtwf=-1. Will skip output of the 1st-order WFK file.
 dfpt_looppert : ek2=    5.4042937803E+01
          f-sum rule ratio=    1.1779705815E+00
 prteigrs : about to open file /scratch/users/j/a/jabreu/flow_simple_8atoms/flow/w431/t1/tmpdata/tmp_1WF1_EIG
 Expectation of eigenvalue derivatives (hartree) for nkpt=   2  k points:
  (in case of degenerate eigenvalues, averaged derivative)
 kpt#   1, nband= 41, wtk=  0.50000, kpt=  0.5000  0.5000  0.5000 (reduced coord)
  -0.00000   -0.00000   -0.00000   -0.00000    0.00000   -0.00000   -0.00000   -0.00000
   0.00000    0.00000   -0.00000   -0.00000    0.00000    0.00000   -0.00000   -0.00000
  -0.00000   -0.00000   -0.00000   -0.00000   -0.00000   -0.00000    0.00000   -0.00000
   0.00000    0.00000    0.00000    0.00000   -0.00000   -0.00000   -0.00000    0.00000
   0.00000    0.00000   -0.00000    0.00000   -0.00000   -0.00000    0.00000    0.00000
  -0.00000
 prteigrs : prtvol=0 or 1, do not print more k-points.

 Eight components of 2nd-order total energy (hartree) are
 1,2,3: 0th-order hamiltonian combined with 1st-order wavefunctions
     kin0=   3.82564528E+01 eigvalue=   3.68181081E-01  local=  -2.28459565E+01
 4,5,6: 1st-order hamiltonian combined with 1st and 0th-order wfs
     kin1=  -6.36609909E+01  Hartree=   0.00000000E+00     xc=   0.00000000E+00
 7,8,9: eventually, occupation + non-local contributions
    edocc=   1.34183255E+01     enl0=   3.82190017E+00   enl1=  -2.37681525E+00
 1-9 gives the relaxation energy (to be shifted if some occ is /=2.0)
   erelax=  -3.30189031E+01
  No Ewald or frozen-wf contrib.: the relaxation energy is the total one
 2DEtotal=   -0.3301890306E+02 Ha. Also 2DEtotal=   -0.898490045867E+03 eV
    (  non-var. 2DEtotal :   -3.3018903062E+01 Ha)

 CALCULATION OF EFFECTIVE MASSES
 NOTE : Additional infos (eff. mass eigenvalues, eigenvectors and, if degenerate, average mass) are available in stdout.

 K-point ( 0.500, 0.500, 0.500) | band =    32
 Effective mass tensor:
             -9.1820715274             -6.2756167768            -15.3720614918
             -6.2756167768             -4.7445380395            -10.8696877063
            -15.3720614918            -10.8696877063            -26.9322003441
 Effective mass tensor eigenvalues:
            -40.2447945606             -0.3070079942             -0.3070073562
 Angular average effective mass 1/(<1/m>)=  -0.4587616796
 Angular average effective mass for Frohlich model (<m**0.5>)**2=  -0.6807042501
 Effective masses along directions: (cart. coord. / red. coord. -> eff. mass)
    1:   1.000000  0.000000  0.000000 /   0.948683  0.316228  0.000000 ->  -0.3938661012
    2:   0.000000  1.000000  0.000000 /   0.000000  1.000000  0.000000 ->  -0.3450542588
    3:   0.000000  0.000000  1.000000 /   0.408248  0.408248  0.816497 ->  -0.9071823602
    4:   0.577350  0.577350  0.577350 /   0.585539  0.688047  0.428644 ->  -2.3516481360
    5:   0.000000  0.707107  0.707107 /   0.289489  0.762222  0.578977 ->  -0.8924941895
    6:   0.707107  0.000000  0.707107 /   0.731423  0.422287  0.535439 ->  -1.7346831911
    7:   0.707107  0.707107  0.000000 /   0.616798  0.787122  0.000000 ->  -0.4523674213

 COMMENTS:
 - At k-point ( 0.000, 0.000, 0.000), bands    33 through    34
   are DEGENERATE (effective mass tensor is therefore not defined).
   See Section IIIB Eqs. (67)-(70) and Appendix E of PRB 93 205147 (2016).
 - Angular average effective mass for Frohlich model is to be averaged over degenerate bands. See later.
 - Associated theta integrals calculated with ntheta=   1000 points.

 K-point ( 0.000, 0.000, 0.000) | band =    33
 Transport equivalent effective mass tensor:
              0.6650510288             -0.0000004605              0.0000000000
             -0.0000004605              0.6650510766              0.0000000000
              0.0000000000              0.0000000000              0.6650513425
 Transport equivalent effective mass tensor eigenvalues:
              0.6650515138              0.6650513425              0.6650505916
 Angular average effective mass 1/(<1/m>)=   0.4844294472
 Angular average effective mass for Frohlich model (<m**0.5>)**2=   0.4955711494
 Effective masses along directions: (cart. coord. / red. coord. -> eff. mass)
    1:   1.000000  0.000000  0.000000 /   0.948683  0.316228  0.000000 ->   0.4515339502
    2:   0.000000  1.000000  0.000000 /   0.000000  1.000000  0.000000 ->   0.3309762003
    3:   0.000000  0.000000  1.000000 /   0.408248  0.408248  0.816497 ->   0.4515339501
    4:   0.577350  0.577350  0.577350 /   0.585539  0.688047  0.428644 ->   0.4486604917
    5:   0.000000  0.707107  0.707107 /   0.289489  0.762222  0.578977 ->   0.5520815210
    6:   0.707107  0.000000  0.707107 /   0.731423  0.422287  0.535439 ->   0.4515339502
    7:   0.707107  0.707107  0.000000 /   0.616798  0.787122  0.000000 ->   0.6769638402

 K-point ( 0.000, 0.000, 0.000) | band =    34
 Transport equivalent effective mass tensor:
              0.2780178468              0.0000001362              0.0000000000
              0.0000001362              0.2780176132              0.0000000000
              0.0000000000              0.0000000000              0.2780165969
 Transport equivalent effective mass tensor eigenvalues:
              0.2780179094              0.2780175506              0.2780165969
 Angular average effective mass 1/(<1/m>)=   0.2513543936
 Angular average effective mass for Frohlich model (<m**0.5>)**2=   0.2528791710
 Effective masses along directions: (cart. coord. / red. coord. -> eff. mass)
    1:   1.000000  0.000000  0.000000 /   0.948683  0.316228  0.000000 ->   0.2612290846
    2:   0.000000  1.000000  0.000000 /   0.000000  1.000000  0.000000 ->   0.3309762003
    3:   0.000000  0.000000  1.000000 /   0.408248  0.408248  0.816497 ->   0.2612290846
    4:   0.577350  0.577350  0.577350 /   0.585539  0.688047  0.428644 ->   0.2622006050
    5:   0.000000  0.707107  0.707107 /   0.289489  0.762222  0.578977 ->   0.2363281864
    6:   0.707107  0.000000  0.707107 /   0.731423  0.422287  0.535439 ->   0.2612290846
    7:   0.707107  0.707107  0.000000 /   0.616798  0.787122  0.000000 ->   0.2190318152

 Angular average effective mass for Frohlich model, averaged over degenerate bands.
 Value of     (<<m**0.5>>)**2 =     3.641151E-01
 Absolute Value of <<m**0.5>> =     6.034195E-01

 END OF EFFECTIVE MASSES SECTION

 ---- first-order wavefunction calculations are completed ----

 Total localisation tensor (bohr^2) in cartesian coordinates
  WARNING : still subject to testing - especially symmetries.
      direction              matrix element
   alpha     beta       real part   imaginary part
     1        1       2.7487824906    0.0000000000
     1        2       0.7774723061    0.0000000000
     1        3       1.9044120508    0.0000000000
     2        1       0.7774723061    0.0000000000
     2        2       2.1990237592    0.0000000000
     2        3       1.3466215356    0.0000000000
     3        1       1.9044120508    0.0000000000
     3        2       1.3466215356    0.0000000000
     3        3       4.9478070731    0.0000000000

 respfn : d/dk was computed, but no 2DTE, so no DDB output.

== END DATASET(S) ==============================================================

 -outvars: echo values of variables after computation  --------
            acell      1.0000000000E+00  1.0000000000E+00  1.0000000000E+00 Bohr
              amu      1.32905430E+02  9.29063800E+01  1.40067400E+01
             ecut      4.20000000E+01 Hartree
           etotal     -3.3018903062E+01
            fcart      0.0000000000E+00  0.0000000000E+00  0.0000000000E+00
                       0.0000000000E+00  0.0000000000E+00  0.0000000000E+00
                       0.0000000000E+00  0.0000000000E+00  0.0000000000E+00
                       0.0000000000E+00  0.0000000000E+00  0.0000000000E+00
                       0.0000000000E+00  0.0000000000E+00  0.0000000000E+00
                       0.0000000000E+00  0.0000000000E+00  0.0000000000E+00
                       0.0000000000E+00  0.0000000000E+00  0.0000000000E+00
                       0.0000000000E+00  0.0000000000E+00  0.0000000000E+00
-          fftalg         512
           irdden           1
           irdwfk           1
           istwfk        1    1
              ixc     -116133
              kpt      5.00000000E-01  5.00000000E-01  5.00000000E-01
                       0.00000000E+00  0.00000000E+00  0.00000000E+00
           kptopt           0
P           mkmem           2
P          mkqmem           2
P          mk1mem           2
            natom           8
            nband          41
           nbdbuf           4
            ngfft          72      72      72
             nkpt           2
            nstep        2000
             nsym          48
           ntypat           3
              occ      2.000000  2.000000  2.000000  2.000000  2.000000  2.000000
                       2.000000  2.000000  2.000000  2.000000  2.000000  2.000000
                       2.000000  2.000000  2.000000  2.000000  2.000000  2.000000
                       2.000000  2.000000  2.000000  2.000000  2.000000  2.000000
                       2.000000  2.000000  2.000000  2.000000  2.000000  2.000000
                       2.000000  2.000000  0.000000  0.000000  0.000000  0.000000
                       0.000000  0.000000  0.000000  0.000000  0.000000
        optdriver           1
            prtwf          -1
            rfdir           1       1       1
           rfelfd           2
            rprim      1.0256321823E+01  0.0000000000E+00  5.9214901652E+00
                       3.4187739409E+00  9.6697529477E+00  5.9214901652E+00
                       0.0000000000E+00  0.0000000000E+00  1.1842980330E+01
          spgroup         227
           strten      0.0000000000E+00  0.0000000000E+00  0.0000000000E+00
                       0.0000000000E+00  0.0000000000E+00  0.0000000000E+00
           symrel      1  0  0   0  1  0   0  0  1      -1  0  0   0 -1  0   0  0 -1
                       0 -1  1   0 -1  0   1 -1  0       0  1 -1   0  1  0  -1  1  0
                      -1  0  0  -1  0  1  -1  1  0       1  0  0   1  0 -1   1 -1  0
                       0  1 -1   1  0 -1   0  0 -1       0 -1  1  -1  0  1   0  0  1
                      -1  0  0  -1  1  0  -1  0  1       1  0  0   1 -1  0   1  0 -1
                       0 -1  1   1 -1  0   0 -1  0       0  1 -1  -1  1  0   0  1  0
                       1  0  0   0  0  1   0  1  0      -1  0  0   0  0 -1   0 -1  0
                       0  1 -1   0  0 -1   1  0 -1       0 -1  1   0  0  1  -1  0  1
                      -1  0  1  -1  1  0  -1  0  0       1  0 -1   1 -1  0   1  0  0
                       0 -1  0   1 -1  0   0 -1  1       0  1  0  -1  1  0   0  1 -1
                       1  0 -1   0  0 -1   0  1 -1      -1  0  1   0  0  1   0 -1  1
                       0  1  0   0  0  1   1  0  0       0 -1  0   0  0 -1  -1  0  0
                       1  0 -1   0  1 -1   0  0 -1      -1  0  1   0 -1  1   0  0  1
                       0 -1  0   0 -1  1   1 -1  0       0  1  0   0  1 -1  -1  1  0
                      -1  0  1  -1  0  0  -1  1  0       1  0 -1   1  0  0   1 -1  0
                       0  1  0   1  0  0   0  0  1       0 -1  0  -1  0  0   0  0 -1
                       0  0 -1   0  1 -1   1  0 -1       0  0  1   0 -1  1  -1  0  1
                       1 -1  0   0 -1  1   0 -1  0      -1  1  0   0  1 -1   0  1  0
                       0  0  1   1  0  0   0  1  0       0  0 -1  -1  0  0   0 -1  0
                      -1  1  0  -1  0  0  -1  0  1       1 -1  0   1  0  0   1  0 -1
                       0  0  1   0  1  0   1  0  0       0  0 -1   0 -1  0  -1  0  0
                       1 -1  0   0 -1  0   0 -1  1      -1  1  0   0  1  0   0  1 -1
                       0  0 -1   1  0 -1   0  1 -1       0  0  1  -1  0  1   0 -1  1
                      -1  1  0  -1  0  1  -1  0  0       1 -1  0   1  0 -1   1  0  0
            tnons      0.0000000  0.0000000  0.0000000     0.2500000  0.2500000  0.2500000
                      -0.0000000  0.0000000  0.0000000     0.2500000  0.2500000  0.2500000
                       0.0000000 -0.0000000  0.0000000     0.2500000  0.2500000  0.2500000
                       0.0000000 -0.0000000  0.0000000     0.2500000  0.2500000  0.2500000
                       0.0000000  0.0000000  0.0000000     0.2500000  0.2500000  0.2500000
                       0.0000000  0.0000000  0.0000000     0.2500000  0.2500000  0.2500000
                       0.0000000 -0.0000000  0.0000000     0.2500000  0.2500000  0.2500000
                      -0.0000000 -0.0000000  0.0000000     0.2500000  0.2500000  0.2500000
                       0.0000000  0.0000000  0.0000000     0.2500000  0.2500000  0.2500000
                       0.0000000  0.0000000  0.0000000     0.2500000  0.2500000  0.2500000
                       0.0000000 -0.0000000  0.0000000     0.2500000  0.2500000  0.2500000
                      -0.0000000 -0.0000000  0.0000000     0.2500000  0.2500000  0.2500000
                       0.0000000  0.0000000  0.0000000     0.2500000  0.2500000  0.2500000
                      -0.0000000  0.0000000  0.0000000     0.2500000  0.2500000  0.2500000
                       0.0000000 -0.0000000  0.0000000     0.2500000  0.2500000  0.2500000
                       0.0000000 -0.0000000  0.0000000     0.2500000  0.2500000  0.2500000
                      -0.0000000  0.0000000  0.0000000     0.2500000  0.2500000  0.2500000
                       0.0000000  0.0000000  0.0000000     0.2500000  0.2500000  0.2500000
                       0.0000000 -0.0000000  0.0000000     0.2500000  0.2500000  0.2500000
                       0.0000000 -0.0000000  0.0000000     0.2500000  0.2500000  0.2500000
                      -0.0000000  0.0000000  0.0000000     0.2500000  0.2500000  0.2500000
                       0.0000000  0.0000000  0.0000000     0.2500000  0.2500000  0.2500000
                       0.0000000 -0.0000000  0.0000000     0.2500000  0.2500000  0.2500000
                       0.0000000 -0.0000000  0.0000000     0.2500000  0.2500000  0.2500000
           tolwfr      1.00000000E-20
            typat      1  1  2  2  3  3  3  3
           useylm           1
              wtk        0.50000    0.50000
           xangst      5.4274117525E+00  3.8377596545E+00  9.4005529089E+00
                       3.6182745017E+00  2.5585064363E+00  6.2670352726E+00
                       1.8091372508E+00  1.2792532182E+00  3.1335176363E+00
                       0.0000000000E+00  0.0000000000E+00  0.0000000000E+00
                       9.0456862542E-01  6.3962660908E-01  1.5667588182E+00
                       9.0456862542E-01  6.3962660908E-01  4.7002764545E+00
                       3.6182745017E+00  6.3962660908E-01  3.1335176363E+00
                       1.8091372508E+00  3.1981330454E+00  3.1335176363E+00
            xcart      1.0256321823E+01  7.2523147108E+00  1.7764470496E+01
                       6.8375478817E+00  4.8348764738E+00  1.1842980330E+01
                       3.4187739409E+00  2.4174382369E+00  5.9214901652E+00
                       0.0000000000E+00  0.0000000000E+00  0.0000000000E+00
                       1.7093869704E+00  1.2087191185E+00  2.9607450826E+00
                       1.7093869704E+00  1.2087191185E+00  8.8822352478E+00
                       6.8375478817E+00  1.2087191185E+00  5.9214901652E+00
                       3.4187739409E+00  6.0435955923E+00  5.9214901652E+00
             xred      7.5000000000E-01  7.5000000000E-01  7.5000000000E-01
                       5.0000000000E-01  5.0000000000E-01  5.0000000000E-01
                       2.5000000000E-01  2.5000000000E-01  2.5000000000E-01
                       0.0000000000E+00  0.0000000000E+00  0.0000000000E+00
                       1.2500000000E-01  1.2500000000E-01  1.2500000000E-01
                       1.2500000000E-01  1.2500000000E-01  6.2500000000E-01
                       6.2500000000E-01  1.2500000000E-01  1.2500000000E-01
                       1.2500000000E-01  6.2500000000E-01  1.2500000000E-01
            znucl       55.00000   41.00000    7.00000

- Timing analysis has been suppressed with timopt=0

 Suggested references for the acknowledgment of ABINIT usage.

 Calculation completed.
.Delivered  14 WARNINGs and   9 COMMENTs to log file.