.Version 9.5.2 of ABINIT

 ABINIT is a project of the Universite Catholique de Louvain,
 Corning Inc. and other collaborators, see ~abinit/doc/developers/contributors.txt .
 acknowledgments of the ABINIT effort.

.Starting date : Mon 31 May 2021.
- ( at 21h55 )

- input  file    -> /scratch/users/j/a/jabreu/flow_simple_11atoms/flow/w325/t1/run.abi
- output file    -> /scratch/users/j/a/jabreu/flow_simple_11atoms/flow/w325/t1/run.abo
- root for input  files -> /scratch/users/j/a/jabreu/flow_simple_11atoms/flow/w325/t1/indata/in
- root for output files -> /scratch/users/j/a/jabreu/flow_simple_11atoms/flow/w325/t1/outdata/out

 Symmetries : space group P2_1/c (# 14); Bravais mP (primitive monocl.)
     intxc =       0      iscf =       7    lmnmax =      18     lnmax =       6
     mgfft =      90  mpssoang =       3    mqgrid =    3965     natom =      12
  nloc_mem =       1    nspden =       1   nspinor =       1    nsppol =       1
      nsym =       4    n1xccc =    2501    ntypat =       2    occopt =       1
   xclevel =       2
-    mband =          67        mffmem =           1         mkmem =           2
-   mkqmem =           2        mk1mem =           2           mpw =       19886
      nfft =      388800          nkpt =           2
  Rough estimation (10% accuracy) of disk space for files :

------------- Echo of variables that govern the present computation ------------
-
- outvars: echo of selected default values
-   iomode0 =  0 , fftalg0 =512 , wfoptalg0 =  0
-
- outvars: echo of global parameters not present in the input file
-  max_nthreads =    0
-
 -outvars: echo values of preprocessed input variables --------
            acell      1.0000000000E+00  1.0000000000E+00  1.0000000000E+00 Bohr
              amu      1.07868200E+02  3.09737620E+01
             ecut      4.30000000E+01 Hartree
-          fftalg         512
           irdden           1
           irdwfk           1
           istwfk        1    0
              ixc     -116133
              kpt      0.00000000E+00  5.00000000E-01  0.00000000E+00
                       0.00000000E+00  0.00000000E+00  2.14285714E-01
           kptopt           0
P           mkmem           2
P          mkqmem           2
P          mk1mem           2
            natom          12
            nband          67
           nbdbuf           4
            ngfft          60      72      90
             nkpt           2
            nstep        2000
             nsym           4
           ntypat           2
              occ      2.000000  2.000000  2.000000  2.000000  2.000000  2.000000
                       2.000000  2.000000  2.000000  2.000000  2.000000  2.000000
                       2.000000  2.000000  2.000000  2.000000  2.000000  2.000000
                       2.000000  2.000000  2.000000  2.000000  2.000000  2.000000
                       2.000000  2.000000  2.000000  2.000000  2.000000  2.000000
                       2.000000  2.000000  2.000000  2.000000  2.000000  2.000000
                       2.000000  2.000000  2.000000  2.000000  2.000000  2.000000
                       2.000000  2.000000  2.000000  2.000000  2.000000  2.000000
                       2.000000  2.000000  2.000000  2.000000  2.000000  2.000000
                       2.000000  2.000000  2.000000  2.000000  0.000000  0.000000
                       0.000000  0.000000  0.000000  0.000000  0.000000  0.000000
                       0.000000
        optdriver           1
            prtwf          -1
            rfdir           1       1       1
           rfelfd           2
            rprim      9.4826145696E+00  0.0000000000E+00  0.0000000000E+00
                       0.0000000000E+00  1.0637946968E+01  4.6539796848E+00
                       0.0000000000E+00  0.0000000000E+00  1.4660427453E+01
          spgroup          14
           symrel      1  0  0   0  1  0   0  0  1      -1  0  0   0 -1  0   0  0 -1
                       1  0  0   0 -1  0   0  0 -1      -1  0  0   0  1  0   0  0  1
            tnons      0.0000000  0.0000000  0.0000000     0.0000000  0.0000000  0.0000000
                       0.5000000  0.0000000  0.5000000     0.5000000  0.0000000  0.5000000
           tolwfr      1.00000000E-20
            typat      1  1  1  1  2  2  2  2  2  2  2  2
           useylm           1
              wtk        0.50000    0.50000
           xangst      2.3109319450E-01  3.6057001909E+00  6.2349616925E+00
                       2.7400849485E+00  2.0236588908E+00  7.8647644001E+00
                       4.7868903136E+00  2.0236588908E+00  3.9857823621E+00
                       2.2778985595E+00  3.6057001909E+00  2.3559796544E+00
                       2.0177512405E+00  5.1141263623E+00  5.4816513012E+00
                       4.5267429946E+00  5.1523271931E-01  8.6011071526E-01
                       3.0002322675E+00  5.1523271931E-01  4.7390927533E+00
                       4.9124051351E-01  5.1141263623E+00  9.3606333393E+00
                       3.8505697169E+00  4.3449138494E+00  8.1279272005E+00
                       1.3415779628E+00  1.2844452323E+00  5.9717988921E+00
                       1.1674137912E+00  1.2844452323E+00  2.0928168540E+00
                       3.6764055453E+00  4.3449138494E+00  4.2489451625E+00
            xcart      4.3670284877E-01  6.8137858781E+00  1.1782370048E+01
                       5.1780101336E+00  3.8241610899E+00  1.4862250816E+01
                       9.0459117208E+00  3.8241610899E+00  7.5320370896E+00
                       4.3046044360E+00  6.8137858781E+00  4.4521563215E+00
                       3.8129972489E+00  9.6642982338E+00  1.0358819715E+01
                       8.5543045337E+00  9.7364873419E-01  1.6253736958E+00
                       5.6696173207E+00  9.7364873419E-01  8.9555874221E+00
                       9.2831003591E-01  9.6642982338E+00  1.7689033442E+01
                       7.2765222204E+00  8.2106972463E+00  1.5359556437E+01
                       2.5352149356E+00  2.4272497217E+00  1.1285064427E+01
                       2.2060923492E+00  2.4272497217E+00  3.9548507004E+00
                       6.9473996340E+00  8.2106972463E+00  8.0293427107E+00
             xred      4.6053000000E-02  6.4051700000E-01  6.0035200000E-01
                       5.4605300000E-01  3.5948300000E-01  8.9964800000E-01
                       9.5394700000E-01  3.5948300000E-01  3.9964800000E-01
                       4.5394700000E-01  6.4051700000E-01  1.0035200000E-01
                       4.0210400000E-01  9.0847400000E-01  4.1818700000E-01
                       9.0210400000E-01  9.1526000000E-02  8.1813000000E-02
                       5.9789600000E-01  9.1526000000E-02  5.8181300000E-01
                       9.7896000000E-02  9.0847400000E-01  9.1818700000E-01
                       7.6735400000E-01  7.7183100000E-01  8.0266900000E-01
                       2.6735400000E-01  2.2816900000E-01  6.9733100000E-01
                       2.3264600000E-01  2.2816900000E-01  1.9733100000E-01
                       7.3264600000E-01  7.7183100000E-01  3.0266900000E-01
            znucl       47.00000   15.00000

 chkinp: Checking input parameters for consistency.

== DATASET  1 ==================================================================
-   mpi_nproc: 1, omp_nthreads: -1 (-1 if OMP is not activated)

--- !DatasetInfo
iteration_state: {dtset: 1, }
dimensions: {natom: 12, nkpt: 2, mband: 67, nsppol: 1, nspinor: 1, nspden: 1, mpw: 19886, }
cutoff_energies: {ecut:  43.0, pawecutdg:  -1.0, }
electrons: {nelect:   1.16000000E+02, charge:   0.00000000E+00, occopt:   1.00000000E+00, tsmear:   1.00000000E-02, }
meta: {optdriver: 1, rfelfd: 2, }
...

 Real(R)+Recip(G) space primitive vectors, cartesian coordinates (Bohr,Bohr^-1):
 R(1)=  9.4826146  0.0000000  0.0000000  G(1)=  0.1054561  0.0000000  0.0000000
 R(2)=  0.0000000 10.6379470  4.6539797  G(2)=  0.0000000  0.0940031  0.0000000
 R(3)=  0.0000000  0.0000000 14.6604275  G(3)=  0.0000000 -0.0298415  0.0682108
 Unit cell volume ucvol=  1.4788787E+03 bohr^3
 Angles (23,13,12)=  6.63711743E+01  9.00000000E+01  9.00000000E+01 degrees

 getcut: wavevector=  0.0000  0.0000  0.0000  ngfft=  60  72  90
         ecut(hartree)=     43.000   => boxcut(ratio)=   2.07976

--- Pseudopotential description ------------------------------------------------
- pspini: atom type   1  psp file is /scratch/users/j/a/jabreu/pseudos/PBEsol/Ag.psp8
- pspatm: opening atomic psp file    /scratch/users/j/a/jabreu/pseudos/PBEsol/Ag.psp8
- Ag    ONCVPSP-3.3.0  r_core=   1.41384   1.46535   1.61207
- 47.00000  19.00000    180112                znucl, zion, pspdat
    8 -116133    2    4       600   0.00000   pspcod,pspxc,lmax,lloc,mmax,r2well
    5.99000000000000    7.00000000000000    0.00000000000000   rchrg,fchrg,qchrg
     nproj     2     2     2
     extension_switch     1
  pspatm : epsatm=   27.64581383
         --- l  ekb(1:nproj) -->
             0    9.559407   -0.398585
             1    3.418858   -0.136622
             2   -1.644397   -0.401551
 pspatm: atomic psp has been read  and splines computed

- pspini: atom type   2  psp file is /scratch/users/j/a/jabreu/pseudos/PBEsol/P.psp8
- pspatm: opening atomic psp file    /scratch/users/j/a/jabreu/pseudos/PBEsol/P.psp8
- P     ONCVPSP-3.3.0  r_core=   1.46089   1.55067   1.70594
- 15.00000   5.00000    180112                znucl, zion, pspdat
    8 -116133    2    4       600   0.00000   pspcod,pspxc,lmax,lloc,mmax,r2well
    5.99000000000000    5.00000000000000    0.00000000000000   rchrg,fchrg,qchrg
     nproj     2     2     2
     extension_switch     1
  pspatm : epsatm=    7.31221086
         --- l  ekb(1:nproj) -->
             0    6.742364    1.063650
             1    3.449117    0.910422
             2   -3.077645   -0.799176
 pspatm: atomic psp has been read  and splines computed

   1.96133893E+04                                ecore*ucvol(ha*bohr**3)

 ==>  initialize data related to q vector <==

 The list of irreducible perturbations for this q vector is:
    1)    idir= 1    ipert=  13
    2)    idir= 2    ipert=  13
    3)    idir= 3    ipert=  13

 Perturbation wavevector (in red.coord.)   0.000000  0.000000  0.000000
 Perturbation : derivative vs k along direction   1

 dfpt_looppert : COMMENT -
  In a d/dk calculation, iscf is set to -3 automatically.
 The set of symmetries contains only one element for this perturbation.
 symkpt : not enough symmetry to change the number of k points.

 Initialisation of the first-order wave-functions :
  ireadwf=   0

--- !BeginCycle
iteration_state: {dtset: 1, }
solver: {iscf: 7, nstep: 2000, nline: 4, wfoptalg: 0, }
tolerances: {tolwfr: 1.00E-20, }
...

     iter   2DEtotal(Ha)        deltaE(Ha) residm    vres2
-ETOT  1  -55.149069692531     -5.515E+01 1.344E-01 0.000E+00
 ETOT  2  -55.307949076502     -1.589E-01 4.971E-03 0.000E+00
 ETOT  3  -55.310017523855     -2.068E-03 3.317E-04 0.000E+00
 ETOT  4  -55.310065172263     -4.765E-05 2.004E-05 0.000E+00
 ETOT  5  -55.310066591018     -1.419E-06 2.509E-06 0.000E+00
 ETOT  6  -55.310066639665     -4.865E-08 1.493E-07 0.000E+00
 ETOT  7  -55.310066641498     -1.833E-09 2.209E-08 0.000E+00
[...]

 ----iterations are completed or convergence reached----

 dfpt_looppert: DFPT cycle converged with prtwf=-1. Will skip output of the 1st-order WFK file.
 dfpt_looppert : ek2=    1.0185715097E+02
          f-sum rule ratio=    1.0818060482E+00
 prteigrs : about to open file /scratch/users/j/a/jabreu/flow_simple_11atoms/flow/w325/t1/tmpdata/tmp_1WF1_EIG
 Expectation of eigenvalue derivatives (hartree) for nkpt=   2  k points:
  (in case of degenerate eigenvalues, averaged derivative)
 kpt#   1, nband= 67, wtk=  0.50000, kpt=  0.0000  0.5000  0.0000 (reduced coord)
   0.00000    0.00000   -0.00000    0.00000    0.00000    0.00000    0.00000    0.00000
  -0.00000   -0.00000    0.00000   -0.00000    0.00000   -0.00000   -0.00000    0.00000
   0.00000   -0.00000    0.00000   -0.00000   -0.00000    0.00000   -0.00000    0.00000
   0.00000    0.00000    0.00000    0.00000   -0.00000   -0.00000   -0.00000   -0.00000
  -0.00000   -0.00000   -0.00000   -0.00000    0.00000    0.00000   -0.00000    0.00000
   0.00000   -0.00000    0.00000   -0.00000    0.00000    0.00000   -0.00000   -0.00000
   0.00000    0.00000    0.00000    0.00000   -0.00000   -0.00000    0.00000   -0.00000
  -0.00000   -0.00000    0.00000    0.00000    0.00000   -0.00000    0.00000   -0.00000
  -0.00000    0.00000    0.00003
 prteigrs : prtvol=0 or 1, do not print more k-points.

 Eight components of 2nd-order total energy (hartree) are
 1,2,3: 0th-order hamiltonian combined with 1st-order wavefunctions
     kin0=   7.94897694E+01 eigvalue=  -4.45344522E+00  local=  -4.08322521E+01
 4,5,6: 1st-order hamiltonian combined with 1st and 0th-order wfs
     kin1=  -1.10189682E+02  Hartree=   0.00000000E+00     xc=   0.00000000E+00
 7,8,9: eventually, occupation + non-local contributions
    edocc=   1.72529870E+01     enl0=   3.85300767E+00   enl1=  -4.30451302E-01
 1-9 gives the relaxation energy (to be shifted if some occ is /=2.0)
   erelax=  -5.53100666E+01
  No Ewald or frozen-wf contrib.: the relaxation energy is the total one
 2DEtotal=   -0.5531006664E+02 Ha. Also 2DEtotal=   -0.150506345471E+04 eV
    (  non-var. 2DEtotal :   -5.5310066641E+01 Ha)

 Perturbation wavevector (in red.coord.)   0.000000  0.000000  0.000000
 Perturbation : derivative vs k along direction   2
 The set of symmetries contains only one element for this perturbation.
 symkpt : not enough symmetry to change the number of k points.

[...]

 Perturbation wavevector (in red.coord.)   0.000000  0.000000  0.000000
 Perturbation : derivative vs k along direction   3
 The set of symmetries contains only one element for this perturbation.
 symkpt : not enough symmetry to change the number of k points.

 Initialisation of the first-order wave-functions :
  ireadwf=   0

--- !BeginCycle
iteration_state: {dtset: 1, }
solver: {iscf: 7, nstep: 2000, nline: 4, wfoptalg: 0, }
tolerances: {tolwfr: 1.00E-20, }
...

     iter   2DEtotal(Ha)        deltaE(Ha) residm    vres2
-ETOT  1  -26.605768161161     -2.661E+01 6.959E-02 0.000E+00
 ETOT  2  -26.695231012017     -8.946E-02 2.046E-03 0.000E+00
 ETOT  3  -26.696418661250     -1.188E-03 1.361E-04 0.000E+00
 ETOT  4  -26.696444845484     -2.618E-05 7.216E-06 0.000E+00
 ETOT  5  -26.696445555976     -7.105E-07 9.338E-07 0.000E+00
 ETOT  6  -26.696445578157     -2.218E-08 4.992E-08 0.000E+00
 ETOT  7  -26.696445578918     -7.615E-10 7.020E-09 0.000E+00
 ETOT  8  -26.696445578947     -2.820E-11 4.935E-10 0.000E+00
 ETOT  9  -26.696445578948     -1.098E-12 5.491E-11 0.000E+00
 ETOT 10  -26.696445578948     -9.592E-14 5.327E-12 0.000E+00
 ETOT 11  -26.696445578948     -3.553E-15 4.386E-13 0.000E+00
 ETOT 12  -26.696445578948      4.974E-14 5.908E-14 0.000E+00
 ETOT 13  -26.696445578948     -1.066E-14 3.534E-15 0.000E+00
 ETOT 14  -26.696445578948      0.000E+00 6.637E-16 0.000E+00
 ETOT 15  -26.696445578948      1.066E-14 3.706E-17 0.000E+00
 ETOT 16  -26.696445578948     -1.776E-14 7.517E-18 0.000E+00
 ETOT 17  -26.696445578948      0.000E+00 4.222E-19 0.000E+00
 ETOT 18  -26.696445578948      2.487E-14 8.569E-20 0.000E+00
 ETOT 19  -26.696445578948     -1.421E-14 9.960E-21 0.000E+00

 At SCF step   19   max residual=  9.96E-21 < tolwfr=  1.00E-20 =>converged.

 ----iterations are completed or convergence reached----

 dfpt_looppert: DFPT cycle converged with prtwf=-1. Will skip output of the 1st-order WFK file.
 dfpt_looppert : ek2=    5.0770409697E+01
          f-sum rule ratio=    1.0441387251E+00
 prteigrs : about to open file /scratch/users/j/a/jabreu/flow_simple_11atoms/flow/w325/t1/tmpdata/tmp_1WF1_EIG
 Expectation of eigenvalue derivatives (hartree) for nkpt=   2  k points:
  (in case of degenerate eigenvalues, averaged derivative)
 kpt#   1, nband= 67, wtk=  0.50000, kpt=  0.0000  0.5000  0.0000 (reduced coord)
  -0.00000    0.00000    0.00000   -0.00000   -0.00000    0.00000   -0.00000   -0.00000
  -0.00000   -0.00000   -0.00000    0.00000   -0.00000   -0.00000    0.00000   -0.00000
   0.00000    0.00000    0.00000    0.00000   -0.00000    0.00000    0.00000    0.00000
   0.00000   -0.00000   -0.00000    0.00000    0.00000    0.00000   -0.00000    0.00000
  -0.00000    0.00000   -0.00000    0.00000   -0.00000   -0.00000    0.00000   -0.00000
  -0.00000   -0.00000   -0.00000    0.00000    0.00000   -0.00000   -0.00000   -0.00000
   0.00000   -0.00000    0.00000    0.00000   -0.00000    0.00000   -0.00000    0.00000
   0.00000   -0.00000    0.00000   -0.00000    0.00000    0.00000    0.00000   -0.00000
  -0.00000    0.00000    0.00008
 prteigrs : prtvol=0 or 1, do not print more k-points.

 Eight components of 2nd-order total energy (hartree) are
 1,2,3: 0th-order hamiltonian combined with 1st-order wavefunctions
     kin0=   4.45596401E+01 eigvalue=  -3.29558028E+00  local=  -2.35511213E+01
 4,5,6: 1st-order hamiltonian combined with 1st and 0th-order wfs
     kin1=  -5.30113509E+01  Hartree=   0.00000000E+00     xc=   0.00000000E+00
 7,8,9: eventually, occupation + non-local contributions
    edocc=   6.66632120E+00     enl0=   2.31718584E+00   enl1=  -3.81540304E-01
 1-9 gives the relaxation energy (to be shifted if some occ is /=2.0)
   erelax=  -2.66964456E+01
  No Ewald or frozen-wf contrib.: the relaxation energy is the total one
 2DEtotal=   -0.2669644558E+02 Ha. Also 2DEtotal=   -0.726447228346E+03 eV
    (  non-var. 2DEtotal :   -2.6696445578E+01 Ha)

 CALCULATION OF EFFECTIVE MASSES
 NOTE : Additional infos (eff. mass eigenvalues, eigenvectors and, if degenerate, average mass) are available in stdout.

 K-point ( 0.000, 0.500, 0.000) | band =    58
 Effective mass tensor:
             -0.1611693186              0.0000001256              0.0000000115
              0.0000001256             -4.4293970685             -0.8909718851
              0.0000000115             -0.8909718851             -0.4183168445
 Effective mass tensor eigenvalues:
             -4.6184006542             -0.2293132589             -0.1611693186
 Angular average effective mass 1/(<1/m>)=  -0.2782408196
 Angular average effective mass for Frohlich model (<m**0.5>)**2=  -0.3723696648
 Effective masses along directions: (cart. coord. / red. coord. -> eff. mass)
    1:   1.000000  0.000000  0.000000 /   1.000000  0.000000  0.000000 ->  -0.1611693186
    2:   0.000000  1.000000  0.000000 /   0.000000  1.000000  0.000000 ->  -2.5317185254
    3:   0.000000  0.000000  1.000000 /   0.000000  0.302572  0.953127 ->  -0.2390981184
    4:   0.577350  0.577350  0.577350 /   0.408562  0.658859  0.631650 ->  -0.3296900256
    5:   0.000000  0.707107  0.707107 /   0.000000  0.721855  0.692045 ->  -0.6908936126
    6:   0.707107  0.000000  0.707107 /   0.524785  0.257560  0.811335 ->  -0.1925476815
    7:   0.707107  0.707107  0.000000 /   0.665408  0.746480  0.000000 ->  -0.3030466493

 K-point ( 0.000, 0.000, 0.214) | band =    59
 Effective mass tensor:
              0.4038785778             -0.0000123273              0.0000014034
             -0.0000123273              0.7121627542              0.1882642933
              0.0000014034              0.1882642933              0.4943111450
 Effective mass tensor eigenvalues:
              0.3857322914              0.4038785806              0.8207416051
 Angular average effective mass 1/(<1/m>)=   0.4771847240
 Angular average effective mass for Frohlich model (<m**0.5>)**2=   0.4920839490
 Effective masses along directions: (cart. coord. / red. coord. -> eff. mass)
    1:   1.000000  0.000000  0.000000 /   1.000000  0.000000  0.000000 ->   0.4038785776
    2:   0.000000  1.000000  0.000000 /   0.000000  1.000000  0.000000 ->   0.6404600530
    3:   0.000000  0.000000  1.000000 /   0.000000  0.302572  0.953127 ->   0.4445424033
    4:   0.577350  0.577350  0.577350 /   0.408562  0.658859  0.631650 ->   0.5885142677
    5:   0.000000  0.707107  0.707107 /   0.000000  0.721855  0.692045 ->   0.7629094050
    6:   0.707107  0.000000  0.707107 /   0.524785  0.257560  0.811335 ->   0.4232406572
    7:   0.707107  0.707107  0.000000 /   0.665408  0.746480  0.000000 ->   0.4953598697

 END OF EFFECTIVE MASSES SECTION

 ---- first-order wavefunction calculations are completed ----

 Total localisation tensor (bohr^2) in cartesian coordinates
  WARNING : still subject to testing - especially symmetries.
      direction              matrix element
   alpha     beta       real part   imaginary part
     1        1       2.2090426171    0.0000000000
     1        2       0.0000000000    0.0000000000
     1        3       0.0000000000    0.0000000000
     2        1       0.0000000000    0.0000000000
     2        2       1.4441705180    0.0000000000
     2        3       0.6318080239    0.0000000000
     3        1       0.0000000000    0.0000000000
     3        2       0.6318080239    0.0000000000
     3        3       2.2951493991    0.0000000000

 respfn : d/dk was computed, but no 2DTE, so no DDB output.

== END DATASET(S) ==============================================================

 -outvars: echo values of variables after computation  --------
            acell      1.0000000000E+00  1.0000000000E+00  1.0000000000E+00 Bohr
              amu      1.07868200E+02  3.09737620E+01
             ecut      4.30000000E+01 Hartree
           etotal     -2.6696445579E+01
            fcart      0.0000000000E+00  0.0000000000E+00  0.0000000000E+00
                       0.0000000000E+00  0.0000000000E+00  0.0000000000E+00
                       0.0000000000E+00  0.0000000000E+00  0.0000000000E+00
                       0.0000000000E+00  0.0000000000E+00  0.0000000000E+00
                       0.0000000000E+00  0.0000000000E+00  0.0000000000E+00
                       0.0000000000E+00  0.0000000000E+00  0.0000000000E+00
                       0.0000000000E+00  0.0000000000E+00  0.0000000000E+00
                       0.0000000000E+00  0.0000000000E+00  0.0000000000E+00
                       0.0000000000E+00  0.0000000000E+00  0.0000000000E+00
                       0.0000000000E+00  0.0000000000E+00  0.0000000000E+00
                       0.0000000000E+00  0.0000000000E+00  0.0000000000E+00
                       0.0000000000E+00  0.0000000000E+00  0.0000000000E+00
-          fftalg         512
           irdden           1
           irdwfk           1
           istwfk        1    0
              ixc     -116133
              kpt      0.00000000E+00  5.00000000E-01  0.00000000E+00
                       0.00000000E+00  0.00000000E+00  2.14285714E-01
           kptopt           0
P           mkmem           2
P          mkqmem           2
P          mk1mem           2
            natom          12
            nband          67
           nbdbuf           4
            ngfft          60      72      90
             nkpt           2
            nstep        2000
             nsym           4
           ntypat           2
              occ      2.000000  2.000000  2.000000  2.000000  2.000000  2.000000
                       2.000000  2.000000  2.000000  2.000000  2.000000  2.000000
                       2.000000  2.000000  2.000000  2.000000  2.000000  2.000000
                       2.000000  2.000000  2.000000  2.000000  2.000000  2.000000
                       2.000000  2.000000  2.000000  2.000000  2.000000  2.000000
                       2.000000  2.000000  2.000000  2.000000  2.000000  2.000000
                       2.000000  2.000000  2.000000  2.000000  2.000000  2.000000
                       2.000000  2.000000  2.000000  2.000000  2.000000  2.000000
                       2.000000  2.000000  2.000000  2.000000  2.000000  2.000000
                       2.000000  2.000000  2.000000  2.000000  0.000000  0.000000
                       0.000000  0.000000  0.000000  0.000000  0.000000  0.000000
                       0.000000
        optdriver           1
            prtwf          -1
            rfdir           1       1       1
           rfelfd           2
            rprim      9.4826145696E+00  0.0000000000E+00  0.0000000000E+00
                       0.0000000000E+00  1.0637946968E+01  4.6539796848E+00
                       0.0000000000E+00  0.0000000000E+00  1.4660427453E+01
          spgroup          14
           strten      0.0000000000E+00  0.0000000000E+00  0.0000000000E+00
                       0.0000000000E+00  0.0000000000E+00  0.0000000000E+00
           symrel      1  0  0   0  1  0   0  0  1      -1  0  0   0 -1  0   0  0 -1
                       1  0  0   0 -1  0   0  0 -1      -1  0  0   0  1  0   0  0  1
            tnons      0.0000000  0.0000000  0.0000000     0.0000000  0.0000000  0.0000000
                       0.5000000  0.0000000  0.5000000     0.5000000  0.0000000  0.5000000
           tolwfr      1.00000000E-20
            typat      1  1  1  1  2  2  2  2  2  2  2  2
           useylm           1
              wtk        0.50000    0.50000
           xangst      2.3109319450E-01  3.6057001909E+00  6.2349616925E+00
                       2.7400849485E+00  2.0236588908E+00  7.8647644001E+00
                       4.7868903136E+00  2.0236588908E+00  3.9857823621E+00
                       2.2778985595E+00  3.6057001909E+00  2.3559796544E+00
                       2.0177512405E+00  5.1141263623E+00  5.4816513012E+00
                       4.5267429946E+00  5.1523271931E-01  8.6011071526E-01
                       3.0002322675E+00  5.1523271931E-01  4.7390927533E+00
                       4.9124051351E-01  5.1141263623E+00  9.3606333393E+00
                       3.8505697169E+00  4.3449138494E+00  8.1279272005E+00
                       1.3415779628E+00  1.2844452323E+00  5.9717988921E+00
                       1.1674137912E+00  1.2844452323E+00  2.0928168540E+00
                       3.6764055453E+00  4.3449138494E+00  4.2489451625E+00
            xcart      4.3670284877E-01  6.8137858781E+00  1.1782370048E+01
                       5.1780101336E+00  3.8241610899E+00  1.4862250816E+01
                       9.0459117208E+00  3.8241610899E+00  7.5320370896E+00
                       4.3046044360E+00  6.8137858781E+00  4.4521563215E+00
                       3.8129972489E+00  9.6642982338E+00  1.0358819715E+01
                       8.5543045337E+00  9.7364873419E-01  1.6253736958E+00
                       5.6696173207E+00  9.7364873419E-01  8.9555874221E+00
                       9.2831003591E-01  9.6642982338E+00  1.7689033442E+01
                       7.2765222204E+00  8.2106972463E+00  1.5359556437E+01
                       2.5352149356E+00  2.4272497217E+00  1.1285064427E+01
                       2.2060923492E+00  2.4272497217E+00  3.9548507004E+00
                       6.9473996340E+00  8.2106972463E+00  8.0293427107E+00
             xred      4.6053000000E-02  6.4051700000E-01  6.0035200000E-01
                       5.4605300000E-01  3.5948300000E-01  8.9964800000E-01
                       9.5394700000E-01  3.5948300000E-01  3.9964800000E-01
                       4.5394700000E-01  6.4051700000E-01  1.0035200000E-01
                       4.0210400000E-01  9.0847400000E-01  4.1818700000E-01
                       9.0210400000E-01  9.1526000000E-02  8.1813000000E-02
                       5.9789600000E-01  9.1526000000E-02  5.8181300000E-01
                       9.7896000000E-02  9.0847400000E-01  9.1818700000E-01
                       7.6735400000E-01  7.7183100000E-01  8.0266900000E-01
                       2.6735400000E-01  2.2816900000E-01  6.9733100000E-01
                       2.3264600000E-01  2.2816900000E-01  1.9733100000E-01
                       7.3264600000E-01  7.7183100000E-01  3.0266900000E-01
            znucl       47.00000   15.00000

- Timing analysis has been suppressed with timopt=0

 Suggested references for the acknowledgment of ABINIT usage.

 Calculation completed.
.Delivered   2 WARNINGs and   5 COMMENTs to log file.