.Version 9.5.1 of ABINIT

 ABINIT is a project of the Universite Catholique de Louvain,
 Corning Inc. and other collaborators, see ~abinit/doc/developers/contributors.txt .
 acknowledgments of the ABINIT effort.

.Starting date : Sun 25 Apr 2021.
- ( at 17h12 )

- input  file    -> /scratch/users/j/a/jabreu/flow_simple2/flow/w132/t1/run.abi
- output file    -> /scratch/users/j/a/jabreu/flow_simple2/flow/w132/t1/run.abo
- root for input  files -> /scratch/users/j/a/jabreu/flow_simple2/flow/w132/t1/indata/in
- root for output files -> /scratch/users/j/a/jabreu/flow_simple2/flow/w132/t1/outdata/out

 Symmetries : space group F-4 3 m (#216); Bravais cF (face-center cubic)
     intxc =       0      iscf =       7    lmnmax =      18     lnmax =       6
     mgfft =      50  mpssoang =       3    mqgrid =    3001     natom =       2
  nloc_mem =       1    nspden =       1   nspinor =       1    nsppol =       1
      nsym =      24    n1xccc =    2501    ntypat =       2    occopt =       1
   xclevel =       2
-    mband =          22        mffmem =           1         mkmem =           1
-   mkqmem =           1        mk1mem =           1           mpw =        5209
      nfft =      125000          nkpt =           1
  Rough estimation (10% accuracy) of disk space for files :

------------- Echo of variables that govern the present computation ------------
-
- outvars: echo of selected default values
-   iomode0 =  0 , fftalg0 =512 , wfoptalg0 =  0
-
- outvars: echo of global parameters not present in the input file
-  max_nthreads =    0
-
 -outvars: echo values of preprocessed input variables --------
            acell      1.0000000000E+00  1.0000000000E+00  1.0000000000E+00 Bohr
              amu      1.07868200E+02  7.99040000E+01
             ecut      4.30000000E+01 Hartree
-          fftalg         512
           irdden           1
           irdwfk           1
           istwfk        1
              ixc     -116133
           kptopt           0
P           mkmem           1
P          mkqmem           1
P          mk1mem           1
            natom           2
            nband          22
           nbdbuf           4
            ngfft          50      50      50
             nkpt           1
            nstep         100
             nsym          24
           ntypat           2
              occ      2.000000  2.000000  2.000000  2.000000  2.000000  2.000000
                       2.000000  2.000000  2.000000  2.000000  2.000000  2.000000
                       2.000000  0.000000  0.000000  0.000000  0.000000  0.000000
                       0.000000  0.000000  0.000000  0.000000
        optdriver           1
            prtwf          -1
            rfdir           1       1       1
           rfelfd           2
            rprim      7.1043965065E+00  0.0000000000E+00  4.1017252355E+00
                       2.3681321688E+00  6.6980892613E+00  4.1017252355E+00
                       0.0000000000E+00  0.0000000000E+00  8.2034504710E+00
          spgroup         216
           symrel      1  0  0   0  1  0   0  0  1       0 -1  1   0 -1  0   1 -1  0
                      -1  0  0  -1  0  1  -1  1  0       0  1 -1   1  0 -1   0  0 -1
                      -1  0  0  -1  1  0  -1  0  1       0 -1  1   1 -1  0   0 -1  0
                       1  0  0   0  0  1   0  1  0       0  1 -1   0  0 -1   1  0 -1
                      -1  0  1  -1  1  0  -1  0  0       0 -1  0   1 -1  0   0 -1  1
                       1  0 -1   0  0 -1   0  1 -1       0  1  0   0  0  1   1  0  0
                       1  0 -1   0  1 -1   0  0 -1       0 -1  0   0 -1  1   1 -1  0
                      -1  0  1  -1  0  0  -1  1  0       0  1  0   1  0  0   0  0  1
                       0  0 -1   0  1 -1   1  0 -1       1 -1  0   0 -1  1   0 -1  0
                       0  0  1   1  0  0   0  1  0      -1  1  0  -1  0  0  -1  0  1
                       0  0  1   0  1  0   1  0  0       1 -1  0   0 -1  0   0 -1  1
                       0  0 -1   1  0 -1   0  1 -1      -1  1  0  -1  0  1  -1  0  0
           tolwfr      1.00000000E-20
            typat      1  2
           useylm           1
           xangst      0.0000000000E+00  0.0000000000E+00  0.0000000000E+00
                       3.7594847120E+00  2.6583571336E+00  6.5116185316E+00
            xcart      0.0000000000E+00  0.0000000000E+00  0.0000000000E+00
                       7.1043965065E+00  5.0235669460E+00  1.2305175707E+01
             xred      0.0000000000E+00  0.0000000000E+00  0.0000000000E+00
                       7.5000000000E-01  7.5000000000E-01  7.5000000000E-01
            znucl       47.00000   35.00000

 chkinp: Checking input parameters for consistency.

== DATASET  1 ==================================================================
-   mpi_nproc: 1, omp_nthreads: -1 (-1 if OMP is not activated)

--- !DatasetInfo
iteration_state: {dtset: 1, }
dimensions: {natom: 2, nkpt: 1, mband: 22, nsppol: 1, nspinor: 1, nspden: 1, mpw: 5209, }
cutoff_energies: {ecut:  43.0, pawecutdg:  -1.0, }
electrons: {nelect:   2.60000000E+01, charge:   0.00000000E+00, occopt:   1.00000000E+00, tsmear:   1.00000000E-02, }
meta: {optdriver: 1, rfelfd: 2, }
...

 Real(R)+Recip(G) space primitive vectors, cartesian coordinates (Bohr,Bohr^-1):
 R(1)=  7.1043965  0.0000000  4.1017252  G(1)=  0.1407579 -0.0497654  0.0000000
 R(2)=  2.3681322  6.6980893  4.1017252  G(2)=  0.0000000  0.1492963  0.0000000
 R(3)=  0.0000000  0.0000000  8.2034505  G(3)= -0.0703790 -0.0497654  0.1218999
 Unit cell volume ucvol=  3.9036843E+02 bohr^3
 Angles (23,13,12)=  6.00000000E+01  6.00000000E+01  6.00000000E+01 degrees

 getcut: wavevector=  0.0000  0.0000  0.0000  ngfft=  50  50  50
         ecut(hartree)=     43.000   => boxcut(ratio)=   2.06561

--- Pseudopotential description ------------------------------------------------
- pspini: atom type   1  psp file is /scratch/users/j/a/jabreu/pseudos/PBEsol/Ag.psp8
- pspatm: opening atomic psp file    /scratch/users/j/a/jabreu/pseudos/PBEsol/Ag.psp8
- Ag    ONCVPSP-3.3.0  r_core=   1.41384   1.46535   1.61207
- 47.00000  19.00000    180112                znucl, zion, pspdat
    8 -116133    2    4       600   0.00000   pspcod,pspxc,lmax,lloc,mmax,r2well
    5.99000000000000    7.00000000000000    0.00000000000000   rchrg,fchrg,qchrg
     nproj     2     2     2
     extension_switch     1
  pspatm : epsatm=   27.64581383
         --- l  ekb(1:nproj) -->
             0    9.559407   -0.398585
             1    3.418858   -0.136622
             2   -1.644397   -0.401551
 pspatm: atomic psp has been read  and splines computed

- pspini: atom type   2  psp file is /scratch/users/j/a/jabreu/pseudos/PBEsol/Br.psp8
- pspatm: opening atomic psp file    /scratch/users/j/a/jabreu/pseudos/PBEsol/Br.psp8
- Br    ONCVPSP-3.3.0  r_core=   1.81012   1.51356   1.92136
- 35.00000   7.00000    180112                znucl, zion, pspdat
    8 -116133    2    4       600   0.00000   pspcod,pspxc,lmax,lloc,mmax,r2well
    5.99000000000000    8.00000000000000    0.00000000000000   rchrg,fchrg,qchrg
     nproj     2     2     2
     extension_switch     1
  pspatm : epsatm=   10.94933070
         --- l  ekb(1:nproj) -->
             0    8.508690    0.897946
             1    5.393311    0.892021
             2    2.527513    0.394763
 pspatm: atomic psp has been read  and splines computed

   1.00347376E+03                                ecore*ucvol(ha*bohr**3)

-inwffil : will read wavefunctions from disk file /scratch/users/j/a/jabreu/flow_simple2/flow/w132/t1/indata/in_WFK

 ==>  initialize data related to q vector <==

 The list of irreducible perturbations for this q vector is:
    1)    idir= 1    ipert=   3
    2)    idir= 2    ipert=   3
    3)    idir= 3    ipert=   3

 Perturbation wavevector (in red.coord.)   0.000000  0.000000  0.000000
 Perturbation : derivative vs k along direction   1

 dfpt_looppert : COMMENT -
  In a d/dk calculation, iscf is set to -3 automatically.
 The set of symmetries contains only one element for this perturbation.
 symkpt : not enough symmetry to change the number of k points.

[...]

 Initialisation of the first-order wave-functions :
  ireadwf=   0

--- !BeginCycle
iteration_state: {dtset: 1, }
solver: {iscf: 7, nstep: 100, nline: 4, wfoptalg: 0, }
tolerances: {tolwfr: 1.00E-20, }
...

     iter   2DEtotal(Ha)        deltaE(Ha) residm    vres2
-ETOT  1  -35.166094155896     -3.517E+01 2.589E-02 0.000E+00
 ETOT  2  -35.182206513452     -1.611E-02 6.813E-05 0.000E+00
 ETOT  3  -35.182222335788     -1.582E-05 5.819E-08 0.000E+00
 ETOT  4  -35.182222370974     -3.519E-08 7.091E-10 0.000E+00
 ETOT  5  -35.182222371085     -1.106E-10 3.449E-11 0.000E+00
 ETOT  6  -35.182222371085     -3.197E-13 6.107E-13 0.000E+00
 ETOT  7  -35.182222371085     -7.105E-15 3.053E-14 0.000E+00
 ETOT  8  -35.182222371085     -4.974E-14 5.828E-16 0.000E+00
 ETOT  9  -35.182222371085     -3.553E-14 3.438E-17 0.000E+00
 ETOT 10  -35.182222371085      7.105E-15 6.730E-19 0.000E+00
 ETOT 11  -35.182222371085     -1.421E-14 4.360E-20 0.000E+00
 ETOT 12  -35.182222371085      7.105E-15 8.718E-21 0.000E+00

 At SCF step   12   max residual=  8.72E-21 < tolwfr=  1.00E-20 =>converged.

 ----iterations are completed or convergence reached----

 dfpt_looppert: DFPT cycle converged with prtwf=-1. Will skip output of the 1st-order WFK file.
 dfpt_looppert : ek2=    4.5757387299E+01
          f-sum rule ratio=    1.4840852112E+00
 prteigrs : about to open file /scratch/users/j/a/jabreu/flow_simple2/flow/w132/t1/tmpdata/tmp_1WF1_EIG
 Expectation of eigenvalue derivatives (hartree) for nkpt=   1  k points:
  (in case of degenerate eigenvalues, averaged derivative)
 kpt#   1, nband= 22, wtk=  1.00000, kpt=  0.0000  0.0000  0.0000 (reduced coord)
  -0.00000   -0.00000   -0.00000   -0.00000    0.00000    0.00000    0.00000    0.00000
   0.00000    0.00000    0.00000    0.00000    0.00000   -0.00000    0.00000    0.00000
   0.00000   -0.00000   -0.00000   -0.00000    0.00000    0.00000

 Eight components of 2nd-order total energy (hartree) are
 1,2,3: 0th-order hamiltonian combined with 1st-order wavefunctions
     kin0=   2.91731555E+01 eigvalue=   9.20869814E-02  local=  -1.42482184E+01
 4,5,6: 1st-order hamiltonian combined with 1st and 0th-order wfs
     kin1=  -6.79078618E+01  Hartree=   0.00000000E+00     xc=   0.00000000E+00
 7,8,9: eventually, occupation + non-local contributions
    edocc=   1.88300505E+01     enl0=   1.33514781E+00   enl1=  -2.45658295E+00
 1-9 gives the relaxation energy (to be shifted if some occ is /=2.0)
   erelax=  -3.51822224E+01
  No Ewald or frozen-wf contrib.: the relaxation energy is the total one
 2DEtotal=   -0.3518222237E+02 Ha. Also 2DEtotal=   -0.957356957987E+03 eV
    (  non-var. 2DEtotal :   -3.5182222371E+01 Ha)

 Perturbation wavevector (in red.coord.)   0.000000  0.000000  0.000000
 Perturbation : derivative vs k along direction   2
 The set of symmetries contains only one element for this perturbation.
 symkpt : not enough symmetry to change the number of k points.

[...]

 Perturbation wavevector (in red.coord.)   0.000000  0.000000  0.000000
 Perturbation : derivative vs k along direction   3
 The set of symmetries contains only one element for this perturbation.
 symkpt : not enough symmetry to change the number of k points.

-inwffil : will read wavefunctions from disk file /scratch/users/j/a/jabreu/flow_simple2/flow/w132/t1/indata/in_WFK

 Initialisation of the first-order wave-functions :
  ireadwf=   0

--- !BeginCycle
iteration_state: {dtset: 1, }
solver: {iscf: 7, nstep: 100, nline: 4, wfoptalg: 0, }
tolerances: {tolwfr: 1.00E-20, }
...

     iter   2DEtotal(Ha)        deltaE(Ha) residm    vres2
-ETOT  1  -35.174480154470     -3.517E+01 1.494E-02 0.000E+00
 ETOT  2  -35.182211177542     -7.731E-03 2.207E-05 0.000E+00
 ETOT  3  -35.182222638176     -1.146E-05 8.711E-08 0.000E+00
 ETOT  4  -35.182222666088     -2.791E-08 1.771E-10 0.000E+00
 ETOT  5  -35.182222666177     -8.911E-11 1.476E-11 0.000E+00
 ETOT  6  -35.182222666177     -2.984E-13 2.577E-14 0.000E+00
 ETOT  7  -35.182222666177     -1.421E-14 2.993E-15 0.000E+00
 ETOT  8  -35.182222666177      2.842E-14 5.721E-18 0.000E+00
 ETOT  9  -35.182222666177     -1.421E-14 7.676E-19 0.000E+00
 ETOT 10  -35.182222666177     -7.105E-15 9.383E-21 0.000E+00

 At SCF step   10   max residual=  9.38E-21 < tolwfr=  1.00E-20 =>converged.

 ----iterations are completed or convergence reached----

 dfpt_looppert: DFPT cycle converged with prtwf=-1. Will skip output of the 1st-order WFK file.
 dfpt_looppert : ek2=    4.5757387299E+01
          f-sum rule ratio=    1.4840852239E+00
 prteigrs : about to open file /scratch/users/j/a/jabreu/flow_simple2/flow/w132/t1/tmpdata/tmp_1WF1_EIG
 Expectation of eigenvalue derivatives (hartree) for nkpt=   1  k points:
  (in case of degenerate eigenvalues, averaged derivative)
 kpt#   1, nband= 22, wtk=  1.00000, kpt=  0.0000  0.0000  0.0000 (reduced coord)
  -0.00000    0.00000    0.00000    0.00000   -0.00000   -0.00000   -0.00000   -0.00000
   0.00000    0.00000   -0.00000   -0.00000   -0.00000    0.00000    0.00000    0.00000
   0.00000   -0.00000    0.00000    0.00000    0.00000    0.00000

 Eight components of 2nd-order total energy (hartree) are
 1,2,3: 0th-order hamiltonian combined with 1st-order wavefunctions
     kin0=   2.93947917E+01 eigvalue=   1.05676312E-01  local=  -1.44188030E+01
 4,5,6: 1st-order hamiltonian combined with 1st and 0th-order wfs
     kin1=  -6.79078624E+01  Hartree=   0.00000000E+00     xc=   0.00000000E+00
 7,8,9: eventually, occupation + non-local contributions
    edocc=   1.87423355E+01     enl0=   1.35822221E+00   enl1=  -2.45658296E+00
 1-9 gives the relaxation energy (to be shifted if some occ is /=2.0)
   erelax=  -3.51822227E+01
  No Ewald or frozen-wf contrib.: the relaxation energy is the total one
 2DEtotal=   -0.3518222267E+02 Ha. Also 2DEtotal=   -0.957356966017E+03 eV
    (  non-var. 2DEtotal :   -3.5182222666E+01 Ha)

 CALCULATION OF EFFECTIVE MASSES
 NOTE : Additional infos (eff. mass eigenvalues, eigenvectors and, if degenerate, average mass) are available in stdout.

 COMMENTS:
 - At k-point ( 0.000, 0.000, 0.000), bands    11 through    13
   are DEGENERATE (effective mass tensor is therefore not defined).
   See Section IIIB Eqs. (67)-(70) and Appendix E of PRB 93 205147 (2016).
 - Angular average effective mass for Frohlich model is to be averaged over degenerate bands. See later.
 - Associated theta integrals calculated with ntheta=   1000 points.

 K-point ( 0.000, 0.000, 0.000) | band =    11
 Transport equivalent effective mass tensor:
             -0.2024898128             -0.0000000019             -0.0000000013
             -0.0000000019             -0.2024898112              0.0000000027
             -0.0000000013              0.0000000027             -0.2024898058
 Transport equivalent effective mass tensor eigenvalues:
             -0.2024898141             -0.2024898114             -0.2024898042
 Angular average effective mass 1/(<1/m>)=  -0.1969164810
 Angular average effective mass for Frohlich model (<m**0.5>)**2=  -0.1972930607
 Effective masses along directions: (cart. coord. / red. coord. -> eff. mass)
    1:   1.000000  0.000000  0.000000 /   0.948683  0.316228  0.000000 ->  -0.1910847303
    2:   0.000000  1.000000  0.000000 /   0.000000  1.000000  0.000000 ->  -0.1833361076
    3:   0.000000  0.000000  1.000000 /   0.408248  0.408248  0.816497 ->  -0.1920382628
    4:   0.577350  0.577350  0.577350 /   0.585539  0.688047  0.428644 ->  -0.1909501032
    5:   0.000000  0.707107  0.707107 /   0.289489  0.762222  0.578977 ->  -0.2027929471
    6:   0.707107  0.000000  0.707107 /   0.731423  0.422287  0.535439 ->  -0.1915575987
    7:   0.707107  0.707107  0.000000 /   0.616798  0.787122  0.000000 ->  -0.2190901502

[...]

 K-point ( 0.000, 0.000, 0.000) | band =    13
 Transport equivalent effective mass tensor:
             -6.2889821967              0.0000069863              0.0000002181
              0.0000069863             -6.2889813070              0.0000001915
              0.0000002181              0.0000001915             -6.2889786435
 Transport equivalent effective mass tensor eigenvalues:
             -6.2889887524             -6.2889786648             -6.2889747300
 Angular average effective mass 1/(<1/m>)=  -1.8840378129
 Angular average effective mass for Frohlich model (<m**0.5>)**2=  -2.0499556428
 Effective masses along directions: (cart. coord. / red. coord. -> eff. mass)
    1:   1.000000  0.000000  0.000000 /   0.948683  0.316228  0.000000 ->  -1.9793532173
    2:   0.000000  1.000000  0.000000 /   0.000000  1.000000  0.000000 ->  -1.8825283325
    3:   0.000000  0.000000  1.000000 /   0.408248  0.408248  0.816497 ->  -3.5207149993
    4:   0.577350  0.577350  0.577350 /   0.585539  0.688047  0.428644 ->  -2.2436137266
    5:   0.000000  0.707107  0.707107 /   0.289489  0.762222  0.578977 ->  -1.7252966581
    6:   0.707107  0.000000  0.707107 /   0.731423  0.422287  0.535439 ->  -2.7082041009
    7:   0.707107  0.707107  0.000000 /   0.616798  0.787122  0.000000 ->  -1.0546287598

 Angular average effective mass for Frohlich model, averaged over degenerate bands.
 Value of     (<<m**0.5>>)**2 =     9.561011E-01
 Absolute Value of <<m**0.5>> =     9.778042E-01

 K-point ( 0.000, 0.000, 0.000) | band =    14
 Effective mass tensor:
              0.1720850552              0.0000000000             -0.0000000000
              0.0000000000              0.1720850552             -0.0000000000
             -0.0000000000             -0.0000000000              0.1720850552
 Effective mass tensor eigenvalues:
              0.1720850552              0.1720850552              0.1720850553
 Angular average effective mass 1/(<1/m>)=   0.1720850552
 Angular average effective mass for Frohlich model (<m**0.5>)**2=   0.1720850552
 Effective masses along directions: (cart. coord. / red. coord. -> eff. mass)
    1:   1.000000  0.000000  0.000000 /   0.948683  0.316228  0.000000 ->   0.1720850552
    2:   0.000000  1.000000  0.000000 /   0.000000  1.000000  0.000000 ->   0.1720850552
    3:   0.000000  0.000000  1.000000 /   0.408248  0.408248  0.816497 ->   0.1720850552
    4:   0.577350  0.577350  0.577350 /   0.585539  0.688047  0.428644 ->   0.1720850552
    5:   0.000000  0.707107  0.707107 /   0.289489  0.762222  0.578977 ->   0.1720850552
    6:   0.707107  0.000000  0.707107 /   0.731423  0.422287  0.535439 ->   0.1720850552
    7:   0.707107  0.707107  0.000000 /   0.616798  0.787122  0.000000 ->   0.1720850552

 END OF EFFECTIVE MASSES SECTION

 ---- first-order wavefunction calculations are completed ----

 Total localisation tensor (bohr^2) in cartesian coordinates
  WARNING : still subject to testing - especially symmetries.
      direction              matrix element
   alpha     beta       real part   imaginary part
     1        1       7.0742964611    0.0000000000
     1        2       2.0009131984    0.0000000000
     1        3       4.9012163588    0.0000000000
     2        1       2.0009131984    0.0000000000
     2        2       5.6594371647    0.0000000000
     2        3       3.4656833212    0.0000000000
     3        1       4.9012163588    0.0000000000
     3        2       3.4656833212    0.0000000000
     3        3      12.7337336552    0.0000000000

 respfn : d/dk was computed, but no 2DTE, so no DDB output.

== END DATASET(S) ==============================================================

 -outvars: echo values of variables after computation  --------
            acell      1.0000000000E+00  1.0000000000E+00  1.0000000000E+00 Bohr
              amu      1.07868200E+02  7.99040000E+01
             ecut      4.30000000E+01 Hartree
           etotal     -3.5182222666E+01
            fcart      0.0000000000E+00  0.0000000000E+00  0.0000000000E+00
                       0.0000000000E+00  0.0000000000E+00  0.0000000000E+00
-          fftalg         512
           irdden           1
           irdwfk           1
           istwfk        1
              ixc     -116133
           kptopt           0
P           mkmem           1
P          mkqmem           1
P          mk1mem           1
            natom           2
            nband          22
           nbdbuf           4
            ngfft          50      50      50
             nkpt           1
            nstep         100
             nsym          24
           ntypat           2
              occ      2.000000  2.000000  2.000000  2.000000  2.000000  2.000000
                       2.000000  2.000000  2.000000  2.000000  2.000000  2.000000
                       2.000000  0.000000  0.000000  0.000000  0.000000  0.000000
                       0.000000  0.000000  0.000000  0.000000
        optdriver           1
            prtwf          -1
            rfdir           1       1       1
           rfelfd           2
            rprim      7.1043965065E+00  0.0000000000E+00  4.1017252355E+00
                       2.3681321688E+00  6.6980892613E+00  4.1017252355E+00
                       0.0000000000E+00  0.0000000000E+00  8.2034504710E+00
          spgroup         216
           strten      0.0000000000E+00  0.0000000000E+00  0.0000000000E+00
                       0.0000000000E+00  0.0000000000E+00  0.0000000000E+00
           symrel      1  0  0   0  1  0   0  0  1       0 -1  1   0 -1  0   1 -1  0
                      -1  0  0  -1  0  1  -1  1  0       0  1 -1   1  0 -1   0  0 -1
                      -1  0  0  -1  1  0  -1  0  1       0 -1  1   1 -1  0   0 -1  0
                       1  0  0   0  0  1   0  1  0       0  1 -1   0  0 -1   1  0 -1
                      -1  0  1  -1  1  0  -1  0  0       0 -1  0   1 -1  0   0 -1  1
                       1  0 -1   0  0 -1   0  1 -1       0  1  0   0  0  1   1  0  0
                       1  0 -1   0  1 -1   0  0 -1       0 -1  0   0 -1  1   1 -1  0
                      -1  0  1  -1  0  0  -1  1  0       0  1  0   1  0  0   0  0  1
                       0  0 -1   0  1 -1   1  0 -1       1 -1  0   0 -1  1   0 -1  0
                       0  0  1   1  0  0   0  1  0      -1  1  0  -1  0  0  -1  0  1
                       0  0  1   0  1  0   1  0  0       1 -1  0   0 -1  0   0 -1  1
                       0  0 -1   1  0 -1   0  1 -1      -1  1  0  -1  0  1  -1  0  0
           tolwfr      1.00000000E-20
            typat      1  2
           useylm           1
           xangst      0.0000000000E+00  0.0000000000E+00  0.0000000000E+00
                       3.7594847120E+00  2.6583571336E+00  6.5116185316E+00
            xcart      0.0000000000E+00  0.0000000000E+00  0.0000000000E+00
                       7.1043965065E+00  5.0235669460E+00  1.2305175707E+01
             xred      0.0000000000E+00  0.0000000000E+00  0.0000000000E+00
                       7.5000000000E-01  7.5000000000E-01  7.5000000000E-01
            znucl       47.00000   35.00000

- Timing analysis has been suppressed with timopt=0

 Suggested references for the acknowledgment of ABINIT usage.

 Calculation completed.
.Delivered   6 WARNINGs and   5 COMMENTs to log file.