.Version 9.7.2 of ABINIT

 ABINIT is a project of the Universite Catholique de Louvain,
 Corning Inc. and other collaborators, see ~abinit/doc/developers/contributors.txt .
 acknowledgments of the ABINIT effort.

.Starting date : Wed  1 Dec 2021.
- ( at 21h28 )

- input  file    -> /scratch/users/j/a/jabreu/flow_simple_remain_atoms/flow/w202/t1/run.abi
- output file    -> /scratch/users/j/a/jabreu/flow_simple_remain_atoms/flow/w202/t1/run.abo
- root for input  files -> /scratch/users/j/a/jabreu/flow_simple_remain_atoms/flow/w202/t1/indata/in
- root for output files -> /scratch/users/j/a/jabreu/flow_simple_remain_atoms/flow/w202/t1/outdata/out

 Symmetries : space group P-3 m 1 (#164); Bravais hP (primitive hexag.)
     intxc =       0      iscf =       7    lmnmax =      18     lnmax =       6
     mgfft =      96  mpssoang =       3    mqgrid =    4546     natom =       5
  nloc_mem =       1    nspden =       1   nspinor =       1    nsppol =       1
      nsym =      12    n1xccc =    2501    ntypat =       3    occopt =       1
   xclevel =       2
-    mband =          39        mffmem =           1         mkmem =           2
-   mkqmem =           2        mk1mem =           2           mpw =       14566
      nfft =      279936          nkpt =           2
  Rough estimation (10% accuracy) of disk space for files :

------------- Echo of variables that govern the present computation ------------
-
- outvars: echo of selected default values
-   iomode0 =  0 , fftalg0 =512 , wfoptalg0 =  0
-
- outvars: echo of global parameters not present in the input file
-  max_nthreads =    0
-
 -outvars: echo values of preprocessed input variables --------
            acell      1.0000000000E+00  1.0000000000E+00  1.0000000000E+00 Bohr
              amu      1.37327000E+02  1.12411000E+02  3.09737620E+01
             ecut      5.10000000E+01 Hartree
-          fftalg         512
           irdden           1
           irdwfk           1
           istwfk        1    1
              ixc     -116133
              kpt      0.00000000E+00  0.00000000E+00  0.00000000E+00
                       0.00000000E+00  0.00000000E+00  5.00000000E-01
           kptopt           0
P           mkmem           2
P          mkqmem           2
P          mk1mem           2
            natom           5
            nband          39
           nbdbuf           4
            ngfft          54      54      96
             nkpt           2
            nstep        2000
             nsym          12
           ntypat           3
              occ      2.000000  2.000000  2.000000  2.000000  2.000000  2.000000
                       2.000000  2.000000  2.000000  2.000000  2.000000  2.000000
                       2.000000  2.000000  2.000000  2.000000  2.000000  2.000000
                       2.000000  2.000000  2.000000  2.000000  2.000000  2.000000
                       2.000000  2.000000  2.000000  2.000000  2.000000  2.000000
                       0.000000  0.000000  0.000000  0.000000  0.000000  0.000000
                       0.000000  0.000000  0.000000
        optdriver           1
            prtwf          -1
            rfdir           1       1       1
           rfelfd           2
            rprim      8.2648818579E+00  0.0000000000E+00  0.0000000000E+00
                      -4.1324409289E+00  7.1575976482E+00  0.0000000000E+00
                       0.0000000000E+00  0.0000000000E+00  1.4139486387E+01
          spgroup         164
           symrel      1  0  0   0  1  0   0  0  1      -1  0  0   0 -1  0   0  0 -1
                      -1  0  0   1  1  0   0  0  1       1  0  0  -1 -1  0   0  0 -1
                       0  1  0  -1 -1  0   0  0  1       0 -1  0   1  1  0   0  0 -1
                       0 -1  0  -1  0  0   0  0  1       0  1  0   1  0  0   0  0 -1
                      -1 -1  0   1  0  0   0  0  1       1  1  0  -1  0  0   0  0 -1
                       1  1  0   0 -1  0   0  0  1      -1 -1  0   0  1  0   0  0 -1
           tolwfr      1.00000000E-20
            typat      1  2  2  3  3
           useylm           1
              wtk        0.50000    0.50000
           xangst      0.0000000000E+00  0.0000000000E+00  0.0000000000E+00
                       1.7638771742E-11  2.5250916958E+00  4.7240884409E+00
                       2.1867935555E+00  1.2625458479E+00  2.7582054964E+00
                       1.7638771742E-11  2.5250916958E+00  1.9908064656E+00
                       2.1867935555E+00  1.2625458479E+00  5.4914874717E+00
            xcart      0.0000000000E+00  0.0000000000E+00  0.0000000000E+00
                       3.3332447913E-11  4.7717317655E+00  8.9272333808E+00
                       4.1324409290E+00  2.3858658827E+00  5.2122530064E+00
                       3.3332447913E-11  4.7717317655E+00  3.7620790036E+00
                       4.1324409290E+00  2.3858658827E+00  1.0377407384E+01
             xred      0.0000000000E+00  0.0000000000E+00  0.0000000000E+00
                       3.3333333333E-01  6.6666666667E-01  6.3136900000E-01
                       6.6666666667E-01  3.3333333333E-01  3.6863100000E-01
                       3.3333333333E-01  6.6666666667E-01  2.6606900000E-01
                       6.6666666667E-01  3.3333333333E-01  7.3393100000E-01
            znucl       56.00000   48.00000   15.00000

 chkinp: Checking input parameters for consistency.

== DATASET  1 ==================================================================
-   mpi_nproc: 1, omp_nthreads: -1 (-1 if OMP is not activated)

--- !DatasetInfo
iteration_state: {dtset: 1, }
dimensions: {natom: 5, nkpt: 2, mband: 39, nsppol: 1, nspinor: 1, nspden: 1, mpw: 14566, }
cutoff_energies: {ecut:  51.0, pawecutdg:  -1.0, }
electrons: {nelect:   6.00000000E+01, charge:   0.00000000E+00, occopt:   1.00000000E+00, tsmear:   1.00000000E-02, }
meta: {optdriver: 1, rfelfd: 2, }
...

 Real(R)+Recip(G) space primitive vectors, cartesian coordinates (Bohr,Bohr^-1):
 R(1)=  8.2648819  0.0000000  0.0000000  G(1)=  0.1209939  0.0698558  0.0000000
 R(2)= -4.1324409  7.1575976  0.0000000  G(2)=  0.0000000  0.1397117  0.0000000
 R(3)=  0.0000000  0.0000000 14.1394864  G(3)=  0.0000000  0.0000000  0.0707239
 Unit cell volume ucvol=  8.3644534E+02 bohr^3
 Angles (23,13,12)=  9.00000000E+01  9.00000000E+01  1.20000000E+02 degrees

 getcut: wavevector=  0.0000  0.0000  0.0000  ngfft=  54  54  96
         ecut(hartree)=     51.000   => boxcut(ratio)=   2.03285

--- Pseudopotential description ------------------------------------------------
- pspini: atom type   1  psp file is /scratch/users/j/a/jabreu/pseudos/PBEsol/Ba.psp8
- pspatm: opening atomic psp file    /scratch/users/j/a/jabreu/pseudos/PBEsol/Ba.psp8
- Ba    ONCVPSP-3.3.0  r_core=   2.15444   1.91218   2.15444
- 56.00000  10.00000    180112                znucl, zion, pspdat
    8 -116133    2    4       600   0.00000   pspcod,pspxc,lmax,lloc,mmax,r2well
    5.99000000000000    5.00000000000000    0.00000000000000   rchrg,fchrg,qchrg
     nproj     2     2     2
     extension_switch     1
  pspatm : epsatm=   26.37418029
         --- l  ekb(1:nproj) -->
             0    6.652372    0.677024
             1    5.027722    0.408462
             2    2.543237    0.416854
 pspatm: atomic psp has been read  and splines computed

- pspini: atom type   2  psp file is /scratch/users/j/a/jabreu/pseudos/PBEsol/Cd.psp8
- pspatm: opening atomic psp file    /scratch/users/j/a/jabreu/pseudos/PBEsol/Cd.psp8
- Cd    ONCVPSP-3.3.0  r_core=   1.25838   1.30423   1.35174
- 48.00000  20.00000    180112                znucl, zion, pspdat
    8 -116133    2    4       600   0.00000   pspcod,pspxc,lmax,lloc,mmax,r2well
    5.99000000000000    6.00000000000000    0.00000000000000   rchrg,fchrg,qchrg
     nproj     2     2     2
     extension_switch     1
  pspatm : epsatm=   23.26728021
         --- l  ekb(1:nproj) -->
             0   63.701523    3.700425
             1    8.703569    1.290373
             2    0.983656   -0.721725
 pspatm: atomic psp has been read  and splines computed

- pspini: atom type   3  psp file is /scratch/users/j/a/jabreu/pseudos/PBEsol/P.psp8
- pspatm: opening atomic psp file    /scratch/users/j/a/jabreu/pseudos/PBEsol/P.psp8
- P     ONCVPSP-3.3.0  r_core=   1.46089   1.55067   1.70594
- 15.00000   5.00000    180112                znucl, zion, pspdat
    8 -116133    2    4       600   0.00000   pspcod,pspxc,lmax,lloc,mmax,r2well
    5.99000000000000    5.00000000000000    0.00000000000000   rchrg,fchrg,qchrg
     nproj     2     2     2
     extension_switch     1
  pspatm : epsatm=    7.31221086
         --- l  ekb(1:nproj) -->
             0    6.742364    1.063650
             1    3.449117    0.910422
             2   -3.077645   -0.799176
 pspatm: atomic psp has been read  and splines computed

   5.25198975E+03                                ecore*ucvol(ha*bohr**3)

 ==>  initialize data related to q vector <==

 The list of irreducible perturbations for this q vector is:
    1)    idir= 1    ipert=   6
    2)    idir= 2    ipert=   6
    3)    idir= 3    ipert=   6

 Perturbation wavevector (in red.coord.)   0.000000  0.000000  0.000000
 Perturbation : derivative vs k along direction   1

 dfpt_looppert : COMMENT -
  In a d/dk calculation, iscf is set to -3 automatically.
 The set of symmetries contains only one element for this perturbation.
 symkpt : not enough symmetry to change the number of k points.

 Initialisation of the first-order wave-functions :
  ireadwf=   0

--- !BeginCycle
iteration_state: {dtset: 1, }
solver: {iscf: 7, nstep: 2000, nline: 4, wfoptalg: 0, }
tolerances: {tolwfr: 1.00E-20, }
...

     iter   2DEtotal(Ha)        deltaE(Ha) residm    vres2
-ETOT  1  -75.411286333528     -7.541E+01 2.392E-01 0.000E+00
 ETOT  2  -75.553455509792     -1.422E-01 1.789E-02 0.000E+00
 ETOT  3  -75.555549528676     -2.094E-03 2.859E-04 0.000E+00
 ETOT  4  -75.555598726479     -4.920E-05 1.773E-04 0.000E+00
 ETOT  5  -75.555600121725     -1.395E-06 4.114E-06 0.000E+00
 ETOT  6  -75.555600166752     -4.503E-08 2.518E-06 0.000E+00
 ETOT  7  -75.555600168323     -1.570E-09 6.669E-08 0.000E+00
 ETOT  8  -75.555600168381     -5.792E-11 3.965E-08 0.000E+00
 ETOT  9  -75.555600168383     -2.188E-12 1.132E-09 0.000E+00
 ETOT 10  -75.555600168383     -1.705E-13 6.604E-10 0.000E+00
 ETOT 11  -75.555600168383      1.705E-13 1.968E-11 0.000E+00
 ETOT 12  -75.555600168383      1.137E-13 9.909E-12 0.000E+00
 ETOT 13  -75.555600168383     -1.137E-13 3.546E-13 0.000E+00
 ETOT 14  -75.555600168383      2.842E-14 4.916E-14 0.000E+00
 ETOT 15  -75.555600168383      1.421E-14 7.817E-15 0.000E+00
 ETOT 16  -75.555600168383     -1.421E-14 2.032E-15 0.000E+00
 ETOT 17  -75.555600168383      0.000E+00 2.414E-16 0.000E+00
 ETOT 18  -75.555600168383      1.421E-14 8.337E-17 0.000E+00
 ETOT 19  -75.555600168383      0.000E+00 9.651E-18 0.000E+00
 ETOT 20  -75.555600168383     -1.421E-14 3.403E-18 0.000E+00
 ETOT 21  -75.555600168383      1.421E-14 3.863E-19 0.000E+00
 ETOT 22  -75.555600168383      0.000E+00 1.388E-19 0.000E+00
 ETOT 23  -75.555600168383      0.000E+00 1.554E-20 0.000E+00
 ETOT 24  -75.555600168383      1.421E-14 9.581E-21 0.000E+00

 At SCF step   24   max residual=  9.58E-21 < tolwfr=  1.00E-20 =>converged.

 ----iterations are completed or convergence reached----

 dfpt_looppert: DFPT cycle converged with prtwf=-1. Will skip output of the 1st-order WFK file.
 dfpt_looppert : ek2=    9.2471184238E+01
          f-sum rule ratio=    1.6440538500E+00
 prteigrs : about to open file /scratch/users/j/a/jabreu/flow_simple_remain_atoms/flow/w202/t1/tmpdata/tmp_1WF1_EIG
 Expectation of eigenvalue derivatives (hartree) for nkpt=   2  k points:
  (in case of degenerate eigenvalues, averaged derivative)
 kpt#   1, nband= 39, wtk=  0.50000, kpt=  0.0000  0.0000  0.0000 (reduced coord)
  -0.00000   -0.00000    0.00000    0.00000    0.00000    0.00000   -0.00000   -0.00000
   0.00000    0.00000   -0.00000   -0.00000    0.00000    0.00000    0.00000    0.00000
   0.00000    0.00000    0.00000    0.00000    0.00000    0.00000    0.00000    0.00000
  -0.00000   -0.00000   -0.00000   -0.00000   -0.00000   -0.00000   -0.00000   -0.00000
  -0.00000   -0.00000   -0.00000    0.00000    0.00000   -0.00002   -0.00002
 prteigrs : prtvol=0 or 1, do not print more k-points.

 Eight components of 2nd-order total energy (hartree) are
 1,2,3: 0th-order hamiltonian combined with 1st-order wavefunctions
     kin0=   6.68438060E+01 eigvalue=  -9.18924240E-01  local=  -3.63967416E+01
 4,5,6: 1st-order hamiltonian combined with 1st and 0th-order wfs
     kin1=  -1.52027606E+02  Hartree=   0.00000000E+00     xc=   0.00000000E+00
 7,8,9: eventually, occupation + non-local contributions
    edocc=   4.16426000E+01     enl0=   4.38485991E+00   enl1=   9.16406126E-01
 1-9 gives the relaxation energy (to be shifted if some occ is /=2.0)
   erelax=  -7.55556002E+01
  No Ewald or frozen-wf contrib.: the relaxation energy is the total one
 2DEtotal=   -0.7555560017E+02 Ha. Also 2DEtotal=   -0.205597243895E+04 eV
    (  non-var. 2DEtotal :   -7.5555600168E+01 Ha)

 Perturbation wavevector (in red.coord.)   0.000000  0.000000  0.000000
 Perturbation : derivative vs k along direction   2
 The set of symmetries contains only one element for this perturbation.
 symkpt : not enough symmetry to change the number of k points.

[...]

 Perturbation wavevector (in red.coord.)   0.000000  0.000000  0.000000
 Perturbation : derivative vs k along direction   3
 The set of symmetries contains only one element for this perturbation.
 symkpt : not enough symmetry to change the number of k points.

 Initialisation of the first-order wave-functions :
  ireadwf=   0

--- !BeginCycle
iteration_state: {dtset: 1, }
solver: {iscf: 7, nstep: 2000, nline: 4, wfoptalg: 0, }
tolerances: {tolwfr: 1.00E-20, }
...

     iter   2DEtotal(Ha)        deltaE(Ha) residm    vres2
-ETOT  1  -13.754057682154     -1.375E+01 6.121E-02 0.000E+00
 ETOT  2  -13.770618380207     -1.656E-02 8.365E-04 0.000E+00
 ETOT  3  -13.770847628215     -2.292E-04 4.636E-05 0.000E+00
 ETOT  4  -13.770853918634     -6.290E-06 5.329E-07 0.000E+00
 ETOT  5  -13.770854122359     -2.037E-07 1.131E-07 0.000E+00
 ETOT  6  -13.770854129596     -7.238E-09 3.673E-09 0.000E+00
 ETOT  7  -13.770854129869     -2.724E-10 1.346E-09 0.000E+00
 ETOT  8  -13.770854129879     -1.066E-11 4.525E-11 0.000E+00
 ETOT  9  -13.770854129880     -4.245E-13 1.857E-11 0.000E+00
 ETOT 10  -13.770854129880     -3.375E-14 6.327E-13 0.000E+00
 ETOT 11  -13.770854129880     -1.954E-14 2.677E-13 0.000E+00
 ETOT 12  -13.770854129880      2.842E-14 9.195E-15 0.000E+00
 ETOT 13  -13.770854129880     -1.954E-14 3.930E-15 0.000E+00
 ETOT 14  -13.770854129880      1.066E-14 3.086E-16 0.000E+00
 ETOT 15  -13.770854129880     -8.882E-15 5.824E-17 0.000E+00
 ETOT 16  -13.770854129880      1.776E-15 1.201E-17 0.000E+00
 ETOT 17  -13.770854129880     -3.553E-15 9.056E-19 0.000E+00
 ETOT 18  -13.770854129880      0.000E+00 4.063E-19 0.000E+00
 ETOT 19  -13.770854129880      8.882E-15 3.801E-20 0.000E+00
 ETOT 20  -13.770854129880     -5.329E-15 1.149E-20 0.000E+00
 ETOT 21  -13.770854129880      3.553E-15 9.916E-21 0.000E+00

 At SCF step   21   max residual=  9.92E-21 < tolwfr=  1.00E-20 =>converged.

 ----iterations are completed or convergence reached----

 dfpt_looppert: DFPT cycle converged with prtwf=-1. Will skip output of the 1st-order WFK file.
 dfpt_looppert : ek2=    2.3695927615E+01
          f-sum rule ratio=    1.1434342762E+00
 prteigrs : about to open file /scratch/users/j/a/jabreu/flow_simple_remain_atoms/flow/w202/t1/tmpdata/tmp_1WF1_EIG
 Expectation of eigenvalue derivatives (hartree) for nkpt=   2  k points:
  (in case of degenerate eigenvalues, averaged derivative)
 kpt#   1, nband= 39, wtk=  0.50000, kpt=  0.0000  0.0000  0.0000 (reduced coord)
   0.00000    0.00000   -0.00000   -0.00000    0.00000    0.00000   -0.00000   -0.00000
  -0.00000    0.00000    0.00000    0.00000    0.00000    0.00000   -0.00000   -0.00000
   0.00000    0.00000   -0.00000   -0.00000   -0.00000    0.00000    0.00000   -0.00000
  -0.00000   -0.00000   -0.00000   -0.00000    0.00000    0.00000    0.00000   -0.00000
  -0.00000   -0.00000   -0.00000    0.00000    0.00000    0.00000    0.00000
 prteigrs : prtvol=0 or 1, do not print more k-points.

 Eight components of 2nd-order total energy (hartree) are
 1,2,3: 0th-order hamiltonian combined with 1st-order wavefunctions
     kin0=   1.67489378E+01 eigvalue=   9.19647315E-02  local=  -9.31444723E+00
 4,5,6: 1st-order hamiltonian combined with 1st and 0th-order wfs
     kin1=  -2.70947358E+01  Hartree=   0.00000000E+00     xc=   0.00000000E+00
 7,8,9: eventually, occupation + non-local contributions
    edocc=   4.97331618E+00     enl0=   1.27108266E+00   enl1=  -4.46972418E-01
 1-9 gives the relaxation energy (to be shifted if some occ is /=2.0)
   erelax=  -1.37708541E+01
  No Ewald or frozen-wf contrib.: the relaxation energy is the total one
 2DEtotal=   -0.1377085413E+02 Ha. Also 2DEtotal=   -0.374723997808E+03 eV
    (  non-var. 2DEtotal :   -1.3770854130E+01 Ha)

 CALCULATION OF EFFECTIVE MASSES
 NOTE : Additional infos (eff. mass eigenvalues, eigenvectors and, if degenerate, average mass) are available in stdout.

 COMMENTS:
 - At k-point ( 0.000, 0.000, 0.000), bands    29 through    30
   are DEGENERATE (effective mass tensor is therefore not defined).
   See Section IIIB Eqs. (67)-(70) and Appendix E of PRB 93 205147 (2016).
 - Angular average effective mass for Frohlich model is to be averaged over degenerate bands. See later.
 - Associated theta integrals calculated with ntheta=   1000 points.

 K-point ( 0.000, 0.000, 0.000) | band =    29
 Transport equivalent effective mass tensor:
             -0.0737432514              0.0000000000             -0.0000000001
              0.0000000000             -0.0737433079             -0.0000002699
             -0.0000000001             -0.0000002699             -0.5996257537
 Transport equivalent effective mass tensor eigenvalues:
             -0.5996257537             -0.0737433079             -0.0737432514
 Angular average effective mass 1/(<1/m>)=  -0.0940375006
 Angular average effective mass for Frohlich model (<m**0.5>)**2=  -0.1114610926
 Effective masses along directions: (cart. coord. / red. coord. -> eff. mass)
    1:   1.000000  0.000000  0.000000 /   0.894427 -0.447214  0.000000 ->  -0.0667444814
    2:   0.000000  1.000000  0.000000 /   0.000000  1.000000  0.000000 ->  -0.0667444814
    3:   0.000000  0.000000  1.000000 /   0.000000  0.000000  1.000000 ->  -0.5732747368
    4:   0.577350  0.577350  0.577350 /   0.496244  0.181638  0.848970 ->  -0.1008725414
    5:   0.000000  0.707107  0.707107 /   0.000000  0.451643  0.892199 ->  -0.1057089872
    6:   0.707107  0.000000  0.707107 /   0.489303 -0.244651  0.837095 ->  -0.1170146314
    7:   0.707107  0.707107  0.000000 /   0.939071  0.343724  0.000000 ->  -0.0667444814

 K-point ( 0.000, 0.000, 0.000) | band =    30
 Transport equivalent effective mass tensor:
             -1.0753119269              0.0000000002             -0.0000000005
              0.0000000002             -1.0753106805              0.0000004881
             -0.0000000005              0.0000004881             -2.2923626041
 Transport equivalent effective mass tensor eigenvalues:
             -2.2923626041             -1.0753119269             -1.0753106805
 Angular average effective mass 1/(<1/m>)=  -0.5089038092
 Angular average effective mass for Frohlich model (<m**0.5>)**2=  -0.5502513420
 Effective masses along directions: (cart. coord. / red. coord. -> eff. mass)
    1:   1.000000  0.000000  0.000000 /   0.894427 -0.447214  0.000000 ->  -0.4604648030
    2:   0.000000  1.000000  0.000000 /   0.000000  1.000000  0.000000 ->  -0.4604648031
    3:   0.000000  0.000000  1.000000 /   0.000000  0.000000  1.000000 ->  -0.5732747371
    4:   0.577350  0.577350  0.577350 /   0.496244  0.181638  0.848970 ->  -0.3723614320
    5:   0.000000  0.707107  0.707107 /   0.000000  0.451643  0.892199 ->  -1.1607039999
    6:   0.707107  0.000000  0.707107 /   0.489303 -0.244651  0.837095 ->  -0.5632089827
    7:   0.707107  0.707107  0.000000 /   0.939071  0.343724  0.000000 ->  -0.4604648030

 Angular average effective mass for Frohlich model, averaged over degenerate bands.
 Value of     (<<m**0.5>>)**2 =     2.892542E-01
 Absolute Value of <<m**0.5>> =     5.378236E-01

 K-point ( 0.000, 0.000, 0.500) | band =    31
 Effective mass tensor:
              0.0966493789              0.0000000072              0.0000004836
              0.0000000072              0.0966493712             -0.0000001550
              0.0000004836             -0.0000001550              2.1432116488
 Effective mass tensor eigenvalues:
              0.0966493669              0.0966493832              2.1432116488
 Angular average effective mass 1/(<1/m>)=   0.1417772978
 Angular average effective mass for Frohlich model (<m**0.5>)**2=   0.1863275510
 Effective masses along directions: (cart. coord. / red. coord. -> eff. mass)
    1:   1.000000  0.000000  0.000000 /   0.894427 -0.447214  0.000000 ->   0.0966493789
    2:   0.000000  1.000000  0.000000 /   0.000000  1.000000  0.000000 ->   0.0966493712
    3:   0.000000  0.000000  1.000000 /   0.000000  0.000000  1.000000 ->   2.1432116488
    4:   0.577350  0.577350  0.577350 /   0.496244  0.181638  0.848970 ->   0.1417773293
    5:   0.000000  0.707107  0.707107 /   0.000000  0.451643  0.892199 ->   0.1849579306
    6:   0.707107  0.000000  0.707107 /   0.489303 -0.244651  0.837095 ->   0.1849580502
    7:   0.707107  0.707107  0.000000 /   0.939071  0.343724  0.000000 ->   0.0966493822

 END OF EFFECTIVE MASSES SECTION

 ---- first-order wavefunction calculations are completed ----

 Total localisation tensor (bohr^2) in cartesian coordinates
  WARNING : still subject to testing - especially symmetries.
      direction              matrix element
   alpha     beta       real part   imaginary part
     1        1      12.0647005135    0.0000000000
     1        2      -4.1793351156    0.0000000000
     1        3       0.0000000000    0.0000000000
     2        1      -4.1793351156    0.0000000000
     2        2       7.2388207621    0.0000000000
     2        3       0.0000000000    0.0000000000
     3        1       0.0000000000    0.0000000000
     3        2       0.0000000000    0.0000000000
     3        3       3.6052197987    0.0000000000

 respfn : d/dk was computed, but no 2DTE, so no DDB output.

== END DATASET(S) ==============================================================

 -outvars: echo values of variables after computation  --------
            acell      1.0000000000E+00  1.0000000000E+00  1.0000000000E+00 Bohr
              amu      1.37327000E+02  1.12411000E+02  3.09737620E+01
             ecut      5.10000000E+01 Hartree
           etotal     -1.3770854130E+01
            fcart      0.0000000000E+00  0.0000000000E+00  0.0000000000E+00
                       0.0000000000E+00  0.0000000000E+00  0.0000000000E+00
                       0.0000000000E+00  0.0000000000E+00  0.0000000000E+00
                       0.0000000000E+00  0.0000000000E+00  0.0000000000E+00
                       0.0000000000E+00  0.0000000000E+00  0.0000000000E+00
-          fftalg         512
           irdden           1
           irdwfk           1
           istwfk        1    1
              ixc     -116133
              kpt      0.00000000E+00  0.00000000E+00  0.00000000E+00
                       0.00000000E+00  0.00000000E+00  5.00000000E-01
           kptopt           0
P           mkmem           2
P          mkqmem           2
P          mk1mem           2
            natom           5
            nband          39
           nbdbuf           4
            ngfft          54      54      96
             nkpt           2
            nstep        2000
             nsym          12
           ntypat           3
              occ      2.000000  2.000000  2.000000  2.000000  2.000000  2.000000
                       2.000000  2.000000  2.000000  2.000000  2.000000  2.000000
                       2.000000  2.000000  2.000000  2.000000  2.000000  2.000000
                       2.000000  2.000000  2.000000  2.000000  2.000000  2.000000
                       2.000000  2.000000  2.000000  2.000000  2.000000  2.000000
                       0.000000  0.000000  0.000000  0.000000  0.000000  0.000000
                       0.000000  0.000000  0.000000
        optdriver           1
            prtwf          -1
            rfdir           1       1       1
           rfelfd           2
            rprim      8.2648818579E+00  0.0000000000E+00  0.0000000000E+00
                      -4.1324409289E+00  7.1575976482E+00  0.0000000000E+00
                       0.0000000000E+00  0.0000000000E+00  1.4139486387E+01
          spgroup         164
           strten      0.0000000000E+00  0.0000000000E+00  0.0000000000E+00
                       0.0000000000E+00  0.0000000000E+00  0.0000000000E+00
           symrel      1  0  0   0  1  0   0  0  1      -1  0  0   0 -1  0   0  0 -1
                      -1  0  0   1  1  0   0  0  1       1  0  0  -1 -1  0   0  0 -1
                       0  1  0  -1 -1  0   0  0  1       0 -1  0   1  1  0   0  0 -1
                       0 -1  0  -1  0  0   0  0  1       0  1  0   1  0  0   0  0 -1
                      -1 -1  0   1  0  0   0  0  1       1  1  0  -1  0  0   0  0 -1
                       1  1  0   0 -1  0   0  0  1      -1 -1  0   0  1  0   0  0 -1
           tolwfr      1.00000000E-20
            typat      1  2  2  3  3
           useylm           1
              wtk        0.50000    0.50000
           xangst      0.0000000000E+00  0.0000000000E+00  0.0000000000E+00
                       1.7638771742E-11  2.5250916958E+00  4.7240884409E+00
                       2.1867935555E+00  1.2625458479E+00  2.7582054964E+00
                       1.7638771742E-11  2.5250916958E+00  1.9908064656E+00
                       2.1867935555E+00  1.2625458479E+00  5.4914874717E+00
            xcart      0.0000000000E+00  0.0000000000E+00  0.0000000000E+00
                       3.3332447913E-11  4.7717317655E+00  8.9272333808E+00
                       4.1324409290E+00  2.3858658827E+00  5.2122530064E+00
                       3.3332447913E-11  4.7717317655E+00  3.7620790036E+00
                       4.1324409290E+00  2.3858658827E+00  1.0377407384E+01
             xred      0.0000000000E+00  0.0000000000E+00  0.0000000000E+00
                       3.3333333333E-01  6.6666666667E-01  6.3136900000E-01
                       6.6666666667E-01  3.3333333333E-01  3.6863100000E-01
                       3.3333333333E-01  6.6666666667E-01  2.6606900000E-01
                       6.6666666667E-01  3.3333333333E-01  7.3393100000E-01
            znucl       56.00000   48.00000   15.00000

- Timing analysis has been suppressed with timopt=0

 Suggested references for the acknowledgment of ABINIT usage.

 Calculation completed.
.Delivered   2 WARNINGs and   5 COMMENTs to log file.