.Version 9.5.1 of ABINIT

 ABINIT is a project of the Universite Catholique de Louvain,
 Corning Inc. and other collaborators, see ~abinit/doc/developers/contributors.txt .
 acknowledgments of the ABINIT effort.

.Starting date : Tue 27 Apr 2021.
- ( at 18h25 )

- input  file    -> /scratch/users/j/a/jabreu/flow_simple_4atoms/flow/w151/t1/run.abi
- output file    -> /scratch/users/j/a/jabreu/flow_simple_4atoms/flow/w151/t1/run.abo
- root for input  files -> /scratch/users/j/a/jabreu/flow_simple_4atoms/flow/w151/t1/indata/in
- root for output files -> /scratch/users/j/a/jabreu/flow_simple_4atoms/flow/w151/t1/outdata/out

 Symmetries : space group R-3 m (#166); Bravais hR (rhombohedral)
     intxc =       0      iscf =       7    lmnmax =      18     lnmax =       6
     mgfft =      72  mpssoang =       3    mqgrid =    3001     natom =       4
  nloc_mem =       1    nspden =       1   nspinor =       1    nsppol =       1
      nsym =      12    n1xccc =    2501    ntypat =       3    occopt =       1
   xclevel =       2
-    mband =          25        mffmem =           1         mkmem =           2
-   mkqmem =           2        mk1mem =           2           mpw =        5038
      nfft =      373248          nkpt =           2
  Rough estimation (10% accuracy) of disk space for files :

------------- Echo of variables that govern the present computation ------------
-
- outvars: echo of selected default values
-   iomode0 =  0 , fftalg0 =512 , wfoptalg0 =  0
-
- outvars: echo of global parameters not present in the input file
-  max_nthreads =    0
-
 -outvars: echo values of preprocessed input variables --------
            acell      1.0000000000E+00  1.0000000000E+00  1.0000000000E+00 Bohr
              amu      3.90983000E+01  4.49559100E+01  1.59994000E+01
             ecut      4.40000000E+01 Hartree
-          fftalg         512
           irdden           1
           irdwfk           1
           istwfk        1    1
              ixc     -116133
              kpt      0.00000000E+00  0.00000000E+00  0.00000000E+00
                       5.00000000E-01  5.00000000E-01  1.11022302E-16
           kptopt           0
P           mkmem           2
P          mkqmem           2
P          mk1mem           2
            natom           4
            nband          25
           nbdbuf           4
            ngfft          72      72      72
             nkpt           2
            nstep         100
             nsym          12
           ntypat           3
              occ      2.000000  2.000000  2.000000  2.000000  2.000000  2.000000
                       2.000000  2.000000  2.000000  2.000000  2.000000  2.000000
                       2.000000  2.000000  2.000000  2.000000  0.000000  0.000000
                       0.000000  0.000000  0.000000  0.000000  0.000000  0.000000
                       0.000000
        optdriver           1
            prtwf          -1
            rfdir           1       1       1
           rfelfd           2
            rprim      5.8459650647E+00  0.0000000000E+00  1.0431589989E+01
                       2.7237102029E+00  5.1726888818E+00  1.0431589989E+01
                       0.0000000000E+00  0.0000000000E+00  1.1957983828E+01
          spgroup         166
           symrel      1  0  0   0  1  0   0  0  1      -1  0  0   0 -1  0   0  0 -1
                       0  1  0   1  0  0   0  0  1       0 -1  0  -1  0  0   0  0 -1
                       0  0  1   1  0  0   0  1  0       0  0 -1  -1  0  0   0 -1  0
                       1  0  0   0  0  1   0  1  0      -1  0  0   0  0 -1   0 -1  0
                       0  1  0   0  0  1   1  0  0       0 -1  0   0  0 -1  -1  0  0
                       0  0  1   0  1  0   1  0  0       0  0 -1   0 -1  0  -1  0  0
           tolwfr      1.00000000E-20
            typat      1  2  3  3
           useylm           1
              wtk        0.50000    0.50000
           xangst      0.0000000000E+00  0.0000000000E+00  0.0000000000E+00
                       2.2674384183E+00  1.3686345317E+00  8.6841059224E+00
                       3.5090876962E+00  2.1180988012E+00  1.3439522326E+01
                       1.0257891404E+00  6.1917026214E-01  3.9286895193E+00
            xcart      0.0000000000E+00  0.0000000000E+00  0.0000000000E+00
                       4.2848376338E+00  2.5863444409E+00  1.6410581902E+01
                       6.6312147221E+00  4.0026266567E+00  2.5397016552E+01
                       1.9384605455E+00  1.1700622251E+00  7.4241472526E+00
             xred      0.0000000000E+00  0.0000000000E+00  0.0000000000E+00
                       5.0000000000E-01  5.0000000000E-01  5.0000000000E-01
                       7.7380000000E-01  7.7380000000E-01  7.7380000000E-01
                       2.2620000000E-01  2.2620000000E-01  2.2620000000E-01
            znucl       19.00000   21.00000    8.00000

 chkinp: Checking input parameters for consistency.

== DATASET  1 ==================================================================
-   mpi_nproc: 1, omp_nthreads: -1 (-1 if OMP is not activated)

--- !DatasetInfo
iteration_state: {dtset: 1, }
dimensions: {natom: 4, nkpt: 2, mband: 25, nsppol: 1, nspinor: 1, nspden: 1, mpw: 5038, }
cutoff_energies: {ecut:  44.0, pawecutdg:  -1.0, }
electrons: {nelect:   3.20000000E+01, charge:   0.00000000E+00, occopt:   1.00000000E+00, tsmear:   1.00000000E-02, }
meta: {optdriver: 1, rfelfd: 2, }
...

 Real(R)+Recip(G) space primitive vectors, cartesian coordinates (Bohr,Bohr^-1):
 R(1)=  5.8459651  0.0000000 10.4315900  G(1)=  0.1710582 -0.0900717  0.0000000
 R(2)=  2.7237102  5.1726889 10.4315900  G(2)=  0.0000000  0.1933231  0.0000000
 R(3)=  0.0000000  0.0000000 11.9579838  G(3)= -0.1492232 -0.0900717  0.0836261
 Unit cell volume ucvol=  3.6160176E+02 bohr^3
 Angles (23,13,12)=  2.92666968E+01  2.92666968E+01  2.92666968E+01 degrees

 getcut: wavevector=  0.0000  0.0000  0.0000  ngfft=  72  72  72
         ecut(hartree)=     44.000   => boxcut(ratio)=   2.01716

--- Pseudopotential description ------------------------------------------------
- pspini: atom type   1  psp file is /scratch/users/j/a/jabreu/pseudos/PBEsol/K.psp8
- pspatm: opening atomic psp file    /scratch/users/j/a/jabreu/pseudos/PBEsol/K.psp8
- K     ONCVPSP-3.3.0  r_core=   1.36296   1.46408   1.61068
- 19.00000   9.00000    180112                znucl, zion, pspdat
    8 -116133    2    4       400   0.00000   pspcod,pspxc,lmax,lloc,mmax,r2well
    3.99000000000000    5.00000000000000    0.00000000000000   rchrg,fchrg,qchrg
     nproj     2     2     2
     extension_switch     1
  pspatm : epsatm=    8.32487830
         --- l  ekb(1:nproj) -->
             0   10.921326    0.816676
             1    4.431000    0.560368
             2   -3.384038   -1.043186
 pspatm: atomic psp has been read  and splines computed

- pspini: atom type   2  psp file is /scratch/users/j/a/jabreu/pseudos/PBEsol/Sc.psp8
- pspatm: opening atomic psp file    /scratch/users/j/a/jabreu/pseudos/PBEsol/Sc.psp8
- Sc    ONCVPSP-3.3.0  r_core=   1.35663   1.35663   1.66161
- 21.00000  11.00000    180112                znucl, zion, pspdat
    8 -116133    2    4       600   0.00000   pspcod,pspxc,lmax,lloc,mmax,r2well
    5.99000000000000    5.00000000000000    0.00000000000000   rchrg,fchrg,qchrg
     nproj     2     2     2
     extension_switch     1
  pspatm : epsatm=   13.58981094
         --- l  ekb(1:nproj) -->
             0   10.810997    0.948773
             1    2.871172    0.364831
             2   -4.789751   -1.321945
 pspatm: atomic psp has been read  and splines computed

- pspini: atom type   3  psp file is /scratch/users/j/a/jabreu/pseudos/PBEsol/O.psp8
- pspatm: opening atomic psp file    /scratch/users/j/a/jabreu/pseudos/PBEsol/O.psp8
- O     ONCVPSP-3.3.0  r_core=   1.35509   1.45563   1.26150
-  8.00000   6.00000    180112                znucl, zion, pspdat
    8 -116133    2    4       600   0.00000   pspcod,pspxc,lmax,lloc,mmax,r2well
    5.99000000000000    4.00000000000000    0.00000000000000   rchrg,fchrg,qchrg
     nproj     2     2     1
     extension_switch     1
  pspatm : epsatm=    6.22910522
         --- l  ekb(1:nproj) -->
             0    6.050032    0.820363
             1   -4.739617   -1.153841
             2   -1.335834
 pspatm: atomic psp has been read  and splines computed

   1.09993279E+03                                ecore*ucvol(ha*bohr**3)

-inwffil : will read wavefunctions from disk file /scratch/users/j/a/jabreu/flow_simple_4atoms/flow/w151/t1/indata/in_WFK

 ==>  initialize data related to q vector <==

 The list of irreducible perturbations for this q vector is:
    1)    idir= 1    ipert=   5
    2)    idir= 2    ipert=   5
    3)    idir= 3    ipert=   5

 Perturbation wavevector (in red.coord.)   0.000000  0.000000  0.000000
 Perturbation : derivative vs k along direction   1

 dfpt_looppert : COMMENT -
  In a d/dk calculation, iscf is set to -3 automatically.
 The set of symmetries contains only one element for this perturbation.
 symkpt : not enough symmetry to change the number of k points.

[...]

 Initialisation of the first-order wave-functions :
  ireadwf=   0

--- !BeginCycle
iteration_state: {dtset: 1, }
solver: {iscf: 7, nstep: 100, nline: 4, wfoptalg: 0, }
tolerances: {tolwfr: 1.00E-20, }
...

     iter   2DEtotal(Ha)        deltaE(Ha) residm    vres2
-ETOT  1  -49.407643787578     -4.941E+01 1.285E-01 0.000E+00
 ETOT  2  -49.458273234950     -5.063E-02 5.868E-03 0.000E+00
 ETOT  3  -49.458627416647     -3.542E-04 1.722E-04 0.000E+00
 ETOT  4  -49.458631753603     -4.337E-06 1.734E-05 0.000E+00
 ETOT  5  -49.458631826308     -7.270E-08 7.345E-07 0.000E+00
 ETOT  6  -49.458631827768     -1.460E-09 6.527E-08 0.000E+00
 ETOT  7  -49.458631827801     -3.335E-11 3.094E-09 0.000E+00
 ETOT  8  -49.458631827802     -8.598E-13 3.256E-10 0.000E+00
 ETOT  9  -49.458631827802      0.000E+00 1.735E-11 0.000E+00
 ETOT 10  -49.458631827802     -2.842E-14 2.678E-12 0.000E+00
 ETOT 11  -49.458631827802      2.842E-14 1.448E-13 0.000E+00
 ETOT 12  -49.458631827802      1.421E-14 1.008E-13 0.000E+00
 ETOT 13  -49.458631827802      0.000E+00 7.318E-15 0.000E+00
 ETOT 14  -49.458631827802      0.000E+00 5.367E-15 0.000E+00
 ETOT 15  -49.458631827802      7.105E-15 3.905E-16 0.000E+00
 ETOT 16  -49.458631827802     -1.421E-14 2.876E-16 0.000E+00
 ETOT 17  -49.458631827802      7.105E-15 2.084E-17 0.000E+00
 ETOT 18  -49.458631827802     -2.132E-14 1.553E-17 0.000E+00
 ETOT 19  -49.458631827802      1.421E-14 1.114E-18 0.000E+00
 ETOT 20  -49.458631827802      0.000E+00 8.442E-19 0.000E+00
 ETOT 21  -49.458631827802     -7.105E-15 5.971E-20 0.000E+00
 ETOT 22  -49.458631827802      1.421E-14 4.611E-20 0.000E+00
 ETOT 23  -49.458631827802      1.421E-14 9.976E-21 0.000E+00

 At SCF step   23   max residual=  9.98E-21 < tolwfr=  1.00E-20 =>converged.

 ----iterations are completed or convergence reached----

 dfpt_looppert: DFPT cycle converged with prtwf=-1. Will skip output of the 1st-order WFK file.
 dfpt_looppert : ek2=    9.4429348801E+01
          f-sum rule ratio=    1.1184015339E+00
 prteigrs : about to open file /scratch/users/j/a/jabreu/flow_simple_4atoms/flow/w151/t1/tmpdata/tmp_1WF1_EIG
 Expectation of eigenvalue derivatives (hartree) for nkpt=   2  k points:
  (in case of degenerate eigenvalues, averaged derivative)
 kpt#   1, nband= 25, wtk=  0.50000, kpt=  0.0000  0.0000  0.0000 (reduced coord)
   0.00000   -0.00000    0.00000    0.00000    0.00000    0.00000    0.00000    0.00000
  -0.00000   -0.00000   -0.00000    0.00000    0.00000   -0.00000    0.00000    0.00000
   0.00000   -0.00000   -0.00000   -0.00000   -0.00000    0.00000    0.00000   -0.00168
   0.00000
 prteigrs : prtvol=0 or 1, do not print more k-points.

 Eight components of 2nd-order total energy (hartree) are
 1,2,3: 0th-order hamiltonian combined with 1st-order wavefunctions
     kin0=   5.34734125E+01 eigvalue=  -1.26711541E-01  local=  -2.36008742E+01
 4,5,6: 1st-order hamiltonian combined with 1st and 0th-order wfs
     kin1=  -1.05609929E+02  Hartree=   0.00000000E+00     xc=   0.00000000E+00
 7,8,9: eventually, occupation + non-local contributions
    edocc=   2.19784626E+01     enl0=  -2.26565748E+00   enl1=   6.69266489E+00
 1-9 gives the relaxation energy (to be shifted if some occ is /=2.0)
   erelax=  -4.94586318E+01
  No Ewald or frozen-wf contrib.: the relaxation energy is the total one
 2DEtotal=   -0.4945863183E+02 Ha. Also 2DEtotal=   -0.134583781586E+04 eV
    (  non-var. 2DEtotal :   -4.9458631828E+01 Ha)

 Perturbation wavevector (in red.coord.)   0.000000  0.000000  0.000000
 Perturbation : derivative vs k along direction   2
 The set of symmetries contains only one element for this perturbation.
 symkpt : not enough symmetry to change the number of k points.

[...]

 Perturbation wavevector (in red.coord.)   0.000000  0.000000  0.000000
 Perturbation : derivative vs k along direction   3
 The set of symmetries contains only one element for this perturbation.
 symkpt : not enough symmetry to change the number of k points.

-inwffil : will read wavefunctions from disk file /scratch/users/j/a/jabreu/flow_simple_4atoms/flow/w151/t1/indata/in_WFK

 Initialisation of the first-order wave-functions :
  ireadwf=   0

--- !BeginCycle
iteration_state: {dtset: 1, }
solver: {iscf: 7, nstep: 100, nline: 4, wfoptalg: 0, }
tolerances: {tolwfr: 1.00E-20, }
...

     iter   2DEtotal(Ha)        deltaE(Ha) residm    vres2
-ETOT  1  -46.530217437155     -4.653E+01 1.480E-01 0.000E+00
 ETOT  2  -46.570165857589     -3.995E-02 4.010E-03 0.000E+00
 ETOT  3  -46.570388572559     -2.227E-04 2.739E-04 0.000E+00
 ETOT  4  -46.570391340147     -2.768E-06 2.499E-05 0.000E+00
 ETOT  5  -46.570391389430     -4.928E-08 1.731E-06 0.000E+00
 ETOT  6  -46.570391390469     -1.039E-09 1.716E-07 0.000E+00
 ETOT  7  -46.570391390493     -2.414E-11 1.442E-08 0.000E+00
 ETOT  8  -46.570391390494     -5.969E-13 1.536E-09 0.000E+00
 ETOT  9  -46.570391390494     -1.421E-14 1.446E-10 0.000E+00
 ETOT 10  -46.570391390494     -1.421E-14 1.593E-11 0.000E+00
 ETOT 11  -46.570391390494      1.421E-14 1.535E-12 0.000E+00
 ETOT 12  -46.570391390494     -2.842E-14 1.714E-13 0.000E+00
 ETOT 13  -46.570391390494      2.132E-14 1.657E-14 0.000E+00
 ETOT 14  -46.570391390494     -2.132E-14 5.366E-15 0.000E+00
 ETOT 15  -46.570391390494      0.000E+00 3.905E-16 0.000E+00
 ETOT 16  -46.570391390494      2.132E-14 2.876E-16 0.000E+00
 ETOT 17  -46.570391390494     -7.105E-15 2.083E-17 0.000E+00
 ETOT 18  -46.570391390494      7.105E-15 1.553E-17 0.000E+00
 ETOT 19  -46.570391390494      1.421E-14 1.114E-18 0.000E+00
 ETOT 20  -46.570391390494     -1.421E-14 8.441E-19 0.000E+00
 ETOT 21  -46.570391390494      1.421E-14 5.970E-20 0.000E+00
 ETOT 22  -46.570391390494     -2.132E-14 4.611E-20 0.000E+00
 ETOT 23  -46.570391390494      0.000E+00 9.976E-21 0.000E+00

 At SCF step   23   max residual=  9.98E-21 < tolwfr=  1.00E-20 =>converged.

 ----iterations are completed or convergence reached----

 dfpt_looppert: DFPT cycle converged with prtwf=-1. Will skip output of the 1st-order WFK file.
 dfpt_looppert : ek2=    9.4429348801E+01
          f-sum rule ratio=    1.0560612285E+00
 prteigrs : about to open file /scratch/users/j/a/jabreu/flow_simple_4atoms/flow/w151/t1/tmpdata/tmp_1WF1_EIG
 Expectation of eigenvalue derivatives (hartree) for nkpt=   2  k points:
  (in case of degenerate eigenvalues, averaged derivative)
 kpt#   1, nband= 25, wtk=  0.50000, kpt=  0.0000  0.0000  0.0000 (reduced coord)
  -0.00000    0.00000    0.00000   -0.00000   -0.00000    0.00000    0.00000    0.00000
   0.00000    0.00000   -0.00000    0.00000    0.00000   -0.00000    0.00000    0.00000
  -0.00000   -0.00000   -0.00000    0.00000    0.00000    0.00000    0.00000   -0.00046
  -0.00000
 prteigrs : prtvol=0 or 1, do not print more k-points.

 Eight components of 2nd-order total energy (hartree) are
 1,2,3: 0th-order hamiltonian combined with 1st-order wavefunctions
     kin0=   5.02748477E+01 eigvalue=   1.40028655E-01  local=  -2.20173266E+01
 4,5,6: 1st-order hamiltonian combined with 1st and 0th-order wfs
     kin1=  -9.97231741E+01  Hartree=   0.00000000E+00     xc=   0.00000000E+00
 7,8,9: eventually, occupation + non-local contributions
    edocc=   1.97528853E+01     enl0=  -1.58004361E+00   enl1=   6.58239132E+00
 1-9 gives the relaxation energy (to be shifted if some occ is /=2.0)
   erelax=  -4.65703914E+01
  No Ewald or frozen-wf contrib.: the relaxation energy is the total one
 2DEtotal=   -0.4657039139E+02 Ha. Also 2DEtotal=   -0.126724479664E+04 eV
    (  non-var. 2DEtotal :   -4.6570391390E+01 Ha)

 CALCULATION OF EFFECTIVE MASSES
 NOTE : Additional infos (eff. mass eigenvalues, eigenvectors and, if degenerate, average mass) are available in stdout.

 COMMENTS:
 - At k-point ( 0.000, 0.000, 0.000), bands    15 through    16
   are DEGENERATE (effective mass tensor is therefore not defined).
   See Section IIIB Eqs. (67)-(70) and Appendix E of PRB 93 205147 (2016).
 - Angular average effective mass for Frohlich model is to be averaged over degenerate bands. See later.
 - Associated theta integrals calculated with ntheta=   1000 points.

 K-point ( 0.000, 0.000, 0.000) | band =    15
 Transport equivalent effective mass tensor:
             -0.7392756300             -0.1686403625             -1.0700344040
             -0.1686403625             -0.5616851159             -0.6458842216
             -1.0700344040             -0.6458842216             -4.5580419587
 Transport equivalent effective mass tensor eigenvalues:
             -4.9392233548             -0.4598916320             -0.4598877178
 Angular average effective mass 1/(<1/m>)=  -0.6270705372
 Angular average effective mass for Frohlich model (<m**0.5>)**2=  -0.7662808689
 Effective masses along directions: (cart. coord. / red. coord. -> eff. mass)
    1:   1.000000  0.000000  0.000000 /   0.906445  0.422324  0.000000 ->  -0.4628497879
    2:   0.000000  1.000000  0.000000 /   0.000000  1.000000  0.000000 ->  -0.4415146883
    3:   0.000000  0.000000  1.000000 /   0.549313  0.549313  0.629691 ->  -2.2873025794
    4:   0.577350  0.577350  0.577350 /   0.596817  0.671997  0.438440 ->  -1.0358816661
    5:   0.000000  0.707107  0.707107 /   0.468721  0.701144  0.537306 ->  -0.9278868746
    6:   0.707107  0.000000  0.707107 /   0.675299  0.545767  0.496095 ->  -1.1926689314
    7:   0.707107  0.707107  0.000000 /   0.595016  0.803714  0.000000 ->  -0.4809755787

 K-point ( 0.000, 0.000, 0.000) | band =    16
 Transport equivalent effective mass tensor:
             -2.1876858504             -0.1913498052             -1.2141473362
             -0.1913498052             -1.9861613587             -0.7328547747
             -1.2141473362             -0.7328547747             -6.5207547811
 Transport equivalent effective mass tensor eigenvalues:
             -6.9532692386             -1.8706693651             -1.8706633866
 Angular average effective mass 1/(<1/m>)=  -2.0169099798
 Angular average effective mass for Frohlich model (<m**0.5>)**2=  -2.1962983192
 Effective masses along directions: (cart. coord. / red. coord. -> eff. mass)
    1:   1.000000  0.000000  0.000000 /   0.906445  0.422324  0.000000 ->  -1.6336970305
    2:   0.000000  1.000000  0.000000 /   0.000000  1.000000  0.000000 ->  -1.6460474876
    3:   0.000000  0.000000  1.000000 /   0.549313  0.549313  0.629691 ->  -5.2827466009
    4:   0.577350  0.577350  0.577350 /   0.596817  0.671997  0.438440 ->  -2.3861566061
    5:   0.000000  0.707107  0.707107 /   0.468721  0.701144  0.537306 ->  -3.2386781682
    6:   0.707107  0.000000  0.707107 /   0.675299  0.545767  0.496095 ->  -3.8498821501
    7:   0.707107  0.707107  0.000000 /   0.595016  0.803714  0.000000 ->  -1.5416442016

 Angular average effective mass for Frohlich model, averaged over degenerate bands.
 Value of     (<<m**0.5>>)**2 =     1.389294E+00
 Absolute Value of <<m**0.5>> =     1.178683E+00

 K-point ( 0.500, 0.500, 0.000) | band =    17
 Effective mass tensor:
              0.9241884600              0.2153394194             -0.4255965336
              0.2153394194              0.6974119481             -0.2568917005
             -0.4255965336             -0.2568917005              1.2831776368
 Effective mass tensor eigenvalues:
              0.5674322478              0.6585385140              1.6788072831
 Angular average effective mass 1/(<1/m>)=   0.7738939780
 Angular average effective mass for Frohlich model (<m**0.5>)**2=   0.8183760046
 Effective masses along directions: (cart. coord. / red. coord. -> eff. mass)
    1:   1.000000  0.000000  0.000000 /   0.906445  0.422324  0.000000 ->   0.7568130672
    2:   0.000000  1.000000  0.000000 /   0.000000  1.000000  0.000000 ->   0.6243545764
    3:   0.000000  0.000000  1.000000 /   0.549313  0.549313  0.629691 ->   1.0487503751
    4:   0.577350  0.577350  0.577350 /   0.596817  0.671997  0.438440 ->   0.6551969673
    5:   0.000000  0.707107  0.707107 /   0.468721  0.701144  0.537306 ->   0.6622742672
    6:   0.707107  0.000000  0.707107 /   0.675299  0.545767  0.496095 ->   0.6568647549
    7:   0.707107  0.707107  0.000000 /   0.595016  0.803714  0.000000 ->   0.8366058317

 END OF EFFECTIVE MASSES SECTION

 ---- first-order wavefunction calculations are completed ----

 Total localisation tensor (bohr^2) in cartesian coordinates
  WARNING : still subject to testing - especially symmetries.
      direction              matrix element
   alpha     beta       real part   imaginary part
     1        1       1.3246551783    0.0000000000
     1        2       0.4486928948    0.0000000000
     1        3       2.8470022914    0.0000000000
     2        1       0.4486928948    0.0000000000
     2        2       0.8521276404    0.0000000000
     2        3       1.7184575306    0.0000000000
     3        1       2.8470022914    0.0000000000
     3        2       1.7184575306    0.0000000000
     3        3      10.9280745400    0.0000000000

 respfn : d/dk was computed, but no 2DTE, so no DDB output.

== END DATASET(S) ==============================================================

 -outvars: echo values of variables after computation  --------
            acell      1.0000000000E+00  1.0000000000E+00  1.0000000000E+00 Bohr
              amu      3.90983000E+01  4.49559100E+01  1.59994000E+01
             ecut      4.40000000E+01 Hartree
           etotal     -4.6570391390E+01
            fcart      0.0000000000E+00  0.0000000000E+00  0.0000000000E+00
                       0.0000000000E+00  0.0000000000E+00  0.0000000000E+00
                       0.0000000000E+00  0.0000000000E+00  0.0000000000E+00
                       0.0000000000E+00  0.0000000000E+00  0.0000000000E+00
-          fftalg         512
           irdden           1
           irdwfk           1
           istwfk        1    1
              ixc     -116133
              kpt      0.00000000E+00  0.00000000E+00  0.00000000E+00
                       5.00000000E-01  5.00000000E-01  1.11022302E-16
           kptopt           0
P           mkmem           2
P          mkqmem           2
P          mk1mem           2
            natom           4
            nband          25
           nbdbuf           4
            ngfft          72      72      72
             nkpt           2
            nstep         100
             nsym          12
           ntypat           3
              occ      2.000000  2.000000  2.000000  2.000000  2.000000  2.000000
                       2.000000  2.000000  2.000000  2.000000  2.000000  2.000000
                       2.000000  2.000000  2.000000  2.000000  0.000000  0.000000
                       0.000000  0.000000  0.000000  0.000000  0.000000  0.000000
                       0.000000
        optdriver           1
            prtwf          -1
            rfdir           1       1       1
           rfelfd           2
            rprim      5.8459650647E+00  0.0000000000E+00  1.0431589989E+01
                       2.7237102029E+00  5.1726888818E+00  1.0431589989E+01
                       0.0000000000E+00  0.0000000000E+00  1.1957983828E+01
          spgroup         166
           strten      0.0000000000E+00  0.0000000000E+00  0.0000000000E+00
                       0.0000000000E+00  0.0000000000E+00  0.0000000000E+00
           symrel      1  0  0   0  1  0   0  0  1      -1  0  0   0 -1  0   0  0 -1
                       0  1  0   1  0  0   0  0  1       0 -1  0  -1  0  0   0  0 -1
                       0  0  1   1  0  0   0  1  0       0  0 -1  -1  0  0   0 -1  0
                       1  0  0   0  0  1   0  1  0      -1  0  0   0  0 -1   0 -1  0
                       0  1  0   0  0  1   1  0  0       0 -1  0   0  0 -1  -1  0  0
                       0  0  1   0  1  0   1  0  0       0  0 -1   0 -1  0  -1  0  0
           tolwfr      1.00000000E-20
            typat      1  2  3  3
           useylm           1
              wtk        0.50000    0.50000
           xangst      0.0000000000E+00  0.0000000000E+00  0.0000000000E+00
                       2.2674384183E+00  1.3686345317E+00  8.6841059224E+00
                       3.5090876962E+00  2.1180988012E+00  1.3439522326E+01
                       1.0257891404E+00  6.1917026214E-01  3.9286895193E+00
            xcart      0.0000000000E+00  0.0000000000E+00  0.0000000000E+00
                       4.2848376338E+00  2.5863444409E+00  1.6410581902E+01
                       6.6312147221E+00  4.0026266567E+00  2.5397016552E+01
                       1.9384605455E+00  1.1700622251E+00  7.4241472526E+00
             xred      0.0000000000E+00  0.0000000000E+00  0.0000000000E+00
                       5.0000000000E-01  5.0000000000E-01  5.0000000000E-01
                       7.7380000000E-01  7.7380000000E-01  7.7380000000E-01
                       2.2620000000E-01  2.2620000000E-01  2.2620000000E-01
            znucl       19.00000   21.00000    8.00000

- Timing analysis has been suppressed with timopt=0

 Suggested references for the acknowledgment of ABINIT usage.

 Calculation completed.
.Delivered  14 WARNINGs and   9 COMMENTs to log file.