.Version 9.5.1 of ABINIT

 ABINIT is a project of the Universite Catholique de Louvain,
 Corning Inc. and other collaborators, see ~abinit/doc/developers/contributors.txt .
 acknowledgments of the ABINIT effort.

.Starting date : Tue  4 May 2021.
- ( at 21h48 )

- input  file    -> /scratch/users/j/a/jabreu/flow_simple_6atoms/flow/w256/t1/run.abi
- output file    -> /scratch/users/j/a/jabreu/flow_simple_6atoms/flow/w256/t1/run.abo
- root for input  files -> /scratch/users/j/a/jabreu/flow_simple_6atoms/flow/w256/t1/indata/in
- root for output files -> /scratch/users/j/a/jabreu/flow_simple_6atoms/flow/w256/t1/outdata/out

 Symmetries : space group P4/n m m (#129); Bravais tP (primitive tetrag.)
     intxc =       0      iscf =       7    lmnmax =      18     lnmax =       6
     mgfft =      72  mpssoang =       3    mqgrid =    3576     natom =       6
  nloc_mem =       1    nspden =       1   nspinor =       1    nsppol =       1
      nsym =      16    n1xccc =    2501    ntypat =       3    occopt =       1
   xclevel =       2
-    mband =          27        mffmem =           1         mkmem =           2
-   mkqmem =           2        mk1mem =           2           mpw =        9132
      nfft =      165888          nkpt =           2
  Rough estimation (10% accuracy) of disk space for files :

------------- Echo of variables that govern the present computation ------------
-
- outvars: echo of selected default values
-   iomode0 =  0 , fftalg0 =512 , wfoptalg0 =  0
-
- outvars: echo of global parameters not present in the input file
-  max_nthreads =    0
-
 -outvars: echo values of preprocessed input variables --------
            acell      1.0000000000E+00  1.0000000000E+00  1.0000000000E+00 Bohr
              amu      3.90983000E+01  6.94100000E+00  3.20660000E+01
             ecut      3.70000000E+01 Hartree
-          fftalg         512
           irdden           1
           irdwfk           1
           istwfk        1    1
              ixc     -116133
              kpt      1.89139212E-17  1.89139212E-17  5.00000000E-01
                       0.00000000E+00  0.00000000E+00  0.00000000E+00
           kptopt           0
P           mkmem           2
P          mkqmem           2
P          mk1mem           2
            natom           6
            nband          27
           nbdbuf           4
            ngfft          48      48      72
             nkpt           2
            nstep        1000
             nsym          16
           ntypat           3
              occ      2.000000  2.000000  2.000000  2.000000  2.000000  2.000000
                       2.000000  2.000000  2.000000  2.000000  2.000000  2.000000
                       2.000000  2.000000  2.000000  2.000000  2.000000  2.000000
                       0.000000  0.000000  0.000000  0.000000  0.000000  0.000000
                       0.000000  0.000000  0.000000
        optdriver           1
            prtwf          -1
            rfdir           1       1       1
           rfelfd           2
            rprim      8.0658592851E+00  0.0000000000E+00  0.0000000000E+00
                       0.0000000000E+00  8.0658592851E+00  0.0000000000E+00
                       0.0000000000E+00  0.0000000000E+00  1.3056294144E+01
          spgroup         129
           symrel      1  0  0   0  1  0   0  0  1      -1  0  0   0 -1  0   0  0 -1
                      -1  0  0   0  1  0   0  0 -1       1  0  0   0 -1  0   0  0  1
                      -1  0  0   0 -1  0   0  0  1       1  0  0   0  1  0   0  0 -1
                       1  0  0   0 -1  0   0  0 -1      -1  0  0   0  1  0   0  0  1
                       0  1  0   1  0  0   0  0  1       0 -1  0  -1  0  0   0  0 -1
                       0 -1  0   1  0  0   0  0 -1       0  1  0  -1  0  0   0  0  1
                       0 -1  0  -1  0  0   0  0  1       0  1  0   1  0  0   0  0 -1
                       0  1  0  -1  0  0   0  0 -1       0 -1  0   1  0  0   0  0  1
            tnons      0.0000000  0.0000000  0.0000000     0.5000000  0.5000000  0.0000000
                       0.5000000  0.5000000  0.0000000     0.0000000  0.0000000  0.0000000
                       0.0000000  0.0000000  0.0000000     0.5000000  0.5000000  0.0000000
                       0.5000000  0.5000000  0.0000000     0.0000000  0.0000000  0.0000000
                       0.5000000  0.5000000  0.0000000     0.0000000  0.0000000  0.0000000
                       0.0000000  0.0000000  0.0000000     0.5000000  0.5000000  0.0000000
                       0.5000000  0.5000000  0.0000000     0.0000000  0.0000000  0.0000000
                       0.0000000  0.0000000  0.0000000     0.5000000  0.5000000  0.0000000
           tolwfr      1.00000000E-20
            typat      1  1  2  2  3  3
           useylm           1
              wtk        0.50000    0.50000
           xangst      2.1341344507E+00  0.0000000000E+00  4.5591586619E+00
                       0.0000000000E+00  2.1341344507E+00  2.3499346279E+00
                       2.1341344507E+00  2.1341344507E+00  0.0000000000E+00
                       0.0000000000E+00  0.0000000000E+00  0.0000000000E+00
                       2.1341344507E+00  0.0000000000E+00  1.3035455401E+00
                       0.0000000000E+00  2.1341344507E+00  5.6055477497E+00
            xcart      4.0329296426E+00  0.0000000000E+00  8.6155612674E+00
                       0.0000000000E+00  4.0329296426E+00  4.4407328769E+00
                       4.0329296426E+00  4.0329296426E+00  0.0000000000E+00
                       0.0000000000E+00  0.0000000000E+00  0.0000000000E+00
                       4.0329296426E+00  0.0000000000E+00  2.4633440725E+00
                       0.0000000000E+00  4.0329296426E+00  1.0592950072E+01
             xred      5.0000000000E-01  0.0000000000E+00  6.5987800000E-01
                       0.0000000000E+00  5.0000000000E-01  3.4012200000E-01
                       5.0000000000E-01  5.0000000000E-01  0.0000000000E+00
                       0.0000000000E+00  0.0000000000E+00  0.0000000000E+00
                       5.0000000000E-01  0.0000000000E+00  1.8867100000E-01
                       0.0000000000E+00  5.0000000000E-01  8.1132900000E-01
            znucl       19.00000    3.00000   16.00000

 chkinp: Checking input parameters for consistency.

== DATASET  1 ==================================================================
-   mpi_nproc: 1, omp_nthreads: -1 (-1 if OMP is not activated)

--- !DatasetInfo
iteration_state: {dtset: 1, }
dimensions: {natom: 6, nkpt: 2, mband: 27, nsppol: 1, nspinor: 1, nspden: 1, mpw: 9132, }
cutoff_energies: {ecut:  37.0, pawecutdg:  -1.0, }
electrons: {nelect:   3.60000000E+01, charge:   0.00000000E+00, occopt:   1.00000000E+00, tsmear:   1.00000000E-02, }
meta: {optdriver: 1, rfelfd: 2, }
...

 Real(R)+Recip(G) space primitive vectors, cartesian coordinates (Bohr,Bohr^-1):
 R(1)=  8.0658593  0.0000000  0.0000000  G(1)=  0.1239794  0.0000000  0.0000000
 R(2)=  0.0000000  8.0658593  0.0000000  G(2)=  0.0000000  0.1239794  0.0000000
 R(3)=  0.0000000  0.0000000 13.0562941  G(3)=  0.0000000  0.0000000  0.0765914
 Unit cell volume ucvol=  8.4941751E+02 bohr^3
 Angles (23,13,12)=  9.00000000E+01  9.00000000E+01  9.00000000E+01 degrees

 getcut: wavevector=  0.0000  0.0000  0.0000  ngfft=  48  48  72
         ecut(hartree)=     37.000   => boxcut(ratio)=   2.01394

--- Pseudopotential description ------------------------------------------------
- pspini: atom type   1  psp file is /scratch/users/j/a/jabreu/pseudos/PBEsol/K.psp8
- pspatm: opening atomic psp file    /scratch/users/j/a/jabreu/pseudos/PBEsol/K.psp8
- K     ONCVPSP-3.3.0  r_core=   1.36296   1.46408   1.61068
- 19.00000   9.00000    180112                znucl, zion, pspdat
    8 -116133    2    4       400   0.00000   pspcod,pspxc,lmax,lloc,mmax,r2well
    3.99000000000000    5.00000000000000    0.00000000000000   rchrg,fchrg,qchrg
     nproj     2     2     2
     extension_switch     1
  pspatm : epsatm=    8.32487830
         --- l  ekb(1:nproj) -->
             0   10.921326    0.816676
             1    4.431000    0.560368
             2   -3.384038   -1.043186
 pspatm: atomic psp has been read  and splines computed

- pspini: atom type   2  psp file is /scratch/users/j/a/jabreu/pseudos/PBEsol/Li.psp8
- pspatm: opening atomic psp file    /scratch/users/j/a/jabreu/pseudos/PBEsol/Li.psp8
- Li    ONCVPSP-3.3.0  r_core=   1.40824   1.10935
-  3.00000   3.00000    180112                znucl, zion, pspdat
    8 -116133    1    4       400   0.00000   pspcod,pspxc,lmax,lloc,mmax,r2well
    3.99000000000000    0.00000000000000    0.00000000000000   rchrg,fchrg,qchrg
     nproj     2     2
     extension_switch     1
  pspatm : epsatm=    2.60859637
         --- l  ekb(1:nproj) -->
             0   -4.855856   -1.482423
             1   -2.171544   -0.427615
 pspatm: atomic psp has been read  and splines computed

- pspini: atom type   3  psp file is /scratch/users/j/a/jabreu/pseudos/PBEsol/S.psp8
- pspatm: opening atomic psp file    /scratch/users/j/a/jabreu/pseudos/PBEsol/S.psp8
- S     ONCVPSP-3.3.0  r_core=   1.45376   1.45376   1.61851
- 16.00000   6.00000    180112                znucl, zion, pspdat
    8 -116133    2    4       600   0.00000   pspcod,pspxc,lmax,lloc,mmax,r2well
    5.99000000000000    6.00000000000000    0.00000000000000   rchrg,fchrg,qchrg
     nproj     2     2     2
     extension_switch     1
  pspatm : epsatm=    8.71840985
         --- l  ekb(1:nproj) -->
             0    6.834532    0.579453
             1    3.282851    0.896984
             2   -3.496974   -0.974265
 pspatm: atomic psp has been read  and splines computed

   1.41493569E+03                                ecore*ucvol(ha*bohr**3)

-inwffil : will read wavefunctions from disk file /scratch/users/j/a/jabreu/flow_simple_6atoms/flow/w256/t1/indata/in_WFK

 ==>  initialize data related to q vector <==

 The list of irreducible perturbations for this q vector is:
    1)    idir= 1    ipert=   7
    2)    idir= 2    ipert=   7
    3)    idir= 3    ipert=   7

 Perturbation wavevector (in red.coord.)   0.000000  0.000000  0.000000
 Perturbation : derivative vs k along direction   1

 dfpt_looppert : COMMENT -
  In a d/dk calculation, iscf is set to -3 automatically.
 The set of symmetries contains only one element for this perturbation.
 symkpt : not enough symmetry to change the number of k points.

[...]

 Initialisation of the first-order wave-functions :
  ireadwf=   0

--- !BeginCycle
iteration_state: {dtset: 1, }
solver: {iscf: 7, nstep: 1000, nline: 4, wfoptalg: 0, }
tolerances: {tolwfr: 1.00E-20, }
...

     iter   2DEtotal(Ha)        deltaE(Ha) residm    vres2
-ETOT  1  -24.204857865969     -2.420E+01 2.594E-01 0.000E+00
 ETOT  2  -24.235949947724     -3.109E-02 2.742E-03 0.000E+00
 ETOT  3  -24.236187477904     -2.375E-04 6.185E-04 0.000E+00
 ETOT  4  -24.236191091866     -3.614E-06 2.759E-05 0.000E+00
 ETOT  5  -24.236191163144     -7.128E-08 5.461E-06 0.000E+00
 ETOT  6  -24.236191164703     -1.559E-09 1.731E-07 0.000E+00
 ETOT  7  -24.236191164740     -3.701E-11 4.762E-08 0.000E+00
[...]

 dfpt_looppert: DFPT cycle converged with prtwf=-1. Will skip output of the 1st-order WFK file.
 dfpt_looppert : ek2=    4.3690895967E+01
          f-sum rule ratio=    1.1817745643E+00
 prteigrs : about to open file /scratch/users/j/a/jabreu/flow_simple_6atoms/flow/w256/t1/tmpdata/tmp_1WF1_EIG
 Expectation of eigenvalue derivatives (hartree) for nkpt=   2  k points:
  (in case of degenerate eigenvalues, averaged derivative)
 kpt#   1, nband= 27, wtk=  0.50000, kpt=  0.0000  0.0000  0.5000 (reduced coord)
  -0.00000    0.00000   -0.00000    0.00000    0.00000   -0.00000   -0.00000   -0.00000
  -0.00000   -0.00000    0.00000   -0.00000    0.00000    0.00000    0.00000   -0.00000
   0.00000    0.00000   -0.00000   -0.00000   -0.00000   -0.00000   -0.00000   -0.00000
  -0.00000   -0.01688    0.00000
 prteigrs : prtvol=0 or 1, do not print more k-points.

 Eight components of 2nd-order total energy (hartree) are
 1,2,3: 0th-order hamiltonian combined with 1st-order wavefunctions
     kin0=   2.45255233E+01 eigvalue=   2.15802482E+00  local=  -1.34002299E+01
 4,5,6: 1st-order hamiltonian combined with 1st and 0th-order wfs
     kin1=  -5.16327895E+01  Hartree=   0.00000000E+00     xc=   0.00000000E+00
 7,8,9: eventually, occupation + non-local contributions
    edocc=   1.08873019E+01     enl0=   6.55710331E-02   enl1=   3.16040721E+00
 1-9 gives the relaxation energy (to be shifted if some occ is /=2.0)
   erelax=  -2.42361912E+01
  No Ewald or frozen-wf contrib.: the relaxation energy is the total one
 2DEtotal=   -0.2423619116E+02 Ha. Also 2DEtotal=   -0.659500301088E+03 eV
    (  non-var. 2DEtotal :   -2.4236191165E+01 Ha)

 Perturbation wavevector (in red.coord.)   0.000000  0.000000  0.000000
 Perturbation : derivative vs k along direction   2
 The set of symmetries contains only one element for this perturbation.
 symkpt : not enough symmetry to change the number of k points.

[...]

 Perturbation wavevector (in red.coord.)   0.000000  0.000000  0.000000
 Perturbation : derivative vs k along direction   3
 The set of symmetries contains only one element for this perturbation.
 symkpt : not enough symmetry to change the number of k points.

-inwffil : will read wavefunctions from disk file /scratch/users/j/a/jabreu/flow_simple_6atoms/flow/w256/t1/indata/in_WFK

 Initialisation of the first-order wave-functions :
  ireadwf=   0

--- !BeginCycle
iteration_state: {dtset: 1, }
solver: {iscf: 7, nstep: 1000, nline: 4, wfoptalg: 0, }
tolerances: {tolwfr: 1.00E-20, }
...

     iter   2DEtotal(Ha)        deltaE(Ha) residm    vres2
-ETOT  1  -7.9235968147449     -7.924E+00 5.750E-02 0.000E+00
 ETOT  2  -7.9352709118342     -1.167E-02 3.178E-03 0.000E+00
 ETOT  3  -7.9353497534855     -7.884E-05 2.198E-04 0.000E+00
 ETOT  4  -7.9353505518548     -7.984E-07 1.398E-05 0.000E+00
 ETOT  5  -7.9353505626727     -1.082E-08 1.603E-06 0.000E+00
 ETOT  6  -7.9353505628530     -1.802E-10 1.010E-07 0.000E+00
 ETOT  7  -7.9353505628567     -3.688E-12 1.128E-08 0.000E+00
 ETOT  8  -7.9353505628567     -9.326E-14 7.557E-10 0.000E+00
 ETOT  9  -7.9353505628567      1.243E-14 7.810E-11 0.000E+00
 ETOT 10  -7.9353505628567     -1.066E-14 9.154E-12 0.000E+00
 ETOT 11  -7.9353505628567      3.553E-15 8.419E-13 0.000E+00
 ETOT 12  -7.9353505628567      1.776E-15 2.028E-13 0.000E+00
 ETOT 13  -7.9353505628567      3.553E-15 2.042E-14 0.000E+00
 ETOT 14  -7.9353505628567      0.000E+00 5.245E-15 0.000E+00
 ETOT 15  -7.9353505628567      0.000E+00 5.445E-16 0.000E+00
 ETOT 16  -7.9353505628567      0.000E+00 1.422E-16 0.000E+00
 ETOT 17  -7.9353505628567      8.882E-16 1.485E-17 0.000E+00
 ETOT 18  -7.9353505628567     -8.882E-16 3.892E-18 0.000E+00
 ETOT 19  -7.9353505628567      0.000E+00 4.073E-19 0.000E+00
 ETOT 20  -7.9353505628567      0.000E+00 1.068E-19 0.000E+00
 ETOT 21  -7.9353505628567      0.000E+00 1.120E-20 0.000E+00
 ETOT 22  -7.9353505628567      0.000E+00 9.979E-21 0.000E+00

 At SCF step   22   max residual=  9.98E-21 < tolwfr=  1.00E-20 =>converged.

 ----iterations are completed or convergence reached----

 dfpt_looppert: DFPT cycle converged with prtwf=-1. Will skip output of the 1st-order WFK file.
 dfpt_looppert : ek2=    1.6674483170E+01
          f-sum rule ratio=    1.0168456509E+00
 prteigrs : about to open file /scratch/users/j/a/jabreu/flow_simple_6atoms/flow/w256/t1/tmpdata/tmp_1WF1_EIG
 Expectation of eigenvalue derivatives (hartree) for nkpt=   2  k points:
  (in case of degenerate eigenvalues, averaged derivative)
 kpt#   1, nband= 27, wtk=  0.50000, kpt=  0.0000  0.0000  0.5000 (reduced coord)
  -0.00000   -0.00000   -0.00000   -0.00000   -0.00000    0.00000   -0.00000   -0.00000
  -0.00000   -0.00000   -0.00000   -0.00000   -0.00000    0.00000    0.00000   -0.00000
   0.00000    0.00000    0.00000   -0.00000    0.00000   -0.00000    0.00000    0.00000
   0.00003   -0.00001    0.00000
 prteigrs : prtvol=0 or 1, do not print more k-points.

 Eight components of 2nd-order total energy (hartree) are
 1,2,3: 0th-order hamiltonian combined with 1st-order wavefunctions
     kin0=   9.62402757E+00 eigvalue=   9.23363831E-01  local=  -5.39003775E+00
 4,5,6: 1st-order hamiltonian combined with 1st and 0th-order wfs
     kin1=  -1.69553757E+01  Hartree=   0.00000000E+00     xc=   0.00000000E+00
 7,8,9: eventually, occupation + non-local contributions
    edocc=   2.56741090E+00     enl0=   2.10586016E-01   enl1=   1.08467457E+00
 1-9 gives the relaxation energy (to be shifted if some occ is /=2.0)
   erelax=  -7.93535056E+00
  No Ewald or frozen-wf contrib.: the relaxation energy is the total one
 2DEtotal=   -0.7935350563E+01 Ha. Also 2DEtotal=   -0.215931870230E+03 eV
    (  non-var. 2DEtotal :   -7.9353505628E+00 Ha)

 CALCULATION OF EFFECTIVE MASSES
 NOTE : Additional infos (eff. mass eigenvalues, eigenvectors and, if degenerate, average mass) are available in stdout.

 COMMENTS:
 - At k-point ( 0.000, 0.000, 0.500), bands    17 through    18
   are DEGENERATE (effective mass tensor is therefore not defined).
   See Section IIIB Eqs. (67)-(70) and Appendix E of PRB 93 205147 (2016).
 - Angular average effective mass for Frohlich model is to be averaged over degenerate bands. See later.
 - Associated theta integrals calculated with ntheta=   1000 points.

 K-point ( 0.000, 0.000, 0.500) | band =    17
 Transport equivalent effective mass tensor:
             -0.5281475554              0.0006958308             -0.0000274619
              0.0006958308             -0.5289651923              0.0000071393
             -0.0000274619              0.0000071393             -9.1558485878
 Transport equivalent effective mass tensor eigenvalues:
             -9.1558485878             -0.5293634135             -0.5277493341
 Angular average effective mass 1/(<1/m>)=  -0.7351843750
 Angular average effective mass for Frohlich model (<m**0.5>)**2=  -0.9464858473
 Effective masses along directions: (cart. coord. / red. coord. -> eff. mass)
    1:   1.000000  0.000000  0.000000 /   1.000000  0.000000  0.000000 ->  -0.4507578939
    2:   0.000000  1.000000  0.000000 /   0.000000  1.000000  0.000000 ->  -0.4507578920
    3:   0.000000  0.000000  1.000000 /   0.000000  0.000000  1.000000 ->  -8.4475847741
    4:   0.577350  0.577350  0.577350 /   0.465231  0.465231  0.753074 ->  -0.8583290151
    5:   0.000000  0.707107  0.707107 /   0.000000  0.525572  0.850749 ->  -0.8563442900
    6:   0.707107  0.000000  0.707107 /   0.525572  0.000000  0.850749 ->  -0.8559202764
    7:   0.707107  0.707107  0.000000 /   0.707107  0.707107  0.000000 ->  -0.5922340736

 K-point ( 0.000, 0.000, 0.500) | band =    18
 Transport equivalent effective mass tensor:
             -2.1897280378              0.0008836340              0.0000400677
              0.0008836340             -2.1769836864              0.0001269483
              0.0000400677              0.0001269483            -14.9098318547
 Transport equivalent effective mass tensor eigenvalues:
            -14.9098318561             -2.1897890131             -2.1769227098
 Angular average effective mass 1/(<1/m>)=  -2.0955060474
 Angular average effective mass for Frohlich model (<m**0.5>)**2=  -2.4870218252
 Effective masses along directions: (cart. coord. / red. coord. -> eff. mass)
    1:   1.000000  0.000000  0.000000 /   1.000000  0.000000  0.000000 ->  -2.3808234444
    2:   0.000000  1.000000  0.000000 /   0.000000  1.000000  0.000000 ->  -2.3808234329
    3:   0.000000  0.000000  1.000000 /   0.000000  0.000000  1.000000 ->  -8.5579850986
    4:   0.577350  0.577350  0.577350 /   0.465231  0.465231  0.753074 ->  -1.4872855412
    5:   0.000000  0.707107  0.707107 /   0.000000  0.525572  0.850749 ->  -3.7157634953
    6:   0.707107  0.000000  0.707107 /   0.525572  0.000000  0.850749 ->  -3.7239448352
    7:   0.707107  0.707107  0.000000 /   0.707107  0.707107  0.000000 ->  -1.0526459677

 Angular average effective mass for Frohlich model, averaged over degenerate bands.
 Value of     (<<m**0.5>>)**2 =     1.625503E+00
 Absolute Value of <<m**0.5>> =     1.274952E+00

 K-point ( 0.000, 0.000, 0.000) | band =    19
 Effective mass tensor:
              0.3627345167              0.0000000000              0.0000000004
              0.0000000000              0.3627345167              0.0000000001
              0.0000000004              0.0000000001              0.2958372564
 Effective mass tensor eigenvalues:
              0.2958372564              0.3627345166              0.3627345167
 Angular average effective mass 1/(<1/m>)=   0.3373094163
 Angular average effective mass for Frohlich model (<m**0.5>)**2=   0.3382769386
 Effective masses along directions: (cart. coord. / red. coord. -> eff. mass)
    1:   1.000000  0.000000  0.000000 /   1.000000  0.000000  0.000000 ->   0.3627345167
    2:   0.000000  1.000000  0.000000 /   0.000000  1.000000  0.000000 ->   0.3627345167
    3:   0.000000  0.000000  1.000000 /   0.000000  0.000000  1.000000 ->   0.2958372564
    4:   0.577350  0.577350  0.577350 /   0.465231  0.465231  0.753074 ->   0.3373094167
    5:   0.000000  0.707107  0.707107 /   0.000000  0.525572  0.850749 ->   0.3258881982
    6:   0.707107  0.000000  0.707107 /   0.525572  0.000000  0.850749 ->   0.3258881985
    7:   0.707107  0.707107  0.000000 /   0.707107  0.707107  0.000000 ->   0.3627345167

 END OF EFFECTIVE MASSES SECTION

 ---- first-order wavefunction calculations are completed ----

 Total localisation tensor (bohr^2) in cartesian coordinates
  WARNING : still subject to testing - especially symmetries.
      direction              matrix element
   alpha     beta       real part   imaginary part
     1        1       1.4665608895    0.0000000000
     1        2       0.0000000000    0.0000000000
     1        3       0.0000000000    0.0000000000
     2        1       0.0000000000    0.0000000000
     2        2       1.4664980458    0.0000000000
     2        3       0.0000000000    0.0000000000
     3        1       0.0000000000    0.0000000000
     3        2       0.0000000000    0.0000000000
     3        3       1.0322665155    0.0000000000

 respfn : d/dk was computed, but no 2DTE, so no DDB output.

== END DATASET(S) ==============================================================

 -outvars: echo values of variables after computation  --------
            acell      1.0000000000E+00  1.0000000000E+00  1.0000000000E+00 Bohr
              amu      3.90983000E+01  6.94100000E+00  3.20660000E+01
             ecut      3.70000000E+01 Hartree
           etotal     -7.9353505629E+00
            fcart      0.0000000000E+00  0.0000000000E+00  0.0000000000E+00
                       0.0000000000E+00  0.0000000000E+00  0.0000000000E+00
                       0.0000000000E+00  0.0000000000E+00  0.0000000000E+00
                       0.0000000000E+00  0.0000000000E+00  0.0000000000E+00
                       0.0000000000E+00  0.0000000000E+00  0.0000000000E+00
                       0.0000000000E+00  0.0000000000E+00  0.0000000000E+00
-          fftalg         512
           irdden           1
           irdwfk           1
           istwfk        1    1
              ixc     -116133
              kpt      1.89139212E-17  1.89139212E-17  5.00000000E-01
                       0.00000000E+00  0.00000000E+00  0.00000000E+00
           kptopt           0
P           mkmem           2
P          mkqmem           2
P          mk1mem           2
            natom           6
            nband          27
           nbdbuf           4
            ngfft          48      48      72
             nkpt           2
            nstep        1000
             nsym          16
           ntypat           3
              occ      2.000000  2.000000  2.000000  2.000000  2.000000  2.000000
                       2.000000  2.000000  2.000000  2.000000  2.000000  2.000000
                       2.000000  2.000000  2.000000  2.000000  2.000000  2.000000
                       0.000000  0.000000  0.000000  0.000000  0.000000  0.000000
                       0.000000  0.000000  0.000000
        optdriver           1
            prtwf          -1
            rfdir           1       1       1
           rfelfd           2
            rprim      8.0658592851E+00  0.0000000000E+00  0.0000000000E+00
                       0.0000000000E+00  8.0658592851E+00  0.0000000000E+00
                       0.0000000000E+00  0.0000000000E+00  1.3056294144E+01
          spgroup         129
           strten      0.0000000000E+00  0.0000000000E+00  0.0000000000E+00
                       0.0000000000E+00  0.0000000000E+00  0.0000000000E+00
           symrel      1  0  0   0  1  0   0  0  1      -1  0  0   0 -1  0   0  0 -1
                      -1  0  0   0  1  0   0  0 -1       1  0  0   0 -1  0   0  0  1
                      -1  0  0   0 -1  0   0  0  1       1  0  0   0  1  0   0  0 -1
                       1  0  0   0 -1  0   0  0 -1      -1  0  0   0  1  0   0  0  1
                       0  1  0   1  0  0   0  0  1       0 -1  0  -1  0  0   0  0 -1
                       0 -1  0   1  0  0   0  0 -1       0  1  0  -1  0  0   0  0  1
                       0 -1  0  -1  0  0   0  0  1       0  1  0   1  0  0   0  0 -1
                       0  1  0  -1  0  0   0  0 -1       0 -1  0   1  0  0   0  0  1
            tnons      0.0000000  0.0000000  0.0000000     0.5000000  0.5000000  0.0000000
                       0.5000000  0.5000000  0.0000000     0.0000000  0.0000000  0.0000000
                       0.0000000  0.0000000  0.0000000     0.5000000  0.5000000  0.0000000
                       0.5000000  0.5000000  0.0000000     0.0000000  0.0000000  0.0000000
                       0.5000000  0.5000000  0.0000000     0.0000000  0.0000000  0.0000000
                       0.0000000  0.0000000  0.0000000     0.5000000  0.5000000  0.0000000
                       0.5000000  0.5000000  0.0000000     0.0000000  0.0000000  0.0000000
                       0.0000000  0.0000000  0.0000000     0.5000000  0.5000000  0.0000000
           tolwfr      1.00000000E-20
            typat      1  1  2  2  3  3
           useylm           1
              wtk        0.50000    0.50000
           xangst      2.1341344507E+00  0.0000000000E+00  4.5591586619E+00
                       0.0000000000E+00  2.1341344507E+00  2.3499346279E+00
                       2.1341344507E+00  2.1341344507E+00  0.0000000000E+00
                       0.0000000000E+00  0.0000000000E+00  0.0000000000E+00
                       2.1341344507E+00  0.0000000000E+00  1.3035455401E+00
                       0.0000000000E+00  2.1341344507E+00  5.6055477497E+00
            xcart      4.0329296426E+00  0.0000000000E+00  8.6155612674E+00
                       0.0000000000E+00  4.0329296426E+00  4.4407328769E+00
                       4.0329296426E+00  4.0329296426E+00  0.0000000000E+00
                       0.0000000000E+00  0.0000000000E+00  0.0000000000E+00
                       4.0329296426E+00  0.0000000000E+00  2.4633440725E+00
                       0.0000000000E+00  4.0329296426E+00  1.0592950072E+01
             xred      5.0000000000E-01  0.0000000000E+00  6.5987800000E-01
                       0.0000000000E+00  5.0000000000E-01  3.4012200000E-01
                       5.0000000000E-01  5.0000000000E-01  0.0000000000E+00
                       0.0000000000E+00  0.0000000000E+00  0.0000000000E+00
                       5.0000000000E-01  0.0000000000E+00  1.8867100000E-01
                       0.0000000000E+00  5.0000000000E-01  8.1132900000E-01
            znucl       19.00000    3.00000   16.00000

- Timing analysis has been suppressed with timopt=0

 Suggested references for the acknowledgment of ABINIT usage.

 Calculation completed.
.Delivered  14 WARNINGs and   9 COMMENTs to log file.