.Version 9.5.2 of ABINIT

 ABINIT is a project of the Universite Catholique de Louvain,
 Corning Inc. and other collaborators, see ~abinit/doc/developers/contributors.txt .
 acknowledgments of the ABINIT effort.

.Starting date : Mon 24 May 2021.
- ( at 11h21 )

- input  file    -> /scratch/users/j/a/jabreu/flow_simple_10atoms/flow/w319/t1/run.abi
- output file    -> /scratch/users/j/a/jabreu/flow_simple_10atoms/flow/w319/t1/run.abo
- root for input  files -> /scratch/users/j/a/jabreu/flow_simple_10atoms/flow/w319/t1/indata/in
- root for output files -> /scratch/users/j/a/jabreu/flow_simple_10atoms/flow/w319/t1/outdata/out

 Symmetries : space group R-3 (#148); Bravais hR (rhombohedral)
     intxc =       0      iscf =       7    lmnmax =      18     lnmax =       6
     mgfft =      72  mpssoang =       3    mqgrid =    3001     natom =      10
  nloc_mem =       1    nspden =       1   nspinor =       1    nsppol =       1
      nsym =       6    n1xccc =    2501    ntypat =       4    occopt =       1
   xclevel =       2
-    mband =          42        mffmem =           1         mkmem =           2
-   mkqmem =           2        mk1mem =           2           mpw =       11210
      nfft =      373248          nkpt =           2
  Rough estimation (10% accuracy) of disk space for files :

------------- Echo of variables that govern the present computation ------------
-
- outvars: echo of selected default values
-   iomode0 =  0 , fftalg0 =512 , wfoptalg0 =  0
-
- outvars: echo of global parameters not present in the input file
-  max_nthreads =    0
-
 -outvars: echo values of preprocessed input variables --------
            acell      1.0000000000E+00  1.0000000000E+00  1.0000000000E+00 Bohr
              amu      8.76200000E+01  1.18710000E+02  1.08110000E+01
                       1.59994000E+01
             ecut      4.40000000E+01 Hartree
-          fftalg         512
           irdden           1
           irdwfk           1
           istwfk        1    1
              ixc     -116133
              kpt      5.00000000E-01  0.00000000E+00  0.00000000E+00
                       0.00000000E+00  0.00000000E+00  0.00000000E+00
           kptopt           0
P           mkmem           2
P          mkqmem           2
P          mk1mem           2
            natom          10
            nband          42
           nbdbuf           4
            ngfft          72      72      72
             nkpt           2
            nstep        2000
             nsym           6
           ntypat           4
              occ      2.000000  2.000000  2.000000  2.000000  2.000000  2.000000
                       2.000000  2.000000  2.000000  2.000000  2.000000  2.000000
                       2.000000  2.000000  2.000000  2.000000  2.000000  2.000000
                       2.000000  2.000000  2.000000  2.000000  2.000000  2.000000
                       2.000000  2.000000  2.000000  2.000000  2.000000  2.000000
                       2.000000  2.000000  2.000000  0.000000  0.000000  0.000000
                       0.000000  0.000000  0.000000  0.000000  0.000000  0.000000
        optdriver           1
            prtwf          -1
            rfdir           1       1       1
           rfelfd           2
            rprim      8.5988438460E+00  0.0000000000E+00  8.2160294161E+00
                       3.5132666623E+00  7.8483802690E+00  8.2160294161E+00
                       0.0000000000E+00  0.0000000000E+00  1.1892991838E+01
          spgroup         148
           symrel      1  0  0   0  1  0   0  0  1      -1  0  0   0 -1  0   0  0 -1
                       0  0  1   1  0  0   0  1  0       0  0 -1  -1  0  0   0 -1  0
                       0  1  0   0  0  1   1  0  0       0 -1  0   0  0 -1  -1  0  0
           tolwfr      1.00000000E-20
            typat      1  2  3  3  4  4  4  4  4  4
           useylm           1
              wtk        0.50000    0.50000
           xangst      0.0000000000E+00  0.0000000000E+00  0.0000000000E+00
                       3.2047264145E+00  2.0765919814E+00  7.4944856234E+00
                       4.9020392559E+00  3.1764132393E+00  1.1463775055E+01
                       1.5074135730E+00  9.7677072345E-01  3.5251961916E+00
                       1.6029929601E+00  2.9934281070E+00  6.5632191820E+00
                       2.4054023845E+00  2.4005403304E-01  6.9830120810E+00
                       2.1909116720E+00  2.0557928361E+00  9.2959136093E+00
                       4.8064598688E+00  1.1597558557E+00  8.4257520647E+00
                       4.0040504444E+00  3.9131299297E+00  8.0059591657E+00
                       4.2185411569E+00  2.0973911266E+00  5.6930576374E+00
            xcart      0.0000000000E+00  0.0000000000E+00  0.0000000000E+00
                       6.0560552541E+00  3.9241901345E+00  1.4162525335E+01
                       9.2635116863E+00  6.0025511071E+00  2.1663395303E+01
                       2.8485988220E+00  1.8458291619E+00  6.6616553669E+00
                       3.0292176875E+00  5.6567593208E+00  1.2402686804E+01
                       4.5455517461E+00  4.5363637955E-01  1.3195980416E+01
                       4.1402230415E+00  3.8848854461E+00  1.7566730877E+01
                       9.0828928208E+00  2.1916209482E+00  1.5922363866E+01
                       7.5665587622E+00  7.3947438895E+00  1.5129070254E+01
                       7.9718874668E+00  3.9634948229E+00  1.0758319793E+01
             xred      0.0000000000E+00  0.0000000000E+00  0.0000000000E+00
                       5.0000000000E-01  5.0000000000E-01  5.0000000000E-01
                       7.6481400000E-01  7.6481400000E-01  7.6481400000E-01
                       2.3518600000E-01  2.3518600000E-01  2.3518600000E-01
                       5.7800000000E-02  7.2075500000E-01  5.0500800000E-01
                       5.0500800000E-01  5.7800000000E-02  7.2075500000E-01
                       2.7924500000E-01  4.9499200000E-01  9.4220000000E-01
                       9.4220000000E-01  2.7924500000E-01  4.9499200000E-01
                       4.9499200000E-01  9.4220000000E-01  2.7924500000E-01
                       7.2075500000E-01  5.0500800000E-01  5.7800000000E-02
            znucl       38.00000   50.00000    5.00000    8.00000

 chkinp: Checking input parameters for consistency.

== DATASET  1 ==================================================================
-   mpi_nproc: 1, omp_nthreads: -1 (-1 if OMP is not activated)

--- !DatasetInfo
iteration_state: {dtset: 1, }
dimensions: {natom: 10, nkpt: 2, mband: 42, nsppol: 1, nspinor: 1, nspden: 1, mpw: 11210, }
cutoff_energies: {ecut:  44.0, pawecutdg:  -1.0, }
electrons: {nelect:   6.60000000E+01, charge:   0.00000000E+00, occopt:   1.00000000E+00, tsmear:   1.00000000E-02, }
meta: {optdriver: 1, rfelfd: 2, }
...

 Real(R)+Recip(G) space primitive vectors, cartesian coordinates (Bohr,Bohr^-1):
 R(1)=  8.5988438  0.0000000  8.2160294  G(1)=  0.1162947 -0.0520584  0.0000000
 R(2)=  3.5132667  7.8483803  8.2160294  G(2)=  0.0000000  0.1274148  0.0000000
 R(3)=  0.0000000  0.0000000 11.8929918  G(3)= -0.0803398 -0.0520584  0.0840831
 Unit cell volume ucvol=  8.0262230E+02 bohr^3
 Angles (23,13,12)=  4.63041944E+01  4.63041944E+01  4.63041944E+01 degrees

 getcut: wavevector=  0.0000  0.0000  0.0000  ngfft=  72  72  72
         ecut(hartree)=     44.000   => boxcut(ratio)=   2.02748

--- Pseudopotential description ------------------------------------------------
- pspini: atom type   1  psp file is /scratch/users/j/a/jabreu/pseudos/PBEsol/Sr.psp8
- pspatm: opening atomic psp file    /scratch/users/j/a/jabreu/pseudos/PBEsol/Sr.psp8
- Sr    ONCVPSP-3.3.0  r_core=   1.66721   1.31335   1.51547
- 38.00000  10.00000    180112                znucl, zion, pspdat
    8 -116133    2    4       600   0.00000   pspcod,pspxc,lmax,lloc,mmax,r2well
    5.99000000000000    6.00000000000000    0.00000000000000   rchrg,fchrg,qchrg
     nproj     2     2     2
     extension_switch     1
  pspatm : epsatm=   12.46450977
         --- l  ekb(1:nproj) -->
             0   10.029206    1.044171
             1    7.472414    1.670829
             2    4.142950    0.968140
 pspatm: atomic psp has been read  and splines computed

- pspini: atom type   2  psp file is /scratch/users/j/a/jabreu/pseudos/PBEsol/Sn.psp8
- pspatm: opening atomic psp file    /scratch/users/j/a/jabreu/pseudos/PBEsol/Sn.psp8
- Sn    ONCVPSP-3.3.0  r_core=   2.27326   2.62311   1.85601
- 50.00000  14.00000    180112                znucl, zion, pspdat
    8 -116133    2    4       600   0.00000   pspcod,pspxc,lmax,lloc,mmax,r2well
    5.99000000000000    6.50000000000000    0.00000000000000   rchrg,fchrg,qchrg
     nproj     2     2     2
     extension_switch     1
  pspatm : epsatm=   32.44586081
         --- l  ekb(1:nproj) -->
             0    5.587869    0.749373
             1    4.197111    0.728791
             2   -5.271877   -1.523486
 pspatm: atomic psp has been read  and splines computed

[...]

- pspini: atom type   4  psp file is /scratch/users/j/a/jabreu/pseudos/PBEsol/O.psp8
- pspatm: opening atomic psp file    /scratch/users/j/a/jabreu/pseudos/PBEsol/O.psp8
- O     ONCVPSP-3.3.0  r_core=   1.35509   1.45563   1.26150
-  8.00000   6.00000    180112                znucl, zion, pspdat
    8 -116133    2    4       600   0.00000   pspcod,pspxc,lmax,lloc,mmax,r2well
    5.99000000000000    4.00000000000000    0.00000000000000   rchrg,fchrg,qchrg
     nproj     2     2     1
     extension_switch     1
  pspatm : epsatm=    6.22910522
         --- l  ekb(1:nproj) -->
             0    6.050032    0.820363
             1   -4.739617   -1.153841
             2   -1.335834
 pspatm: atomic psp has been read  and splines computed

   5.85341415E+03                                ecore*ucvol(ha*bohr**3)

 ==>  initialize data related to q vector <==

 The list of irreducible perturbations for this q vector is:
    1)    idir= 1    ipert=  11
    2)    idir= 2    ipert=  11
    3)    idir= 3    ipert=  11

 Perturbation wavevector (in red.coord.)   0.000000  0.000000  0.000000
 Perturbation : derivative vs k along direction   1

 dfpt_looppert : COMMENT -
  In a d/dk calculation, iscf is set to -3 automatically.
 The set of symmetries contains only one element for this perturbation.
 symkpt : not enough symmetry to change the number of k points.

 Initialisation of the first-order wave-functions :
  ireadwf=   0

--- !BeginCycle
iteration_state: {dtset: 1, }
solver: {iscf: 7, nstep: 2000, nline: 4, wfoptalg: 0, }
tolerances: {tolwfr: 1.00E-20, }
...

     iter   2DEtotal(Ha)        deltaE(Ha) residm    vres2
-ETOT  1  -55.353711196212     -5.535E+01 9.700E-02 0.000E+00
 ETOT  2  -55.428435278741     -7.472E-02 1.319E-02 0.000E+00
 ETOT  3  -55.428857583911     -4.223E-04 7.392E-04 0.000E+00
 ETOT  4  -55.428862044968     -4.461E-06 1.931E-04 0.000E+00
 ETOT  5  -55.428862111822     -6.685E-08 1.265E-05 0.000E+00
 ETOT  6  -55.428862113051     -1.229E-09 3.428E-06 0.000E+00
 ETOT  7  -55.428862113077     -2.540E-11 2.354E-07 0.000E+00
 ETOT  8  -55.428862113077     -6.892E-13 6.454E-08 0.000E+00
 ETOT  9  -55.428862113077      2.132E-14 4.537E-09 0.000E+00
 ETOT 10  -55.428862113078     -4.974E-14 1.253E-09 0.000E+00
 ETOT 11  -55.428862113077      2.842E-14 8.910E-11 0.000E+00
 ETOT 12  -55.428862113078     -2.842E-14 2.471E-11 0.000E+00
 ETOT 13  -55.428862113077      3.553E-14 1.765E-12 0.000E+00
 ETOT 14  -55.428862113077     -7.105E-15 4.921E-13 0.000E+00
 ETOT 15  -55.428862113077      2.842E-14 3.441E-14 0.000E+00
 ETOT 16  -55.428862113077      0.000E+00 1.016E-14 0.000E+00
 ETOT 17  -55.428862113077      1.421E-14 7.193E-16 0.000E+00
 ETOT 18  -55.428862113077     -1.421E-14 2.232E-16 0.000E+00
 ETOT 19  -55.428862113077      1.421E-14 1.703E-17 0.000E+00
 ETOT 20  -55.428862113077      0.000E+00 4.814E-18 0.000E+00
 ETOT 21  -55.428862113077     -1.421E-14 3.691E-19 0.000E+00
 ETOT 22  -55.428862113077      7.105E-15 1.042E-19 0.000E+00
 ETOT 23  -55.428862113077     -2.132E-14 9.935E-21 0.000E+00

 At SCF step   23   max residual=  9.94E-21 < tolwfr=  1.00E-20 =>converged.

 ----iterations are completed or convergence reached----

 dfpt_looppert: DFPT cycle converged with prtwf=-1. Will skip output of the 1st-order WFK file.
 dfpt_looppert : ek2=    8.4600629265E+01
          f-sum rule ratio=    1.0145869896E+00
 prteigrs : about to open file /scratch/users/j/a/jabreu/flow_simple_10atoms/flow/w319/t1/tmpdata/tmp_1WF1_EIG
 Expectation of eigenvalue derivatives (hartree) for nkpt=   2  k points:
  (in case of degenerate eigenvalues, averaged derivative)
 kpt#   1, nband= 42, wtk=  0.50000, kpt=  0.5000  0.0000  0.0000 (reduced coord)
   0.00000    0.00000   -0.00000   -0.00000    0.00000    0.00000   -0.00000    0.00000
   0.00000    0.00000    0.00000   -0.00000    0.00000    0.00000    0.00000   -0.00000
   0.00000    0.00000   -0.00000   -0.00000   -0.00000   -0.00000   -0.00000   -0.00000
  -0.00000   -0.00000   -0.00000   -0.00000    0.00000   -0.00000   -0.00000    0.00000
   0.00000   -0.00000    0.00000    0.00000   -0.00000    0.00000    0.00000   -0.00000
   0.00000   -0.00034
 prteigrs : prtvol=0 or 1, do not print more k-points.

 Eight components of 2nd-order total energy (hartree) are
 1,2,3: 0th-order hamiltonian combined with 1st-order wavefunctions
     kin0=   7.70607091E+01 eigvalue=   3.57544647E+00  local=  -3.57287255E+01
 4,5,6: 1st-order hamiltonian combined with 1st and 0th-order wfs
     kin1=  -8.58346978E+01  Hartree=   0.00000000E+00     xc=   0.00000000E+00
 7,8,9: eventually, occupation + non-local contributions
    edocc=   9.36360863E+00     enl0=   1.15782342E+00   enl1=  -2.50230265E+01
 1-9 gives the relaxation energy (to be shifted if some occ is /=2.0)
   erelax=  -5.54288621E+01
  No Ewald or frozen-wf contrib.: the relaxation energy is the total one
 2DEtotal=   -0.5542886211E+02 Ha. Also 2DEtotal=   -0.150829604388E+04 eV
    (  non-var. 2DEtotal :   -5.5428862113E+01 Ha)

 Perturbation wavevector (in red.coord.)   0.000000  0.000000  0.000000
 Perturbation : derivative vs k along direction   2
 The set of symmetries contains only one element for this perturbation.
 symkpt : not enough symmetry to change the number of k points.

[...]

 Perturbation wavevector (in red.coord.)   0.000000  0.000000  0.000000
 Perturbation : derivative vs k along direction   3
 The set of symmetries contains only one element for this perturbation.
 symkpt : not enough symmetry to change the number of k points.

 Initialisation of the first-order wave-functions :
  ireadwf=   0

--- !BeginCycle
iteration_state: {dtset: 1, }
solver: {iscf: 7, nstep: 2000, nline: 4, wfoptalg: 0, }
tolerances: {tolwfr: 1.00E-20, }
...

     iter   2DEtotal(Ha)        deltaE(Ha) residm    vres2
-ETOT  1  -55.788305611882     -5.579E+01 1.086E-01 0.000E+00
 ETOT  2  -55.862992419644     -7.469E-02 5.878E-03 0.000E+00
 ETOT  3  -55.863415107874     -4.227E-04 1.899E-04 0.000E+00
 ETOT  4  -55.863419736938     -4.629E-06 3.788E-05 0.000E+00
 ETOT  5  -55.863419809128     -7.219E-08 1.951E-06 0.000E+00
 ETOT  6  -55.863419810480     -1.353E-09 4.636E-07 0.000E+00
 ETOT  7  -55.863419810508     -2.780E-11 2.774E-08 0.000E+00
 ETOT  8  -55.863419810509     -5.826E-13 7.676E-09 0.000E+00
 ETOT  9  -55.863419810509     -3.553E-14 5.085E-10 0.000E+00
 ETOT 10  -55.863419810509      7.105E-15 1.545E-10 0.000E+00
 ETOT 11  -55.863419810509     -7.105E-15 1.065E-11 0.000E+00
 ETOT 12  -55.863419810509      7.105E-15 3.376E-12 0.000E+00
 ETOT 13  -55.863419810509      0.000E+00 2.348E-13 0.000E+00
 ETOT 14  -55.863419810509      1.421E-14 7.580E-14 0.000E+00
 ETOT 15  -55.863419810509      0.000E+00 5.271E-15 0.000E+00
 ETOT 16  -55.863419810509     -1.421E-14 1.718E-15 0.000E+00
 ETOT 17  -55.863419810509      0.000E+00 1.192E-16 0.000E+00
 ETOT 18  -55.863419810509      0.000E+00 3.910E-17 0.000E+00
 ETOT 19  -55.863419810509      0.000E+00 2.709E-18 0.000E+00
 ETOT 20  -55.863419810509      1.421E-14 8.924E-19 0.000E+00
 ETOT 21  -55.863419810509      0.000E+00 6.170E-20 0.000E+00
 ETOT 22  -55.863419810509      0.000E+00 2.041E-20 0.000E+00
 ETOT 23  -55.863419810509     -1.421E-14 9.935E-21 0.000E+00

 At SCF step   23   max residual=  9.94E-21 < tolwfr=  1.00E-20 =>converged.

 ----iterations are completed or convergence reached----

 dfpt_looppert: DFPT cycle converged with prtwf=-1. Will skip output of the 1st-order WFK file.
 dfpt_looppert : ek2=    8.4600629265E+01
          f-sum rule ratio=    1.0285504407E+00
 prteigrs : about to open file /scratch/users/j/a/jabreu/flow_simple_10atoms/flow/w319/t1/tmpdata/tmp_1WF1_EIG
 Expectation of eigenvalue derivatives (hartree) for nkpt=   2  k points:
  (in case of degenerate eigenvalues, averaged derivative)
 kpt#   1, nband= 42, wtk=  0.50000, kpt=  0.5000  0.0000  0.0000 (reduced coord)
  -0.00000   -0.00000   -0.00000    0.00000   -0.00000    0.00000    0.00000   -0.00000
  -0.00000    0.00000   -0.00000   -0.00000   -0.00000    0.00000    0.00000    0.00000
   0.00000   -0.00000    0.00000   -0.00000   -0.00000    0.00000    0.00000   -0.00000
   0.00000   -0.00000   -0.00000    0.00000    0.00000    0.00000    0.00000    0.00000
   0.00000    0.00000    0.00000   -0.00000    0.00000    0.00000   -0.00000    0.00000
   0.00000    0.00032
 prteigrs : prtvol=0 or 1, do not print more k-points.

 Eight components of 2nd-order total energy (hartree) are
 1,2,3: 0th-order hamiltonian combined with 1st-order wavefunctions
     kin0=   7.61378902E+01 eigvalue=   3.56797172E+00  local=  -3.50550752E+01
 4,5,6: 1st-order hamiltonian combined with 1st and 0th-order wfs
     kin1=  -8.70160145E+01  Hartree=   0.00000000E+00     xc=   0.00000000E+00
 7,8,9: eventually, occupation + non-local contributions
    edocc=   1.00769287E+01     enl0=   1.13570437E+00   enl1=  -2.47108251E+01
 1-9 gives the relaxation energy (to be shifted if some occ is /=2.0)
   erelax=  -5.58634198E+01
  No Ewald or frozen-wf contrib.: the relaxation energy is the total one
 2DEtotal=   -0.5586341981E+02 Ha. Also 2DEtotal=   -0.152012096020E+04 eV
    (  non-var. 2DEtotal :   -5.5863419810E+01 Ha)

 CALCULATION OF EFFECTIVE MASSES
 NOTE : Additional infos (eff. mass eigenvalues, eigenvectors and, if degenerate, average mass) are available in stdout.

 K-point ( 0.500, 0.000, 0.000) | band =    33
 Effective mass tensor:
             -3.2167571401             -2.8149498828              0.6444571458
             -2.8149498828             -5.8758864494              3.7871318329
              0.6444571458              3.7871318329            -10.6406828812
 Effective mass tensor eigenvalues:
            -13.1261554681             -5.4643329752             -1.1428380275
 Angular average effective mass 1/(<1/m>)=  -2.6450283180
 Angular average effective mass for Frohlich model (<m**0.5>)**2=  -3.5586020592
 Effective masses along directions: (cart. coord. / red. coord. -> eff. mass)
    1:   1.000000  0.000000  0.000000 /   0.925714  0.378223  0.000000 ->  -1.7013077497
    2:   0.000000  1.000000  0.000000 /   0.000000  1.000000  0.000000 ->  -2.4242283457
    3:   0.000000  0.000000  1.000000 /   0.494145  0.494145  0.715292 ->  -7.4672656213
    4:   0.577350  0.577350  0.577350 /   0.591740  0.688967  0.418532 ->  -5.4725556071
    5:   0.000000  0.707107  0.707107 /   0.380188  0.743363  0.550335 ->  -2.5019003451
    6:   0.707107  0.000000  0.707107 /   0.709444  0.494876  0.501783 ->  -3.6101933628
    7:   0.707107  0.707107  0.000000 /   0.603480  0.797378  0.000000 ->  -6.0787684627

 K-point ( 0.000, 0.000, 0.000) | band =    34
 Effective mass tensor:
              0.6251207341              0.0579997831              0.2093180719
              0.0579997831              0.5731979062              0.1356326168
              0.2093180719              0.1356326168              1.0251206486
 Effective mass tensor eigenvalues:
              0.5356132373              0.5356171781              1.1522088735
 Angular average effective mass 1/(<1/m>)=   0.6519015148
 Angular average effective mass for Frohlich model (<m**0.5>)**2=   0.6739285833
 Effective masses along directions: (cart. coord. / red. coord. -> eff. mass)
    1:   1.000000  0.000000  0.000000 /   0.925714  0.378223  0.000000 ->   0.5807263209
    2:   0.000000  1.000000  0.000000 /   0.000000  1.000000  0.000000 ->   0.5536755216
    3:   0.000000  0.000000  1.000000 /   0.494145  0.494145  0.715292 ->   0.9312473208
    4:   0.577350  0.577350  0.577350 /   0.591740  0.688967  0.418532 ->   0.9101784502
    5:   0.000000  0.707107  0.707107 /   0.380188  0.743363  0.550335 ->   0.8195404475
    6:   0.707107  0.000000  0.707107 /   0.709444  0.494876  0.501783 ->   0.9445271740
    7:   0.707107  0.707107  0.000000 /   0.603480  0.797378  0.000000 ->   0.5987799097

 END OF EFFECTIVE MASSES SECTION

 ---- first-order wavefunction calculations are completed ----

 Total localisation tensor (bohr^2) in cartesian coordinates
  WARNING : still subject to testing - especially symmetries.
      direction              matrix element
   alpha     beta       real part   imaginary part
     1        1       0.9573920367    0.0000000000
     1        2       0.3152233211    0.0000000000
     1        3       1.1099339662    0.0000000000
     2        1       0.3152233211    0.0000000000
     2        2       0.7041857995    0.0000000000
     2        3       0.7371726451    0.0000000000
     3        1       1.1099339662    0.0000000000
     3        2       0.7371726451    0.0000000000
     3        3       3.1141036535    0.0000000000

 respfn : d/dk was computed, but no 2DTE, so no DDB output.

== END DATASET(S) ==============================================================

 -outvars: echo values of variables after computation  --------
            acell      1.0000000000E+00  1.0000000000E+00  1.0000000000E+00 Bohr
              amu      8.76200000E+01  1.18710000E+02  1.08110000E+01
                       1.59994000E+01
             ecut      4.40000000E+01 Hartree
           etotal     -5.5863419811E+01
            fcart      0.0000000000E+00  0.0000000000E+00  0.0000000000E+00
                       0.0000000000E+00  0.0000000000E+00  0.0000000000E+00
                       0.0000000000E+00  0.0000000000E+00  0.0000000000E+00
                       0.0000000000E+00  0.0000000000E+00  0.0000000000E+00
                       0.0000000000E+00  0.0000000000E+00  0.0000000000E+00
                       0.0000000000E+00  0.0000000000E+00  0.0000000000E+00
                       0.0000000000E+00  0.0000000000E+00  0.0000000000E+00
                       0.0000000000E+00  0.0000000000E+00  0.0000000000E+00
                       0.0000000000E+00  0.0000000000E+00  0.0000000000E+00
                       0.0000000000E+00  0.0000000000E+00  0.0000000000E+00
-          fftalg         512
           irdden           1
           irdwfk           1
           istwfk        1    1
              ixc     -116133
              kpt      5.00000000E-01  0.00000000E+00  0.00000000E+00
                       0.00000000E+00  0.00000000E+00  0.00000000E+00
           kptopt           0
P           mkmem           2
P          mkqmem           2
P          mk1mem           2
            natom          10
            nband          42
           nbdbuf           4
            ngfft          72      72      72
             nkpt           2
            nstep        2000
             nsym           6
           ntypat           4
              occ      2.000000  2.000000  2.000000  2.000000  2.000000  2.000000
                       2.000000  2.000000  2.000000  2.000000  2.000000  2.000000
                       2.000000  2.000000  2.000000  2.000000  2.000000  2.000000
                       2.000000  2.000000  2.000000  2.000000  2.000000  2.000000
                       2.000000  2.000000  2.000000  2.000000  2.000000  2.000000
                       2.000000  2.000000  2.000000  0.000000  0.000000  0.000000
                       0.000000  0.000000  0.000000  0.000000  0.000000  0.000000
        optdriver           1
            prtwf          -1
            rfdir           1       1       1
           rfelfd           2
            rprim      8.5988438460E+00  0.0000000000E+00  8.2160294161E+00
                       3.5132666623E+00  7.8483802690E+00  8.2160294161E+00
                       0.0000000000E+00  0.0000000000E+00  1.1892991838E+01
          spgroup         148
           strten      0.0000000000E+00  0.0000000000E+00  0.0000000000E+00
                       0.0000000000E+00  0.0000000000E+00  0.0000000000E+00
           symrel      1  0  0   0  1  0   0  0  1      -1  0  0   0 -1  0   0  0 -1
                       0  0  1   1  0  0   0  1  0       0  0 -1  -1  0  0   0 -1  0
                       0  1  0   0  0  1   1  0  0       0 -1  0   0  0 -1  -1  0  0
           tolwfr      1.00000000E-20
            typat      1  2  3  3  4  4  4  4  4  4
           useylm           1
              wtk        0.50000    0.50000
           xangst      0.0000000000E+00  0.0000000000E+00  0.0000000000E+00
                       3.2047264145E+00  2.0765919814E+00  7.4944856234E+00
                       4.9020392559E+00  3.1764132393E+00  1.1463775055E+01
                       1.5074135730E+00  9.7677072345E-01  3.5251961916E+00
                       1.6029929601E+00  2.9934281070E+00  6.5632191820E+00
                       2.4054023845E+00  2.4005403304E-01  6.9830120810E+00
                       2.1909116720E+00  2.0557928361E+00  9.2959136093E+00
                       4.8064598688E+00  1.1597558557E+00  8.4257520647E+00
                       4.0040504444E+00  3.9131299297E+00  8.0059591657E+00
                       4.2185411569E+00  2.0973911266E+00  5.6930576374E+00
            xcart      0.0000000000E+00  0.0000000000E+00  0.0000000000E+00
                       6.0560552541E+00  3.9241901345E+00  1.4162525335E+01
                       9.2635116863E+00  6.0025511071E+00  2.1663395303E+01
                       2.8485988220E+00  1.8458291619E+00  6.6616553669E+00
                       3.0292176875E+00  5.6567593208E+00  1.2402686804E+01
                       4.5455517461E+00  4.5363637955E-01  1.3195980416E+01
                       4.1402230415E+00  3.8848854461E+00  1.7566730877E+01
                       9.0828928208E+00  2.1916209482E+00  1.5922363866E+01
                       7.5665587622E+00  7.3947438895E+00  1.5129070254E+01
                       7.9718874668E+00  3.9634948229E+00  1.0758319793E+01
             xred      0.0000000000E+00  0.0000000000E+00  0.0000000000E+00
                       5.0000000000E-01  5.0000000000E-01  5.0000000000E-01
                       7.6481400000E-01  7.6481400000E-01  7.6481400000E-01
                       2.3518600000E-01  2.3518600000E-01  2.3518600000E-01
                       5.7800000000E-02  7.2075500000E-01  5.0500800000E-01
                       5.0500800000E-01  5.7800000000E-02  7.2075500000E-01
                       2.7924500000E-01  4.9499200000E-01  9.4220000000E-01
                       9.4220000000E-01  2.7924500000E-01  4.9499200000E-01
                       4.9499200000E-01  9.4220000000E-01  2.7924500000E-01
                       7.2075500000E-01  5.0500800000E-01  5.7800000000E-02
            znucl       38.00000   50.00000    5.00000    8.00000

- Timing analysis has been suppressed with timopt=0

 Suggested references for the acknowledgment of ABINIT usage.

 Calculation completed.
.Delivered   2 WARNINGs and   5 COMMENTs to log file.