.Version 9.5.2 of ABINIT

 ABINIT is a project of the Universite Catholique de Louvain,
 Corning Inc. and other collaborators, see ~abinit/doc/developers/contributors.txt .
 acknowledgments of the ABINIT effort.

.Starting date : Mon 24 May 2021.
- ( at 11h24 )

- input  file    -> /scratch/users/j/a/jabreu/flow_simple_10atoms/flow/w328/t1/run.abi
- output file    -> /scratch/users/j/a/jabreu/flow_simple_10atoms/flow/w328/t1/run.abo
- root for input  files -> /scratch/users/j/a/jabreu/flow_simple_10atoms/flow/w328/t1/indata/in
- root for output files -> /scratch/users/j/a/jabreu/flow_simple_10atoms/flow/w328/t1/outdata/out

 Symmetries : space group R-3 c (#167); Bravais hR (rhombohedral)
     intxc =       0      iscf =       7    lmnmax =      13     lnmax =       5
     mgfft =      64  mpssoang =       3    mqgrid =    3001     natom =      10
  nloc_mem =       1    nspden =       1   nspinor =       1    nsppol =       1
      nsym =      12    n1xccc =    2501    ntypat =       3    occopt =       1
   xclevel =       2
-    mband =          35        mffmem =           1         mkmem =           2
-   mkqmem =           2        mk1mem =           2           mpw =        8928
      nfft =      262144          nkpt =           2
  Rough estimation (10% accuracy) of disk space for files :

------------- Echo of variables that govern the present computation ------------
-
- outvars: echo of selected default values
-   iomode0 =  0 , fftalg0 =512 , wfoptalg0 =  0
-
- outvars: echo of global parameters not present in the input file
-  max_nthreads =    0
-
 -outvars: echo values of preprocessed input variables --------
            acell      1.0000000000E+00  1.0000000000E+00  1.0000000000E+00 Bohr
              amu      6.94100000E+00  1.40067400E+01  1.59994000E+01
             ecut      4.40000000E+01 Hartree
-          fftalg         512
           irdden           1
           irdwfk           1
              ixc     -116133
              kpt      6.06489806E-01  3.93510194E-01  0.00000000E+00
                       2.10526316E-01  2.10526316E-01  2.10526316E-01
           kptopt           0
P           mkmem           2
P          mkqmem           2
P          mk1mem           2
            natom          10
            nband          35
           nbdbuf           4
            ngfft          64      64      64
             nkpt           2
            nstep        2000
             nsym          12
           ntypat           3
              occ      2.000000  2.000000  2.000000  2.000000  2.000000  2.000000
                       2.000000  2.000000  2.000000  2.000000  2.000000  2.000000
                       2.000000  2.000000  2.000000  2.000000  2.000000  2.000000
                       2.000000  2.000000  2.000000  2.000000  2.000000  2.000000
                       2.000000  2.000000  0.000000  0.000000  0.000000  0.000000
                       0.000000  0.000000  0.000000  0.000000  0.000000
        optdriver           1
            prtwf          -1
            rfdir           1       1       1
           rfelfd           2
            rprim      8.0672612417E+00  0.0000000000E+00  7.0353815509E+00
                       3.1994356422E+00  7.4056948029E+00  7.0353815509E+00
                       0.0000000000E+00  0.0000000000E+00  1.0704078545E+01
          spgroup         167
           symrel      1  0  0   0  1  0   0  0  1      -1  0  0   0 -1  0   0  0 -1
                       0  1  0   1  0  0   0  0  1       0 -1  0  -1  0  0   0  0 -1
                       0  0  1   1  0  0   0  1  0       0  0 -1  -1  0  0   0 -1  0
                       1  0  0   0  0  1   0  1  0      -1  0  0   0  0 -1   0 -1  0
                       0  1  0   0  0  1   1  0  0       0 -1  0   0  0 -1  -1  0  0
                       0  0  1   0  1  0   1  0  0       0  0 -1   0 -1  0  -1  0  0
            tnons      0.0000000  0.0000000  0.0000000     0.0000000  0.0000000  0.0000000
                       0.5000000  0.5000000  0.5000000     0.5000000  0.5000000  0.5000000
                       0.0000000  0.0000000  0.0000000     0.0000000  0.0000000  0.0000000
                       0.5000000  0.5000000  0.5000000     0.5000000  0.5000000  0.5000000
                       0.0000000  0.0000000  0.0000000     0.0000000  0.0000000  0.0000000
                       0.5000000  0.5000000  0.5000000     0.5000000  0.5000000  0.5000000
           tolwfr      1.00000000E-20
            typat      1  1  2  2  3  3  3  3  3  3
           useylm           1
              wtk        0.50000    0.50000
           xangst      0.0000000000E+00  0.0000000000E+00  0.0000000000E+00
                       2.9810396035E+00  1.9594624517E+00  6.5551407731E+00
                       4.4715594053E+00  2.9391936776E+00  9.8327111596E+00
                       1.4905198018E+00  9.7973122587E-01  3.2775703865E+00
                       3.2317287858E+00  6.9372808641E-02  5.5900333799E+00
                       8.9213354280E-01  1.8900896431E+00  6.1097475892E+00
                       3.3287366802E+00  2.9391936776E+00  4.6880709636E+00
                       2.7303504212E+00  3.8495520948E+00  7.5202481663E+00
                       5.0699456642E+00  2.0288352604E+00  7.0005339570E+00
                       2.6333425269E+00  9.7973122587E-01  8.4222105825E+00
            xcart      0.0000000000E+00  0.0000000000E+00  0.0000000000E+00
                       5.6333484419E+00  3.7028474015E+00  1.2387420824E+01
                       8.4500226629E+00  5.5542711022E+00  1.8581131235E+01
                       2.8166742210E+00  1.8514237007E+00  6.1937104118E+00
                       6.1070823410E+00  1.3109560940E-01  1.0563632162E+01
                       1.6858880699E+00  3.5717517920E+00  1.1545749685E+01
                       6.2904006940E+00  5.5542711022E+00  8.8591702128E+00
                       5.1596145429E+00  7.2745991935E+00  1.4211209486E+01
                       9.5808088140E+00  3.8339430109E+00  1.3229091963E+01
                       4.9762961899E+00  1.8514237007E+00  1.5915671434E+01
             xred      0.0000000000E+00  0.0000000000E+00  0.0000000000E+00
                       5.0000000000E-01  5.0000000000E-01  5.0000000000E-01
                       7.5000000000E-01  7.5000000000E-01  7.5000000000E-01
                       2.5000000000E-01  2.5000000000E-01  2.5000000000E-01
                       7.5000000000E-01  1.7702000000E-02  4.8229800000E-01
                       1.7702000000E-02  4.8229800000E-01  7.5000000000E-01
                       4.8229800000E-01  7.5000000000E-01  1.7702000000E-02
                       2.5000000000E-01  9.8229800000E-01  5.1770200000E-01
                       9.8229800000E-01  5.1770200000E-01  2.5000000000E-01
                       5.1770200000E-01  2.5000000000E-01  9.8229800000E-01
            znucl        3.00000    7.00000    8.00000

 chkinp: Checking input parameters for consistency.

== DATASET  1 ==================================================================
-   mpi_nproc: 1, omp_nthreads: -1 (-1 if OMP is not activated)

--- !DatasetInfo
iteration_state: {dtset: 1, }
dimensions: {natom: 10, nkpt: 2, mband: 35, nsppol: 1, nspinor: 1, nspden: 1, mpw: 8928, }
cutoff_energies: {ecut:  44.0, pawecutdg:  -1.0, }
electrons: {nelect:   5.20000000E+01, charge:   0.00000000E+00, occopt:   1.00000000E+00, tsmear:   1.00000000E-02, }
meta: {optdriver: 1, rfelfd: 2, }
...

 Real(R)+Recip(G) space primitive vectors, cartesian coordinates (Bohr,Bohr^-1):
 R(1)=  8.0672612  0.0000000  7.0353816  G(1)=  0.1239578 -0.0535527  0.0000000
 R(2)=  3.1994356  7.4056948  7.0353816  G(2)=  0.0000000  0.1350312  0.0000000
 R(3)=  0.0000000  0.0000000 10.7040785  G(3)= -0.0814727 -0.0535527  0.0934223
 Unit cell volume ucvol=  6.3950099E+02 bohr^3
 Angles (23,13,12)=  4.89086278E+01  4.89086278E+01  4.89086278E+01 degrees

 getcut: wavevector=  0.0000  0.0000  0.0000  ngfft=  64  64  64
         ecut(hartree)=     44.000   => boxcut(ratio)=   2.00235

--- Pseudopotential description ------------------------------------------------
- pspini: atom type   1  psp file is /scratch/users/j/a/jabreu/pseudos/PBEsol/Li.psp8
- pspatm: opening atomic psp file    /scratch/users/j/a/jabreu/pseudos/PBEsol/Li.psp8
- Li    ONCVPSP-3.3.0  r_core=   1.40824   1.10935
-  3.00000   3.00000    180112                znucl, zion, pspdat
    8 -116133    1    4       400   0.00000   pspcod,pspxc,lmax,lloc,mmax,r2well
    3.99000000000000    0.00000000000000    0.00000000000000   rchrg,fchrg,qchrg
     nproj     2     2
     extension_switch     1
  pspatm : epsatm=    2.60859637
         --- l  ekb(1:nproj) -->
             0   -4.855856   -1.482423
             1   -2.171544   -0.427615
 pspatm: atomic psp has been read  and splines computed

- pspini: atom type   2  psp file is /scratch/users/j/a/jabreu/pseudos/PBEsol/N.psp8
- pspatm: opening atomic psp file    /scratch/users/j/a/jabreu/pseudos/PBEsol/N.psp8
- N     ONCVPSP-3.3.0  r_core=   1.20551   1.35824
-  7.00000   5.00000    180112                znucl, zion, pspdat
    8 -116133    1    4       600   0.00000   pspcod,pspxc,lmax,lloc,mmax,r2well
    5.99000000000000    4.00000000000000    0.00000000000000   rchrg,fchrg,qchrg
     nproj     2     2
     extension_switch     1
  pspatm : epsatm=    5.26508895
         --- l  ekb(1:nproj) -->
             0    7.464189    0.625868
             1   -4.309714   -1.012941
 pspatm: atomic psp has been read  and splines computed

- pspini: atom type   3  psp file is /scratch/users/j/a/jabreu/pseudos/PBEsol/O.psp8
- pspatm: opening atomic psp file    /scratch/users/j/a/jabreu/pseudos/PBEsol/O.psp8
- O     ONCVPSP-3.3.0  r_core=   1.35509   1.45563   1.26150
-  8.00000   6.00000    180112                znucl, zion, pspdat
    8 -116133    2    4       600   0.00000   pspcod,pspxc,lmax,lloc,mmax,r2well
    5.99000000000000    4.00000000000000    0.00000000000000   rchrg,fchrg,qchrg
     nproj     2     2     1
     extension_switch     1
  pspatm : epsatm=    6.22910522
         --- l  ekb(1:nproj) -->
             0    6.050032    0.820363
             1   -4.739617   -1.153841
             2   -1.335834
 pspatm: atomic psp has been read  and splines computed

   2.76234410E+03                                ecore*ucvol(ha*bohr**3)

 ==>  initialize data related to q vector <==

 The list of irreducible perturbations for this q vector is:
    1)    idir= 1    ipert=  11
    2)    idir= 2    ipert=  11
    3)    idir= 3    ipert=  11

 Perturbation wavevector (in red.coord.)   0.000000  0.000000  0.000000
 Perturbation : derivative vs k along direction   1

 dfpt_looppert : COMMENT -
  In a d/dk calculation, iscf is set to -3 automatically.
 The set of symmetries contains only one element for this perturbation.
 symkpt : not enough symmetry to change the number of k points.

 Initialisation of the first-order wave-functions :
  ireadwf=   0

--- !BeginCycle
iteration_state: {dtset: 1, }
solver: {iscf: 7, nstep: 2000, nline: 4, wfoptalg: 0, }
tolerances: {tolwfr: 1.00E-20, }
...

     iter   2DEtotal(Ha)        deltaE(Ha) residm    vres2
[...]
tolerances: {tolwfr: 1.00E-20, }
...

     iter   2DEtotal(Ha)        deltaE(Ha) residm    vres2
-ETOT  1  -38.815593548259     -3.882E+01 6.090E-01 0.000E+00
 ETOT  2  -38.852137449294     -3.654E-02 3.613E-01 0.000E+00
 ETOT  3  -38.852265653789     -1.282E-04 1.305E-01 0.000E+00
 ETOT  4  -38.852266421557     -7.678E-07 7.664E-02 0.000E+00
 ETOT  5  -38.852266427551     -5.994E-09 2.546E-02 0.000E+00
 ETOT  6  -38.852266427605     -5.441E-11 1.822E-02 0.000E+00
 ETOT  7  -38.852266427606     -5.471E-13 6.325E-03 0.000E+00
 ETOT  8  -38.852266427606     -2.132E-14 5.040E-03 0.000E+00
 ETOT  9  -38.852266427606     -2.132E-14 1.847E-03 0.000E+00
 ETOT 10  -38.852266427606     -1.421E-14 1.537E-03 0.000E+00
 ETOT 11  -38.852266427606      2.842E-14 5.726E-04 0.000E+00
 ETOT 12  -38.852266427606     -3.553E-14 4.826E-04 0.000E+00
 ETOT 13  -38.852266427606      3.553E-14 1.799E-04 0.000E+00
 ETOT 14  -38.852266427606     -7.105E-15 1.527E-04 0.000E+00
 ETOT 15  -38.852266427606      7.105E-15 5.674E-05 0.000E+00
 ETOT 16  -38.852266427606     -1.421E-14 4.846E-05 0.000E+00
 ETOT 17  -38.852266427606      0.000E+00 1.791E-05 0.000E+00
 ETOT 18  -38.852266427606     -1.421E-14 1.539E-05 0.000E+00
 ETOT 19  -38.852266427606      0.000E+00 5.652E-06 0.000E+00
 ETOT 20  -38.852266427606      7.105E-15 4.892E-06 0.000E+00
 ETOT 21  -38.852266427606      7.105E-15 1.785E-06 0.000E+00
 ETOT 22  -38.852266427606      0.000E+00 1.555E-06 0.000E+00
 ETOT 23  -38.852266427606      0.000E+00 5.636E-07 0.000E+00
 ETOT 24  -38.852266427606      1.421E-14 4.947E-07 0.000E+00
 ETOT 25  -38.852266427606      0.000E+00 1.781E-07 0.000E+00
 ETOT 26  -38.852266427606     -7.105E-15 1.574E-07 0.000E+00
 ETOT 27  -38.852266427606      0.000E+00 5.630E-08 0.000E+00
 ETOT 28  -38.852266427606      0.000E+00 5.012E-08 0.000E+00
 ETOT 29  -38.852266427606      0.000E+00 1.781E-08 0.000E+00
 ETOT 30  -38.852266427606      0.000E+00 1.597E-08 0.000E+00
 ETOT 31  -38.852266427606      7.105E-15 5.638E-09 0.000E+00
 ETOT 32  -38.852266427606      0.000E+00 5.088E-09 0.000E+00
 ETOT 33  -38.852266427606      0.000E+00 1.786E-09 0.000E+00
 ETOT 34  -38.852266427606     -7.105E-15 1.623E-09 0.000E+00
 ETOT 35  -38.852266427606      0.000E+00 5.666E-10 0.000E+00
 ETOT 36  -38.852266427606      0.000E+00 5.177E-10 0.000E+00
 ETOT 37  -38.852266427606      0.000E+00 1.798E-10 0.000E+00
 ETOT 38  -38.852266427606      0.000E+00 1.653E-10 0.000E+00
 ETOT 39  -38.852266427606      0.000E+00 5.714E-11 0.000E+00
 ETOT 40  -38.852266427606      0.000E+00 5.280E-11 0.000E+00
 ETOT 41  -38.852266427606      0.000E+00 1.817E-11 0.000E+00
 ETOT 42  -38.852266427606      0.000E+00 1.687E-11 0.000E+00
 ETOT 43  -38.852266427606      0.000E+00 5.784E-12 0.000E+00
 ETOT 44  -38.852266427606      0.000E+00 5.395E-12 0.000E+00
 ETOT 45  -38.852266427606      0.000E+00 1.843E-12 0.000E+00
 ETOT 46  -38.852266427606      0.000E+00 1.726E-12 0.000E+00
 ETOT 47  -38.852266427606      1.421E-14 5.874E-13 0.000E+00
 ETOT 48  -38.852266427606      0.000E+00 5.524E-13 0.000E+00
 ETOT 49  -38.852266427606      0.000E+00 1.874E-13 0.000E+00
 ETOT 50  -38.852266427606     -1.421E-14 1.769E-13 0.000E+00
 ETOT 51  -38.852266427606     -1.421E-14 5.984E-14 0.000E+00
 ETOT 52  -38.852266427606      0.000E+00 5.665E-14 0.000E+00
 ETOT 53  -38.852266427606      1.421E-14 1.912E-14 0.000E+00
 ETOT 54  -38.852266427606     -1.421E-14 1.815E-14 0.000E+00
 ETOT 55  -38.852266427606      0.000E+00 6.111E-15 0.000E+00
 ETOT 56  -38.852266427606      7.105E-15 5.818E-15 0.000E+00
 ETOT 57  -38.852266427606     -7.105E-15 1.954E-15 0.000E+00
 ETOT 58  -38.852266427606      0.000E+00 1.865E-15 0.000E+00
 ETOT 59  -38.852266427606      0.000E+00 6.254E-16 0.000E+00
 ETOT 60  -38.852266427606      0.000E+00 5.982E-16 0.000E+00
 ETOT 61  -38.852266427606      0.000E+00 2.002E-16 0.000E+00
[...]
 ETOT 65  -38.852266427606      0.000E+00 2.054E-17 0.000E+00
 ETOT 66  -38.852266427606     -7.105E-15 1.975E-17 0.000E+00
 ETOT 67  -38.852266427606      0.000E+00 6.582E-18 0.000E+00
 ETOT 68  -38.852266427606      0.000E+00 6.340E-18 0.000E+00
 ETOT 69  -38.852266427606      0.000E+00 2.110E-18 0.000E+00
 ETOT 70  -38.852266427606      1.421E-14 2.035E-18 0.000E+00
 ETOT 71  -38.852266427606      0.000E+00 6.766E-19 0.000E+00
 ETOT 72  -38.852266427606      0.000E+00 6.535E-19 0.000E+00
 ETOT 73  -38.852266427606      0.000E+00 2.170E-19 0.000E+00
 ETOT 74  -38.852266427606     -1.421E-14 2.098E-19 0.000E+00
 ETOT 75  -38.852266427606      7.105E-15 6.961E-20 0.000E+00
 ETOT 76  -38.852266427606     -7.105E-15 6.739E-20 0.000E+00
 ETOT 77  -38.852266427606      0.000E+00 2.234E-20 0.000E+00
 ETOT 78  -38.852266427606      0.000E+00 2.165E-20 0.000E+00
 ETOT 79  -38.852266427606      2.132E-14 9.815E-21 0.000E+00

 At SCF step   79   max residual=  9.81E-21 < tolwfr=  1.00E-20 =>converged.

 ----iterations are completed or convergence reached----

 dfpt_looppert: DFPT cycle converged with prtwf=-1. Will skip output of the 1st-order WFK file.
 dfpt_looppert : ek2=    7.4862005159E+01
          f-sum rule ratio=    1.0171344538E+00
 prteigrs : about to open file /scratch/users/j/a/jabreu/flow_simple_10atoms/flow/w328/t1/tmpdata/tmp_1WF1_EIG
 Expectation of eigenvalue derivatives (hartree) for nkpt=   2  k points:
  (in case of degenerate eigenvalues, averaged derivative)
 kpt#   1, nband= 35, wtk=  0.50000, kpt=  0.6065  0.3935  0.0000 (reduced coord)
  -0.00000   -0.00000    0.00000    0.00000   -0.00000   -0.00000    0.00000    0.00000
  -0.00000   -0.00000    0.00000   -0.00000    0.00000   -0.00000    0.00000    0.00000
  -0.00000    0.00000    0.00000   -0.00000   -0.00000   -0.00000    0.00000   -0.00000
  -0.00000    0.00000    0.00000   -0.00000    0.00000   -0.00000    0.00000    0.00000
   0.00000    0.00000   -0.00001
 prteigrs : prtvol=0 or 1, do not print more k-points.

 Eight components of 2nd-order total energy (hartree) are
 1,2,3: 0th-order hamiltonian combined with 1st-order wavefunctions
     kin0=   5.08936093E+01 eigvalue=   3.80811939E+00  local=  -2.04336752E+01
 4,5,6: 1st-order hamiltonian combined with 1st and 0th-order wfs
     kin1=  -7.61447247E+01  Hartree=   0.00000000E+00     xc=   0.00000000E+00
 7,8,9: eventually, occupation + non-local contributions
    edocc=   9.51592155E+00     enl0=  -4.93170868E+00   enl1=  -1.55980813E+00
 1-9 gives the relaxation energy (to be shifted if some occ is /=2.0)
   erelax=  -3.88522664E+01
  No Ewald or frozen-wf contrib.: the relaxation energy is the total one
 2DEtotal=   -0.3885226643E+02 Ha. Also 2DEtotal=   -0.105722393559E+04 eV
    (  non-var. 2DEtotal :   -3.8852266427E+01 Ha)

 CALCULATION OF EFFECTIVE MASSES
 NOTE : Additional infos (eff. mass eigenvalues, eigenvectors and, if degenerate, average mass) are available in stdout.

 K-point ( 0.606, 0.394, 0.000) | band =    26
 Effective mass tensor:
            -21.4759053008             -9.7562054851            -29.1901377332
             -9.7562054851            -13.0470296995            -19.1875906926
            -29.1901377332            -19.1875906926            -47.6618355152
 Effective mass tensor eigenvalues:
            -74.0792709951             -6.6339075069             -1.4715920135
 Angular average effective mass 1/(<1/m>)=  -3.5554462338
 Angular average effective mass for Frohlich model (<m**0.5>)**2=  -5.6273604243
 Effective masses along directions: (cart. coord. / red. coord. -> eff. mass)
    1:   1.000000  0.000000  0.000000 /   0.929564  0.368660  0.000000 ->  -2.8507840119
    2:   0.000000  1.000000  0.000000 /   0.000000  1.000000  0.000000 ->  -4.2164460899
    3:   0.000000  0.000000  1.000000 /   0.481412  0.481412  0.732451 ->  -3.9088657218
    4:   0.577350  0.577350  0.577350 /   0.590626  0.689875  0.418609 -> -13.6858792097
    5:   0.000000  0.707107  0.707107 /   0.364465  0.748113  0.554520 -> -14.1860244585
    6:   0.707107  0.000000  0.707107 /   0.713996  0.483864  0.506049 -> -28.1386977366
    7:   0.707107  0.707107  0.000000 /   0.605433  0.795896  0.000000 ->  -2.3503981508

 K-point ( 0.211, 0.211, 0.211) | band =    27
 Effective mass tensor:
              4.1133598100              0.7836915650              2.6218067881
              0.7836915650              3.4361963326              1.7233157081
              2.6218067881              1.7233157081              8.6863647297
 Effective mass tensor eigenvalues:
              2.9210736970              2.9210765847             10.3937705905
 Angular average effective mass 1/(<1/m>)=   3.8417659402
 Angular average effective mass for Frohlich model (<m**0.5>)**2=   4.1613384928
 Effective masses along directions: (cart. coord. / red. coord. -> eff. mass)
    1:   1.000000  0.000000  0.000000 /   0.929564  0.368660  0.000000 ->   3.2995734150
    2:   0.000000  1.000000  0.000000 /   0.000000  1.000000  0.000000 ->   3.0733947873
    3:   0.000000  0.000000  1.000000 /   0.481412  0.481412  0.732451 ->   6.5596008617
    4:   0.577350  0.577350  0.577350 /   0.590626  0.689875  0.418609 ->   6.7714705089
    5:   0.000000  0.707107  0.707107 /   0.364465  0.748113  0.554520 ->   5.4899839627
    6:   0.707107  0.000000  0.707107 /   0.713996  0.483864  0.506049 ->   7.0719149090
    7:   0.707107  0.707107  0.000000 /   0.605433  0.795896  0.000000 ->   3.4673012264

 END OF EFFECTIVE MASSES SECTION

 ---- first-order wavefunction calculations are completed ----

 Total localisation tensor (bohr^2) in cartesian coordinates
  WARNING : still subject to testing - especially symmetries.
      direction              matrix element
   alpha     beta       real part   imaginary part
     1        1       0.8680701471    0.0000000000
     1        2       0.2730864275    0.0000000000
     1        3       0.9135776823    0.0000000000
     2        1       0.2730864275    0.0000000000
     2        2       0.6321098353    0.0000000000
     2        3       0.6005019099    0.0000000000
     3        1       0.9135776823    0.0000000000
     3        2       0.6005019099    0.0000000000
     3        3       2.4255034819    0.0000000000

 respfn : d/dk was computed, but no 2DTE, so no DDB output.

== END DATASET(S) ==============================================================

 -outvars: echo values of variables after computation  --------
            acell      1.0000000000E+00  1.0000000000E+00  1.0000000000E+00 Bohr
              amu      6.94100000E+00  1.40067400E+01  1.59994000E+01
             ecut      4.40000000E+01 Hartree
           etotal     -3.8852266428E+01
            fcart      0.0000000000E+00  0.0000000000E+00  0.0000000000E+00
                       0.0000000000E+00  0.0000000000E+00  0.0000000000E+00
                       0.0000000000E+00  0.0000000000E+00  0.0000000000E+00
                       0.0000000000E+00  0.0000000000E+00  0.0000000000E+00
                       0.0000000000E+00  0.0000000000E+00  0.0000000000E+00
                       0.0000000000E+00  0.0000000000E+00  0.0000000000E+00
                       0.0000000000E+00  0.0000000000E+00  0.0000000000E+00
                       0.0000000000E+00  0.0000000000E+00  0.0000000000E+00
                       0.0000000000E+00  0.0000000000E+00  0.0000000000E+00
                       0.0000000000E+00  0.0000000000E+00  0.0000000000E+00
-          fftalg         512
           irdden           1
           irdwfk           1
              ixc     -116133
              kpt      6.06489806E-01  3.93510194E-01  0.00000000E+00
                       2.10526316E-01  2.10526316E-01  2.10526316E-01
           kptopt           0
P           mkmem           2
P          mkqmem           2
P          mk1mem           2
            natom          10
            nband          35
           nbdbuf           4
            ngfft          64      64      64
             nkpt           2
            nstep        2000
             nsym          12
           ntypat           3
              occ      2.000000  2.000000  2.000000  2.000000  2.000000  2.000000
                       2.000000  2.000000  2.000000  2.000000  2.000000  2.000000
                       2.000000  2.000000  2.000000  2.000000  2.000000  2.000000
                       2.000000  2.000000  2.000000  2.000000  2.000000  2.000000
                       2.000000  2.000000  0.000000  0.000000  0.000000  0.000000
                       0.000000  0.000000  0.000000  0.000000  0.000000
        optdriver           1
            prtwf          -1
            rfdir           1       1       1
           rfelfd           2
            rprim      8.0672612417E+00  0.0000000000E+00  7.0353815509E+00
                       3.1994356422E+00  7.4056948029E+00  7.0353815509E+00
                       0.0000000000E+00  0.0000000000E+00  1.0704078545E+01
          spgroup         167
           strten      0.0000000000E+00  0.0000000000E+00  0.0000000000E+00
                       0.0000000000E+00  0.0000000000E+00  0.0000000000E+00
           symrel      1  0  0   0  1  0   0  0  1      -1  0  0   0 -1  0   0  0 -1
                       0  1  0   1  0  0   0  0  1       0 -1  0  -1  0  0   0  0 -1
                       0  0  1   1  0  0   0  1  0       0  0 -1  -1  0  0   0 -1  0
                       1  0  0   0  0  1   0  1  0      -1  0  0   0  0 -1   0 -1  0
                       0  1  0   0  0  1   1  0  0       0 -1  0   0  0 -1  -1  0  0
                       0  0  1   0  1  0   1  0  0       0  0 -1   0 -1  0  -1  0  0
            tnons      0.0000000  0.0000000  0.0000000     0.0000000  0.0000000  0.0000000
                       0.5000000  0.5000000  0.5000000     0.5000000  0.5000000  0.5000000
                       0.0000000  0.0000000  0.0000000     0.0000000  0.0000000  0.0000000
                       0.5000000  0.5000000  0.5000000     0.5000000  0.5000000  0.5000000
                       0.0000000  0.0000000  0.0000000     0.0000000  0.0000000  0.0000000
                       0.5000000  0.5000000  0.5000000     0.5000000  0.5000000  0.5000000
           tolwfr      1.00000000E-20
            typat      1  1  2  2  3  3  3  3  3  3
           useylm           1
              wtk        0.50000    0.50000
           xangst      0.0000000000E+00  0.0000000000E+00  0.0000000000E+00
                       2.9810396035E+00  1.9594624517E+00  6.5551407731E+00
                       4.4715594053E+00  2.9391936776E+00  9.8327111596E+00
                       1.4905198018E+00  9.7973122587E-01  3.2775703865E+00
                       3.2317287858E+00  6.9372808641E-02  5.5900333799E+00
                       8.9213354280E-01  1.8900896431E+00  6.1097475892E+00
                       3.3287366802E+00  2.9391936776E+00  4.6880709636E+00
                       2.7303504212E+00  3.8495520948E+00  7.5202481663E+00
                       5.0699456642E+00  2.0288352604E+00  7.0005339570E+00
                       2.6333425269E+00  9.7973122587E-01  8.4222105825E+00
            xcart      0.0000000000E+00  0.0000000000E+00  0.0000000000E+00
                       5.6333484419E+00  3.7028474015E+00  1.2387420824E+01
                       8.4500226629E+00  5.5542711022E+00  1.8581131235E+01
                       2.8166742210E+00  1.8514237007E+00  6.1937104118E+00
                       6.1070823410E+00  1.3109560940E-01  1.0563632162E+01
                       1.6858880699E+00  3.5717517920E+00  1.1545749685E+01
                       6.2904006940E+00  5.5542711022E+00  8.8591702128E+00
                       5.1596145429E+00  7.2745991935E+00  1.4211209486E+01
                       9.5808088140E+00  3.8339430109E+00  1.3229091963E+01
                       4.9762961899E+00  1.8514237007E+00  1.5915671434E+01
             xred      0.0000000000E+00  0.0000000000E+00  0.0000000000E+00
                       5.0000000000E-01  5.0000000000E-01  5.0000000000E-01
                       7.5000000000E-01  7.5000000000E-01  7.5000000000E-01
                       2.5000000000E-01  2.5000000000E-01  2.5000000000E-01
                       7.5000000000E-01  1.7702000000E-02  4.8229800000E-01
                       1.7702000000E-02  4.8229800000E-01  7.5000000000E-01
                       4.8229800000E-01  7.5000000000E-01  1.7702000000E-02
                       2.5000000000E-01  9.8229800000E-01  5.1770200000E-01
                       9.8229800000E-01  5.1770200000E-01  2.5000000000E-01
                       5.1770200000E-01  2.5000000000E-01  9.8229800000E-01
            znucl        3.00000    7.00000    8.00000

- Timing analysis has been suppressed with timopt=0

 Suggested references for the acknowledgment of ABINIT usage.

 Calculation completed.
.Delivered   2 WARNINGs and   5 COMMENTs to log file.