.Version 9.5.1 of ABINIT

 ABINIT is a project of the Universite Catholique de Louvain,
 Corning Inc. and other collaborators, see ~abinit/doc/developers/contributors.txt .
 acknowledgments of the ABINIT effort.

.Starting date : Tue 18 May 2021.
- ( at 23h41 )

- input  file    -> /scratch/users/j/a/jabreu/flow_simple_8atoms/flow/w345/t1/run.abi
- output file    -> /scratch/users/j/a/jabreu/flow_simple_8atoms/flow/w345/t1/run.abo
- root for input  files -> /scratch/users/j/a/jabreu/flow_simple_8atoms/flow/w345/t1/indata/in
- root for output files -> /scratch/users/j/a/jabreu/flow_simple_8atoms/flow/w345/t1/outdata/out

 Symmetries : space group Pb a m (# 55); Bravais oP (primitive ortho.)
     intxc =       0      iscf =       7    lmnmax =      32     lnmax =       8
     mgfft =     125  mpssoang =       4    mqgrid =    6115     natom =       8
  nloc_mem =       1    nspden =       1   nspinor =       1    nsppol =       1
      nsym =       8    n1xccc =    2501    ntypat =       2    occopt =       1
   xclevel =       2
-    mband =          59        mffmem =           1         mkmem =           2
-   mkqmem =           2        mk1mem =           2           mpw =       27740
      nfft =      486000          nkpt =           2
  Rough estimation (10% accuracy) of disk space for files :

------------- Echo of variables that govern the present computation ------------
-
- outvars: echo of selected default values
-   iomode0 =  0 , fftalg0 =512 , wfoptalg0 =  0
-
- outvars: echo of global parameters not present in the input file
-  max_nthreads =    0
-
 -outvars: echo values of preprocessed input variables --------
            acell      1.0000000000E+00  1.0000000000E+00  1.0000000000E+00 Bohr
              amu      1.32905430E+02  1.27600000E+02
             ecut      4.00000000E+01 Hartree
-          fftalg         512
           irdden           1
           irdwfk           1
           istwfk        1    0
              ixc     -116133
              kpt      0.00000000E+00  0.00000000E+00  0.00000000E+00
                       0.00000000E+00  2.18750000E-01  0.00000000E+00
           kptopt           0
P           mkmem           2
P          mkqmem           2
P          mk1mem           2
            natom           8
            nband          59
           nbdbuf           4
            ngfft          54      72     125
             nkpt           2
            nstep        2000
             nsym           8
           ntypat           2
              occ      2.000000  2.000000  2.000000  2.000000  2.000000  2.000000
                       2.000000  2.000000  2.000000  2.000000  2.000000  2.000000
                       2.000000  2.000000  2.000000  2.000000  2.000000  2.000000
                       2.000000  2.000000  2.000000  2.000000  2.000000  2.000000
                       2.000000  2.000000  2.000000  2.000000  2.000000  2.000000
                       2.000000  2.000000  2.000000  2.000000  2.000000  2.000000
                       2.000000  2.000000  2.000000  2.000000  2.000000  2.000000
                       2.000000  2.000000  2.000000  2.000000  2.000000  2.000000
                       2.000000  2.000000  0.000000  0.000000  0.000000  0.000000
                       0.000000  0.000000  0.000000  0.000000  0.000000
        optdriver           1
            prtwf          -1
            rfdir           1       1       1
           rfelfd           2
            rprim      9.3968082857E+00  0.0000000000E+00  0.0000000000E+00
                       0.0000000000E+00  1.1364583425E+01  0.0000000000E+00
                       0.0000000000E+00  0.0000000000E+00  2.1477426646E+01
          spgroup          55
           symrel      1  0  0   0  1  0   0  0  1      -1  0  0   0 -1  0   0  0 -1
                      -1  0  0   0  1  0   0  0 -1       1  0  0   0 -1  0   0  0  1
                      -1  0  0   0 -1  0   0  0  1       1  0  0   0  1  0   0  0 -1
                       1  0  0   0 -1  0   0  0 -1      -1  0  0   0  1  0   0  0  1
            tnons      0.0000000  0.0000000  0.0000000     0.0000000  0.0000000  0.0000000
                       0.0000000  0.5000000  0.5000000     0.0000000  0.5000000  0.5000000
                       0.0000000  0.5000000  0.5000000     0.0000000  0.5000000  0.5000000
                       0.0000000  0.0000000  0.0000000     0.0000000  0.0000000  0.0000000
           tolwfr      1.00000000E-20
            typat      1  1  1  1  2  2  2  2
           useylm           1
              wtk        0.50000    0.50000
           xangst      2.4862883891E+00  1.9910749049E+00  9.8139355746E+00
                       2.4862883891E+00  4.0228036288E+00  1.5514291057E+00
                       2.4862883891E+00  4.9980141718E+00  7.2341114459E+00
                       2.4862883891E+00  1.0158643619E+00  4.1312532345E+00
                       0.0000000000E+00  5.1815998418E+00  1.0235022336E+01
                       0.0000000000E+00  8.3227869192E-01  1.1303423443E+00
                       0.0000000000E+00  2.1746605749E+00  6.8130246844E+00
                       0.0000000000E+00  3.8392179588E+00  4.5523399959E+00
            xcart      4.6984041429E+00  3.7625862804E+00  1.8545650522E+01
                       4.6984041429E+00  7.6019971448E+00  2.9317761243E+00
                       4.6984041429E+00  9.4448779930E+00  1.3670489447E+01
                       4.6984041429E+00  1.9197054322E+00  7.8069371988E+00
                       0.0000000000E+00  9.7918046312E+00  1.9341389179E+01
                       0.0000000000E+00  1.5727787940E+00  2.1360374671E+00
                       0.0000000000E+00  4.1095129186E+00  1.2874750790E+01
                       0.0000000000E+00  7.2550705066E+00  8.6026758560E+00
             xred      5.0000000000E-01  3.3108000000E-01  8.6349500000E-01
                       5.0000000000E-01  6.6892000000E-01  1.3650500000E-01
                       5.0000000000E-01  8.3108000000E-01  6.3650500000E-01
                       5.0000000000E-01  1.6892000000E-01  3.6349500000E-01
                       0.0000000000E+00  8.6160700000E-01  9.0054500000E-01
                       0.0000000000E+00  1.3839300000E-01  9.9455000000E-02
                       0.0000000000E+00  3.6160700000E-01  5.9945500000E-01
                       0.0000000000E+00  6.3839300000E-01  4.0054500000E-01
            znucl       55.00000   52.00000

 chkinp: Checking input parameters for consistency.

== DATASET  1 ==================================================================
-   mpi_nproc: 1, omp_nthreads: -1 (-1 if OMP is not activated)

--- !DatasetInfo
iteration_state: {dtset: 1, }
dimensions: {natom: 8, nkpt: 2, mband: 59, nsppol: 1, nspinor: 1, nspden: 1, mpw: 27740, }
cutoff_energies: {ecut:  40.0, pawecutdg:  -1.0, }
electrons: {nelect:   1.00000000E+02, charge:   0.00000000E+00, occopt:   1.00000000E+00, tsmear:   1.00000000E-02, }
meta: {optdriver: 1, rfelfd: 2, }
...

 Real(R)+Recip(G) space primitive vectors, cartesian coordinates (Bohr,Bohr^-1):
 R(1)=  9.3968083  0.0000000  0.0000000  G(1)=  0.1064191  0.0000000  0.0000000
 R(2)=  0.0000000 11.3645834  0.0000000  G(2)=  0.0000000  0.0879927  0.0000000
 R(3)=  0.0000000  0.0000000 21.4774266  G(3)=  0.0000000  0.0000000  0.0465605
 Unit cell volume ucvol=  2.2935918E+03 bohr^3
 Angles (23,13,12)=  9.00000000E+01  9.00000000E+01  9.00000000E+01 degrees

 getcut: wavevector=  0.0000  0.0000  0.0000  ngfft=  54  72 125
         ecut(hartree)=     40.000   => boxcut(ratio)=   2.01845

--- Pseudopotential description ------------------------------------------------
- pspini: atom type   1  psp file is /scratch/users/j/a/jabreu/pseudos/PBEsol/Cs.psp8
- pspatm: opening atomic psp file    /scratch/users/j/a/jabreu/pseudos/PBEsol/Cs.psp8
- Cs    ONCVPSP-3.3.0  r_core=   2.27353   1.85623   2.01788   1.90105
- 55.00000   9.00000    180112                znucl, zion, pspdat
    8 -116133    3    4       600   0.00000   pspcod,pspxc,lmax,lloc,mmax,r2well
    5.99000000000000    5.00000000000000    0.00000000000000   rchrg,fchrg,qchrg
     nproj     2     2     2     2
     extension_switch     1
  pspatm : epsatm=   22.12462445
         --- l  ekb(1:nproj) -->
             0    6.214110    0.767882
             1    6.311966    0.793598
             2    3.769790    0.913105
             3   -9.247129   -2.432478
 pspatm: atomic psp has been read  and splines computed

- pspini: atom type   2  psp file is /scratch/users/j/a/jabreu/pseudos/PBEsol/Te.psp8
- pspatm: opening atomic psp file    /scratch/users/j/a/jabreu/pseudos/PBEsol/Te.psp8
- Te    ONCVPSP-3.3.0  r_core=   2.26547   1.91704   1.80604
- 52.00000  16.00000    180112                znucl, zion, pspdat
    8 -116133    2    4       600   0.00000   pspcod,pspxc,lmax,lloc,mmax,r2well
    5.99000000000000    5.00000000000000    0.00000000000000   rchrg,fchrg,qchrg
     nproj     2     2     2
     extension_switch     1
  pspatm : epsatm=   36.82679836
         --- l  ekb(1:nproj) -->
             0    6.345999    0.785432
             1    5.709019    1.070069
             2   -6.035173   -1.870937
 pspatm: atomic psp has been read  and splines computed

   2.35805691E+04                                ecore*ucvol(ha*bohr**3)

-inwffil : will read wavefunctions from disk file /scratch/users/j/a/jabreu/flow_simple_8atoms/flow/w345/t1/indata/in_WFK

 ==>  initialize data related to q vector <==

 The list of irreducible perturbations for this q vector is:
    1)    idir= 1    ipert=   9
    2)    idir= 2    ipert=   9
    3)    idir= 3    ipert=   9

 Perturbation wavevector (in red.coord.)   0.000000  0.000000  0.000000
 Perturbation : derivative vs k along direction   1

 dfpt_looppert : COMMENT -
  In a d/dk calculation, iscf is set to -3 automatically.
 The set of symmetries contains only one element for this perturbation.
 symkpt : not enough symmetry to change the number of k points.

[...]

 Initialisation of the first-order wave-functions :
  ireadwf=   0

--- !BeginCycle
iteration_state: {dtset: 1, }
solver: {iscf: 7, nstep: 2000, nline: 4, wfoptalg: 0, }
tolerances: {tolwfr: 1.00E-20, }
...

     iter   2DEtotal(Ha)        deltaE(Ha) residm    vres2
-ETOT  1  -93.634576258720     -9.363E+01 2.602E-02 0.000E+00
 ETOT  2  -93.693084151458     -5.851E-02 5.568E-04 0.000E+00
 ETOT  3  -93.694455911788     -1.372E-03 6.970E-05 0.000E+00
 ETOT  4  -93.694593154133     -1.372E-04 7.424E-06 0.000E+00
 ETOT  5  -93.694608689408     -1.554E-05 9.842E-07 0.000E+00
 ETOT  6  -93.694610544843     -1.855E-06 1.166E-07 0.000E+00
 ETOT  7  -93.694610772420     -2.276E-07 1.542E-08 0.000E+00
 ETOT  8  -93.694610800829     -2.841E-08 2.705E-09 0.000E+00
 ETOT  9  -93.694610804453     -3.624E-09 3.965E-10 0.000E+00
 ETOT 10  -93.694610804918     -4.656E-10 7.866E-11 0.000E+00
 ETOT 11  -93.694610804980     -6.133E-11 1.412E-11 0.000E+00
 ETOT 12  -93.694610804987     -7.944E-12 2.822E-12 0.000E+00
 ETOT 13  -93.694610804989     -1.180E-12 5.120E-13 0.000E+00
 ETOT 14  -93.694610804989     -1.705E-13 1.025E-13 0.000E+00
 ETOT 15  -93.694610804989      4.263E-14 1.872E-14 0.000E+00
 ETOT 16  -93.694610804989     -8.527E-14 3.753E-15 0.000E+00
 ETOT 17  -93.694610804989      1.421E-14 6.880E-16 0.000E+00
 ETOT 18  -93.694610804989      9.948E-14 1.381E-16 0.000E+00
 ETOT 19  -93.694610804989     -1.137E-13 2.536E-17 0.000E+00
 ETOT 20  -93.694610804989      2.842E-14 5.099E-18 0.000E+00
 ETOT 21  -93.694610804989     -1.421E-14 9.374E-19 0.000E+00
 ETOT 22  -93.694610804989      4.263E-14 1.888E-19 0.000E+00
 ETOT 23  -93.694610804989      1.421E-14 3.471E-20 0.000E+00
 ETOT 24  -93.694610804989     -2.842E-14 9.866E-21 0.000E+00

 At SCF step   24   max residual=  9.87E-21 < tolwfr=  1.00E-20 =>converged.

 ----iterations are completed or convergence reached----

 dfpt_looppert: DFPT cycle converged with prtwf=-1. Will skip output of the 1st-order WFK file.
 dfpt_looppert : ek2=    8.9418833387E+01
          f-sum rule ratio=    1.1771036283E+00
 prteigrs : about to open file /scratch/users/j/a/jabreu/flow_simple_8atoms/flow/w345/t1/tmpdata/tmp_1WF1_EIG
 Expectation of eigenvalue derivatives (hartree) for nkpt=   2  k points:
  (in case of degenerate eigenvalues, averaged derivative)
 kpt#   1, nband= 59, wtk=  0.50000, kpt=  0.0000  0.0000  0.0000 (reduced coord)
  -0.00000    0.00000    0.00000    0.00000   -0.00000    0.00000   -0.00000    0.00000
  -0.00000    0.00000    0.00000    0.00000   -0.00000    0.00000    0.00000    0.00000
   0.00000    0.00000   -0.00000    0.00000    0.00000    0.00000    0.00000    0.00000
  -0.00000   -0.00000    0.00000    0.00000   -0.00000   -0.00000   -0.00000    0.00000
   0.00000   -0.00000   -0.00000    0.00000   -0.00000   -0.00000   -0.00000   -0.00000
   0.00000    0.00000    0.00000    0.00000   -0.00000   -0.00000   -0.00000    0.00000
  -0.00000    0.00000   -0.00000   -0.00000    0.00000    0.00000    0.00000    0.00000
  -0.00000   -0.00006   -0.00001
 prteigrs : prtvol=0 or 1, do not print more k-points.

 Eight components of 2nd-order total energy (hartree) are
 1,2,3: 0th-order hamiltonian combined with 1st-order wavefunctions
     kin0=   1.12134702E+02 eigvalue=   1.38127538E+01  local=  -6.35802383E+01
 4,5,6: 1st-order hamiltonian combined with 1st and 0th-order wfs
     kin1=  -1.05255233E+02  Hartree=   0.00000000E+00     xc=   0.00000000E+00
 7,8,9: eventually, occupation + non-local contributions
    edocc=   1.44088494E+01     enl0=   1.69185436E+01   enl1=  -8.21339884E+01
 1-9 gives the relaxation energy (to be shifted if some occ is /=2.0)
   erelax=  -9.36946108E+01
  No Ewald or frozen-wf contrib.: the relaxation energy is the total one
 2DEtotal=   -0.9369461080E+02 Ha. Also 2DEtotal=   -0.254956002023E+04 eV
    (  non-var. 2DEtotal :   -9.3694610805E+01 Ha)

 Perturbation wavevector (in red.coord.)   0.000000  0.000000  0.000000
 Perturbation : derivative vs k along direction   2
 The set of symmetries contains only one element for this perturbation.
 symkpt : not enough symmetry to change the number of k points.

[...]

 Perturbation wavevector (in red.coord.)   0.000000  0.000000  0.000000
 Perturbation : derivative vs k along direction   3
 The set of symmetries contains only one element for this perturbation.
 symkpt : not enough symmetry to change the number of k points.

-inwffil : will read wavefunctions from disk file /scratch/users/j/a/jabreu/flow_simple_8atoms/flow/w345/t1/indata/in_WFK

 Initialisation of the first-order wave-functions :
  ireadwf=   0

--- !BeginCycle
iteration_state: {dtset: 1, }
solver: {iscf: 7, nstep: 2000, nline: 4, wfoptalg: 0, }
tolerances: {tolwfr: 1.00E-20, }
...

     iter   2DEtotal(Ha)        deltaE(Ha) residm    vres2
-ETOT  1  -16.431241720728     -1.643E+01 5.777E-03 0.000E+00
 ETOT  2  -16.441757874837     -1.052E-02 6.002E-04 0.000E+00
 ETOT  3  -16.441948386089     -1.905E-04 5.945E-05 0.000E+00
 ETOT  4  -16.441964101595     -1.572E-05 1.092E-05 0.000E+00
 ETOT  5  -16.441965663652     -1.562E-06 1.435E-06 0.000E+00
 ETOT  6  -16.441965835229     -1.716E-07 3.344E-07 0.000E+00
 ETOT  7  -16.441965855310     -2.008E-08 4.954E-08 0.000E+00
 ETOT  8  -16.441965857784     -2.473E-09 1.201E-08 0.000E+00
 ETOT  9  -16.441965858099     -3.159E-10 1.834E-09 0.000E+00
 ETOT 10  -16.441965858141     -4.129E-11 4.435E-10 0.000E+00
 ETOT 11  -16.441965858146     -5.517E-12 6.836E-11 0.000E+00
 ETOT 12  -16.441965858147     -7.567E-13 1.648E-11 0.000E+00
 ETOT 13  -16.441965858147     -7.816E-14 2.559E-12 0.000E+00
 ETOT 14  -16.441965858147     -2.842E-14 6.157E-13 0.000E+00
 ETOT 15  -16.441965858147     -1.066E-14 9.632E-14 0.000E+00
 ETOT 16  -16.441965858147      1.776E-14 2.313E-14 0.000E+00
 ETOT 17  -16.441965858147     -3.553E-15 3.642E-15 0.000E+00
 ETOT 18  -16.441965858147     -3.553E-15 8.729E-16 0.000E+00
 ETOT 19  -16.441965858147      7.105E-15 1.382E-16 0.000E+00
 ETOT 20  -16.441965858147      3.553E-15 3.308E-17 0.000E+00
 ETOT 21  -16.441965858147     -7.105E-15 5.266E-18 0.000E+00
 ETOT 22  -16.441965858147      3.553E-15 1.258E-18 0.000E+00
 ETOT 23  -16.441965858147      0.000E+00 2.012E-19 0.000E+00
 ETOT 24  -16.441965858147     -3.553E-15 4.801E-20 0.000E+00
 ETOT 25  -16.441965858147      7.105E-15 9.951E-21 0.000E+00

 At SCF step   25   max residual=  9.95E-21 < tolwfr=  1.00E-20 =>converged.

 ----iterations are completed or convergence reached----

 dfpt_looppert: DFPT cycle converged with prtwf=-1. Will skip output of the 1st-order WFK file.
 dfpt_looppert : ek2=    1.7116905127E+01
          f-sum rule ratio=    1.0084593068E+00
 prteigrs : about to open file /scratch/users/j/a/jabreu/flow_simple_8atoms/flow/w345/t1/tmpdata/tmp_1WF1_EIG
 Expectation of eigenvalue derivatives (hartree) for nkpt=   2  k points:
  (in case of degenerate eigenvalues, averaged derivative)
 kpt#   1, nband= 59, wtk=  0.50000, kpt=  0.0000  0.0000  0.0000 (reduced coord)
   0.00000    0.00000   -0.00000    0.00000    0.00000   -0.00000    0.00000    0.00000
  -0.00000   -0.00000    0.00000    0.00000   -0.00000    0.00000    0.00000    0.00000
  -0.00000    0.00000    0.00000    0.00000    0.00000    0.00000   -0.00000    0.00000
   0.00000    0.00000   -0.00000   -0.00000    0.00000   -0.00000   -0.00000    0.00000
  -0.00000   -0.00000    0.00000   -0.00000   -0.00000   -0.00000    0.00000    0.00000
   0.00000   -0.00000   -0.00000    0.00000   -0.00000   -0.00000    0.00000    0.00000
   0.00000   -0.00000    0.00000   -0.00000   -0.00000    0.00000   -0.00000    0.00000
  -0.00000   -0.00000   -0.00001
 prteigrs : prtvol=0 or 1, do not print more k-points.

 Eight components of 2nd-order total energy (hartree) are
 1,2,3: 0th-order hamiltonian combined with 1st-order wavefunctions
     kin0=   1.93699035E+01 eigvalue=   2.90281134E+00  local=  -1.09232163E+01
 4,5,6: 1st-order hamiltonian combined with 1st and 0th-order wfs
     kin1=  -1.72617023E+01  Hartree=   0.00000000E+00     xc=   0.00000000E+00
 7,8,9: eventually, occupation + non-local contributions
    edocc=   2.10346352E+00     enl0=   2.98900382E+00   enl1=  -1.56222294E+01
 1-9 gives the relaxation energy (to be shifted if some occ is /=2.0)
   erelax=  -1.64419659E+01
  No Ewald or frozen-wf contrib.: the relaxation energy is the total one
 2DEtotal=   -0.1644196586E+02 Ha. Also 2DEtotal=   -0.447408644379E+03 eV
    (  non-var. 2DEtotal :   -1.6441965858E+01 Ha)

 CALCULATION OF EFFECTIVE MASSES
 NOTE : Additional infos (eff. mass eigenvalues, eigenvectors and, if degenerate, average mass) are available in stdout.

 K-point ( 0.000, 0.000, 0.000) | band =    50
 Effective mass tensor:
             -0.2723791529             -0.0000168877             -0.0000004096
             -0.0000168877             -1.2337268811              0.0005056367
             -0.0000004096              0.0005056367             -1.2907671079
 Effective mass tensor eigenvalues:
             -1.2907715898             -1.2337223995             -0.2723791526
 Angular average effective mass 1/(<1/m>)=  -0.5707069314
 Angular average effective mass for Frohlich model (<m**0.5>)**2=  -0.6815552341
 Effective masses along directions: (cart. coord. / red. coord. -> eff. mass)
    1:   1.000000  0.000000  0.000000 /   1.000000  0.000000  0.000000 ->  -0.2723791527
    2:   0.000000  1.000000  0.000000 /   0.000000  1.000000  0.000000 ->  -1.2337266820
    3:   0.000000  0.000000  1.000000 /   0.000000  0.000000  1.000000 ->  -1.2907669007
    4:   0.577350  0.577350  0.577350 /   0.360687  0.436218  0.824390 ->  -0.5706491612
    5:   0.000000  0.707107  0.707107 /   0.000000  0.467701  0.883887 ->  -1.2610972114
    6:   0.707107  0.000000  0.707107 /   0.400834  0.000000  0.916151 ->  -0.4498340784
    7:   0.707107  0.707107  0.000000 /   0.637231  0.770673  0.000000 ->  -0.4462488050

 K-point ( 0.000, 0.219, 0.000) | band =    51
 Effective mass tensor:
              1.2615762461             -0.0000365311              0.0008830351
             -0.0000365311              0.4715790744              0.0000285715
              0.0008830351              0.0000285715              2.4832735872
 Effective mass tensor eigenvalues:
              0.4715790724              1.2615756095              2.4832742259
 Angular average effective mass 1/(<1/m>)=   0.9047347793
 Angular average effective mass for Frohlich model (<m**0.5>)**2=   1.0387688083
 Effective masses along directions: (cart. coord. / red. coord. -> eff. mass)
    1:   1.000000  0.000000  0.000000 /   1.000000  0.000000  0.000000 ->   1.2615759293
    2:   0.000000  1.000000  0.000000 /   0.000000  1.000000  0.000000 ->   0.4715790731
    3:   0.000000  0.000000  1.000000 /   0.000000  0.000000  1.000000 ->   2.4832729674
    4:   0.577350  0.577350  0.577350 /   0.360687  0.436218  0.824390 ->   0.9048684206
    5:   0.000000  0.707107  0.707107 /   0.000000  0.467701  0.883887 ->   0.7926503362
    6:   0.707107  0.000000  0.707107 /   0.400834  0.000000  0.916151 ->   1.6739343210
    7:   0.707107  0.707107  0.000000 /   0.637231  0.770673  0.000000 ->   0.6865026162

 END OF EFFECTIVE MASSES SECTION

 ---- first-order wavefunction calculations are completed ----

 Total localisation tensor (bohr^2) in cartesian coordinates
  WARNING : still subject to testing - especially symmetries.
      direction              matrix element
   alpha     beta       real part   imaginary part
     1        1       1.7960310605    0.0000000000
     1        2       0.0000000000    0.0000000000
     1        3       0.0000000000    0.0000000000
     2        1       0.0000000000    0.0000000000
     2        2       1.3916746793    0.0000000000
     2        3       0.0000000000    0.0000000000
     3        1       0.0000000000    0.0000000000
     3        2       0.0000000000    0.0000000000
     3        3       1.3126205286    0.0000000000

 respfn : d/dk was computed, but no 2DTE, so no DDB output.

== END DATASET(S) ==============================================================

 -outvars: echo values of variables after computation  --------
            acell      1.0000000000E+00  1.0000000000E+00  1.0000000000E+00 Bohr
              amu      1.32905430E+02  1.27600000E+02
             ecut      4.00000000E+01 Hartree
           etotal     -1.6441965858E+01
            fcart      0.0000000000E+00  0.0000000000E+00  0.0000000000E+00
                       0.0000000000E+00  0.0000000000E+00  0.0000000000E+00
                       0.0000000000E+00  0.0000000000E+00  0.0000000000E+00
                       0.0000000000E+00  0.0000000000E+00  0.0000000000E+00
                       0.0000000000E+00  0.0000000000E+00  0.0000000000E+00
                       0.0000000000E+00  0.0000000000E+00  0.0000000000E+00
                       0.0000000000E+00  0.0000000000E+00  0.0000000000E+00
                       0.0000000000E+00  0.0000000000E+00  0.0000000000E+00
-          fftalg         512
           irdden           1
           irdwfk           1
           istwfk        1    0
              ixc     -116133
              kpt      0.00000000E+00  0.00000000E+00  0.00000000E+00
                       0.00000000E+00  2.18750000E-01  0.00000000E+00
           kptopt           0
P           mkmem           2
P          mkqmem           2
P          mk1mem           2
            natom           8
            nband          59
           nbdbuf           4
            ngfft          54      72     125
             nkpt           2
            nstep        2000
             nsym           8
           ntypat           2
              occ      2.000000  2.000000  2.000000  2.000000  2.000000  2.000000
                       2.000000  2.000000  2.000000  2.000000  2.000000  2.000000
                       2.000000  2.000000  2.000000  2.000000  2.000000  2.000000
                       2.000000  2.000000  2.000000  2.000000  2.000000  2.000000
                       2.000000  2.000000  2.000000  2.000000  2.000000  2.000000
                       2.000000  2.000000  2.000000  2.000000  2.000000  2.000000
                       2.000000  2.000000  2.000000  2.000000  2.000000  2.000000
                       2.000000  2.000000  2.000000  2.000000  2.000000  2.000000
                       2.000000  2.000000  0.000000  0.000000  0.000000  0.000000
                       0.000000  0.000000  0.000000  0.000000  0.000000
        optdriver           1
            prtwf          -1
            rfdir           1       1       1
           rfelfd           2
            rprim      9.3968082857E+00  0.0000000000E+00  0.0000000000E+00
                       0.0000000000E+00  1.1364583425E+01  0.0000000000E+00
                       0.0000000000E+00  0.0000000000E+00  2.1477426646E+01
          spgroup          55
           strten      0.0000000000E+00  0.0000000000E+00  0.0000000000E+00
                       0.0000000000E+00  0.0000000000E+00  0.0000000000E+00
           symrel      1  0  0   0  1  0   0  0  1      -1  0  0   0 -1  0   0  0 -1
                      -1  0  0   0  1  0   0  0 -1       1  0  0   0 -1  0   0  0  1
                      -1  0  0   0 -1  0   0  0  1       1  0  0   0  1  0   0  0 -1
                       1  0  0   0 -1  0   0  0 -1      -1  0  0   0  1  0   0  0  1
            tnons      0.0000000  0.0000000  0.0000000     0.0000000  0.0000000  0.0000000
                       0.0000000  0.5000000  0.5000000     0.0000000  0.5000000  0.5000000
                       0.0000000  0.5000000  0.5000000     0.0000000  0.5000000  0.5000000
                       0.0000000  0.0000000  0.0000000     0.0000000  0.0000000  0.0000000
           tolwfr      1.00000000E-20
            typat      1  1  1  1  2  2  2  2
           useylm           1
              wtk        0.50000    0.50000
           xangst      2.4862883891E+00  1.9910749049E+00  9.8139355746E+00
                       2.4862883891E+00  4.0228036288E+00  1.5514291057E+00
                       2.4862883891E+00  4.9980141718E+00  7.2341114459E+00
                       2.4862883891E+00  1.0158643619E+00  4.1312532345E+00
                       0.0000000000E+00  5.1815998418E+00  1.0235022336E+01
                       0.0000000000E+00  8.3227869192E-01  1.1303423443E+00
                       0.0000000000E+00  2.1746605749E+00  6.8130246844E+00
                       0.0000000000E+00  3.8392179588E+00  4.5523399959E+00
            xcart      4.6984041429E+00  3.7625862804E+00  1.8545650522E+01
                       4.6984041429E+00  7.6019971448E+00  2.9317761243E+00
                       4.6984041429E+00  9.4448779930E+00  1.3670489447E+01
                       4.6984041429E+00  1.9197054322E+00  7.8069371988E+00
                       0.0000000000E+00  9.7918046312E+00  1.9341389179E+01
                       0.0000000000E+00  1.5727787940E+00  2.1360374671E+00
                       0.0000000000E+00  4.1095129186E+00  1.2874750790E+01
                       0.0000000000E+00  7.2550705066E+00  8.6026758560E+00
             xred      5.0000000000E-01  3.3108000000E-01  8.6349500000E-01
                       5.0000000000E-01  6.6892000000E-01  1.3650500000E-01
                       5.0000000000E-01  8.3108000000E-01  6.3650500000E-01
                       5.0000000000E-01  1.6892000000E-01  3.6349500000E-01
                       0.0000000000E+00  8.6160700000E-01  9.0054500000E-01
                       0.0000000000E+00  1.3839300000E-01  9.9455000000E-02
                       0.0000000000E+00  3.6160700000E-01  5.9945500000E-01
                       0.0000000000E+00  6.3839300000E-01  4.0054500000E-01
            znucl       55.00000   52.00000

- Timing analysis has been suppressed with timopt=0

 Suggested references for the acknowledgment of ABINIT usage.

 Calculation completed.
.Delivered  14 WARNINGs and  11 COMMENTs to log file.