.Version 9.5.2 of ABINIT

 ABINIT is a project of the Universite Catholique de Louvain,
 Corning Inc. and other collaborators, see ~abinit/doc/developers/contributors.txt .
 acknowledgments of the ABINIT effort.

.Starting date : Mon 24 May 2021.
- ( at 20h53 )

- input  file    -> /scratch/users/j/a/jabreu/flow_simple_10atoms/flow/w361/t1/run.abi
- output file    -> /scratch/users/j/a/jabreu/flow_simple_10atoms/flow/w361/t1/run.abo
- root for input  files -> /scratch/users/j/a/jabreu/flow_simple_10atoms/flow/w361/t1/indata/in
- root for output files -> /scratch/users/j/a/jabreu/flow_simple_10atoms/flow/w361/t1/outdata/out

 Symmetries : space group Ib a m (# 72); Bravais oI (body-center ortho.)
     intxc =       0      iscf =       7    lmnmax =      32     lnmax =       8
     mgfft =     100  mpssoang =       4    mqgrid =    3748     natom =      10
  nloc_mem =       1    nspden =       1   nspinor =       1    nsppol =       1
      nsym =       8    n1xccc =    2501    ntypat =       3    occopt =       1
   xclevel =       2
-    mband =          71        mffmem =           1         mkmem =           2
-   mkqmem =           2        mk1mem =           2           mpw =       34190
      nfft =     1000000          nkpt =           2
  Rough estimation (10% accuracy) of disk space for files :

------------- Echo of variables that govern the present computation ------------
-
- outvars: echo of selected default values
-   iomode0 =  0 , fftalg0 =512 , wfoptalg0 =  0
-
- outvars: echo of global parameters not present in the input file
-  max_nthreads =    0
-
 -outvars: echo values of preprocessed input variables --------
            acell      1.0000000000E+00  1.0000000000E+00  1.0000000000E+00 Bohr
              amu      1.32905430E+02  1.18710000E+02  7.49215900E+01
             ecut      4.20000000E+01 Hartree
-          fftalg         512
           irdden           1
           irdwfk           1
           istwfk        0    1
              ixc     -116133
              kpt      5.00000000E-01  5.00000000E-01 -5.00000000E-01
                       0.00000000E+00  0.00000000E+00  0.00000000E+00
           kptopt           0
P           mkmem           2
P          mkqmem           2
P          mk1mem           2
            natom          10
            nband          71
           nbdbuf           4
            ngfft         100     100     100
             nkpt           2
            nstep        2000
             nsym           8
           ntypat           3
              occ      2.000000  2.000000  2.000000  2.000000  2.000000  2.000000
                       2.000000  2.000000  2.000000  2.000000  2.000000  2.000000
                       2.000000  2.000000  2.000000  2.000000  2.000000  2.000000
                       2.000000  2.000000  2.000000  2.000000  2.000000  2.000000
                       2.000000  2.000000  2.000000  2.000000  2.000000  2.000000
                       2.000000  2.000000  2.000000  2.000000  2.000000  2.000000
                       2.000000  2.000000  2.000000  2.000000  2.000000  2.000000
                       2.000000  2.000000  2.000000  2.000000  2.000000  2.000000
                       2.000000  2.000000  2.000000  2.000000  2.000000  2.000000
                       2.000000  2.000000  2.000000  2.000000  2.000000  2.000000
                       2.000000  2.000000  0.000000  0.000000  0.000000  0.000000
                       0.000000  0.000000  0.000000  0.000000  0.000000
        optdriver           1
            prtwf          -1
            rfdir           1       1       1
           rfelfd           2
            rprim      1.3106801702E+01  0.0000000000E+00 -1.0709789354E+01
                      -2.4060280702E+00  1.1840997983E+01 -1.1852832343E+01
                       0.0000000000E+00  0.0000000000E+00  1.6925951639E+01
          spgroup          72
           symrel      1  0  0   0  1  0   0  0  1      -1  0  0   0 -1  0   0  0 -1
                       0  0  1  -1 -1 -1   1  0  0       0  0 -1   1  1  1  -1  0  0
                      -1 -1 -1   0  0  1   0  1  0       1  1  1   0  0 -1   0 -1  0
                       0  1  0   1  0  0  -1 -1 -1       0 -1  0  -1  0  0   1  1  1
            tnons      0.0000000  0.0000000  0.0000000     0.0000000 -0.0000000  0.0000000
                       0.0000000  0.5000000  0.5000000     0.0000000  0.5000000  0.5000000
                       0.0000000  0.0000000  0.0000000     0.0000000 -0.0000000 -0.0000000
                       0.0000000  0.5000000  0.5000000     0.0000000  0.5000000  0.5000000
           tolwfr      1.00000000E-20
            typat      1  1  1  1  2  2  3  3  3  3
           useylm           1
              wtk        0.50000    0.50000
           xangst      3.7024514679E+00  5.3545484302E+00 -1.7850829688E+00
                       1.9601540525E+00  9.1143782934E-01 -1.1977143587E+00
                       5.9864016244E+00  4.0444309591E+00 -6.6008005180E+00
                      -3.2379610405E-01  2.2215553004E+00  3.6180031905E+00
                       2.5129989557E+00  4.6994896947E+00 -5.2986678073E+00
                       3.1496065647E+00  1.5664965649E+00  2.3158704798E+00
                       2.1745618715E+00  3.7608778494E+00  1.2100180704E+00
                       3.4880436489E+00  2.5051084101E+00 -4.1928153980E+00
                       4.0310865884E-01  5.6381015399E+00 -4.0116939669E+00
                       5.2594968616E+00  6.2788471964E-01  1.0288966393E+00
            xcart      6.9966192946E+00  1.0118630098E+01 -3.3733179356E+00
                       3.7041543375E+00  1.7223678846E+00 -2.2633521234E+00
                       1.1312659592E+01  7.6428668761E+00 -1.2473705237E+01
                      -6.1188595954E-01  4.1981311069E+00  6.8370351779E+00
                       4.7488797985E+00  8.8807484872E+00 -1.0013031025E+01
                       5.9518938336E+00  2.9602494957E+00  4.3763609660E+00
                       4.1093263961E+00  7.1070291546E+00  2.2866027689E+00
                       6.5914472360E+00  4.7339688284E+00 -7.9232728279E+00
                       7.6176496700E-01  1.0654467820E+01 -7.5810029264E+00
                       9.9390086651E+00  1.1865301631E+00  1.9443328674E+00
             xred      6.9068500000E-01  8.5454200000E-01  8.3614300000E-01
                       3.0931500000E-01  1.4545800000E-01  1.6385700000E-01
                       9.8160100000E-01  6.4545800000E-01  3.3614300000E-01
                       1.8399000000E-02  3.5454200000E-01  6.6385700000E-01
                       5.0000000000E-01  7.5000000000E-01  2.5000000000E-01
                       5.0000000000E-01  2.5000000000E-01  7.5000000000E-01
                       4.2370650000E-01  6.0020525000E-01  8.2350125000E-01
                       5.7629350000E-01  3.9979475000E-01  1.7649875000E-01
                       2.2329600000E-01  8.9979475000E-01  3.2350125000E-01
                       7.7670400000E-01  1.0020525000E-01  6.7649875000E-01
            znucl       55.00000   50.00000   33.00000

 chkinp: Checking input parameters for consistency.

== DATASET  1 ==================================================================
-   mpi_nproc: 1, omp_nthreads: -1 (-1 if OMP is not activated)

--- !DatasetInfo
iteration_state: {dtset: 1, }
dimensions: {natom: 10, nkpt: 2, mband: 71, nsppol: 1, nspinor: 1, nspden: 1, mpw: 34190, }
cutoff_energies: {ecut:  42.0, pawecutdg:  -1.0, }
electrons: {nelect:   1.24000000E+02, charge:   0.00000000E+00, occopt:   1.00000000E+00, tsmear:   1.00000000E-02, }
meta: {optdriver: 1, rfelfd: 2, }
...

 Real(R)+Recip(G) space primitive vectors, cartesian coordinates (Bohr,Bohr^-1):
 R(1)= 13.1068017  0.0000000-10.7097894  G(1)=  0.0762963  0.0155030  0.0000000
 R(2)= -2.4060281 11.8409980-11.8528323  G(2)=  0.0000000  0.0844523  0.0000000
 R(3)=  0.0000000  0.0000000 16.9259516  G(3)=  0.0482760  0.0689493  0.0590809
 Unit cell volume ucvol=  2.6268673E+03 bohr^3
 Angles (23,13,12)=  1.34449126E+02  1.29252839E+02  7.05478571E+01 degrees

 getcut: wavevector=  0.0000  0.0000  0.0000  ngfft= 100 100 100
         ecut(hartree)=     42.000   => boxcut(ratio)=   2.02524

--- Pseudopotential description ------------------------------------------------
- pspini: atom type   1  psp file is /scratch/users/j/a/jabreu/pseudos/PBEsol/Cs.psp8
- pspatm: opening atomic psp file    /scratch/users/j/a/jabreu/pseudos/PBEsol/Cs.psp8
- Cs    ONCVPSP-3.3.0  r_core=   2.27353   1.85623   2.01788   1.90105
- 55.00000   9.00000    180112                znucl, zion, pspdat
    8 -116133    3    4       600   0.00000   pspcod,pspxc,lmax,lloc,mmax,r2well
    5.99000000000000    5.00000000000000    0.00000000000000   rchrg,fchrg,qchrg
     nproj     2     2     2     2
     extension_switch     1
  pspatm : epsatm=   22.12462445
         --- l  ekb(1:nproj) -->
             0    6.214110    0.767882
             1    6.311966    0.793598
             2    3.769790    0.913105
             3   -9.247129   -2.432478
 pspatm: atomic psp has been read  and splines computed

- pspini: atom type   2  psp file is /scratch/users/j/a/jabreu/pseudos/PBEsol/Sn.psp8
- pspatm: opening atomic psp file    /scratch/users/j/a/jabreu/pseudos/PBEsol/Sn.psp8
- Sn    ONCVPSP-3.3.0  r_core=   2.27326   2.62311   1.85601
- 50.00000  14.00000    180112                znucl, zion, pspdat
    8 -116133    2    4       600   0.00000   pspcod,pspxc,lmax,lloc,mmax,r2well
    5.99000000000000    6.50000000000000    0.00000000000000   rchrg,fchrg,qchrg
     nproj     2     2     2
     extension_switch     1
  pspatm : epsatm=   32.44586081
         --- l  ekb(1:nproj) -->
             0    5.587869    0.749373
             1    4.197111    0.728791
             2   -5.271877   -1.523486
 pspatm: atomic psp has been read  and splines computed

- pspini: atom type   3  psp file is /scratch/users/j/a/jabreu/pseudos/PBEsol/As.psp8
- pspatm: opening atomic psp file    /scratch/users/j/a/jabreu/pseudos/PBEsol/As.psp8
- As    ONCVPSP-3.3.0  r_core=   1.76603   1.70395   1.80867
- 33.00000  15.00000    180112                znucl, zion, pspdat
    8 -116133    2    4       600   0.00000   pspcod,pspxc,lmax,lloc,mmax,r2well
    5.99000000000000    5.00000000000000    0.00000000000000   rchrg,fchrg,qchrg
     nproj     2     2     2
     extension_switch     1
  pspatm : epsatm=   28.79155382
         --- l  ekb(1:nproj) -->
             0    8.270760    0.868950
             1    4.919053    0.756587
             2  -10.048665   -4.076802
 pspatm: atomic psp has been read  and splines computed

   3.33009979E+04                                ecore*ucvol(ha*bohr**3)

 ==>  initialize data related to q vector <==

 The list of irreducible perturbations for this q vector is:
    1)    idir= 1    ipert=  11
    2)    idir= 2    ipert=  11
    3)    idir= 3    ipert=  11

 Perturbation wavevector (in red.coord.)   0.000000  0.000000  0.000000
 Perturbation : derivative vs k along direction   1

 dfpt_looppert : COMMENT -
  In a d/dk calculation, iscf is set to -3 automatically.
 The set of symmetries contains only one element for this perturbation.
[...]
  -0.00000   -0.00000    0.00000   -0.00000   -0.00000    0.00000    0.00000   -0.00000
   0.00000   -0.00000    0.00000    0.00000   -0.00000    0.00000   -0.00000    0.00000
   0.00000   -0.00000   -0.00000    0.00000    0.00000   -0.00000   -0.00000    0.00000
   0.00000    0.00000    0.00000    0.00000    0.00000    0.00000    0.00000    0.00000
   0.00000   -0.00000   -0.00000    0.00000    0.00000    0.00000   -0.00000    0.00000
   0.00000   -0.00000   -0.00000   -0.00000   -0.00000    0.00000    0.00000   -0.00000
   0.00000    0.00000    0.00000   -0.00000   -0.00000    0.00000    0.00001
 prteigrs : prtvol=0 or 1, do not print more k-points.

 Eight components of 2nd-order total energy (hartree) are
 1,2,3: 0th-order hamiltonian combined with 1st-order wavefunctions
     kin0=   7.66619924E+01 eigvalue=   8.69479672E+00  local=  -3.84256339E+01
 4,5,6: 1st-order hamiltonian combined with 1st and 0th-order wfs
     kin1=  -6.29663660E+01  Hartree=   0.00000000E+00     xc=   0.00000000E+00
 7,8,9: eventually, occupation + non-local contributions
    edocc=   6.43997381E+00     enl0=   1.08299949E+01   enl1=  -6.54358818E+01
 1-9 gives the relaxation energy (to be shifted if some occ is /=2.0)
   erelax=  -6.42011239E+01
  No Ewald or frozen-wf contrib.: the relaxation energy is the total one
 2DEtotal=   -0.6420112391E+02 Ha. Also 2DEtotal=   -0.174700142692E+04 eV
    (  non-var. 2DEtotal :   -6.4201123908E+01 Ha)

 Perturbation wavevector (in red.coord.)   0.000000  0.000000  0.000000
 Perturbation : derivative vs k along direction   2
 The set of symmetries contains only one element for this perturbation.
 symkpt : not enough symmetry to change the number of k points.

[...]

 Perturbation wavevector (in red.coord.)   0.000000  0.000000  0.000000
 Perturbation : derivative vs k along direction   3
 The set of symmetries contains only one element for this perturbation.
 symkpt : not enough symmetry to change the number of k points.

 Initialisation of the first-order wave-functions :
  ireadwf=   0

--- !BeginCycle
iteration_state: {dtset: 1, }
solver: {iscf: 7, nstep: 2000, nline: 4, wfoptalg: 0, }
tolerances: {tolwfr: 1.00E-20, }
...

     iter   2DEtotal(Ha)        deltaE(Ha) residm    vres2
-ETOT  1  -110.99898595914     -1.110E+02 1.017E-01 0.000E+00
 ETOT  2  -111.08777257674     -8.879E-02 1.185E-02 0.000E+00
 ETOT  3  -111.09044192831     -2.669E-03 7.804E-04 0.000E+00
 ETOT  4  -111.09073827774     -2.963E-04 2.865E-04 0.000E+00
 ETOT  5  -111.09077338813     -3.511E-05 3.086E-05 0.000E+00
 ETOT  6  -111.09077792676     -4.539E-06 1.289E-05 0.000E+00
 ETOT  7  -111.09077852713     -6.004E-07 1.808E-06 0.000E+00
 ETOT  8  -111.09077860940     -8.226E-08 7.453E-07 0.000E+00
 ETOT  9  -111.09077862086     -1.147E-08 1.140E-07 0.000E+00
 ETOT 10  -111.09077862250     -1.637E-09 4.586E-08 0.000E+00
 ETOT 11  -111.09077862274     -2.370E-10 7.167E-09 0.000E+00
 ETOT 12  -111.09077862277     -3.520E-11 2.875E-09 0.000E+00
 ETOT 13  -111.09077862278     -5.485E-12 4.591E-10 0.000E+00
 ETOT 14  -111.09077862278     -6.963E-13 1.819E-10 0.000E+00
 ETOT 15  -111.09077862278     -5.684E-14 2.909E-11 0.000E+00
 ETOT 16  -111.09077862278     -7.105E-14 1.161E-11 0.000E+00
 ETOT 17  -111.09077862278      2.842E-14 1.897E-12 0.000E+00
 ETOT 18  -111.09077862278     -7.105E-14 7.451E-13 0.000E+00
 ETOT 19  -111.09077862278      4.263E-14 1.213E-13 0.000E+00
 ETOT 20  -111.09077862278     -7.105E-14 4.822E-14 0.000E+00
 ETOT 21  -111.09077862278      4.263E-14 8.057E-15 0.000E+00
 ETOT 22  -111.09077862278     -1.421E-14 3.133E-15 0.000E+00
 ETOT 23  -111.09077862278     -1.421E-14 5.202E-16 0.000E+00
 ETOT 24  -111.09077862278      1.421E-14 2.053E-16 0.000E+00
 ETOT 25  -111.09077862278      1.421E-14 3.500E-17 0.000E+00
 ETOT 26  -111.09077862278      2.842E-14 1.349E-17 0.000E+00
 ETOT 27  -111.09077862278     -4.263E-14 2.284E-18 0.000E+00
 ETOT 28  -111.09077862278      0.000E+00 8.925E-19 0.000E+00
 ETOT 29  -111.09077862278      0.000E+00 1.545E-19 0.000E+00
 ETOT 30  -111.09077862278      0.000E+00 5.915E-20 0.000E+00
 ETOT 31  -111.09077862278      0.000E+00 1.019E-20 0.000E+00
 ETOT 32  -111.09077862278      1.421E-14 9.935E-21 0.000E+00

 At SCF step   32   max residual=  9.94E-21 < tolwfr=  1.00E-20 =>converged.

 ----iterations are completed or convergence reached----

 dfpt_looppert: DFPT cycle converged with prtwf=-1. Will skip output of the 1st-order WFK file.
 dfpt_looppert : ek2=    1.0353738993E+02
          f-sum rule ratio=    1.0438090177E+00
 prteigrs : about to open file /scratch/users/j/a/jabreu/flow_simple_10atoms/flow/w361/t1/tmpdata/tmp_1WF1_EIG
 Expectation of eigenvalue derivatives (hartree) for nkpt=   2  k points:
  (in case of degenerate eigenvalues, averaged derivative)
 kpt#   1, nband= 71, wtk=  0.50000, kpt=  0.5000  0.5000 -0.5000 (reduced coord)
  -0.00000   -0.00000   -0.00000    0.00000   -0.00000    0.00000   -0.00000   -0.00000
  -0.00000   -0.00000    0.00000   -0.00000   -0.00000    0.00000    0.00000    0.00000
  -0.00000    0.00000    0.00000   -0.00000   -0.00000   -0.00000   -0.00000   -0.00000
   0.00000   -0.00000    0.00000    0.00000   -0.00000    0.00000   -0.00000   -0.00000
   0.00000    0.00000   -0.00000    0.00000    0.00000   -0.00000    0.00000    0.00000
   0.00000    0.00000    0.00000    0.00000    0.00000    0.00000   -0.00000   -0.00000
   0.00000    0.00000   -0.00000    0.00000   -0.00000    0.00000   -0.00000    0.00000
   0.00000   -0.00000   -0.00000   -0.00000   -0.00000   -0.00000    0.00000    0.00000
   0.00000   -0.00000    0.00000    0.00000   -0.00000    0.00000    0.00000
 prteigrs : prtvol=0 or 1, do not print more k-points.

 Eight components of 2nd-order total energy (hartree) are
 1,2,3: 0th-order hamiltonian combined with 1st-order wavefunctions
     kin0=   1.29640595E+02 eigvalue=   1.58189127E+01  local=  -6.44926278E+01
 4,5,6: 1st-order hamiltonian combined with 1st and 0th-order wfs
     kin1=  -1.08073261E+02  Hartree=   0.00000000E+00     xc=   0.00000000E+00
 7,8,9: eventually, occupation + non-local contributions
    edocc=   1.19244631E+01     enl0=   1.81994356E+01   enl1=  -1.14108296E+02
 1-9 gives the relaxation energy (to be shifted if some occ is /=2.0)
   erelax=  -1.11090779E+02
  No Ewald or frozen-wf contrib.: the relaxation energy is the total one
 2DEtotal=   -0.1110907786E+03 Ha. Also 2DEtotal=   -0.302293382041E+04 eV
    (  non-var. 2DEtotal :   -1.1109077862E+02 Ha)

 CALCULATION OF EFFECTIVE MASSES
 NOTE : Additional infos (eff. mass eigenvalues, eigenvectors and, if degenerate, average mass) are available in stdout.

 K-point ( 0.500, 0.500,-0.500) | band =    62
 Effective mass tensor:
             -1.1514144239             -0.0412811968             -0.1396633789
             -0.0412811968             -0.6994527967              0.0870415597
             -0.1396633789              0.0870415597             -0.9231718054
 Effective mass tensor eigenvalues:
             -1.2176525686             -0.9026135885             -0.6537728688
 Angular average effective mass 1/(<1/m>)=  -0.8673705614
 Angular average effective mass for Frohlich model (<m**0.5>)**2=  -0.8842190970
 Effective masses along directions: (cart. coord. / red. coord. -> eff. mass)
    1:   1.000000  0.000000  0.000000 /   0.983565 -0.180554  0.000000 ->  -1.1259962721
    2:   0.000000  1.000000  0.000000 /   0.000000  1.000000  0.000000 ->  -0.6886230549
    3:   0.000000  0.000000  1.000000 /  -0.460162 -0.509274  0.727249 ->  -0.8940915943
    4:   0.577350  0.577350  0.577350 /   0.138837 -0.140044  0.980363 ->  -0.9003832540
    5:   0.000000  0.707107  0.707107 /  -0.534696 -0.000591  0.845044 ->  -0.6979265849
    6:   0.707107  0.000000  0.707107 /   0.107678 -0.640533  0.760344 ->  -1.1596564326
    7:   0.707107  0.707107  0.000000 /   0.811591  0.584226  0.000000 ->  -0.9089404571

 K-point ( 0.000, 0.000, 0.000) | band =    63
 Effective mass tensor:
              0.2159158583              0.0138497515              0.0020509531
              0.0138497515              0.1587569191             -0.0292022555
              0.0020509531             -0.0292022555              0.2125641272
 Effective mass tensor eigenvalues:
              0.1434314043              0.2168885648              0.2269169355
 Angular average effective mass 1/(<1/m>)=   0.1876227122
 Angular average effective mass for Frohlich model (<m**0.5>)**2=   0.1901938287
 Effective masses along directions: (cart. coord. / red. coord. -> eff. mass)
    1:   1.000000  0.000000  0.000000 /   0.983565 -0.180554  0.000000 ->   0.2146055621
    2:   0.000000  1.000000  0.000000 /   0.000000  1.000000  0.000000 ->   0.1538201058
    3:   0.000000  0.000000  1.000000 /  -0.460162 -0.509274  0.727249 ->   0.2070940816
    4:   0.577350  0.577350  0.577350 /   0.138837 -0.140044  0.980363 ->   0.1793603916
    5:   0.000000  0.707107  0.707107 /  -0.534696 -0.000591  0.845044 ->   0.1523891969
    6:   0.707107  0.000000  0.707107 /   0.107678 -0.640533  0.760344 ->   0.2154801958
    7:   0.707107  0.707107  0.000000 /   0.811591  0.584226  0.000000 ->   0.1939911075

 END OF EFFECTIVE MASSES SECTION

 ---- first-order wavefunction calculations are completed ----

 Total localisation tensor (bohr^2) in cartesian coordinates
  WARNING : still subject to testing - especially symmetries.
      direction              matrix element
   alpha     beta       real part   imaginary part
     1        1       1.6594975803    0.0000000000
     1        2      -0.3078079931    0.0000000000
     1        3      -0.9967813728    0.0000000000
     2        1      -0.3078079931    0.0000000000
     2        2       1.5148426033    0.0000000000
     2        3      -1.5163565968    0.0000000000
     3        1      -0.9967813728    0.0000000000
     3        2      -1.5163565968    0.0000000000
     3        3       7.2868769861    0.0000000000

 respfn : d/dk was computed, but no 2DTE, so no DDB output.

== END DATASET(S) ==============================================================

 -outvars: echo values of variables after computation  --------
            acell      1.0000000000E+00  1.0000000000E+00  1.0000000000E+00 Bohr
              amu      1.32905430E+02  1.18710000E+02  7.49215900E+01
             ecut      4.20000000E+01 Hartree
           etotal     -1.1109077862E+02
            fcart      0.0000000000E+00  0.0000000000E+00  0.0000000000E+00
                       0.0000000000E+00  0.0000000000E+00  0.0000000000E+00
                       0.0000000000E+00  0.0000000000E+00  0.0000000000E+00
                       0.0000000000E+00  0.0000000000E+00  0.0000000000E+00
                       0.0000000000E+00  0.0000000000E+00  0.0000000000E+00
                       0.0000000000E+00  0.0000000000E+00  0.0000000000E+00
                       0.0000000000E+00  0.0000000000E+00  0.0000000000E+00
                       0.0000000000E+00  0.0000000000E+00  0.0000000000E+00
                       0.0000000000E+00  0.0000000000E+00  0.0000000000E+00
                       0.0000000000E+00  0.0000000000E+00  0.0000000000E+00
-          fftalg         512
           irdden           1
           irdwfk           1
           istwfk        0    1
              ixc     -116133
              kpt      5.00000000E-01  5.00000000E-01 -5.00000000E-01
                       0.00000000E+00  0.00000000E+00  0.00000000E+00
           kptopt           0
P           mkmem           2
P          mkqmem           2
P          mk1mem           2
            natom          10
            nband          71
           nbdbuf           4
            ngfft         100     100     100
             nkpt           2
            nstep        2000
             nsym           8
           ntypat           3
              occ      2.000000  2.000000  2.000000  2.000000  2.000000  2.000000
                       2.000000  2.000000  2.000000  2.000000  2.000000  2.000000
                       2.000000  2.000000  2.000000  2.000000  2.000000  2.000000
                       2.000000  2.000000  2.000000  2.000000  2.000000  2.000000
                       2.000000  2.000000  2.000000  2.000000  2.000000  2.000000
                       2.000000  2.000000  2.000000  2.000000  2.000000  2.000000
                       2.000000  2.000000  2.000000  2.000000  2.000000  2.000000
                       2.000000  2.000000  2.000000  2.000000  2.000000  2.000000
                       2.000000  2.000000  2.000000  2.000000  2.000000  2.000000
                       2.000000  2.000000  2.000000  2.000000  2.000000  2.000000
                       2.000000  2.000000  0.000000  0.000000  0.000000  0.000000
                       0.000000  0.000000  0.000000  0.000000  0.000000
        optdriver           1
            prtwf          -1
            rfdir           1       1       1
           rfelfd           2
            rprim      1.3106801702E+01  0.0000000000E+00 -1.0709789354E+01
                      -2.4060280702E+00  1.1840997983E+01 -1.1852832343E+01
                       0.0000000000E+00  0.0000000000E+00  1.6925951639E+01
          spgroup          72
           strten      0.0000000000E+00  0.0000000000E+00  0.0000000000E+00
                       0.0000000000E+00  0.0000000000E+00  0.0000000000E+00
           symrel      1  0  0   0  1  0   0  0  1      -1  0  0   0 -1  0   0  0 -1
                       0  0  1  -1 -1 -1   1  0  0       0  0 -1   1  1  1  -1  0  0
                      -1 -1 -1   0  0  1   0  1  0       1  1  1   0  0 -1   0 -1  0
                       0  1  0   1  0  0  -1 -1 -1       0 -1  0  -1  0  0   1  1  1
            tnons      0.0000000  0.0000000  0.0000000     0.0000000 -0.0000000  0.0000000
                       0.0000000  0.5000000  0.5000000     0.0000000  0.5000000  0.5000000
                       0.0000000  0.0000000  0.0000000     0.0000000 -0.0000000 -0.0000000
                       0.0000000  0.5000000  0.5000000     0.0000000  0.5000000  0.5000000
           tolwfr      1.00000000E-20
            typat      1  1  1  1  2  2  3  3  3  3
           useylm           1
              wtk        0.50000    0.50000
           xangst      3.7024514679E+00  5.3545484302E+00 -1.7850829688E+00
                       1.9601540525E+00  9.1143782934E-01 -1.1977143587E+00
                       5.9864016244E+00  4.0444309591E+00 -6.6008005180E+00
                      -3.2379610405E-01  2.2215553004E+00  3.6180031905E+00
                       2.5129989557E+00  4.6994896947E+00 -5.2986678073E+00
                       3.1496065647E+00  1.5664965649E+00  2.3158704798E+00
                       2.1745618715E+00  3.7608778494E+00  1.2100180704E+00
                       3.4880436489E+00  2.5051084101E+00 -4.1928153980E+00
                       4.0310865884E-01  5.6381015399E+00 -4.0116939669E+00
                       5.2594968616E+00  6.2788471964E-01  1.0288966393E+00
            xcart      6.9966192946E+00  1.0118630098E+01 -3.3733179356E+00
                       3.7041543375E+00  1.7223678846E+00 -2.2633521234E+00
                       1.1312659592E+01  7.6428668761E+00 -1.2473705237E+01
                      -6.1188595954E-01  4.1981311069E+00  6.8370351779E+00
                       4.7488797985E+00  8.8807484872E+00 -1.0013031025E+01
                       5.9518938336E+00  2.9602494957E+00  4.3763609660E+00
                       4.1093263961E+00  7.1070291546E+00  2.2866027689E+00
                       6.5914472360E+00  4.7339688284E+00 -7.9232728279E+00
                       7.6176496700E-01  1.0654467820E+01 -7.5810029264E+00
                       9.9390086651E+00  1.1865301631E+00  1.9443328674E+00
             xred      6.9068500000E-01  8.5454200000E-01  8.3614300000E-01
                       3.0931500000E-01  1.4545800000E-01  1.6385700000E-01
                       9.8160100000E-01  6.4545800000E-01  3.3614300000E-01
                       1.8399000000E-02  3.5454200000E-01  6.6385700000E-01
                       5.0000000000E-01  7.5000000000E-01  2.5000000000E-01
                       5.0000000000E-01  2.5000000000E-01  7.5000000000E-01
                       4.2370650000E-01  6.0020525000E-01  8.2350125000E-01
                       5.7629350000E-01  3.9979475000E-01  1.7649875000E-01
                       2.2329600000E-01  8.9979475000E-01  3.2350125000E-01
                       7.7670400000E-01  1.0020525000E-01  6.7649875000E-01
            znucl       55.00000   50.00000   33.00000

- Timing analysis has been suppressed with timopt=0

 Suggested references for the acknowledgment of ABINIT usage.

 Calculation completed.
.Delivered   2 WARNINGs and   7 COMMENTs to log file.