.Version 9.5.1 of ABINIT

 ABINIT is a project of the Universite Catholique de Louvain,
 Corning Inc. and other collaborators, see ~abinit/doc/developers/contributors.txt .
 acknowledgments of the ABINIT effort.

.Starting date : Thu 29 Apr 2021.
- ( at 14h36 )

- input  file    -> /scratch/users/j/a/jabreu/flow_simple_5atoms/flow/w162/t1/run.abi
- output file    -> /scratch/users/j/a/jabreu/flow_simple_5atoms/flow/w162/t1/run.abo
- root for input  files -> /scratch/users/j/a/jabreu/flow_simple_5atoms/flow/w162/t1/indata/in
- root for output files -> /scratch/users/j/a/jabreu/flow_simple_5atoms/flow/w162/t1/outdata/out

 Symmetries : space group P-3 m 1 (#164); Bravais hP (primitive hexag.)
     intxc =       0      iscf =       7    lmnmax =      18     lnmax =       6
     mgfft =      75  mpssoang =       3    mqgrid =    3610     natom =       5
  nloc_mem =       1    nspden =       1   nspinor =       1    nsppol =       1
      nsym =      12    n1xccc =    2501    ntypat =       3    occopt =       1
   xclevel =       2
-    mband =          33        mffmem =           1         mkmem =           2
-   mkqmem =           2        mk1mem =           2           mpw =        7393
      nfft =      151875          nkpt =           2
  Rough estimation (10% accuracy) of disk space for files :

------------- Echo of variables that govern the present computation ------------
-
- outvars: echo of selected default values
-   iomode0 =  0 , fftalg0 =512 , wfoptalg0 =  0
-
- outvars: echo of global parameters not present in the input file
-  max_nthreads =    0
-
 -outvars: echo values of preprocessed input variables --------
            acell      1.0000000000E+00  1.0000000000E+00  1.0000000000E+00 Bohr
              amu      2.43050000E+01  9.01218200E+00  7.49215900E+01
             ecut      4.40000000E+01 Hartree
-          fftalg         512
           irdden           1
           irdwfk           1
           istwfk        1    0
              ixc     -116133
              kpt      0.00000000E+00  0.00000000E+00  0.00000000E+00
                       3.33333333E-01  3.33333333E-01  0.00000000E+00
           kptopt           0
P           mkmem           2
P          mkqmem           2
P          mk1mem           2
            natom           5
            nband          33
           nbdbuf           4
            ngfft          45      45      75
             nkpt           2
            nstep         100
             nsym          12
           ntypat           3
              occ      2.000000  2.000000  2.000000  2.000000  2.000000  2.000000
                       2.000000  2.000000  2.000000  2.000000  2.000000  2.000000
                       2.000000  2.000000  2.000000  2.000000  2.000000  2.000000
                       2.000000  2.000000  2.000000  2.000000  2.000000  2.000000
                       0.000000  0.000000  0.000000  0.000000  0.000000  0.000000
                       0.000000  0.000000  0.000000
        optdriver           1
            prtwf          -1
            rfdir           1       1       1
           rfelfd           2
            rprim      7.1128348547E+00  0.0000000000E+00  0.0000000000E+00
                      -3.5564174273E+00  6.1598956771E+00  0.0000000000E+00
                       0.0000000000E+00  0.0000000000E+00  1.2089482537E+01
          spgroup         164
           symrel      1  0  0   0  1  0   0  0  1      -1  0  0   0 -1  0   0  0 -1
                      -1  0  0   1  1  0   0  0  1       1  0  0  -1 -1  0   0  0 -1
                       0  1  0  -1 -1  0   0  0  1       0 -1  0   1  1  0   0  0 -1
                       0 -1  0  -1  0  0   0  0  1       0  1  0   1  0  0   0  0 -1
                      -1 -1  0   1  0  0   0  0  1       1  1  0  -1  0  0   0  0 -1
                       1  1  0   0 -1  0   0  0  1      -1 -1  0   0  1  0   0  0 -1
           tolwfr      1.00000000E-20
            typat      1  2  2  3  3
           useylm           1
              wtk        0.50000    0.50000
           xangst      0.0000000000E+00  0.0000000000E+00  0.0000000000E+00
                       1.8819750468E+00  1.0865587999E+00  2.4003467739E+00
                       1.7638771742E-11  2.1731175997E+00  3.9971318481E+00
                       1.7638771742E-11  2.1731175997E+00  1.6863369799E+00
                       1.8819750468E+00  1.0865587999E+00  4.7111416421E+00
            xcart      0.0000000000E+00  0.0000000000E+00  0.0000000000E+00
                       3.5564174274E+00  2.0532985590E+00  4.5359980267E+00
                       3.3332447913E-11  4.1065971181E+00  7.5534845099E+00
                       3.3332447913E-11  4.1065971181E+00  3.1867150598E+00
                       3.5564174274E+00  2.0532985590E+00  8.9027674768E+00
             xred      0.0000000000E+00  0.0000000000E+00  0.0000000000E+00
                       6.6666666667E-01  3.3333333333E-01  3.7520200000E-01
                       3.3333333333E-01  6.6666666667E-01  6.2479800000E-01
                       3.3333333333E-01  6.6666666667E-01  2.6359400000E-01
                       6.6666666667E-01  3.3333333333E-01  7.3640600000E-01
            znucl       12.00000    4.00000   33.00000

 chkinp: Checking input parameters for consistency.

== DATASET  1 ==================================================================
-   mpi_nproc: 1, omp_nthreads: -1 (-1 if OMP is not activated)

--- !DatasetInfo
iteration_state: {dtset: 1, }
dimensions: {natom: 5, nkpt: 2, mband: 33, nsppol: 1, nspinor: 1, nspden: 1, mpw: 7393, }
cutoff_energies: {ecut:  44.0, pawecutdg:  -1.0, }
electrons: {nelect:   4.80000000E+01, charge:   0.00000000E+00, occopt:   1.00000000E+00, tsmear:   1.00000000E-02, }
meta: {optdriver: 1, rfelfd: 2, }
...

 Real(R)+Recip(G) space primitive vectors, cartesian coordinates (Bohr,Bohr^-1):
 R(1)=  7.1128349  0.0000000  0.0000000  G(1)=  0.1405909  0.0811702  0.0000000
 R(2)= -3.5564174  6.1598957  0.0000000  G(2)=  0.0000000  0.1623404  0.0000000
 R(3)=  0.0000000  0.0000000 12.0894825  G(3)=  0.0000000  0.0000000  0.0827165
 Unit cell volume ucvol=  5.2969246E+02 bohr^3
 Angles (23,13,12)=  9.00000000E+01  9.00000000E+01  1.20000000E+02 degrees

 getcut: wavevector=  0.0000  0.0000  0.0000  ngfft=  45  45  75
         ecut(hartree)=     44.000   => boxcut(ratio)=   2.04990

--- Pseudopotential description ------------------------------------------------
- pspini: atom type   1  psp file is /scratch/users/j/a/jabreu/pseudos/PBEsol/Mg.psp8
- pspatm: opening atomic psp file    /scratch/users/j/a/jabreu/pseudos/PBEsol/Mg.psp8
- Mg    ONCVPSP-3.3.0  r_core=   1.16056   1.56380
- 12.00000  10.00000    180112                znucl, zion, pspdat
    8 -116133    1    4       400   0.00000   pspcod,pspxc,lmax,lloc,mmax,r2well
    3.99000000000000    0.00000000000000    0.00000000000000   rchrg,fchrg,qchrg
     nproj     2     2
     extension_switch     1
  pspatm : epsatm=    9.18164846
         --- l  ekb(1:nproj) -->
             0    2.230603   -0.826587
             1   -6.503151   -2.501445
 pspatm: atomic psp has been read  and splines computed

- pspini: atom type   2  psp file is /scratch/users/j/a/jabreu/pseudos/PBEsol/Be.psp8
- pspatm: opening atomic psp file    /scratch/users/j/a/jabreu/pseudos/PBEsol/Be.psp8
- Be    ONCVPSP-3.3.0  r_core=   1.35684   1.10780
-  4.00000   4.00000    180112                znucl, zion, pspdat
    8 -116133    1    4       400   0.00000   pspcod,pspxc,lmax,lloc,mmax,r2well
    3.99000000000000    0.00000000000000    0.00000000000000   rchrg,fchrg,qchrg
     nproj     2     2
     extension_switch     1
  pspatm : epsatm=    3.86293307
         --- l  ekb(1:nproj) -->
             0   -7.966826   -2.672546
             1   -3.431835   -0.651830
 pspatm: atomic psp has been read  and splines computed

- pspini: atom type   3  psp file is /scratch/users/j/a/jabreu/pseudos/PBEsol/As.psp8
- pspatm: opening atomic psp file    /scratch/users/j/a/jabreu/pseudos/PBEsol/As.psp8
- As    ONCVPSP-3.3.0  r_core=   1.76603   1.70395   1.80867
- 33.00000  15.00000    180112                znucl, zion, pspdat
    8 -116133    2    4       600   0.00000   pspcod,pspxc,lmax,lloc,mmax,r2well
    5.99000000000000    5.00000000000000    0.00000000000000   rchrg,fchrg,qchrg
     nproj     2     2     2
     extension_switch     1
  pspatm : epsatm=   28.79155382
         --- l  ekb(1:nproj) -->
             0    8.270760    0.868950
             1    4.919053    0.756587
             2  -10.048665   -4.076802
 pspatm: atomic psp has been read  and splines computed

   3.57554987E+03                                ecore*ucvol(ha*bohr**3)

-inwffil : will read wavefunctions from disk file /scratch/users/j/a/jabreu/flow_simple_5atoms/flow/w162/t1/indata/in_WFK

 ==>  initialize data related to q vector <==

 The list of irreducible perturbations for this q vector is:
    1)    idir= 1    ipert=   6
    2)    idir= 2    ipert=   6
    3)    idir= 3    ipert=   6

 Perturbation wavevector (in red.coord.)   0.000000  0.000000  0.000000
 Perturbation : derivative vs k along direction   1

 dfpt_looppert : COMMENT -
  In a d/dk calculation, iscf is set to -3 automatically.
 The set of symmetries contains only one element for this perturbation.
 symkpt : not enough symmetry to change the number of k points.

[...]

 Initialisation of the first-order wave-functions :
  ireadwf=   0

--- !BeginCycle
iteration_state: {dtset: 1, }
solver: {iscf: 7, nstep: 100, nline: 4, wfoptalg: 0, }
tolerances: {tolwfr: 1.00E-20, }
...

     iter   2DEtotal(Ha)        deltaE(Ha) residm    vres2
-ETOT  1  -114.19826304037     -1.142E+02 1.202E-01 0.000E+00
 ETOT  2  -114.26318212848     -6.492E-02 1.148E-02 0.000E+00
 ETOT  3  -114.26322282973     -4.070E-05 2.707E-04 0.000E+00
 ETOT  4  -114.26322289947     -6.974E-08 4.855E-05 0.000E+00
 ETOT  5  -114.26322289963     -1.508E-10 1.347E-06 0.000E+00
 ETOT  6  -114.26322289963     -3.268E-13 2.471E-07 0.000E+00
 ETOT  7  -114.26322289963      8.527E-14 7.621E-09 0.000E+00
 ETOT  8  -114.26322289963     -4.263E-14 1.419E-09 0.000E+00
 ETOT  9  -114.26322289963      0.000E+00 4.417E-11 0.000E+00
 ETOT 10  -114.26322289963      1.421E-14 8.448E-12 0.000E+00
 ETOT 11  -114.26322289963     -1.421E-14 2.611E-13 0.000E+00
 ETOT 12  -114.26322289963     -1.421E-14 5.092E-14 0.000E+00
 ETOT 13  -114.26322289963      1.421E-14 1.567E-15 0.000E+00
 ETOT 14  -114.26322289963      1.421E-14 3.098E-16 0.000E+00
 ETOT 15  -114.26322289963     -1.421E-14 9.511E-18 0.000E+00
 ETOT 16  -114.26322289963     -1.421E-14 1.899E-18 0.000E+00
 ETOT 17  -114.26322289963      0.000E+00 5.824E-20 0.000E+00
 ETOT 18  -114.26322289963      1.421E-14 1.171E-20 0.000E+00
 ETOT 19  -114.26322289963      0.000E+00 9.910E-21 0.000E+00

 At SCF step   19   max residual=  9.91E-21 < tolwfr=  1.00E-20 =>converged.

 ----iterations are completed or convergence reached----

 dfpt_looppert: DFPT cycle converged with prtwf=-1. Will skip output of the 1st-order WFK file.
 dfpt_looppert : ek2=    9.9881315941E+01
          f-sum rule ratio=    1.2397215654E+00
 prteigrs : about to open file /scratch/users/j/a/jabreu/flow_simple_5atoms/flow/w162/t1/tmpdata/tmp_1WF1_EIG
 Expectation of eigenvalue derivatives (hartree) for nkpt=   2  k points:
  (in case of degenerate eigenvalues, averaged derivative)
 kpt#   1, nband= 33, wtk=  0.50000, kpt=  0.0000  0.0000  0.0000 (reduced coord)
  -0.00000    0.00000    0.00000   -0.00000    0.00000    0.00000   -0.00000    0.00000
   0.00000    0.00000    0.00000    0.00000    0.00000    0.00000    0.00000    0.00000
  -0.00000   -0.00000   -0.00000   -0.00000   -0.00000   -0.00000    0.00000    0.00000
   0.00000   -0.00000   -0.00000   -0.00000    0.00000    0.00000    0.00000   -0.01280
   0.00051
 prteigrs : prtvol=0 or 1, do not print more k-points.

 Eight components of 2nd-order total energy (hartree) are
 1,2,3: 0th-order hamiltonian combined with 1st-order wavefunctions
     kin0=   1.02085701E+02 eigvalue=   1.57574198E+01  local=  -3.67902453E+01
 4,5,6: 1st-order hamiltonian combined with 1st and 0th-order wfs
     kin1=  -1.23825021E+02  Hartree=   0.00000000E+00     xc=   0.00000000E+00
 7,8,9: eventually, occupation + non-local contributions
    edocc=   2.65075999E+01     enl0=   6.70274763E+00   enl1=  -1.04701424E+02
 1-9 gives the relaxation energy (to be shifted if some occ is /=2.0)
   erelax=  -1.14263223E+02
  No Ewald or frozen-wf contrib.: the relaxation energy is the total one
 2DEtotal=   -0.1142632229E+03 Ha. Also 2DEtotal=   -0.310926041940E+04 eV
    (  non-var. 2DEtotal :   -1.1426322290E+02 Ha)

 Perturbation wavevector (in red.coord.)   0.000000  0.000000  0.000000
 Perturbation : derivative vs k along direction   2
 The set of symmetries contains only one element for this perturbation.
 symkpt : not enough symmetry to change the number of k points.

[...]

 Perturbation wavevector (in red.coord.)   0.000000  0.000000  0.000000
 Perturbation : derivative vs k along direction   3
 The set of symmetries contains only one element for this perturbation.
 symkpt : not enough symmetry to change the number of k points.

-inwffil : will read wavefunctions from disk file /scratch/users/j/a/jabreu/flow_simple_5atoms/flow/w162/t1/indata/in_WFK

 Initialisation of the first-order wave-functions :
  ireadwf=   0

--- !BeginCycle
iteration_state: {dtset: 1, }
solver: {iscf: 7, nstep: 100, nline: 4, wfoptalg: 0, }
tolerances: {tolwfr: 1.00E-20, }
...

     iter   2DEtotal(Ha)        deltaE(Ha) residm    vres2
-ETOT  1  -28.677281948806     -2.868E+01 6.441E-02 0.000E+00
 ETOT  2  -28.692096282627     -1.481E-02 1.800E-03 0.000E+00
 ETOT  3  -28.692104299707     -8.017E-06 2.295E-04 0.000E+00
 ETOT  4  -28.692104311623     -1.192E-08 5.114E-06 0.000E+00
 ETOT  5  -28.692104311647     -2.401E-11 1.047E-06 0.000E+00
 ETOT  6  -28.692104311647     -7.105E-15 2.070E-08 0.000E+00
 ETOT  7  -28.692104311647     -2.132E-14 4.967E-09 0.000E+00
 ETOT  8  -28.692104311647     -1.776E-14 8.921E-11 0.000E+00
 ETOT  9  -28.692104311647      7.105E-15 2.416E-11 0.000E+00
 ETOT 10  -28.692104311647      0.000E+00 4.048E-13 0.000E+00
 ETOT 11  -28.692104311647     -7.105E-15 1.197E-13 0.000E+00
 ETOT 12  -28.692104311647      7.105E-15 1.915E-15 0.000E+00
 ETOT 13  -28.692104311647     -3.553E-15 5.998E-16 0.000E+00
 ETOT 14  -28.692104311647      3.553E-15 9.354E-18 0.000E+00
 ETOT 15  -28.692104311647     -3.553E-15 3.025E-18 0.000E+00
 ETOT 16  -28.692104311647      3.553E-15 4.670E-20 0.000E+00
 ETOT 17  -28.692104311647     -3.553E-15 1.533E-20 0.000E+00
 ETOT 18  -28.692104311647      3.553E-15 9.582E-21 0.000E+00

 At SCF step   18   max residual=  9.58E-21 < tolwfr=  1.00E-20 =>converged.

 ----iterations are completed or convergence reached----

 dfpt_looppert: DFPT cycle converged with prtwf=-1. Will skip output of the 1st-order WFK file.
 dfpt_looppert : ek2=    2.5930777891E+01
          f-sum rule ratio=    1.1721412004E+00
 prteigrs : about to open file /scratch/users/j/a/jabreu/flow_simple_5atoms/flow/w162/t1/tmpdata/tmp_1WF1_EIG
 Expectation of eigenvalue derivatives (hartree) for nkpt=   2  k points:
  (in case of degenerate eigenvalues, averaged derivative)
 kpt#   1, nband= 33, wtk=  0.50000, kpt=  0.0000  0.0000  0.0000 (reduced coord)
   0.00000   -0.00000   -0.00000    0.00000   -0.00000   -0.00000    0.00000    0.00000
   0.00000    0.00000    0.00000    0.00000    0.00000    0.00000   -0.00000   -0.00000
   0.00000    0.00000    0.00000    0.00000    0.00000   -0.00000    0.00000    0.00000
   0.00000   -0.00000   -0.00000   -0.00000    0.00000   -0.00000   -0.00000    0.00067
  -0.00002
 prteigrs : prtvol=0 or 1, do not print more k-points.

 Eight components of 2nd-order total energy (hartree) are
 1,2,3: 0th-order hamiltonian combined with 1st-order wavefunctions
     kin0=   2.62667168E+01 eigvalue=   4.09634766E+00  local=  -9.44058949E+00
 4,5,6: 1st-order hamiltonian combined with 1st and 0th-order wfs
     kin1=  -3.03945331E+01  Hartree=   0.00000000E+00     xc=   0.00000000E+00
 7,8,9: eventually, occupation + non-local contributions
    edocc=   6.01951677E+00     enl0=   1.75011254E+00   enl1=  -2.69896755E+01
 1-9 gives the relaxation energy (to be shifted if some occ is /=2.0)
   erelax=  -2.86921043E+01
  No Ewald or frozen-wf contrib.: the relaxation energy is the total one
 2DEtotal=   -0.2869210431E+02 Ha. Also 2DEtotal=   -0.780751864175E+03 eV
    (  non-var. 2DEtotal :   -2.8692104312E+01 Ha)

 CALCULATION OF EFFECTIVE MASSES
 NOTE : Additional infos (eff. mass eigenvalues, eigenvectors and, if degenerate, average mass) are available in stdout.

 COMMENTS:
 - At k-point ( 0.000, 0.000, 0.000), bands    23 through    24
   are DEGENERATE (effective mass tensor is therefore not defined).
   See Section IIIB Eqs. (67)-(70) and Appendix E of PRB 93 205147 (2016).
 - Angular average effective mass for Frohlich model is to be averaged over degenerate bands. See later.
 - Associated theta integrals calculated with ntheta=   1000 points.

 K-point ( 0.000, 0.000, 0.000) | band =    23
 Transport equivalent effective mass tensor:
             -0.1289119144              0.0000035014              0.0000203010
              0.0000035014             -0.1289093827             -0.0000080845
              0.0000203010             -0.0000080845             -1.2691106426
 Transport equivalent effective mass tensor eigenvalues:
             -1.2691106431             -0.1289143713             -0.1289069254
 Angular average effective mass 1/(<1/m>)=  -0.1815432918
 Angular average effective mass for Frohlich model (<m**0.5>)**2=  -0.2198451471
 Effective masses along directions: (cart. coord. / red. coord. -> eff. mass)
    1:   1.000000  0.000000  0.000000 /   0.894427 -0.447214  0.000000 ->  -0.1272252937
    2:   0.000000  1.000000  0.000000 /   0.000000  1.000000  0.000000 ->  -0.1272241211
    3:   0.000000  0.000000  1.000000 /   0.000000  0.000000  1.000000 ->  -1.2555227671
    4:   0.577350  0.577350  0.577350 /   0.498577  0.182492  0.847418 ->  -0.1779264008
    5:   0.000000  0.707107  0.707107 /   0.000000  0.453990  0.891007 ->  -0.2403713429
    6:   0.707107  0.000000  0.707107 /   0.491539 -0.245770  0.835456 ->  -0.2305915518
    7:   0.707107  0.707107  0.000000 /   0.939071  0.343724  0.000000 ->  -0.1272238826

 K-point ( 0.000, 0.000, 0.000) | band =    24
 Transport equivalent effective mass tensor:
             -0.9969312817             -0.0000131622              0.0000558368
             -0.0000131622             -0.9969441057             -0.0000268211
              0.0000558368             -0.0000268211             -1.4826998373
 Transport equivalent effective mass tensor eigenvalues:
             -1.4826998451             -0.9969523345             -0.9969230450
 Angular average effective mass 1/(<1/m>)=  -1.0024846155
 Angular average effective mass for Frohlich model (<m**0.5>)**2=  -1.0159294765
 Effective masses along directions: (cart. coord. / red. coord. -> eff. mass)
    1:   1.000000  0.000000  0.000000 /   0.894427 -0.447214  0.000000 ->  -0.9072292666
    2:   0.000000  1.000000  0.000000 /   0.000000  1.000000  0.000000 ->  -0.9072322625
    3:   0.000000  0.000000  1.000000 /   0.000000  0.000000  1.000000 ->  -1.2557450600
    4:   0.577350  0.577350  0.577350 /   0.498577  0.182492  0.847418 ->  -1.1290945781
    5:   0.000000  0.707107  0.707107 /   0.000000  0.453990  0.891007 ->  -0.8950021877
    6:   0.707107  0.000000  0.707107 /   0.491539 -0.245770  0.835456 ->  -1.0626427098
    7:   0.707107  0.707107  0.000000 /   0.939071  0.343724  0.000000 ->  -0.9071962619

 Angular average effective mass for Frohlich model, averaged over degenerate bands.
 Value of     (<<m**0.5>>)**2 =     5.452418E-01
 Absolute Value of <<m**0.5>> =     7.384049E-01

 K-point ( 0.333, 0.333, 0.000) | band =    25
 Effective mass tensor:
              0.3582407736              0.0000000001              0.0000000012
              0.0000000001              0.3582407737             -0.0000000002
              0.0000000012             -0.0000000002              0.2321362079
 Effective mass tensor eigenvalues:
              0.2321362079              0.3582407736              0.3582407738
 Angular average effective mass 1/(<1/m>)=   0.3033166730
 Angular average effective mass for Frohlich model (<m**0.5>)**2=   0.3074055001
 Effective masses along directions: (cart. coord. / red. coord. -> eff. mass)
    1:   1.000000  0.000000  0.000000 /   0.894427 -0.447214  0.000000 ->   0.3582407736
    2:   0.000000  1.000000  0.000000 /   0.000000  1.000000  0.000000 ->   0.3582407737
    3:   0.000000  0.000000  1.000000 /   0.000000  0.000000  1.000000 ->   0.2321362079
    4:   0.577350  0.577350  0.577350 /   0.498577  0.182492  0.847418 ->   0.3033166738
    5:   0.000000  0.707107  0.707107 /   0.000000  0.453990  0.891007 ->   0.2817205185
    6:   0.707107  0.000000  0.707107 /   0.491539 -0.245770  0.835456 ->   0.2817205197
    7:   0.707107  0.707107  0.000000 /   0.939071  0.343724  0.000000 ->   0.3582407737

 END OF EFFECTIVE MASSES SECTION

 ---- first-order wavefunction calculations are completed ----

 Total localisation tensor (bohr^2) in cartesian coordinates
  WARNING : still subject to testing - especially symmetries.
      direction              matrix element
   alpha     beta       real part   imaginary part
     1        1       3.1751480835    0.0000000000
     1        2      -1.0999028150    0.0000000000
     1        3       0.0000000000    0.0000000000
     2        1      -1.0999028150    0.0000000000
     2        2       1.9050875590    0.0000000000
     2        3       0.0000000000    0.0000000000
     3        1       0.0000000000    0.0000000000
     3        2       0.0000000000    0.0000000000
     3        3       1.9128888859    0.0000000000

 respfn : d/dk was computed, but no 2DTE, so no DDB output.

== END DATASET(S) ==============================================================

 -outvars: echo values of variables after computation  --------
            acell      1.0000000000E+00  1.0000000000E+00  1.0000000000E+00 Bohr
              amu      2.43050000E+01  9.01218200E+00  7.49215900E+01
             ecut      4.40000000E+01 Hartree
           etotal     -2.8692104312E+01
            fcart      0.0000000000E+00  0.0000000000E+00  0.0000000000E+00
                       0.0000000000E+00  0.0000000000E+00  0.0000000000E+00
                       0.0000000000E+00  0.0000000000E+00  0.0000000000E+00
                       0.0000000000E+00  0.0000000000E+00  0.0000000000E+00
                       0.0000000000E+00  0.0000000000E+00  0.0000000000E+00
-          fftalg         512
           irdden           1
           irdwfk           1
           istwfk        1    0
              ixc     -116133
              kpt      0.00000000E+00  0.00000000E+00  0.00000000E+00
                       3.33333333E-01  3.33333333E-01  0.00000000E+00
           kptopt           0
P           mkmem           2
P          mkqmem           2
P          mk1mem           2
            natom           5
            nband          33
           nbdbuf           4
            ngfft          45      45      75
             nkpt           2
            nstep         100
             nsym          12
           ntypat           3
              occ      2.000000  2.000000  2.000000  2.000000  2.000000  2.000000
                       2.000000  2.000000  2.000000  2.000000  2.000000  2.000000
                       2.000000  2.000000  2.000000  2.000000  2.000000  2.000000
                       2.000000  2.000000  2.000000  2.000000  2.000000  2.000000
                       0.000000  0.000000  0.000000  0.000000  0.000000  0.000000
                       0.000000  0.000000  0.000000
        optdriver           1
            prtwf          -1
            rfdir           1       1       1
           rfelfd           2
            rprim      7.1128348547E+00  0.0000000000E+00  0.0000000000E+00
                      -3.5564174273E+00  6.1598956771E+00  0.0000000000E+00
                       0.0000000000E+00  0.0000000000E+00  1.2089482537E+01
          spgroup         164
           strten      0.0000000000E+00  0.0000000000E+00  0.0000000000E+00
                       0.0000000000E+00  0.0000000000E+00  0.0000000000E+00
           symrel      1  0  0   0  1  0   0  0  1      -1  0  0   0 -1  0   0  0 -1
                      -1  0  0   1  1  0   0  0  1       1  0  0  -1 -1  0   0  0 -1
                       0  1  0  -1 -1  0   0  0  1       0 -1  0   1  1  0   0  0 -1
                       0 -1  0  -1  0  0   0  0  1       0  1  0   1  0  0   0  0 -1
                      -1 -1  0   1  0  0   0  0  1       1  1  0  -1  0  0   0  0 -1
                       1  1  0   0 -1  0   0  0  1      -1 -1  0   0  1  0   0  0 -1
           tolwfr      1.00000000E-20
            typat      1  2  2  3  3
           useylm           1
              wtk        0.50000    0.50000
           xangst      0.0000000000E+00  0.0000000000E+00  0.0000000000E+00
                       1.8819750468E+00  1.0865587999E+00  2.4003467739E+00
                       1.7638771742E-11  2.1731175997E+00  3.9971318481E+00
                       1.7638771742E-11  2.1731175997E+00  1.6863369799E+00
                       1.8819750468E+00  1.0865587999E+00  4.7111416421E+00
            xcart      0.0000000000E+00  0.0000000000E+00  0.0000000000E+00
                       3.5564174274E+00  2.0532985590E+00  4.5359980267E+00
                       3.3332447913E-11  4.1065971181E+00  7.5534845099E+00
                       3.3332447913E-11  4.1065971181E+00  3.1867150598E+00
                       3.5564174274E+00  2.0532985590E+00  8.9027674768E+00
             xred      0.0000000000E+00  0.0000000000E+00  0.0000000000E+00
                       6.6666666667E-01  3.3333333333E-01  3.7520200000E-01
                       3.3333333333E-01  6.6666666667E-01  6.2479800000E-01
                       3.3333333333E-01  6.6666666667E-01  2.6359400000E-01
                       6.6666666667E-01  3.3333333333E-01  7.3640600000E-01
            znucl       12.00000    4.00000   33.00000

- Timing analysis has been suppressed with timopt=0

 Suggested references for the acknowledgment of ABINIT usage.

 Calculation completed.
.Delivered  14 WARNINGs and   9 COMMENTs to log file.