.Version 9.5.2 of ABINIT

 ABINIT is a project of the Universite Catholique de Louvain,
 Corning Inc. and other collaborators, see ~abinit/doc/developers/contributors.txt .
 acknowledgments of the ABINIT effort.

.Starting date : Mon 24 May 2021.
- ( at 11h43 )

- input  file    -> /scratch/users/j/a/jabreu/flow_simple_10atoms/flow/w360/t1/run.abi
- output file    -> /scratch/users/j/a/jabreu/flow_simple_10atoms/flow/w360/t1/run.abo
- root for input  files -> /scratch/users/j/a/jabreu/flow_simple_10atoms/flow/w360/t1/indata/in
- root for output files -> /scratch/users/j/a/jabreu/flow_simple_10atoms/flow/w360/t1/outdata/out

 Symmetries : space group P6_3/m m c (#194); Bravais hP (primitive hexag.)
     intxc =       0      iscf =       7    lmnmax =      18     lnmax =       6
     mgfft =     144  mpssoang =       3    mqgrid =    6798     natom =      10
  nloc_mem =       1    nspden =       1   nspinor =       1    nsppol =       1
      nsym =      24    n1xccc =    2501    ntypat =       3    occopt =       1
   xclevel =       2
-    mband =          53        mffmem =           1         mkmem =           2
-   mkqmem =           2        mk1mem =           2           mpw =       10891
      nfft =      230400          nkpt =           2
  Rough estimation (10% accuracy) of disk space for files :

------------- Echo of variables that govern the present computation ------------
-
- outvars: echo of selected default values
-   iomode0 =  0 , fftalg0 =512 , wfoptalg0 =  0
-
- outvars: echo of global parameters not present in the input file
-  max_nthreads =    0
-
 -outvars: echo values of preprocessed input variables --------
            acell      1.0000000000E+00  1.0000000000E+00  1.0000000000E+00 Bohr
              amu      1.14820000E+02  6.97230000E+01  1.59994000E+01
             ecut      4.40000000E+01 Hartree
-          fftalg         512
           irdden           1
           irdwfk           1
           istwfk        0    1
              ixc     -116133
              kpt      2.57575758E-01  0.00000000E+00  0.00000000E+00
                       0.00000000E+00  0.00000000E+00  0.00000000E+00
           kptopt           0
P           mkmem           2
P          mkqmem           2
P          mk1mem           2
            natom          10
            nband          53
           nbdbuf           4
            ngfft          40      40     144
             nkpt           2
            nstep        2000
             nsym          24
           ntypat           3
              occ      2.000000  2.000000  2.000000  2.000000  2.000000  2.000000
                       2.000000  2.000000  2.000000  2.000000  2.000000  2.000000
                       2.000000  2.000000  2.000000  2.000000  2.000000  2.000000
                       2.000000  2.000000  2.000000  2.000000  2.000000  2.000000
                       2.000000  2.000000  2.000000  2.000000  2.000000  2.000000
                       2.000000  2.000000  2.000000  2.000000  2.000000  2.000000
                       2.000000  2.000000  2.000000  2.000000  2.000000  2.000000
                       2.000000  2.000000  0.000000  0.000000  0.000000  0.000000
                       0.000000  0.000000  0.000000  0.000000  0.000000
        optdriver           1
            prtwf          -1
            rfdir           1       1       1
           rfelfd           2
            rprim      6.2892145040E+00  0.0000000000E+00  0.0000000000E+00
                      -3.1446072520E+00  5.4466195303E+00  0.0000000000E+00
                       0.0000000000E+00  0.0000000000E+00  2.2765319465E+01
          spgroup         194
           symrel      1  0  0   0  1  0   0  0  1      -1  0  0   0 -1  0   0  0 -1
                       0  1  0   1  0  0   0  0  1       0 -1  0  -1  0  0   0  0 -1
                       1  1  0  -1  0  0   0  0  1      -1 -1  0   1  0  0   0  0 -1
                      -1  0  0   1  1  0   0  0  1       1  0  0  -1 -1  0   0  0 -1
                       0  1  0  -1 -1  0   0  0  1       0 -1  0   1  1  0   0  0 -1
                      -1 -1  0   0  1  0   0  0  1       1  1  0   0 -1  0   0  0 -1
                      -1  0  0   0 -1  0   0  0  1       1  0  0   0  1  0   0  0 -1
                       0 -1  0  -1  0  0   0  0  1       0  1  0   1  0  0   0  0 -1
                      -1 -1  0   1  0  0   0  0  1       1  1  0  -1  0  0   0  0 -1
                       1  0  0  -1 -1  0   0  0  1      -1  0  0   1  1  0   0  0 -1
                       0 -1  0   1  1  0   0  0  1       0  1  0  -1 -1  0   0  0 -1
                       1  1  0   0 -1  0   0  0  1      -1 -1  0   0  1  0   0  0 -1
            tnons      0.0000000  0.0000000  0.0000000     0.0000000  0.0000000  0.0000000
                       0.0000000  0.0000000  0.5000000     0.0000000  0.0000000  0.5000000
                       0.0000000  0.0000000  0.5000000     0.0000000  0.0000000  0.5000000
                       0.0000000  0.0000000  0.0000000     0.0000000  0.0000000  0.0000000
                       0.0000000  0.0000000  0.0000000     0.0000000  0.0000000  0.0000000
                       0.0000000  0.0000000  0.5000000     0.0000000  0.0000000  0.5000000
                       0.0000000  0.0000000  0.5000000     0.0000000  0.0000000  0.5000000
                       0.0000000  0.0000000  0.0000000     0.0000000  0.0000000  0.0000000
                       0.0000000  0.0000000  0.0000000     0.0000000  0.0000000  0.0000000
                       0.0000000  0.0000000  0.5000000     0.0000000  0.0000000  0.5000000
                       0.0000000  0.0000000  0.5000000     0.0000000  0.0000000  0.5000000
                       0.0000000  0.0000000  0.0000000     0.0000000  0.0000000  0.0000000
           tolwfr      1.00000000E-20
            typat      1  1  2  2  3  3  3  3  3  3
           useylm           1
              wtk        0.50000    0.50000
           xangst      0.0000000000E+00  0.0000000000E+00  6.0234441037E+00
                       0.0000000000E+00  0.0000000000E+00  6.6873663314E-16
                       1.6640544877E+00  9.6074230643E-01  3.0117220518E+00
                       0.0000000000E+00  1.9214846129E+00  9.0351661555E+00
                       0.0000000000E+00  1.9214846129E+00  7.0758482106E+00
                       1.6640544877E+00  9.6074230643E-01  1.0524041069E+00
                       1.6640544877E+00  9.6074230643E-01  4.9710399968E+00
                       0.0000000000E+00  1.9214846129E+00  1.0994484100E+01
                       0.0000000000E+00  0.0000000000E+00  9.0351661555E+00
                       0.0000000000E+00  0.0000000000E+00  3.0117220518E+00
            xcart      0.0000000000E+00  0.0000000000E+00  1.1382659733E+01
                       0.0000000000E+00  0.0000000000E+00  1.2637290917E-15
                       3.1446072520E+00  1.8155398434E+00  5.6913298664E+00
                       0.0000000000E+00  3.6310796869E+00  1.7073989599E+01
                       0.0000000000E+00  3.6310796869E+00  1.3371415276E+01
                       3.1446072520E+00  1.8155398434E+00  1.9887555432E+00
                       3.1446072520E+00  1.8155398434E+00  9.3939041895E+00
                       0.0000000000E+00  3.6310796869E+00  2.0776563922E+01
                       0.0000000000E+00  0.0000000000E+00  1.7073989599E+01
                       0.0000000000E+00  0.0000000000E+00  5.6913298664E+00
             xred      0.0000000000E+00  0.0000000000E+00  5.0000000000E-01
                       0.0000000000E+00  0.0000000000E+00  5.5511151231E-17
                       6.6666666667E-01  3.3333333333E-01  2.5000000000E-01
                       3.3333333333E-01  6.6666666667E-01  7.5000000000E-01
                       3.3333333333E-01  6.6666666667E-01  5.8735900000E-01
                       6.6666666667E-01  3.3333333333E-01  8.7359000000E-02
                       6.6666666667E-01  3.3333333333E-01  4.1264100000E-01
                       3.3333333333E-01  6.6666666667E-01  9.1264100000E-01
                       0.0000000000E+00  0.0000000000E+00  7.5000000000E-01
                       0.0000000000E+00  0.0000000000E+00  2.5000000000E-01
            znucl       49.00000   31.00000    8.00000

 chkinp: Checking input parameters for consistency.

== DATASET  1 ==================================================================
-   mpi_nproc: 1, omp_nthreads: -1 (-1 if OMP is not activated)

--- !DatasetInfo
iteration_state: {dtset: 1, }
dimensions: {natom: 10, nkpt: 2, mband: 53, nsppol: 1, nspinor: 1, nspden: 1, mpw: 10891, }
cutoff_energies: {ecut:  44.0, pawecutdg:  -1.0, }
electrons: {nelect:   8.80000000E+01, charge:   0.00000000E+00, occopt:   1.00000000E+00, tsmear:   1.00000000E-02, }
meta: {optdriver: 1, rfelfd: 2, }
...

 Real(R)+Recip(G) space primitive vectors, cartesian coordinates (Bohr,Bohr^-1):
 R(1)=  6.2892145  0.0000000  0.0000000  G(1)=  0.1590024  0.0918001  0.0000000
 R(2)= -3.1446073  5.4466195  0.0000000  G(2)=  0.0000000  0.1836001  0.0000000
 R(3)=  0.0000000  0.0000000 22.7653195  G(3)=  0.0000000  0.0000000  0.0439265
 Unit cell volume ucvol=  7.7982507E+02 bohr^3
 Angles (23,13,12)=  9.00000000E+01  9.00000000E+01  1.20000000E+02 degrees

 getcut: wavevector=  0.0000  0.0000  0.0000  ngfft=  40  40 144
         ecut(hartree)=     44.000   => boxcut(ratio)=   2.11835

--- Pseudopotential description ------------------------------------------------
- pspini: atom type   1  psp file is /scratch/users/j/a/jabreu/pseudos/PBEsol/In.psp8
- pspatm: opening atomic psp file    /scratch/users/j/a/jabreu/pseudos/PBEsol/In.psp8
- In    ONCVPSP-3.3.0  r_core=   2.10853   2.37566   1.87143
- 49.00000  13.00000    180112                znucl, zion, pspdat
    8 -116133    2    4       600   0.00000   pspcod,pspxc,lmax,lloc,mmax,r2well
    5.99000000000000    5.00000000000000    0.00000000000000   rchrg,fchrg,qchrg
     nproj     2     2     2
     extension_switch     1
  pspatm : epsatm=   25.17984752
         --- l  ekb(1:nproj) -->
             0   12.999887    1.931740
             1    5.981707    1.012544
             2   -4.048011   -1.239028
 pspatm: atomic psp has been read  and splines computed

- pspini: atom type   2  psp file is /scratch/users/j/a/jabreu/pseudos/PBEsol/Ga.psp8
- pspatm: opening atomic psp file    /scratch/users/j/a/jabreu/pseudos/PBEsol/Ga.psp8
- Ga    ONCVPSP-3.3.0  r_core=   1.66857   1.75011   1.90252
- 31.00000  13.00000    180112                znucl, zion, pspdat
    8 -116133    2    4       600   0.00000   pspcod,pspxc,lmax,lloc,mmax,r2well
    5.99000000000000    5.00000000000000    0.00000000000000   rchrg,fchrg,qchrg
     nproj     2     2     2
     extension_switch     1
  pspatm : epsatm=   24.50969055
         --- l  ekb(1:nproj) -->
             0    7.053021    1.156713
             1    6.846070    1.293139
             2   -8.368667   -2.819170
 pspatm: atomic psp has been read  and splines computed

- pspini: atom type   3  psp file is /scratch/users/j/a/jabreu/pseudos/PBEsol/O.psp8
- pspatm: opening atomic psp file    /scratch/users/j/a/jabreu/pseudos/PBEsol/O.psp8
[...]
   0.03993    0.02736   -0.00977   -0.01287   -0.00143   -0.00173    0.01307    0.03857
   0.02446   -0.01050    0.02471   -0.02298    0.03467    0.01466    0.01433   -0.00867
   0.11073    0.10628   -0.25034   -0.36225   -0.02742   -0.18770   -0.31392    0.02271
  -0.15720   -0.24521   -0.13970   -0.14175   -0.13155   -0.11187    0.05656   -0.00261
  -0.05725    0.01055    0.02592   -0.00307    0.44867    0.24110    0.27161   -0.01686
   0.35006    0.07461   -0.19120   -0.12049   -0.05185
 prteigrs : prtvol=0 or 1, do not print more k-points.

 Eight components of 2nd-order total energy (hartree) are
 1,2,3: 0th-order hamiltonian combined with 1st-order wavefunctions
     kin0=   2.86728552E+02 eigvalue=   6.48053659E+00  local=  -1.22397497E+02
 4,5,6: 1st-order hamiltonian combined with 1st and 0th-order wfs
     kin1=  -2.62119713E+02  Hartree=   0.00000000E+00     xc=   0.00000000E+00
 7,8,9: eventually, occupation + non-local contributions
    edocc=   2.78396773E+01     enl0=   2.86757257E+01   enl1=  -1.92534276E+02
 1-9 gives the relaxation energy (to be shifted if some occ is /=2.0)
   erelax=  -2.27326994E+02
  No Ewald or frozen-wf contrib.: the relaxation energy is the total one
 2DEtotal=   -0.2273269942E+03 Ha. Also 2DEtotal=   -0.618588210094E+04 eV
    (  non-var. 2DEtotal :   -2.2732699420E+02 Ha)

 Perturbation wavevector (in red.coord.)   0.000000  0.000000  0.000000
 Perturbation : derivative vs k along direction   2
 The set of symmetries contains only one element for this perturbation.
 symkpt : not enough symmetry to change the number of k points.

[...]

 Perturbation wavevector (in red.coord.)   0.000000  0.000000  0.000000
 Perturbation : derivative vs k along direction   3
 The set of symmetries contains only one element for this perturbation.
 symkpt : not enough symmetry to change the number of k points.

 Initialisation of the first-order wave-functions :
  ireadwf=   0

--- !BeginCycle
iteration_state: {dtset: 1, }
solver: {iscf: 7, nstep: 2000, nline: 4, wfoptalg: 0, }
tolerances: {tolwfr: 1.00E-20, }
...

     iter   2DEtotal(Ha)        deltaE(Ha) residm    vres2
-ETOT  1  -12.490221767805     -1.249E+01 3.059E-02 0.000E+00
 ETOT  2  -12.505363737657     -1.514E-02 7.949E-04 0.000E+00
 ETOT  3  -12.505472397426     -1.087E-04 4.185E-05 0.000E+00
 ETOT  4  -12.505474301609     -1.904E-06 4.061E-06 0.000E+00
 ETOT  5  -12.505474348611     -4.700E-08 1.597E-07 0.000E+00
 ETOT  6  -12.505474350024     -1.413E-09 2.996E-08 0.000E+00
 ETOT  7  -12.505474350071     -4.685E-11 1.268E-09 0.000E+00
 ETOT  8  -12.505474350073     -1.677E-12 2.405E-10 0.000E+00
 ETOT  9  -12.505474350073     -5.862E-14 1.024E-11 0.000E+00
 ETOT 10  -12.505474350073     -7.105E-15 1.961E-12 0.000E+00
 ETOT 11  -12.505474350073     -1.776E-15 8.378E-14 0.000E+00
 ETOT 12  -12.505474350073      3.553E-15 1.613E-14 0.000E+00
 ETOT 13  -12.505474350073      3.553E-15 6.900E-16 0.000E+00
 ETOT 14  -12.505474350073     -5.329E-15 1.334E-16 0.000E+00
 ETOT 15  -12.505474350073      1.776E-15 5.709E-18 0.000E+00
 ETOT 16  -12.505474350073     -1.776E-15 1.107E-18 0.000E+00
 ETOT 17  -12.505474350073      5.329E-15 4.736E-20 0.000E+00
 ETOT 18  -12.505474350073     -3.553E-15 9.845E-21 0.000E+00

 At SCF step   18   max residual=  9.84E-21 < tolwfr=  1.00E-20 =>converged.

 ----iterations are completed or convergence reached----

 dfpt_looppert: DFPT cycle converged with prtwf=-1. Will skip output of the 1st-order WFK file.
 dfpt_looppert : ek2=    1.3406793071E+01
          f-sum rule ratio=    1.0452183713E+00
 prteigrs : about to open file /scratch/users/j/a/jabreu/flow_simple_10atoms/flow/w360/t1/tmpdata/tmp_1WF1_EIG
 Expectation of eigenvalue derivatives (hartree) for nkpt=   2  k points:
  (in case of degenerate eigenvalues, averaged derivative)
 kpt#   1, nband= 53, wtk=  0.50000, kpt=  0.2576  0.0000  0.0000 (reduced coord)
  -0.00000   -0.00000   -0.00000   -0.00000   -0.00000    0.00000   -0.00000    0.00000
   0.00000   -0.00000   -0.00000   -0.00000    0.00000   -0.00000    0.00000    0.00000
  -0.00000   -0.00000    0.00000    0.00000    0.00000   -0.00000    0.00000   -0.00000
   0.00000    0.00000    0.00000   -0.00000   -0.00000   -0.00000    0.00000   -0.00000
   0.00000    0.00000   -0.00000   -0.00000   -0.00000    0.00000    0.00000    0.00000
  -0.00000    0.00000    0.00000   -0.00000   -0.00000   -0.00000   -0.00000   -0.00000
  -0.00000   -0.00000    0.00000    0.00000    0.00000
 prteigrs : prtvol=0 or 1, do not print more k-points.

 Eight components of 2nd-order total energy (hartree) are
 1,2,3: 0th-order hamiltonian combined with 1st-order wavefunctions
     kin0=   1.61902909E+01 eigvalue=   4.45760207E-01  local=  -6.75625982E+00
 4,5,6: 1st-order hamiltonian combined with 1st and 0th-order wfs
     kin1=  -1.40130264E+01  Hartree=   0.00000000E+00     xc=   0.00000000E+00
 7,8,9: eventually, occupation + non-local contributions
    edocc=   1.20698582E+00     enl0=   1.41869726E+00   enl1=  -1.09979223E+01
 1-9 gives the relaxation energy (to be shifted if some occ is /=2.0)
   erelax=  -1.25054744E+01
  No Ewald or frozen-wf contrib.: the relaxation energy is the total one
 2DEtotal=   -0.1250547435E+02 Ha. Also 2DEtotal=   -0.340291262891E+03 eV
    (  non-var. 2DEtotal :   -1.2505474350E+01 Ha)

 CALCULATION OF EFFECTIVE MASSES
 NOTE : Additional infos (eff. mass eigenvalues, eigenvectors and, if degenerate, average mass) are available in stdout.

 K-point ( 0.258, 0.000, 0.000) | band =    44
 Effective mass tensor:
             -2.2988635633              0.3569788354              0.0000000064
              0.3569788354             -2.7110672139              0.0000000676
              0.0000000064              0.0000000676             -0.8934097741
 Effective mass tensor eigenvalues:
             -2.9171690413             -2.0927617359             -0.8934097741
 Angular average effective mass 1/(<1/m>)=  -1.5464373570
 Angular average effective mass for Frohlich model (<m**0.5>)**2=  -1.6748296497
 Effective masses along directions: (cart. coord. / red. coord. -> eff. mass)
    1:   1.000000  0.000000  0.000000 /   0.894427 -0.447214  0.000000 ->  -2.2518584989
    2:   0.000000  1.000000  0.000000 /   0.000000  1.000000  0.000000 ->  -2.6556337854
    3:   0.000000  0.000000  1.000000 /   0.000000  0.000000  1.000000 ->  -0.8934097741
    4:   0.577350  0.577350  0.577350 /   0.265032  0.097008  0.959347 ->  -1.4585123252
    5:   0.000000  0.707107  0.707107 /   0.000000  0.232684  0.972552 ->  -1.3370188609
    6:   0.707107  0.000000  0.707107 /   0.263959 -0.131979  0.955462 ->  -1.2792755330
    7:   0.707107  0.707107  0.000000 /   0.939071  0.343724  0.000000 ->  -2.1331442086

 K-point ( 0.000, 0.000, 0.000) | band =    45
 Effective mass tensor:
              0.2004453307             -0.0000003265              0.0000000041
             -0.0000003265              0.2004477040              0.0000000252
              0.0000000041              0.0000000252              0.1740154762
 Effective mass tensor eigenvalues:
              0.1740154762              0.2004452866              0.2004477481
 Angular average effective mass 1/(<1/m>)=   0.1907870319
 Angular average effective mass for Frohlich model (<m**0.5>)**2=   0.1910475894
 Effective masses along directions: (cart. coord. / red. coord. -> eff. mass)
    1:   1.000000  0.000000  0.000000 /   0.894427 -0.447214  0.000000 ->   0.2004453307
    2:   0.000000  1.000000  0.000000 /   0.000000  1.000000  0.000000 ->   0.2004477040
    3:   0.000000  0.000000  1.000000 /   0.000000  0.000000  1.000000 ->   0.1740154762
    4:   0.577350  0.577350  0.577350 /   0.265032  0.097008  0.959347 ->   0.1907868550
    5:   0.000000  0.707107  0.707107 /   0.000000  0.232684  0.972552 ->   0.1862987295
    6:   0.707107  0.000000  0.707107 /   0.263959 -0.131979  0.955462 ->   0.1862976834
    7:   0.707107  0.707107  0.000000 /   0.939071  0.343724  0.000000 ->   0.2004461908

 END OF EFFECTIVE MASSES SECTION

 ---- first-order wavefunction calculations are completed ----

 Total localisation tensor (bohr^2) in cartesian coordinates
  WARNING : still subject to testing - especially symmetries.
      direction              matrix element
   alpha     beta       real part   imaginary part
     1        1       1.6752994277    0.0000000000
     1        2      -0.6319516262    0.0000000000
     1        3       0.0000000000    0.0000000000
     2        1      -0.6319516262    0.0000000000
     2        2       1.0945723246    0.0000000000
     2        3       0.0000000000    0.0000000000
     3        1       0.0000000000    0.0000000000
     3        2       0.0000000000    0.0000000000
     3        3       1.0014603499    0.0000000000

 respfn : d/dk was computed, but no 2DTE, so no DDB output.

== END DATASET(S) ==============================================================

 -outvars: echo values of variables after computation  --------
            acell      1.0000000000E+00  1.0000000000E+00  1.0000000000E+00 Bohr
              amu      1.14820000E+02  6.97230000E+01  1.59994000E+01
             ecut      4.40000000E+01 Hartree
           etotal     -1.2505474350E+01
            fcart      0.0000000000E+00  0.0000000000E+00  0.0000000000E+00
                       0.0000000000E+00  0.0000000000E+00  0.0000000000E+00
                       0.0000000000E+00  0.0000000000E+00  0.0000000000E+00
                       0.0000000000E+00  0.0000000000E+00  0.0000000000E+00
                       0.0000000000E+00  0.0000000000E+00  0.0000000000E+00
                       0.0000000000E+00  0.0000000000E+00  0.0000000000E+00
                       0.0000000000E+00  0.0000000000E+00  0.0000000000E+00
                       0.0000000000E+00  0.0000000000E+00  0.0000000000E+00
                       0.0000000000E+00  0.0000000000E+00  0.0000000000E+00
                       0.0000000000E+00  0.0000000000E+00  0.0000000000E+00
-          fftalg         512
           irdden           1
           irdwfk           1
           istwfk        0    1
              ixc     -116133
              kpt      2.57575758E-01  0.00000000E+00  0.00000000E+00
                       0.00000000E+00  0.00000000E+00  0.00000000E+00
           kptopt           0
P           mkmem           2
P          mkqmem           2
P          mk1mem           2
            natom          10
            nband          53
           nbdbuf           4
            ngfft          40      40     144
             nkpt           2
            nstep        2000
             nsym          24
           ntypat           3
              occ      2.000000  2.000000  2.000000  2.000000  2.000000  2.000000
                       2.000000  2.000000  2.000000  2.000000  2.000000  2.000000
                       2.000000  2.000000  2.000000  2.000000  2.000000  2.000000
                       2.000000  2.000000  2.000000  2.000000  2.000000  2.000000
                       2.000000  2.000000  2.000000  2.000000  2.000000  2.000000
                       2.000000  2.000000  2.000000  2.000000  2.000000  2.000000
                       2.000000  2.000000  2.000000  2.000000  2.000000  2.000000
                       2.000000  2.000000  0.000000  0.000000  0.000000  0.000000
                       0.000000  0.000000  0.000000  0.000000  0.000000
        optdriver           1
            prtwf          -1
            rfdir           1       1       1
           rfelfd           2
            rprim      6.2892145040E+00  0.0000000000E+00  0.0000000000E+00
                      -3.1446072520E+00  5.4466195303E+00  0.0000000000E+00
                       0.0000000000E+00  0.0000000000E+00  2.2765319465E+01
          spgroup         194
           strten      0.0000000000E+00  0.0000000000E+00  0.0000000000E+00
                       0.0000000000E+00  0.0000000000E+00  0.0000000000E+00
           symrel      1  0  0   0  1  0   0  0  1      -1  0  0   0 -1  0   0  0 -1
                       0  1  0   1  0  0   0  0  1       0 -1  0  -1  0  0   0  0 -1
                       1  1  0  -1  0  0   0  0  1      -1 -1  0   1  0  0   0  0 -1
                      -1  0  0   1  1  0   0  0  1       1  0  0  -1 -1  0   0  0 -1
                       0  1  0  -1 -1  0   0  0  1       0 -1  0   1  1  0   0  0 -1
                      -1 -1  0   0  1  0   0  0  1       1  1  0   0 -1  0   0  0 -1
                      -1  0  0   0 -1  0   0  0  1       1  0  0   0  1  0   0  0 -1
                       0 -1  0  -1  0  0   0  0  1       0  1  0   1  0  0   0  0 -1
                      -1 -1  0   1  0  0   0  0  1       1  1  0  -1  0  0   0  0 -1
                       1  0  0  -1 -1  0   0  0  1      -1  0  0   1  1  0   0  0 -1
                       0 -1  0   1  1  0   0  0  1       0  1  0  -1 -1  0   0  0 -1
                       1  1  0   0 -1  0   0  0  1      -1 -1  0   0  1  0   0  0 -1
            tnons      0.0000000  0.0000000  0.0000000     0.0000000  0.0000000  0.0000000
                       0.0000000  0.0000000  0.5000000     0.0000000  0.0000000  0.5000000
                       0.0000000  0.0000000  0.5000000     0.0000000  0.0000000  0.5000000
                       0.0000000  0.0000000  0.0000000     0.0000000  0.0000000  0.0000000
                       0.0000000  0.0000000  0.0000000     0.0000000  0.0000000  0.0000000
                       0.0000000  0.0000000  0.5000000     0.0000000  0.0000000  0.5000000
                       0.0000000  0.0000000  0.5000000     0.0000000  0.0000000  0.5000000
                       0.0000000  0.0000000  0.0000000     0.0000000  0.0000000  0.0000000
                       0.0000000  0.0000000  0.0000000     0.0000000  0.0000000  0.0000000
                       0.0000000  0.0000000  0.5000000     0.0000000  0.0000000  0.5000000
                       0.0000000  0.0000000  0.5000000     0.0000000  0.0000000  0.5000000
                       0.0000000  0.0000000  0.0000000     0.0000000  0.0000000  0.0000000
           tolwfr      1.00000000E-20
            typat      1  1  2  2  3  3  3  3  3  3
           useylm           1
              wtk        0.50000    0.50000
           xangst      0.0000000000E+00  0.0000000000E+00  6.0234441037E+00
                       0.0000000000E+00  0.0000000000E+00  6.6873663314E-16
                       1.6640544877E+00  9.6074230643E-01  3.0117220518E+00
                       0.0000000000E+00  1.9214846129E+00  9.0351661555E+00
                       0.0000000000E+00  1.9214846129E+00  7.0758482106E+00
                       1.6640544877E+00  9.6074230643E-01  1.0524041069E+00
                       1.6640544877E+00  9.6074230643E-01  4.9710399968E+00
                       0.0000000000E+00  1.9214846129E+00  1.0994484100E+01
                       0.0000000000E+00  0.0000000000E+00  9.0351661555E+00
                       0.0000000000E+00  0.0000000000E+00  3.0117220518E+00
            xcart      0.0000000000E+00  0.0000000000E+00  1.1382659733E+01
                       0.0000000000E+00  0.0000000000E+00  1.2637290917E-15
                       3.1446072520E+00  1.8155398434E+00  5.6913298664E+00
                       0.0000000000E+00  3.6310796869E+00  1.7073989599E+01
                       0.0000000000E+00  3.6310796869E+00  1.3371415276E+01
                       3.1446072520E+00  1.8155398434E+00  1.9887555432E+00
                       3.1446072520E+00  1.8155398434E+00  9.3939041895E+00
                       0.0000000000E+00  3.6310796869E+00  2.0776563922E+01
                       0.0000000000E+00  0.0000000000E+00  1.7073989599E+01
                       0.0000000000E+00  0.0000000000E+00  5.6913298664E+00
             xred      0.0000000000E+00  0.0000000000E+00  5.0000000000E-01
                       0.0000000000E+00  0.0000000000E+00  5.5511151231E-17
                       6.6666666667E-01  3.3333333333E-01  2.5000000000E-01
                       3.3333333333E-01  6.6666666667E-01  7.5000000000E-01
                       3.3333333333E-01  6.6666666667E-01  5.8735900000E-01
                       6.6666666667E-01  3.3333333333E-01  8.7359000000E-02
                       6.6666666667E-01  3.3333333333E-01  4.1264100000E-01
                       3.3333333333E-01  6.6666666667E-01  9.1264100000E-01
                       0.0000000000E+00  0.0000000000E+00  7.5000000000E-01
                       0.0000000000E+00  0.0000000000E+00  2.5000000000E-01
            znucl       49.00000   31.00000    8.00000

- Timing analysis has been suppressed with timopt=0

 Suggested references for the acknowledgment of ABINIT usage.

 Calculation completed.
.Delivered   2 WARNINGs and   5 COMMENTs to log file.