.Version 9.5.1 of ABINIT

 ABINIT is a project of the Universite Catholique de Louvain,
 Corning Inc. and other collaborators, see ~abinit/doc/developers/contributors.txt .
 acknowledgments of the ABINIT effort.

.Starting date : Sun 25 Apr 2021.
- ( at 18h03 )

- input  file    -> /scratch/users/j/a/jabreu/flow_simple2/flow/w249/t1/run.abi
- output file    -> /scratch/users/j/a/jabreu/flow_simple2/flow/w249/t1/run.abo
- root for input  files -> /scratch/users/j/a/jabreu/flow_simple2/flow/w249/t1/indata/in
- root for output files -> /scratch/users/j/a/jabreu/flow_simple2/flow/w249/t1/outdata/out

 Symmetries : space group F-4 3 m (#216); Bravais cF (face-center cubic)
     intxc =       0      iscf =       7    lmnmax =      18     lnmax =       6
     mgfft =      36  mpssoang =       3    mqgrid =    3001     natom =       2
  nloc_mem =       1    nspden =       1   nspinor =       1    nsppol =       1
      nsym =      24    n1xccc =    2501    ntypat =       2    occopt =       1
   xclevel =       2
-    mband =          13        mffmem =           1         mkmem =           2
-   mkqmem =           2        mk1mem =           2           mpw =        1807
      nfft =       46656          nkpt =           2
  Rough estimation (10% accuracy) of disk space for files :

------------- Echo of variables that govern the present computation ------------
-
- outvars: echo of selected default values
-   iomode0 =  0 , fftalg0 =512 , wfoptalg0 =  0
-
- outvars: echo of global parameters not present in the input file
-  max_nthreads =    0
-
 -outvars: echo values of preprocessed input variables --------
            acell      1.0000000000E+00  1.0000000000E+00  1.0000000000E+00 Bohr
              amu      2.80855000E+01  1.20110000E+01
             ecut      4.10000000E+01 Hartree
-          fftalg         512
           irdden           1
           irdwfk           1
           istwfk        1    1
              ixc     -116133
              kpt      0.00000000E+00  0.00000000E+00  0.00000000E+00
                       5.00000000E-01  0.00000000E+00  5.00000000E-01
           kptopt           0
P           mkmem           2
P          mkqmem           2
P          mk1mem           2
            natom           2
            nband          13
           nbdbuf           4
            ngfft          36      36      36
             nkpt           2
            nstep         100
             nsym          24
           ntypat           2
              occ      2.000000  2.000000  2.000000  2.000000  0.000000  0.000000
                       0.000000  0.000000  0.000000  0.000000  0.000000  0.000000
                       0.000000
        optdriver           1
            prtwf          -1
            rfdir           1       1       1
           rfelfd           2
            rprim      5.0427584063E+00  0.0000000000E+00  2.9114379234E+00
                       1.6809194688E+00  4.7543582200E+00  2.9114379234E+00
                       0.0000000000E+00  0.0000000000E+00  5.8228758467E+00
          spgroup         216
           symrel      1  0  0   0  1  0   0  0  1       0 -1  1   0 -1  0   1 -1  0
                      -1  0  0  -1  0  1  -1  1  0       0  1 -1   1  0 -1   0  0 -1
                      -1  0  0  -1  1  0  -1  0  1       0 -1  1   1 -1  0   0 -1  0
                       1  0  0   0  0  1   0  1  0       0  1 -1   0  0 -1   1  0 -1
                      -1  0  1  -1  1  0  -1  0  0       0 -1  0   1 -1  0   0 -1  1
                       1  0 -1   0  0 -1   0  1 -1       0  1  0   0  0  1   1  0  0
                       1  0 -1   0  1 -1   0  0 -1       0 -1  0   0 -1  1   1 -1  0
                      -1  0  1  -1  0  0  -1  1  0       0  1  0   1  0  0   0  0  1
                       0  0 -1   0  1 -1   1  0 -1       1 -1  0   0 -1  1   0 -1  0
                       0  0  1   1  0  0   0  1  0      -1  1  0  -1  0  0  -1  0  1
                       0  0  1   0  1  0   1  0  0       1 -1  0   0 -1  0   0 -1  1
                       0  0 -1   1  0 -1   0  1 -1      -1  1  0  -1  0  1  -1  0  0
           tolwfr      1.00000000E-20
            typat      1  2
           useylm           1
              wtk        0.50000    0.50000
           xangst      2.6685128171E+00  1.8869235086E+00  4.6219997798E+00
                       0.0000000000E+00  0.0000000000E+00  0.0000000000E+00
            xcart      5.0427584063E+00  3.5657686650E+00  8.7343137701E+00
                       0.0000000000E+00  0.0000000000E+00  0.0000000000E+00
             xred      7.5000000000E-01  7.5000000000E-01  7.5000000000E-01
                       0.0000000000E+00  0.0000000000E+00  0.0000000000E+00
            znucl       14.00000    6.00000

 chkinp: Checking input parameters for consistency.

== DATASET  1 ==================================================================
-   mpi_nproc: 1, omp_nthreads: -1 (-1 if OMP is not activated)

--- !DatasetInfo
iteration_state: {dtset: 1, }
dimensions: {natom: 2, nkpt: 2, mband: 13, nsppol: 1, nspinor: 1, nspden: 1, mpw: 1807, }
cutoff_energies: {ecut:  41.0, pawecutdg:  -1.0, }
electrons: {nelect:   8.00000000E+00, charge:   0.00000000E+00, occopt:   1.00000000E+00, tsmear:   1.00000000E-02, }
meta: {optdriver: 1, rfelfd: 2, }
...

 Real(R)+Recip(G) space primitive vectors, cartesian coordinates (Bohr,Bohr^-1):
 R(1)=  5.0427584  0.0000000  2.9114379  G(1)=  0.1983042 -0.0701111  0.0000000
 R(2)=  1.6809195  4.7543582  2.9114379  G(2)=  0.0000000  0.2103333  0.0000000
 R(3)=  0.0000000  0.0000000  5.8228758  G(3)= -0.0991521 -0.0701111  0.1717364
 Unit cell volume ucvol=  1.3960391E+02 bohr^3
 Angles (23,13,12)=  6.00000000E+01  6.00000000E+01  6.00000000E+01 degrees

 getcut: wavevector=  0.0000  0.0000  0.0000  ngfft=  36  36  36
         ecut(hartree)=     41.000   => boxcut(ratio)=   2.14490

--- Pseudopotential description ------------------------------------------------
- pspini: atom type   1  psp file is /scratch/users/j/a/jabreu/pseudos/PBEsol/Si.psp8
- pspatm: opening atomic psp file    /scratch/users/j/a/jabreu/pseudos/PBEsol/Si.psp8
- Si    ONCVPSP-3.3.0  r_core=   1.60303   1.72197   1.91712
- 14.00000   4.00000    180112                znucl, zion, pspdat
    8 -116133    2    4       600   0.00000   pspcod,pspxc,lmax,lloc,mmax,r2well
    5.99000000000000    4.00000000000000    0.00000000000000   rchrg,fchrg,qchrg
     nproj     2     2     2
     extension_switch     1
  pspatm : epsatm=    7.86468782
         --- l  ekb(1:nproj) -->
             0    5.384426    0.843824
             1    2.663259    0.615854
             2   -2.267219   -0.458043
 pspatm: atomic psp has been read  and splines computed

- pspini: atom type   2  psp file is /scratch/users/j/a/jabreu/pseudos/PBEsol/C.psp8
- pspatm: opening atomic psp file    /scratch/users/j/a/jabreu/pseudos/PBEsol/C.psp8
- C     ONCVPSP-3.3.0  r_core=   1.20440   1.26326
-  6.00000   4.00000    180112                znucl, zion, pspdat
    8 -116133    1    4       600   0.00000   pspcod,pspxc,lmax,lloc,mmax,r2well
    5.99000000000000    4.00000000000000    0.00000000000000   rchrg,fchrg,qchrg
     nproj     2     2
     extension_switch     1
  pspatm : epsatm=    4.34909529
         --- l  ekb(1:nproj) -->
             0    6.468939    0.390031
             1   -4.179695   -0.878453
 pspatm: atomic psp has been read  and splines computed

   9.77102649E+01                                ecore*ucvol(ha*bohr**3)

-inwffil : will read wavefunctions from disk file /scratch/users/j/a/jabreu/flow_simple2/flow/w249/t1/indata/in_WFK

 ==>  initialize data related to q vector <==

 The list of irreducible perturbations for this q vector is:
    1)    idir= 1    ipert=   3
    2)    idir= 2    ipert=   3
    3)    idir= 3    ipert=   3

 Perturbation wavevector (in red.coord.)   0.000000  0.000000  0.000000
 Perturbation : derivative vs k along direction   1

 dfpt_looppert : COMMENT -
  In a d/dk calculation, iscf is set to -3 automatically.
 The set of symmetries contains only one element for this perturbation.
 symkpt : not enough symmetry to change the number of k points.

[...]

 Initialisation of the first-order wave-functions :
  ireadwf=   0

--- !BeginCycle
iteration_state: {dtset: 1, }
solver: {iscf: 7, nstep: 100, nline: 4, wfoptalg: 0, }
tolerances: {tolwfr: 1.00E-20, }
...

     iter   2DEtotal(Ha)        deltaE(Ha) residm    vres2
-ETOT  1  -27.051157136864     -2.705E+01 5.851E-01 0.000E+00
 ETOT  2  -27.054366697286     -3.210E-03 7.668E-05 0.000E+00
 ETOT  3  -27.054368399355     -1.702E-06 2.329E-07 0.000E+00
 ETOT  4  -27.054368400704     -1.348E-09 8.428E-10 0.000E+00
 ETOT  5  -27.054368400705     -1.311E-12 5.964E-11 0.000E+00
 ETOT  6  -27.054368400705      3.553E-14 4.066E-13 0.000E+00
 ETOT  7  -27.054368400705     -2.842E-14 3.216E-14 0.000E+00
 ETOT  8  -27.054368400705      4.263E-14 1.551E-16 0.000E+00
 ETOT  9  -27.054368400705      0.000E+00 2.361E-17 0.000E+00
 ETOT 10  -27.054368400705     -7.105E-15 2.058E-19 0.000E+00
 ETOT 11  -27.054368400705      7.105E-15 3.002E-20 0.000E+00
 ETOT 12  -27.054368400705     -7.105E-15 9.153E-21 0.000E+00

 At SCF step   12   max residual=  9.15E-21 < tolwfr=  1.00E-20 =>converged.

 ----iterations are completed or convergence reached----

 dfpt_looppert: DFPT cycle converged with prtwf=-1. Will skip output of the 1st-order WFK file.
 dfpt_looppert : ek2=    2.7944472615E+01
          f-sum rule ratio=    2.0839653555E+00
 prteigrs : about to open file /scratch/users/j/a/jabreu/flow_simple2/flow/w249/t1/tmpdata/tmp_1WF1_EIG
 Expectation of eigenvalue derivatives (hartree) for nkpt=   2  k points:
  (in case of degenerate eigenvalues, averaged derivative)
 kpt#   1, nband= 13, wtk=  0.50000, kpt=  0.0000  0.0000  0.0000 (reduced coord)
   0.00000    0.00000    0.00000    0.00000   -0.00000    0.00000    0.00000    0.00000
  -0.00000   -0.00000   -0.00000   -0.00000   -0.00000
 prteigrs : prtvol=0 or 1, do not print more k-points.

 Eight components of 2nd-order total energy (hartree) are
 1,2,3: 0th-order hamiltonian combined with 1st-order wavefunctions
     kin0=   4.56546210E+00 eigvalue=  -2.28244972E-01  local=  -1.38557679E+00
 4,5,6: 1st-order hamiltonian combined with 1st and 0th-order wfs
     kin1=  -5.82353128E+01  Hartree=   0.00000000E+00     xc=   0.00000000E+00
 7,8,9: eventually, occupation + non-local contributions
    edocc=   2.42788448E+01     enl0=  -1.76116747E-01   enl1=   4.12657601E+00
 1-9 gives the relaxation energy (to be shifted if some occ is /=2.0)
   erelax=  -2.70543684E+01
  No Ewald or frozen-wf contrib.: the relaxation energy is the total one
 2DEtotal=   -0.2705436840E+02 Ha. Also 2DEtotal=   -0.736186803641E+03 eV
    (  non-var. 2DEtotal :   -2.7054368401E+01 Ha)

 Perturbation wavevector (in red.coord.)   0.000000  0.000000  0.000000
 Perturbation : derivative vs k along direction   2
 The set of symmetries contains only one element for this perturbation.
 symkpt : not enough symmetry to change the number of k points.

[...]

 Perturbation wavevector (in red.coord.)   0.000000  0.000000  0.000000
 Perturbation : derivative vs k along direction   3
 The set of symmetries contains only one element for this perturbation.
 symkpt : not enough symmetry to change the number of k points.

-inwffil : will read wavefunctions from disk file /scratch/users/j/a/jabreu/flow_simple2/flow/w249/t1/indata/in_WFK

 Initialisation of the first-order wave-functions :
  ireadwf=   0

--- !BeginCycle
iteration_state: {dtset: 1, }
solver: {iscf: 7, nstep: 100, nline: 4, wfoptalg: 0, }
tolerances: {tolwfr: 1.00E-20, }
...

     iter   2DEtotal(Ha)        deltaE(Ha) residm    vres2
-ETOT  1  -27.051091569781     -2.705E+01 1.183E-01 0.000E+00
 ETOT  2  -27.054376743656     -3.285E-03 2.591E-05 0.000E+00
 ETOT  3  -27.054379258512     -2.515E-06 1.632E-06 0.000E+00
 ETOT  4  -27.054379261286     -2.775E-09 6.101E-09 0.000E+00
 ETOT  5  -27.054379261290     -3.816E-12 4.628E-10 0.000E+00
 ETOT  6  -27.054379261290     -3.553E-15 3.025E-12 0.000E+00
 ETOT  7  -27.054379261290      1.421E-14 2.103E-13 0.000E+00
 ETOT  8  -27.054379261290     -1.066E-14 1.331E-15 0.000E+00
 ETOT  9  -27.054379261290     -1.066E-14 1.455E-16 0.000E+00
 ETOT 10  -27.054379261290      3.553E-15 1.311E-18 0.000E+00
 ETOT 11  -27.054379261290      0.000E+00 1.809E-19 0.000E+00
 ETOT 12  -27.054379261290     -3.553E-15 9.819E-21 0.000E+00

 At SCF step   12   max residual=  9.82E-21 < tolwfr=  1.00E-20 =>converged.

 ----iterations are completed or convergence reached----

 dfpt_looppert: DFPT cycle converged with prtwf=-1. Will skip output of the 1st-order WFK file.
 dfpt_looppert : ek2=    2.7944472615E+01
          f-sum rule ratio=    2.0839662221E+00
 prteigrs : about to open file /scratch/users/j/a/jabreu/flow_simple2/flow/w249/t1/tmpdata/tmp_1WF1_EIG
 Expectation of eigenvalue derivatives (hartree) for nkpt=   2  k points:
  (in case of degenerate eigenvalues, averaged derivative)
 kpt#   1, nband= 13, wtk=  0.50000, kpt=  0.0000  0.0000  0.0000 (reduced coord)
  -0.00000   -0.00000   -0.00000   -0.00000   -0.00000   -0.00000   -0.00000   -0.00000
   0.00000    0.00000   -0.00000    0.00000    0.00000
 prteigrs : prtvol=0 or 1, do not print more k-points.

 Eight components of 2nd-order total energy (hartree) are
 1,2,3: 0th-order hamiltonian combined with 1st-order wavefunctions
     kin0=   4.91959092E+00 eigvalue=  -2.92263696E-01  local=  -1.50741856E+00
 4,5,6: 1st-order hamiltonian combined with 1st and 0th-order wfs
     kin1=  -5.82353370E+01  Hartree=   0.00000000E+00     xc=   0.00000000E+00
 7,8,9: eventually, occupation + non-local contributions
    edocc=   2.41200225E+01     enl0=  -1.85551855E-01   enl1=   4.12657850E+00
 1-9 gives the relaxation energy (to be shifted if some occ is /=2.0)
   erelax=  -2.70543793E+01
  No Ewald or frozen-wf contrib.: the relaxation energy is the total one
 2DEtotal=   -0.2705437926E+02 Ha. Also 2DEtotal=   -0.736187099173E+03 eV
    (  non-var. 2DEtotal :   -2.7054379261E+01 Ha)

 CALCULATION OF EFFECTIVE MASSES
 NOTE : Additional infos (eff. mass eigenvalues, eigenvectors and, if degenerate, average mass) are available in stdout.

 COMMENTS:
 - At k-point ( 0.000, 0.000, 0.000), bands     2 through     4
   are DEGENERATE (effective mass tensor is therefore not defined).
   See Section IIIB Eqs. (67)-(70) and Appendix E of PRB 93 205147 (2016).
 - Angular average effective mass for Frohlich model is to be averaged over degenerate bands. See later.
 - Associated theta integrals calculated with ntheta=   1000 points.

 K-point ( 0.000, 0.000, 0.000) | band =     2
 Transport equivalent effective mass tensor:
             -0.2930712771              0.0000000000              0.0000000000
              0.0000000000             -0.2930712771             -0.0000000000
              0.0000000000             -0.0000000000             -0.2930712771
 Transport equivalent effective mass tensor eigenvalues:
             -0.2930712771             -0.2930712771             -0.2930712771
 Angular average effective mass 1/(<1/m>)=  -0.2393027971
 Angular average effective mass for Frohlich model (<m**0.5>)**2=  -0.2423301633
 Effective masses along directions: (cart. coord. / red. coord. -> eff. mass)
    1:   1.000000  0.000000  0.000000 /   0.948683  0.316228  0.000000 ->  -0.2210109823
    2:   0.000000  1.000000  0.000000 /   0.000000  1.000000  0.000000 ->  -0.2032768083
    3:   0.000000  0.000000  1.000000 /   0.408248  0.408248  0.816497 ->  -0.2287958155
    4:   0.577350  0.577350  0.577350 /   0.585539  0.688047  0.428644 ->  -0.2214466400
    5:   0.000000  0.707107  0.707107 /   0.289489  0.762222  0.578977 ->  -0.2557130878
    6:   0.707107  0.000000  0.707107 /   0.731423  0.422287  0.535439 ->  -0.2246646351
    7:   0.707107  0.707107  0.000000 /   0.616798  0.787122  0.000000 ->  -0.3235525003

[...]

 K-point ( 0.000, 0.000, 0.000) | band =     4
 Transport equivalent effective mass tensor:
           -109.3717649355              0.0000712357             -0.0000000002
              0.0000712357           -109.3717347334             -0.0000000027
             -0.0000000002             -0.0000000027           -109.3716139246
 Transport equivalent effective mass tensor eigenvalues:
           -109.3718226531           -109.3716770157           -109.3716139246
 Angular average effective mass 1/(<1/m>)=  -1.9011411361
 Angular average effective mass for Frohlich model (<m**0.5>)**2=  -2.7709185563
 Effective masses along directions: (cart. coord. / red. coord. -> eff. mass)
    1:   1.000000  0.000000  0.000000 /   0.948683  0.316228  0.000000 ->  -2.1757363600
    2:   0.000000  1.000000  0.000000 /   0.000000  1.000000  0.000000 ->  -1.6298132341
    3:   0.000000  0.000000  1.000000 /   0.408248  0.408248  0.816497 -> -15.4139730871
    4:   0.577350  0.577350  0.577350 /   0.585539  0.688047  0.428644 ->  -2.7770744786
    5:   0.000000  0.707107  0.707107 /   0.289489  0.762222  0.578977 ->  -1.7445984694
    6:   0.707107  0.000000  0.707107 /   0.731423  0.422287  0.535439 ->  -4.5223735664
    7:   0.707107  0.707107  0.000000 /   0.616798  0.787122  0.000000 ->  -0.7184077170

 Angular average effective mass for Frohlich model, averaged over degenerate bands.
 Value of     (<<m**0.5>>)**2 =     1.002152E+00
 Absolute Value of <<m**0.5>> =     1.001076E+00

 K-point ( 0.500, 0.000, 0.500) | band =     5
 Effective mass tensor:
              0.2971193340             -0.1057696984              0.1295408960
             -0.1057696984              0.3719098083             -0.1831984925
              0.1295408960             -0.1831984925              0.4467002756
 Effective mass tensor eigenvalues:
              0.2223288624              0.2223288646              0.6710716908
 Angular average effective mass 1/(<1/m>)=   0.2861001980
 Angular average effective mass for Frohlich model (<m**0.5>)**2=   0.3048021645
 Effective masses along directions: (cart. coord. / red. coord. -> eff. mass)
    1:   1.000000  0.000000  0.000000 /   0.948683  0.316228  0.000000 ->   0.2502151688
    2:   0.000000  1.000000  0.000000 /   0.000000  1.000000  0.000000 ->   0.2861001999
    3:   0.000000  0.000000  1.000000 /   0.408248  0.408248  0.816497 ->   0.3340015963
    4:   0.577350  0.577350  0.577350 /   0.585539  0.688047  0.428644 ->   0.2376623176
    5:   0.000000  0.707107  0.707107 /   0.289489  0.762222  0.578977 ->   0.2235875122
    6:   0.707107  0.000000  0.707107 /   0.731423  0.422287  0.535439 ->   0.3806573859
    7:   0.707107  0.707107  0.000000 /   0.616798  0.787122  0.000000 ->   0.2244750339

 END OF EFFECTIVE MASSES SECTION

 ---- first-order wavefunction calculations are completed ----

 Total localisation tensor (bohr^2) in cartesian coordinates
  WARNING : still subject to testing - especially symmetries.
      direction              matrix element
   alpha     beta       real part   imaginary part
     1        1       4.4193451369    0.0000000000
     1        2       1.2499796996    0.0000000000
     1        3       3.0618121800    0.0000000000
     2        1       1.2499796996    0.0000000000
     2        2       3.5354764876    0.0000000000
     2        3       2.1650283481    0.0000000000
     3        1       3.0618121800    0.0000000000
     3        2       2.1650283481    0.0000000000
     3        3       7.9548223041    0.0000000000

 respfn : d/dk was computed, but no 2DTE, so no DDB output.

== END DATASET(S) ==============================================================

 -outvars: echo values of variables after computation  --------
            acell      1.0000000000E+00  1.0000000000E+00  1.0000000000E+00 Bohr
              amu      2.80855000E+01  1.20110000E+01
             ecut      4.10000000E+01 Hartree
           etotal     -2.7054379261E+01
            fcart      0.0000000000E+00  0.0000000000E+00  0.0000000000E+00
                       0.0000000000E+00  0.0000000000E+00  0.0000000000E+00
-          fftalg         512
           irdden           1
           irdwfk           1
           istwfk        1    1
              ixc     -116133
              kpt      0.00000000E+00  0.00000000E+00  0.00000000E+00
                       5.00000000E-01  0.00000000E+00  5.00000000E-01
           kptopt           0
P           mkmem           2
P          mkqmem           2
P          mk1mem           2
            natom           2
            nband          13
           nbdbuf           4
            ngfft          36      36      36
             nkpt           2
            nstep         100
             nsym          24
           ntypat           2
              occ      2.000000  2.000000  2.000000  2.000000  0.000000  0.000000
                       0.000000  0.000000  0.000000  0.000000  0.000000  0.000000
                       0.000000
        optdriver           1
            prtwf          -1
            rfdir           1       1       1
           rfelfd           2
            rprim      5.0427584063E+00  0.0000000000E+00  2.9114379234E+00
                       1.6809194688E+00  4.7543582200E+00  2.9114379234E+00
                       0.0000000000E+00  0.0000000000E+00  5.8228758467E+00
          spgroup         216
           strten      0.0000000000E+00  0.0000000000E+00  0.0000000000E+00
                       0.0000000000E+00  0.0000000000E+00  0.0000000000E+00
           symrel      1  0  0   0  1  0   0  0  1       0 -1  1   0 -1  0   1 -1  0
                      -1  0  0  -1  0  1  -1  1  0       0  1 -1   1  0 -1   0  0 -1
                      -1  0  0  -1  1  0  -1  0  1       0 -1  1   1 -1  0   0 -1  0
                       1  0  0   0  0  1   0  1  0       0  1 -1   0  0 -1   1  0 -1
                      -1  0  1  -1  1  0  -1  0  0       0 -1  0   1 -1  0   0 -1  1
                       1  0 -1   0  0 -1   0  1 -1       0  1  0   0  0  1   1  0  0
                       1  0 -1   0  1 -1   0  0 -1       0 -1  0   0 -1  1   1 -1  0
                      -1  0  1  -1  0  0  -1  1  0       0  1  0   1  0  0   0  0  1
                       0  0 -1   0  1 -1   1  0 -1       1 -1  0   0 -1  1   0 -1  0
                       0  0  1   1  0  0   0  1  0      -1  1  0  -1  0  0  -1  0  1
                       0  0  1   0  1  0   1  0  0       1 -1  0   0 -1  0   0 -1  1
                       0  0 -1   1  0 -1   0  1 -1      -1  1  0  -1  0  1  -1  0  0
           tolwfr      1.00000000E-20
            typat      1  2
           useylm           1
              wtk        0.50000    0.50000
           xangst      2.6685128171E+00  1.8869235086E+00  4.6219997798E+00
                       0.0000000000E+00  0.0000000000E+00  0.0000000000E+00
            xcart      5.0427584063E+00  3.5657686650E+00  8.7343137701E+00
                       0.0000000000E+00  0.0000000000E+00  0.0000000000E+00
             xred      7.5000000000E-01  7.5000000000E-01  7.5000000000E-01
                       0.0000000000E+00  0.0000000000E+00  0.0000000000E+00
            znucl       14.00000    6.00000

- Timing analysis has been suppressed with timopt=0

 Suggested references for the acknowledgment of ABINIT usage.

 Calculation completed.
.Delivered  14 WARNINGs and   9 COMMENTs to log file.