.Version 9.5.2 of ABINIT

 ABINIT is a project of the Universite Catholique de Louvain,
 Corning Inc. and other collaborators, see ~abinit/doc/developers/contributors.txt .
 acknowledgments of the ABINIT effort.

.Starting date : Wed 26 May 2021.
- ( at 02h35 )

- input  file    -> /scratch/users/j/a/jabreu/flow_simple_11atoms/flow/w250/t1/run.abi
- output file    -> /scratch/users/j/a/jabreu/flow_simple_11atoms/flow/w250/t1/run.abo
- root for input  files -> /scratch/users/j/a/jabreu/flow_simple_11atoms/flow/w250/t1/indata/in
- root for output files -> /scratch/users/j/a/jabreu/flow_simple_11atoms/flow/w250/t1/outdata/out

 Symmetries : space group P2/c (# 13); Bravais mP (primitive monocl.)
     intxc =       0      iscf =       7    lmnmax =      32     lnmax =       8
     mgfft =      72  mpssoang =       4    mqgrid =    3272     natom =      12
  nloc_mem =       1    nspden =       1   nspinor =       1    nsppol =       1
      nsym =       4    n1xccc =    2501    ntypat =       3    occopt =       1
   xclevel =       2
-    mband =          59        mffmem =           1         mkmem =           2
-   mkqmem =           2        mk1mem =           2           mpw =       13616
      nfft =      259200          nkpt =           2
  Rough estimation (10% accuracy) of disk space for files :

------------- Echo of variables that govern the present computation ------------
-
- outvars: echo of selected default values
-   iomode0 =  0 , fftalg0 =512 , wfoptalg0 =  0
-
- outvars: echo of global parameters not present in the input file
-  max_nthreads =    0
-
 -outvars: echo values of preprocessed input variables --------
            acell      1.0000000000E+00  1.0000000000E+00  1.0000000000E+00 Bohr
              amu      1.80947900E+02  1.14820000E+02  1.59994000E+01
             ecut      4.40000000E+01 Hartree
-          fftalg         512
           irdden           1
           irdwfk           1
           istwfk        1    0
              ixc     -116133
              kpt      0.00000000E+00  5.00000000E-01  0.00000000E+00
                       0.00000000E+00  1.71391761E-01  5.04116144E-01
           kptopt           0
P           mkmem           2
P          mkqmem           2
P          mk1mem           2
            natom          12
            nband          59
           nbdbuf           4
            ngfft          72      60      60
             nkpt           2
            nstep        2000
             nsym           4
           ntypat           3
              occ      2.000000  2.000000  2.000000  2.000000  2.000000  2.000000
                       2.000000  2.000000  2.000000  2.000000  2.000000  2.000000
                       2.000000  2.000000  2.000000  2.000000  2.000000  2.000000
                       2.000000  2.000000  2.000000  2.000000  2.000000  2.000000
                       2.000000  2.000000  2.000000  2.000000  2.000000  2.000000
                       2.000000  2.000000  2.000000  2.000000  2.000000  2.000000
                       2.000000  2.000000  2.000000  2.000000  2.000000  2.000000
                       2.000000  2.000000  2.000000  2.000000  2.000000  2.000000
                       2.000000  2.000000  0.000000  0.000000  0.000000  0.000000
                       0.000000  0.000000  0.000000  0.000000  0.000000
        optdriver           1
            prtwf          -1
            rfdir           1       1       1
           rfelfd           2
            rprim      1.0956553023E+01  0.0000000000E+00  0.0000000000E+00
                       0.0000000000E+00  9.1364203910E+00  2.0579444730E-01
                       0.0000000000E+00  0.0000000000E+00  9.7462928368E+00
          spgroup          13
           symrel      1  0  0   0  1  0   0  0  1      -1  0  0   0 -1  0   0  0 -1
                       1  0  0   0 -1  0   0  0 -1      -1  0  0   0  1  0   0  0  1
            tnons      0.0000000  0.0000000  0.0000000     0.0000000  0.0000000  0.0000000
                       0.0000000  0.0000000  0.5000000     0.0000000  0.0000000  0.5000000
           tolwfr      1.00000000E-20
            typat      1  1  2  2  3  3  3  3  3  3  3  3
           useylm           1
              wtk        0.50000    0.50000
           xangst      9.9985788204E-01  0.0000000000E+00  3.8681370281E+00
                       4.7981002626E+00  0.0000000000E+00  1.2893790094E+00
                       3.9270788085E+00  2.4173927195E+00  3.9225878937E+00
                       1.8708793362E+00  2.4173927195E+00  1.3438298750E+00
                       2.2002381465E+00  1.2533262641E+00  3.1228950526E+00
                       2.2002381465E+00  3.5814591749E+00  4.7222807347E+00
                       3.5977199981E+00  3.5814591749E+00  2.1435227160E+00
                       3.5977199981E+00  1.2533262641E+00  5.4413703390E-01
                       5.2053140549E+00  1.0335320833E+00  2.9289109932E+00
                       5.2053140549E+00  3.8012533557E+00  4.9162647941E+00
                       5.9264408971E-01  3.8012533557E+00  2.3375067754E+00
                       5.9264408971E-01  1.0335320833E+00  3.5015297449E-01
            xcart      1.8894575689E+00  0.0000000000E+00  7.3097196276E+00
                       9.0670954544E+00  0.0000000000E+00  2.4365732092E+00
                       7.4211034503E+00  4.5682101955E+00  7.4126168513E+00
                       3.5354495730E+00  4.5682101955E+00  2.5394704328E+00
                       4.1578475240E+00  2.3684433944E+00  5.9014163912E+00
                       4.1578475240E+00  6.7679769966E+00  8.9238173113E+00
                       6.7987054993E+00  6.7679769966E+00  4.0506708929E+00
                       6.7987054993E+00  2.3684433944E+00  1.0282699728E+00
                       9.8366179995E+00  1.9530925870E+00  5.5348396448E+00
                       9.8366179995E+00  7.1833278040E+00  9.2903940577E+00
                       1.1199350238E+00  7.1833278040E+00  4.4172476393E+00
                       1.1199350238E+00  1.9530925870E+00  6.6169322641E-01
             xred      1.7245000000E-01  0.0000000000E+00  7.5000000000E-01
                       8.2755000000E-01  0.0000000000E+00  2.5000000000E-01
                       6.7732100000E-01  5.0000000000E-01  7.5000000000E-01
                       3.2267900000E-01  5.0000000000E-01  2.5000000000E-01
                       3.7948500000E-01  2.5923100000E-01  6.0003000000E-01
                       3.7948500000E-01  7.4076900000E-01  8.9997000000E-01
                       6.2051500000E-01  7.4076900000E-01  3.9997000000E-01
                       6.2051500000E-01  2.5923100000E-01  1.0003000000E-01
                       8.9778400000E-01  2.1377000000E-01  5.6337800000E-01
                       8.9778400000E-01  7.8623000000E-01  9.3662200000E-01
                       1.0221600000E-01  7.8623000000E-01  4.3662200000E-01
                       1.0221600000E-01  2.1377000000E-01  6.3378000000E-02
            znucl       73.00000   49.00000    8.00000

 chkinp: Checking input parameters for consistency.

== DATASET  1 ==================================================================
-   mpi_nproc: 1, omp_nthreads: -1 (-1 if OMP is not activated)

--- !DatasetInfo
iteration_state: {dtset: 1, }
dimensions: {natom: 12, nkpt: 2, mband: 59, nsppol: 1, nspinor: 1, nspden: 1, mpw: 13616, }
cutoff_energies: {ecut:  44.0, pawecutdg:  -1.0, }
electrons: {nelect:   1.00000000E+02, charge:   0.00000000E+00, occopt:   1.00000000E+00, tsmear:   1.00000000E-02, }
meta: {optdriver: 1, rfelfd: 2, }
...

 Real(R)+Recip(G) space primitive vectors, cartesian coordinates (Bohr,Bohr^-1):
 R(1)= 10.9565530  0.0000000  0.0000000  G(1)=  0.0912696  0.0000000  0.0000000
 R(2)=  0.0000000  9.1364204  0.2057944  G(2)=  0.0000000  0.1094521  0.0000000
 R(3)=  0.0000000  0.0000000  9.7462928  G(3)=  0.0000000 -0.0023111  0.1026031
 Unit cell volume ucvol=  9.7563973E+02 bohr^3
 Angles (23,13,12)=  8.87096522E+01  9.00000000E+01  9.00000000E+01 degrees

 getcut: wavevector=  0.0000  0.0000  0.0000  ngfft=  72  60  60
         ecut(hartree)=     44.000   => boxcut(ratio)=   2.06185

--- Pseudopotential description ------------------------------------------------
- pspini: atom type   1  psp file is /scratch/users/j/a/jabreu/pseudos/PBEsol/Ta.psp8
- pspatm: opening atomic psp file    /scratch/users/j/a/jabreu/pseudos/PBEsol/Ta.psp8
- Ta    ONCVPSP-3.3.0  r_core=   1.71294   1.71294   1.71294   2.25368
- 73.00000  13.00000    180112                znucl, zion, pspdat
    8 -116133    3    4       600   0.00000   pspcod,pspxc,lmax,lloc,mmax,r2well
    5.99000000000000    5.00000000000000    0.00000000000000   rchrg,fchrg,qchrg
     nproj     2     2     2     2
     extension_switch     1
  pspatm : epsatm=   21.70781236
         --- l  ekb(1:nproj) -->
             0   11.480337    1.447149
             1    5.630373    0.817168
             2    1.844704    0.232364
             3    4.923559    0.251242
 pspatm: atomic psp has been read  and splines computed

- pspini: atom type   2  psp file is /scratch/users/j/a/jabreu/pseudos/PBEsol/In.psp8
- pspatm: opening atomic psp file    /scratch/users/j/a/jabreu/pseudos/PBEsol/In.psp8
- In    ONCVPSP-3.3.0  r_core=   2.10853   2.37566   1.87143
- 49.00000  13.00000    180112                znucl, zion, pspdat
    8 -116133    2    4       600   0.00000   pspcod,pspxc,lmax,lloc,mmax,r2well
    5.99000000000000    5.00000000000000    0.00000000000000   rchrg,fchrg,qchrg
     nproj     2     2     2
     extension_switch     1
  pspatm : epsatm=   25.17984752
         --- l  ekb(1:nproj) -->
             0   12.999887    1.931740
             1    5.981707    1.012544
             2   -4.048011   -1.239028
 pspatm: atomic psp has been read  and splines computed

- pspini: atom type   3  psp file is /scratch/users/j/a/jabreu/pseudos/PBEsol/O.psp8
- pspatm: opening atomic psp file    /scratch/users/j/a/jabreu/pseudos/PBEsol/O.psp8
- O     ONCVPSP-3.3.0  r_core=   1.35509   1.45563   1.26150
-  8.00000   6.00000    180112                znucl, zion, pspdat
    8 -116133    2    4       600   0.00000   pspcod,pspxc,lmax,lloc,mmax,r2well
    5.99000000000000    4.00000000000000    0.00000000000000   rchrg,fchrg,qchrg
     nproj     2     2     1
     extension_switch     1
  pspatm : epsatm=    6.22910522
         --- l  ekb(1:nproj) -->
             0    6.050032    0.820363
             1   -4.739617   -1.153841
             2   -1.335834
 pspatm: atomic psp has been read  and splines computed

   1.43608161E+04                                ecore*ucvol(ha*bohr**3)

 ==>  initialize data related to q vector <==

 The list of irreducible perturbations for this q vector is:
    1)    idir= 1    ipert=  13
    2)    idir= 2    ipert=  13
    3)    idir= 3    ipert=  13

 Perturbation wavevector (in red.coord.)   0.000000  0.000000  0.000000
 Perturbation : derivative vs k along direction   1

 dfpt_looppert : COMMENT -
  In a d/dk calculation, iscf is set to -3 automatically.
 The set of symmetries contains only one element for this perturbation.
 symkpt : not enough symmetry to change the number of k points.

[...]
   0.00000   -0.00000    0.00000    0.00000   -0.00000   -0.00000    0.00000    0.00000
  -0.00000    0.00000   -0.00000    0.00000    0.00000    0.00000    0.00000   -0.00000
  -0.00000    0.00000   -0.00000   -0.00000   -0.00000   -0.00000   -0.00000    0.00000
  -0.00000   -0.00000    0.00000   -0.00000   -0.00000    0.00000    0.00000   -0.00000
   0.00000    0.00000   -0.00000   -0.00000   -0.00000    0.00000   -0.00000    0.00000
  -0.00000   -0.00000    0.00000   -0.00000   -0.00000    0.00000   -0.00000   -0.00000
   0.00000   -0.00000    0.00510
 prteigrs : prtvol=0 or 1, do not print more k-points.

 Eight components of 2nd-order total energy (hartree) are
 1,2,3: 0th-order hamiltonian combined with 1st-order wavefunctions
     kin0=   7.03055477E+01 eigvalue=   5.62825087E-02  local=  -3.60892365E+01
 4,5,6: 1st-order hamiltonian combined with 1st and 0th-order wfs
     kin1=  -6.83831586E+01  Hartree=   0.00000000E+00     xc=   0.00000000E+00
 7,8,9: eventually, occupation + non-local contributions
    edocc=   6.52867793E+00     enl0=   5.12762665E+00   enl1=  -2.34746380E+01
 1-9 gives the relaxation energy (to be shifted if some occ is /=2.0)
   erelax=  -4.59288983E+01
  No Ewald or frozen-wf contrib.: the relaxation energy is the total one
 2DEtotal=   -0.4592889827E+02 Ha. Also 2DEtotal=   -0.124978888120E+04 eV
    (  non-var. 2DEtotal :   -4.5928898273E+01 Ha)

 Perturbation wavevector (in red.coord.)   0.000000  0.000000  0.000000
 Perturbation : derivative vs k along direction   2
 The set of symmetries contains only one element for this perturbation.
 symkpt : not enough symmetry to change the number of k points.

[...]

 Perturbation wavevector (in red.coord.)   0.000000  0.000000  0.000000
 Perturbation : derivative vs k along direction   3
 The set of symmetries contains only one element for this perturbation.
 symkpt : not enough symmetry to change the number of k points.

 Initialisation of the first-order wave-functions :
  ireadwf=   0

--- !BeginCycle
iteration_state: {dtset: 1, }
solver: {iscf: 7, nstep: 2000, nline: 4, wfoptalg: 0, }
tolerances: {tolwfr: 1.00E-20, }
...

     iter   2DEtotal(Ha)        deltaE(Ha) residm    vres2
-ETOT  1  -56.378872436712     -5.638E+01 1.077E-01 0.000E+00
 ETOT  2  -56.614579886493     -2.357E-01 1.647E-02 0.000E+00
 ETOT  3  -56.620847068492     -6.267E-03 8.972E-04 0.000E+00
 ETOT  4  -56.621094328480     -2.473E-04 2.281E-04 0.000E+00
 ETOT  5  -56.621105876786     -1.155E-05 2.007E-05 0.000E+00
 ETOT  6  -56.621106456818     -5.800E-07 5.738E-06 0.000E+00
 ETOT  7  -56.621106487607     -3.079E-08 1.174E-06 0.000E+00
 ETOT  8  -56.621106489302     -1.695E-09 4.313E-07 0.000E+00
 ETOT  9  -56.621106489399     -9.658E-11 8.911E-08 0.000E+00
 ETOT 10  -56.621106489404     -5.684E-12 3.267E-08 0.000E+00
 ETOT 11  -56.621106489405     -3.126E-13 6.813E-09 0.000E+00
 ETOT 12  -56.621106489405     -1.421E-14 2.491E-09 0.000E+00
 ETOT 13  -56.621106489405     -7.105E-15 5.235E-10 0.000E+00
 ETOT 14  -56.621106489405      2.132E-14 1.906E-10 0.000E+00
 ETOT 15  -56.621106489405     -1.421E-14 4.038E-11 0.000E+00
 ETOT 16  -56.621106489405      0.000E+00 1.463E-11 0.000E+00
 ETOT 17  -56.621106489405      0.000E+00 3.124E-12 0.000E+00
 ETOT 18  -56.621106489405     -1.421E-14 1.125E-12 0.000E+00
 ETOT 19  -56.621106489405      1.421E-14 2.423E-13 0.000E+00
 ETOT 20  -56.621106489405      0.000E+00 8.674E-14 0.000E+00
 ETOT 21  -56.621106489405      0.000E+00 1.885E-14 0.000E+00
 ETOT 22  -56.621106489405      1.421E-14 6.700E-15 0.000E+00
 ETOT 23  -56.621106489405     -1.421E-14 1.469E-15 0.000E+00
 ETOT 24  -56.621106489405      1.421E-14 5.186E-16 0.000E+00
 ETOT 25  -56.621106489405      1.421E-14 1.148E-16 0.000E+00
 ETOT 26  -56.621106489405     -7.105E-15 4.024E-17 0.000E+00
 ETOT 27  -56.621106489405     -1.421E-14 8.998E-18 0.000E+00
 ETOT 28  -56.621106489405      0.000E+00 3.130E-18 0.000E+00
 ETOT 29  -56.621106489405     -7.105E-15 7.068E-19 0.000E+00
 ETOT 30  -56.621106489405      7.105E-15 2.442E-19 0.000E+00
 ETOT 31  -56.621106489405     -7.105E-15 5.565E-20 0.000E+00
 ETOT 32  -56.621106489405      7.105E-15 1.910E-20 0.000E+00
 ETOT 33  -56.621106489405     -2.132E-14 9.981E-21 0.000E+00

 At SCF step   33   max residual=  9.98E-21 < tolwfr=  1.00E-20 =>converged.

 ----iterations are completed or convergence reached----

 dfpt_looppert: DFPT cycle converged with prtwf=-1. Will skip output of the 1st-order WFK file.
 dfpt_looppert : ek2=    8.3163183824E+01
          f-sum rule ratio=    1.0008101502E+00
 prteigrs : about to open file /scratch/users/j/a/jabreu/flow_simple_11atoms/flow/w250/t1/tmpdata/tmp_1WF1_EIG
 Expectation of eigenvalue derivatives (hartree) for nkpt=   2  k points:
  (in case of degenerate eigenvalues, averaged derivative)
 kpt#   1, nband= 59, wtk=  0.50000, kpt=  0.0000  0.5000  0.0000 (reduced coord)
   0.00000   -0.00000    0.00000   -0.00000   -0.00000    0.00000    0.00000    0.00000
   0.00000    0.00000    0.00000    0.00000    0.00000   -0.00000    0.00000   -0.00000
  -0.00000    0.00000    0.00000   -0.00000   -0.00000   -0.00000    0.00000    0.00000
  -0.00000    0.00000   -0.00000   -0.00000   -0.00000   -0.00000   -0.00000    0.00000
  -0.00000    0.00000   -0.00000    0.00000    0.00000    0.00000    0.00000   -0.00000
  -0.00000   -0.00000   -0.00000    0.00000    0.00000    0.00000   -0.00000    0.00000
   0.00000   -0.00000   -0.00000   -0.00000    0.00000   -0.00000    0.00000    0.00000
  -0.00000    0.00000   -0.00002
 prteigrs : prtvol=0 or 1, do not print more k-points.

 Eight components of 2nd-order total energy (hartree) are
 1,2,3: 0th-order hamiltonian combined with 1st-order wavefunctions
     kin0=   8.54954721E+01 eigvalue=   7.12493006E-01  local=  -4.35650806E+01
 4,5,6: 1st-order hamiltonian combined with 1st and 0th-order wfs
     kin1=  -8.32305585E+01  Hartree=   0.00000000E+00     xc=   0.00000000E+00
 7,8,9: eventually, occupation + non-local contributions
    edocc=   8.11964332E+00     enl0=   5.85857867E+00   enl1=  -3.00116545E+01
 1-9 gives the relaxation energy (to be shifted if some occ is /=2.0)
   erelax=  -5.66211065E+01
  No Ewald or frozen-wf contrib.: the relaxation energy is the total one
 2DEtotal=   -0.5662110649E+02 Ha. Also 2DEtotal=   -0.154073866326E+04 eV
    (  non-var. 2DEtotal :   -5.6621106489E+01 Ha)

 CALCULATION OF EFFECTIVE MASSES
 NOTE : Additional infos (eff. mass eigenvalues, eigenvectors and, if degenerate, average mass) are available in stdout.

--- !WARNING
src_file: m_efmas.F90
src_line: 0
message: |

    Band(s)    50,
    are not band extrema, but saddle points;
    the transport equivalent formalism breaks down in these conditions.
    The associated tensor(s) will therefore not be printed.
...

 K-point ( 0.000, 0.500, 0.000) | band =    50
 Effective mass tensor:
     *** SADDLE POINT: TRANSPORT EQV. EFF. MASS NOT DEFINED (see WARNING above) ***
 Angular average effective mass 1/(<1/m>)=  -9.3633465555
 Angular average effective mass for Frohlich model (<m**0.5>)**2= -10.0041101681
 Effective masses along directions: (cart. coord. / red. coord. -> eff. mass)
    1:   1.000000  0.000000  0.000000 /   1.000000  0.000000  0.000000 ->  -6.6860555902
    2:   0.000000  1.000000  0.000000 /   0.000000  1.000000  0.000000 ->   9.9341550426
    3:   0.000000  0.000000  1.000000 /   0.000000  0.021110  0.999777 ->  -3.6832946292
    4:   0.577350  0.577350  0.577350 /   0.630152  0.537305  0.560545 ->   7.3349245196
    5:   0.000000  0.707107  0.707107 /   0.000000  0.691983  0.721914 ->   3.5803896196
    6:   0.707107  0.000000  0.707107 /   0.747094  0.014032  0.664570 ->  -4.7496888057
    7:   0.707107  0.707107  0.000000 /   0.768016  0.640431  0.000000 -> -40.8878318461

 K-point ( 0.000, 0.171, 0.504) | band =    51
 Effective mass tensor:
              1.0243075469              0.0000006452              0.0000000131
              0.0000006452              1.1854186108             -0.4630921319
              0.0000000131             -0.4630921319              1.1261315743
 Effective mass tensor eigenvalues:
              0.6917351581              1.0243075469              1.6198150270
 Angular average effective mass 1/(<1/m>)=   0.9870811773
 Angular average effective mass for Frohlich model (<m**0.5>)**2=   1.0221379525
 Effective masses along directions: (cart. coord. / red. coord. -> eff. mass)
    1:   1.000000  0.000000  0.000000 /   1.000000  0.000000  0.000000 ->   1.0243075469
    2:   0.000000  1.000000  0.000000 /   0.000000  1.000000  0.000000 ->   0.9949840936
    3:   0.000000  0.000000  1.000000 /   0.000000  0.021110  0.999777 ->   0.9452213704
    4:   0.577350  0.577350  0.577350 /   0.630152  0.537305  0.560545 ->   0.7760248371
    5:   0.000000  0.707107  0.707107 /   0.000000  0.691983  0.721914 ->   0.6921401502
    6:   0.707107  0.000000  0.707107 /   0.747094  0.014032  0.664570 ->   0.9831768759
    7:   0.707107  0.707107  0.000000 /   0.768016  0.640431  0.000000 ->   1.0094335582

 END OF EFFECTIVE MASSES SECTION

 ---- first-order wavefunction calculations are completed ----

 Total localisation tensor (bohr^2) in cartesian coordinates
  WARNING : still subject to testing - especially symmetries.
      direction              matrix element
   alpha     beta       real part   imaginary part
     1        1       0.7685847783    0.0000000000
     1        2       0.0000000000    0.0000000000
     1        3       0.0000000000    0.0000000000
     2        1       0.0000000000    0.0000000000
     2        2       0.7180194436    0.0000000000
     2        3       0.0161731190    0.0000000000
     3        1       0.0000000000    0.0000000000
     3        2       0.0161731190    0.0000000000
     3        3       0.7228466806    0.0000000000

 respfn : d/dk was computed, but no 2DTE, so no DDB output.

== END DATASET(S) ==============================================================

 -outvars: echo values of variables after computation  --------
            acell      1.0000000000E+00  1.0000000000E+00  1.0000000000E+00 Bohr
              amu      1.80947900E+02  1.14820000E+02  1.59994000E+01
             ecut      4.40000000E+01 Hartree
           etotal     -5.6621106489E+01
            fcart      0.0000000000E+00  0.0000000000E+00  0.0000000000E+00
                       0.0000000000E+00  0.0000000000E+00  0.0000000000E+00
                       0.0000000000E+00  0.0000000000E+00  0.0000000000E+00
                       0.0000000000E+00  0.0000000000E+00  0.0000000000E+00
                       0.0000000000E+00  0.0000000000E+00  0.0000000000E+00
                       0.0000000000E+00  0.0000000000E+00  0.0000000000E+00
                       0.0000000000E+00  0.0000000000E+00  0.0000000000E+00
                       0.0000000000E+00  0.0000000000E+00  0.0000000000E+00
                       0.0000000000E+00  0.0000000000E+00  0.0000000000E+00
                       0.0000000000E+00  0.0000000000E+00  0.0000000000E+00
                       0.0000000000E+00  0.0000000000E+00  0.0000000000E+00
                       0.0000000000E+00  0.0000000000E+00  0.0000000000E+00
-          fftalg         512
           irdden           1
           irdwfk           1
           istwfk        1    0
              ixc     -116133
              kpt      0.00000000E+00  5.00000000E-01  0.00000000E+00
                       0.00000000E+00  1.71391761E-01  5.04116144E-01
           kptopt           0
P           mkmem           2
P          mkqmem           2
P          mk1mem           2
            natom          12
            nband          59
           nbdbuf           4
            ngfft          72      60      60
             nkpt           2
            nstep        2000
             nsym           4
           ntypat           3
              occ      2.000000  2.000000  2.000000  2.000000  2.000000  2.000000
                       2.000000  2.000000  2.000000  2.000000  2.000000  2.000000
                       2.000000  2.000000  2.000000  2.000000  2.000000  2.000000
                       2.000000  2.000000  2.000000  2.000000  2.000000  2.000000
                       2.000000  2.000000  2.000000  2.000000  2.000000  2.000000
                       2.000000  2.000000  2.000000  2.000000  2.000000  2.000000
                       2.000000  2.000000  2.000000  2.000000  2.000000  2.000000
                       2.000000  2.000000  2.000000  2.000000  2.000000  2.000000
                       2.000000  2.000000  0.000000  0.000000  0.000000  0.000000
                       0.000000  0.000000  0.000000  0.000000  0.000000
        optdriver           1
            prtwf          -1
            rfdir           1       1       1
           rfelfd           2
            rprim      1.0956553023E+01  0.0000000000E+00  0.0000000000E+00
                       0.0000000000E+00  9.1364203910E+00  2.0579444730E-01
                       0.0000000000E+00  0.0000000000E+00  9.7462928368E+00
          spgroup          13
           strten      0.0000000000E+00  0.0000000000E+00  0.0000000000E+00
                       0.0000000000E+00  0.0000000000E+00  0.0000000000E+00
           symrel      1  0  0   0  1  0   0  0  1      -1  0  0   0 -1  0   0  0 -1
                       1  0  0   0 -1  0   0  0 -1      -1  0  0   0  1  0   0  0  1
            tnons      0.0000000  0.0000000  0.0000000     0.0000000  0.0000000  0.0000000
                       0.0000000  0.0000000  0.5000000     0.0000000  0.0000000  0.5000000
           tolwfr      1.00000000E-20
            typat      1  1  2  2  3  3  3  3  3  3  3  3
           useylm           1
              wtk        0.50000    0.50000
           xangst      9.9985788204E-01  0.0000000000E+00  3.8681370281E+00
                       4.7981002626E+00  0.0000000000E+00  1.2893790094E+00
                       3.9270788085E+00  2.4173927195E+00  3.9225878937E+00
                       1.8708793362E+00  2.4173927195E+00  1.3438298750E+00
                       2.2002381465E+00  1.2533262641E+00  3.1228950526E+00
                       2.2002381465E+00  3.5814591749E+00  4.7222807347E+00
                       3.5977199981E+00  3.5814591749E+00  2.1435227160E+00
                       3.5977199981E+00  1.2533262641E+00  5.4413703390E-01
                       5.2053140549E+00  1.0335320833E+00  2.9289109932E+00
                       5.2053140549E+00  3.8012533557E+00  4.9162647941E+00
                       5.9264408971E-01  3.8012533557E+00  2.3375067754E+00
                       5.9264408971E-01  1.0335320833E+00  3.5015297449E-01
            xcart      1.8894575689E+00  0.0000000000E+00  7.3097196276E+00
                       9.0670954544E+00  0.0000000000E+00  2.4365732092E+00
                       7.4211034503E+00  4.5682101955E+00  7.4126168513E+00
                       3.5354495730E+00  4.5682101955E+00  2.5394704328E+00
                       4.1578475240E+00  2.3684433944E+00  5.9014163912E+00
                       4.1578475240E+00  6.7679769966E+00  8.9238173113E+00
                       6.7987054993E+00  6.7679769966E+00  4.0506708929E+00
                       6.7987054993E+00  2.3684433944E+00  1.0282699728E+00
                       9.8366179995E+00  1.9530925870E+00  5.5348396448E+00
                       9.8366179995E+00  7.1833278040E+00  9.2903940577E+00
                       1.1199350238E+00  7.1833278040E+00  4.4172476393E+00
                       1.1199350238E+00  1.9530925870E+00  6.6169322641E-01
             xred      1.7245000000E-01  0.0000000000E+00  7.5000000000E-01
                       8.2755000000E-01  0.0000000000E+00  2.5000000000E-01
                       6.7732100000E-01  5.0000000000E-01  7.5000000000E-01
                       3.2267900000E-01  5.0000000000E-01  2.5000000000E-01
                       3.7948500000E-01  2.5923100000E-01  6.0003000000E-01
                       3.7948500000E-01  7.4076900000E-01  8.9997000000E-01
                       6.2051500000E-01  7.4076900000E-01  3.9997000000E-01
                       6.2051500000E-01  2.5923100000E-01  1.0003000000E-01
                       8.9778400000E-01  2.1377000000E-01  5.6337800000E-01
                       8.9778400000E-01  7.8623000000E-01  9.3662200000E-01
                       1.0221600000E-01  7.8623000000E-01  4.3662200000E-01
                       1.0221600000E-01  2.1377000000E-01  6.3378000000E-02
            znucl       73.00000   49.00000    8.00000

- Timing analysis has been suppressed with timopt=0

 Suggested references for the acknowledgment of ABINIT usage.

 Calculation completed.
.Delivered   3 WARNINGs and   5 COMMENTs to log file.