.Version 9.5.1 of ABINIT

 ABINIT is a project of the Universite Catholique de Louvain,
 Corning Inc. and other collaborators, see ~abinit/doc/developers/contributors.txt .
 acknowledgments of the ABINIT effort.

.Starting date : Wed 19 May 2021.
- ( at 07h45 )

- input  file    -> /scratch/users/j/a/jabreu/flow_simple_9atoms/flow/w107/t1/run.abi
- output file    -> /scratch/users/j/a/jabreu/flow_simple_9atoms/flow/w107/t1/run.abo
- root for input  files -> /scratch/users/j/a/jabreu/flow_simple_9atoms/flow/w107/t1/indata/in
- root for output files -> /scratch/users/j/a/jabreu/flow_simple_9atoms/flow/w107/t1/outdata/out

 Symmetries : space group P4/m m m (#123); Bravais tP (primitive tetrag.)
     intxc =       0      iscf =       7    lmnmax =      32     lnmax =       8
     mgfft =      96  mpssoang =       4    mqgrid =    4507     natom =       9
  nloc_mem =       1    nspden =       1   nspinor =       1    nsppol =       1
      nsym =      16    n1xccc =    2501    ntypat =       3    occopt =       1
   xclevel =       2
-    mband =          45        mffmem =           1         mkmem =           2
-   mkqmem =           2        mk1mem =           2           mpw =       11728
      nfft =      221184          nkpt =           2
  Rough estimation (10% accuracy) of disk space for files :

------------- Echo of variables that govern the present computation ------------
-
- outvars: echo of selected default values
-   iomode0 =  0 , fftalg0 =512 , wfoptalg0 =  0
-
- outvars: echo of global parameters not present in the input file
-  max_nthreads =    0
-
 -outvars: echo values of preprocessed input variables --------
            acell      1.0000000000E+00  1.0000000000E+00  1.0000000000E+00 Bohr
              amu      2.29897680E+01  1.78490000E+02  1.59994000E+01
             ecut      4.40000000E+01 Hartree
-          fftalg         512
           irdden           1
           irdwfk           1
           istwfk        1    1
              ixc     -116133
              kpt      5.00000000E-01  5.00000000E-01  0.00000000E+00
                       0.00000000E+00  0.00000000E+00  0.00000000E+00
           kptopt           0
P           mkmem           2
P          mkqmem           2
P          mk1mem           2
            natom           9
            nband          45
           nbdbuf           4
            ngfft          48      48      96
             nkpt           2
            nstep        2000
             nsym          16
           ntypat           3
              occ      2.000000  2.000000  2.000000  2.000000  2.000000  2.000000
                       2.000000  2.000000  2.000000  2.000000  2.000000  2.000000
                       2.000000  2.000000  2.000000  2.000000  2.000000  2.000000
                       2.000000  2.000000  2.000000  2.000000  2.000000  2.000000
                       2.000000  2.000000  2.000000  2.000000  2.000000  2.000000
                       2.000000  2.000000  2.000000  2.000000  2.000000  2.000000
                       0.000000  0.000000  0.000000  0.000000  0.000000  0.000000
                       0.000000  0.000000  0.000000
        optdriver           1
            prtwf          -1
            rfdir           1       1       1
           rfelfd           2
            rprim      7.4611756868E+00  0.0000000000E+00  0.0000000000E+00
                       0.0000000000E+00  7.4611756868E+00  0.0000000000E+00
                       0.0000000000E+00  0.0000000000E+00  1.5091526044E+01
          spgroup         123
           symrel      1  0  0   0  1  0   0  0  1      -1  0  0   0 -1  0   0  0 -1
                      -1  0  0   0  1  0   0  0 -1       1  0  0   0 -1  0   0  0  1
                      -1  0  0   0 -1  0   0  0  1       1  0  0   0  1  0   0  0 -1
                       1  0  0   0 -1  0   0  0 -1      -1  0  0   0  1  0   0  0  1
                       0  1  0   1  0  0   0  0  1       0 -1  0  -1  0  0   0  0 -1
                       0 -1  0   1  0  0   0  0 -1       0  1  0  -1  0  0   0  0  1
                       0 -1  0  -1  0  0   0  0  1       0  1  0   1  0  0   0  0 -1
                       0  1  0  -1  0  0   0  0 -1       0 -1  0   1  0  0   0  0  1
           tolwfr      1.00000000E-20
            typat      1  1  2  2  3  3  3  3  3
           useylm           1
              wtk        0.50000    0.50000
           xangst      0.0000000000E+00  0.0000000000E+00  0.0000000000E+00
                       0.0000000000E+00  0.0000000000E+00  3.9930458126E+00
                       1.9741420614E+00  1.9741420614E+00  2.0218308306E+00
                       1.9741420614E+00  1.9741420614E+00  5.9642607945E+00
                       1.9741420614E+00  0.0000000000E+00  1.6028485196E+00
                       1.9741420614E+00  0.0000000000E+00  6.3832431055E+00
                       1.9741420614E+00  1.9741420614E+00  3.9930458126E+00
                       0.0000000000E+00  1.9741420614E+00  1.6028485196E+00
                       0.0000000000E+00  1.9741420614E+00  6.3832431055E+00
            xcart      0.0000000000E+00  0.0000000000E+00  0.0000000000E+00
                       0.0000000000E+00  0.0000000000E+00  7.5457630218E+00
                       3.7305878434E+00  3.7305878434E+00  3.8207065569E+00
                       3.7305878434E+00  3.7305878434E+00  1.1270819487E+01
                       3.7305878434E+00  0.0000000000E+00  3.0289447346E+00
                       3.7305878434E+00  0.0000000000E+00  1.2062581309E+01
                       3.7305878434E+00  3.7305878434E+00  7.5457630218E+00
                       0.0000000000E+00  3.7305878434E+00  3.0289447346E+00
                       0.0000000000E+00  3.7305878434E+00  1.2062581309E+01
             xred      0.0000000000E+00  0.0000000000E+00  0.0000000000E+00
                       0.0000000000E+00  0.0000000000E+00  5.0000000000E-01
                       5.0000000000E-01  5.0000000000E-01  2.5316900000E-01
                       5.0000000000E-01  5.0000000000E-01  7.4683100000E-01
                       5.0000000000E-01  0.0000000000E+00  2.0070500000E-01
                       5.0000000000E-01  0.0000000000E+00  7.9929500000E-01
                       5.0000000000E-01  5.0000000000E-01  5.0000000000E-01
                       0.0000000000E+00  5.0000000000E-01  2.0070500000E-01
                       0.0000000000E+00  5.0000000000E-01  7.9929500000E-01
            znucl       11.00000   72.00000    8.00000

 chkinp: Checking input parameters for consistency.

== DATASET  1 ==================================================================
-   mpi_nproc: 1, omp_nthreads: -1 (-1 if OMP is not activated)

--- !DatasetInfo
iteration_state: {dtset: 1, }
dimensions: {natom: 9, nkpt: 2, mband: 45, nsppol: 1, nspinor: 1, nspden: 1, mpw: 11728, }
cutoff_energies: {ecut:  44.0, pawecutdg:  -1.0, }
electrons: {nelect:   7.20000000E+01, charge:   0.00000000E+00, occopt:   1.00000000E+00, tsmear:   1.00000000E-02, }
meta: {optdriver: 1, rfelfd: 2, }
...

 Real(R)+Recip(G) space primitive vectors, cartesian coordinates (Bohr,Bohr^-1):
 R(1)=  7.4611757  0.0000000  0.0000000  G(1)=  0.1340271  0.0000000  0.0000000
 R(2)=  0.0000000  7.4611757  0.0000000  G(2)=  0.0000000  0.1340271  0.0000000
 R(3)=  0.0000000  0.0000000 15.0915260  G(3)=  0.0000000  0.0000000  0.0662624
 Unit cell volume ucvol=  8.4013232E+02 bohr^3
 Angles (23,13,12)=  9.00000000E+01  9.00000000E+01  9.00000000E+01 degrees

 getcut: wavevector=  0.0000  0.0000  0.0000  ngfft=  48  48  96
         ecut(hartree)=     44.000   => boxcut(ratio)=   2.13033

--- Pseudopotential description ------------------------------------------------
- pspini: atom type   1  psp file is /scratch/users/j/a/jabreu/pseudos/PBEsol/Na.psp8
- pspatm: opening atomic psp file    /scratch/users/j/a/jabreu/pseudos/PBEsol/Na.psp8
- Na    ONCVPSP-3.3.0  r_core=   1.20708   1.55069
- 11.00000   9.00000    180112                znucl, zion, pspdat
    8 -116133    1    4       400   0.00000   pspcod,pspxc,lmax,lloc,mmax,r2well
    3.99000000000000    0.00000000000000    0.00000000000000   rchrg,fchrg,qchrg
     nproj     2     2
     extension_switch     1
  pspatm : epsatm=    9.32878306
         --- l  ekb(1:nproj) -->
             0    2.657905   -0.678300
             1   -6.761319   -2.404728
 pspatm: atomic psp has been read  and splines computed

- pspini: atom type   2  psp file is /scratch/users/j/a/jabreu/pseudos/PBEsol/Hf.psp8
- pspatm: opening atomic psp file    /scratch/users/j/a/jabreu/pseudos/PBEsol/Hf.psp8
- Hf    ONCVPSP-3.3.0  r_core=   1.71613   1.71613   1.71613   2.42541
- 72.00000  12.00000    180112                znucl, zion, pspdat
    8 -116133    3    4       600   0.00000   pspcod,pspxc,lmax,lloc,mmax,r2well
    5.99000000000000    5.40000000000000    0.00000000000000   rchrg,fchrg,qchrg
     nproj     2     2     2     2
     extension_switch     1
  pspatm : epsatm=   21.99082902
         --- l  ekb(1:nproj) -->
             0    5.882750   -0.519107
             1    2.555685   -1.768609
             2    1.383259    0.138001
             3    9.464546    0.347497
 pspatm: atomic psp has been read  and splines computed

- pspini: atom type   3  psp file is /scratch/users/j/a/jabreu/pseudos/PBEsol/O.psp8
- pspatm: opening atomic psp file    /scratch/users/j/a/jabreu/pseudos/PBEsol/O.psp8
- O     ONCVPSP-3.3.0  r_core=   1.35509   1.45563   1.26150
-  8.00000   6.00000    180112                znucl, zion, pspdat
    8 -116133    2    4       600   0.00000   pspcod,pspxc,lmax,lloc,mmax,r2well
    5.99000000000000    4.00000000000000    0.00000000000000   rchrg,fchrg,qchrg
     nproj     2     2     1
     extension_switch     1
  pspatm : epsatm=    6.22910522
         --- l  ekb(1:nproj) -->
             0    6.050032    0.820363
             1   -4.739617   -1.153841
             2   -1.335834
 pspatm: atomic psp has been read  and splines computed

   6.75250202E+03                                ecore*ucvol(ha*bohr**3)

-inwffil : will read wavefunctions from disk file /scratch/users/j/a/jabreu/flow_simple_9atoms/flow/w107/t1/indata/in_WFK

 ==>  initialize data related to q vector <==

 The list of irreducible perturbations for this q vector is:
    1)    idir= 1    ipert=  10
    2)    idir= 2    ipert=  10
    3)    idir= 3    ipert=  10

 Perturbation wavevector (in red.coord.)   0.000000  0.000000  0.000000
 Perturbation : derivative vs k along direction   1

 dfpt_looppert : COMMENT -
  In a d/dk calculation, iscf is set to -3 automatically.
 The set of symmetries contains only one element for this perturbation.
 symkpt : not enough symmetry to change the number of k points.

[...]

 Initialisation of the first-order wave-functions :
  ireadwf=   0

--- !BeginCycle
iteration_state: {dtset: 1, }
solver: {iscf: 7, nstep: 2000, nline: 4, wfoptalg: 0, }
tolerances: {tolwfr: 1.00E-20, }
...

     iter   2DEtotal(Ha)        deltaE(Ha) residm    vres2
-ETOT  1  -57.858066423376     -5.786E+01 1.540E-01 0.000E+00
 ETOT  2  -57.920449486127     -6.238E-02 2.422E-02 0.000E+00
 ETOT  3  -57.920706205022     -2.567E-04 4.397E-04 0.000E+00
[...]
 ETOT  6  -57.920708074863     -1.837E-10 4.257E-06 0.000E+00
 ETOT  7  -57.920708074865     -2.231E-12 1.524E-07 0.000E+00
 ETOT  8  -57.920708074866     -1.350E-13 7.443E-08 0.000E+00
 ETOT  9  -57.920708074865      5.684E-14 2.920E-09 0.000E+00
 ETOT 10  -57.920708074865      1.421E-14 1.387E-09 0.000E+00
 ETOT 11  -57.920708074865      2.132E-14 6.017E-11 0.000E+00
 ETOT 12  -57.920708074865      0.000E+00 2.803E-11 0.000E+00
 ETOT 13  -57.920708074865      0.000E+00 1.339E-12 0.000E+00
 ETOT 14  -57.920708074865      0.000E+00 6.118E-13 0.000E+00
 ETOT 15  -57.920708074865      0.000E+00 3.109E-14 0.000E+00
 ETOT 16  -57.920708074865     -7.105E-15 1.400E-14 0.000E+00
 ETOT 17  -57.920708074865     -7.105E-15 7.333E-16 0.000E+00
 ETOT 18  -57.920708074865      1.421E-14 3.274E-16 0.000E+00
 ETOT 19  -57.920708074865     -2.842E-14 1.738E-17 0.000E+00
 ETOT 20  -57.920708074865      2.842E-14 7.725E-18 0.000E+00
 ETOT 21  -57.920708074865      2.132E-14 4.125E-19 0.000E+00
 ETOT 22  -57.920708074865     -3.553E-14 1.831E-19 0.000E+00
 ETOT 23  -57.920708074865      2.132E-14 9.799E-21 0.000E+00

 At SCF step   23   max residual=  9.80E-21 < tolwfr=  1.00E-20 =>converged.

 ----iterations are completed or convergence reached----

 dfpt_looppert: DFPT cycle converged with prtwf=-1. Will skip output of the 1st-order WFK file.
 dfpt_looppert : ek2=    1.0211926871E+02
          f-sum rule ratio=    1.0580521794E+00
 prteigrs : about to open file /scratch/users/j/a/jabreu/flow_simple_9atoms/flow/w107/t1/tmpdata/tmp_1WF1_EIG
 Expectation of eigenvalue derivatives (hartree) for nkpt=   2  k points:
  (in case of degenerate eigenvalues, averaged derivative)
 kpt#   1, nband= 45, wtk=  0.50000, kpt=  0.5000  0.5000  0.0000 (reduced coord)
   0.00000    0.00000   -0.00000    0.00000   -0.00000    0.00000    0.00000    0.00000
   0.00000    0.00000    0.00000    0.00000    0.00000   -0.00000   -0.00000   -0.00000
   0.00000   -0.00000   -0.00000    0.00000    0.00000    0.00000   -0.00000   -0.00000
   0.00000    0.00000   -0.00000   -0.00000    0.00000    0.00000    0.00000    0.00000
  -0.00000   -0.00000   -0.00000   -0.00000   -0.00000   -0.00000   -0.00000   -0.00000
  -0.00000   -0.00000   -0.00000    0.00000    0.00001
 prteigrs : prtvol=0 or 1, do not print more k-points.

 Eight components of 2nd-order total energy (hartree) are
 1,2,3: 0th-order hamiltonian combined with 1st-order wavefunctions
     kin0=   8.58889253E+01 eigvalue=   3.87011581E+00  local=  -4.28204605E+01
 4,5,6: 1st-order hamiltonian combined with 1st and 0th-order wfs
     kin1=  -1.08047515E+02  Hartree=   0.00000000E+00     xc=   0.00000000E+00
 7,8,9: eventually, occupation + non-local contributions
    edocc=   1.08032742E+01     enl0=   1.78853207E-01   enl1=  -7.79390133E+00
 1-9 gives the relaxation energy (to be shifted if some occ is /=2.0)
   erelax=  -5.79207081E+01
  No Ewald or frozen-wf contrib.: the relaxation energy is the total one
 2DEtotal=   -0.5792070807E+02 Ha. Also 2DEtotal=   -0.157610262087E+04 eV
    (  non-var. 2DEtotal :   -5.7920708074E+01 Ha)

 Perturbation wavevector (in red.coord.)   0.000000  0.000000  0.000000
 Perturbation : derivative vs k along direction   2
 The set of symmetries contains only one element for this perturbation.
 symkpt : not enough symmetry to change the number of k points.

[...]

 Perturbation wavevector (in red.coord.)   0.000000  0.000000  0.000000
 Perturbation : derivative vs k along direction   3
 The set of symmetries contains only one element for this perturbation.
 symkpt : not enough symmetry to change the number of k points.

-inwffil : will read wavefunctions from disk file /scratch/users/j/a/jabreu/flow_simple_9atoms/flow/w107/t1/indata/in_WFK

 Initialisation of the first-order wave-functions :
  ireadwf=   0

--- !BeginCycle
iteration_state: {dtset: 1, }
solver: {iscf: 7, nstep: 2000, nline: 4, wfoptalg: 0, }
tolerances: {tolwfr: 1.00E-20, }
...

     iter   2DEtotal(Ha)        deltaE(Ha) residm    vres2
-ETOT  1  -13.639921309031     -1.364E+01 1.127E-02 0.000E+00
 ETOT  2  -13.647891111201     -7.970E-03 2.506E-03 0.000E+00
 ETOT  3  -13.647904528673     -1.342E-05 6.169E-05 0.000E+00
 ETOT  4  -13.647904577677     -4.900E-08 1.087E-05 0.000E+00
 ETOT  5  -13.647904577926     -2.491E-10 3.306E-07 0.000E+00
 ETOT  6  -13.647904577928     -1.442E-12 7.320E-08 0.000E+00
 ETOT  7  -13.647904577928      7.105E-15 2.652E-09 0.000E+00
 ETOT  8  -13.647904577928     -3.553E-15 7.052E-10 0.000E+00
 ETOT  9  -13.647904577928     -8.882E-15 2.765E-11 0.000E+00
 ETOT 10  -13.647904577928      3.553E-15 8.190E-12 0.000E+00
 ETOT 11  -13.647904577928      1.776E-15 3.243E-13 0.000E+00
 ETOT 12  -13.647904577928     -3.553E-15 1.005E-13 0.000E+00
 ETOT 13  -13.647904577928      1.776E-15 3.963E-15 0.000E+00
 ETOT 14  -13.647904577928      1.776E-15 1.260E-15 0.000E+00
 ETOT 15  -13.647904577928     -1.776E-15 4.945E-17 0.000E+00
 ETOT 16  -13.647904577928      3.553E-15 1.594E-17 0.000E+00
 ETOT 17  -13.647904577928     -1.776E-15 6.240E-19 0.000E+00
 ETOT 18  -13.647904577928      1.776E-15 2.030E-19 0.000E+00
 ETOT 19  -13.647904577928     -3.553E-15 9.867E-21 0.000E+00

 At SCF step   19   max residual=  9.87E-21 < tolwfr=  1.00E-20 =>converged.

 ----iterations are completed or convergence reached----

 dfpt_looppert: DFPT cycle converged with prtwf=-1. Will skip output of the 1st-order WFK file.
 dfpt_looppert : ek2=    2.4960651331E+01
          f-sum rule ratio=    1.0114660472E+00
 prteigrs : about to open file /scratch/users/j/a/jabreu/flow_simple_9atoms/flow/w107/t1/tmpdata/tmp_1WF1_EIG
 Expectation of eigenvalue derivatives (hartree) for nkpt=   2  k points:
  (in case of degenerate eigenvalues, averaged derivative)
 kpt#   1, nband= 45, wtk=  0.50000, kpt=  0.5000  0.5000  0.0000 (reduced coord)
   0.00000    0.00000   -0.00000   -0.00000    0.00000    0.00000    0.00000    0.00000
  -0.00000   -0.00000    0.00000    0.00000    0.00000   -0.00000   -0.00000    0.00000
  -0.00000    0.00000    0.00000   -0.00000   -0.00000    0.00000    0.00000    0.00000
   0.00000    0.00000    0.00000    0.00000    0.00000   -0.00000    0.00000    0.00000
  -0.00000   -0.00000    0.00000   -0.00000    0.00000   -0.00000    0.00000    0.00000
  -0.00000   -0.00000    0.00000    0.00000    0.00001
 prteigrs : prtvol=0 or 1, do not print more k-points.

 Eight components of 2nd-order total energy (hartree) are
 1,2,3: 0th-order hamiltonian combined with 1st-order wavefunctions
     kin0=   1.69528360E+01 eigvalue=   1.03358613E+00  local=  -7.16777428E+00
 4,5,6: 1st-order hamiltonian combined with 1st and 0th-order wfs
     kin1=  -2.52468513E+01  Hartree=   0.00000000E+00     xc=   0.00000000E+00
 7,8,9: eventually, occupation + non-local contributions
    edocc=   3.04202398E+00     enl0=  -2.12767277E-01   enl1=  -2.04895782E+00
 1-9 gives the relaxation energy (to be shifted if some occ is /=2.0)
   erelax=  -1.36479046E+01
  No Ewald or frozen-wf contrib.: the relaxation energy is the total one
 2DEtotal=   -0.1364790458E+02 Ha. Also 2DEtotal=   -0.371378370355E+03 eV
    (  non-var. 2DEtotal :   -1.3647904578E+01 Ha)

 CALCULATION OF EFFECTIVE MASSES
 NOTE : Additional infos (eff. mass eigenvalues, eigenvectors and, if degenerate, average mass) are available in stdout.

 K-point ( 0.500, 0.500, 0.000) | band =    36
 Effective mass tensor:
             -1.1213309858              0.0000000004             -0.0000000086
              0.0000000004             -1.1213309875              0.0000000016
             -0.0000000086              0.0000000016           -135.5947175088
 Effective mass tensor eigenvalues:
           -135.5947175088             -1.1213309876             -1.1213309857
 Angular average effective mass 1/(<1/m>)=  -1.6750702949
 Angular average effective mass for Frohlich model (<m**0.5>)**2=  -2.4757493443
 Effective masses along directions: (cart. coord. / red. coord. -> eff. mass)
    1:   1.000000  0.000000  0.000000 /   1.000000  0.000000  0.000000 ->  -1.1213309858
    2:   0.000000  1.000000  0.000000 /   0.000000  1.000000  0.000000 ->  -1.1213309875
    3:   0.000000  0.000000  1.000000 /   0.000000  0.000000  1.000000 -> **************
    4:   0.577350  0.577350  0.577350 /   0.405180  0.405180  0.819547 ->  -1.6750702944
    5:   0.000000  0.707107  0.707107 /   0.000000  0.443190  0.896428 ->  -2.2242678918
    6:   0.707107  0.000000  0.707107 /   0.443190  0.000000  0.896428 ->  -2.2242678888
    7:   0.707107  0.707107  0.000000 /   0.707107  0.707107  0.000000 ->  -1.1213309863

 K-point ( 0.000, 0.000, 0.000) | band =    37
 Effective mass tensor:
              0.5381890397             -0.0000000001             -0.0000000005
             -0.0000000001              0.5381890396              0.0000000000
             -0.0000000005              0.0000000000              0.3353818293
 Effective mass tensor eigenvalues:
              0.3353818293              0.5381890395              0.5381890398
 Angular average effective mass 1/(<1/m>)=   0.4479054264
 Angular average effective mass for Frohlich model (<m**0.5>)**2=   0.4551226918
 Effective masses along directions: (cart. coord. / red. coord. -> eff. mass)
    1:   1.000000  0.000000  0.000000 /   1.000000  0.000000  0.000000 ->   0.5381890397
    2:   0.000000  1.000000  0.000000 /   0.000000  1.000000  0.000000 ->   0.5381890396
    3:   0.000000  0.000000  1.000000 /   0.000000  0.000000  1.000000 ->   0.3353818293
    4:   0.577350  0.577350  0.577350 /   0.405180  0.405180  0.819547 ->   0.4479054260
    5:   0.000000  0.707107  0.707107 /   0.000000  0.443190  0.896428 ->   0.4132436898
    6:   0.707107  0.000000  0.707107 /   0.443190  0.000000  0.896428 ->   0.4132436894
    7:   0.707107  0.707107  0.000000 /   0.707107  0.707107  0.000000 ->   0.5381890395

 END OF EFFECTIVE MASSES SECTION

 ---- first-order wavefunction calculations are completed ----

 Total localisation tensor (bohr^2) in cartesian coordinates
  WARNING : still subject to testing - especially symmetries.
      direction              matrix element
   alpha     beta       real part   imaginary part
     1        1       0.7357343793    0.0000000000
     1        2       0.0000000000    0.0000000000
     1        3       0.0000000000    0.0000000000
     2        1       0.0000000000    0.0000000000
     2        2       0.7357340725    0.0000000000
     2        3       0.0000000000    0.0000000000
     3        1       0.0000000000    0.0000000000
     3        2       0.0000000000    0.0000000000
     3        3       0.6020728978    0.0000000000

 respfn : d/dk was computed, but no 2DTE, so no DDB output.

== END DATASET(S) ==============================================================

 -outvars: echo values of variables after computation  --------
            acell      1.0000000000E+00  1.0000000000E+00  1.0000000000E+00 Bohr
              amu      2.29897680E+01  1.78490000E+02  1.59994000E+01
             ecut      4.40000000E+01 Hartree
           etotal     -1.3647904578E+01
            fcart      0.0000000000E+00  0.0000000000E+00  0.0000000000E+00
                       0.0000000000E+00  0.0000000000E+00  0.0000000000E+00
                       0.0000000000E+00  0.0000000000E+00  0.0000000000E+00
                       0.0000000000E+00  0.0000000000E+00  0.0000000000E+00
                       0.0000000000E+00  0.0000000000E+00  0.0000000000E+00
                       0.0000000000E+00  0.0000000000E+00  0.0000000000E+00
                       0.0000000000E+00  0.0000000000E+00  0.0000000000E+00
                       0.0000000000E+00  0.0000000000E+00  0.0000000000E+00
                       0.0000000000E+00  0.0000000000E+00  0.0000000000E+00
-          fftalg         512
           irdden           1
           irdwfk           1
           istwfk        1    1
              ixc     -116133
              kpt      5.00000000E-01  5.00000000E-01  0.00000000E+00
                       0.00000000E+00  0.00000000E+00  0.00000000E+00
           kptopt           0
P           mkmem           2
P          mkqmem           2
P          mk1mem           2
            natom           9
            nband          45
           nbdbuf           4
            ngfft          48      48      96
             nkpt           2
            nstep        2000
             nsym          16
           ntypat           3
              occ      2.000000  2.000000  2.000000  2.000000  2.000000  2.000000
                       2.000000  2.000000  2.000000  2.000000  2.000000  2.000000
                       2.000000  2.000000  2.000000  2.000000  2.000000  2.000000
                       2.000000  2.000000  2.000000  2.000000  2.000000  2.000000
                       2.000000  2.000000  2.000000  2.000000  2.000000  2.000000
                       2.000000  2.000000  2.000000  2.000000  2.000000  2.000000
                       0.000000  0.000000  0.000000  0.000000  0.000000  0.000000
                       0.000000  0.000000  0.000000
        optdriver           1
            prtwf          -1
            rfdir           1       1       1
           rfelfd           2
            rprim      7.4611756868E+00  0.0000000000E+00  0.0000000000E+00
                       0.0000000000E+00  7.4611756868E+00  0.0000000000E+00
                       0.0000000000E+00  0.0000000000E+00  1.5091526044E+01
          spgroup         123
           strten      0.0000000000E+00  0.0000000000E+00  0.0000000000E+00
                       0.0000000000E+00  0.0000000000E+00  0.0000000000E+00
           symrel      1  0  0   0  1  0   0  0  1      -1  0  0   0 -1  0   0  0 -1
                      -1  0  0   0  1  0   0  0 -1       1  0  0   0 -1  0   0  0  1
                      -1  0  0   0 -1  0   0  0  1       1  0  0   0  1  0   0  0 -1
                       1  0  0   0 -1  0   0  0 -1      -1  0  0   0  1  0   0  0  1
                       0  1  0   1  0  0   0  0  1       0 -1  0  -1  0  0   0  0 -1
                       0 -1  0   1  0  0   0  0 -1       0  1  0  -1  0  0   0  0  1
                       0 -1  0  -1  0  0   0  0  1       0  1  0   1  0  0   0  0 -1
                       0  1  0  -1  0  0   0  0 -1       0 -1  0   1  0  0   0  0  1
           tolwfr      1.00000000E-20
            typat      1  1  2  2  3  3  3  3  3
           useylm           1
              wtk        0.50000    0.50000
           xangst      0.0000000000E+00  0.0000000000E+00  0.0000000000E+00
                       0.0000000000E+00  0.0000000000E+00  3.9930458126E+00
                       1.9741420614E+00  1.9741420614E+00  2.0218308306E+00
                       1.9741420614E+00  1.9741420614E+00  5.9642607945E+00
                       1.9741420614E+00  0.0000000000E+00  1.6028485196E+00
                       1.9741420614E+00  0.0000000000E+00  6.3832431055E+00
                       1.9741420614E+00  1.9741420614E+00  3.9930458126E+00
                       0.0000000000E+00  1.9741420614E+00  1.6028485196E+00
                       0.0000000000E+00  1.9741420614E+00  6.3832431055E+00
            xcart      0.0000000000E+00  0.0000000000E+00  0.0000000000E+00
                       0.0000000000E+00  0.0000000000E+00  7.5457630218E+00
                       3.7305878434E+00  3.7305878434E+00  3.8207065569E+00
                       3.7305878434E+00  3.7305878434E+00  1.1270819487E+01
                       3.7305878434E+00  0.0000000000E+00  3.0289447346E+00
                       3.7305878434E+00  0.0000000000E+00  1.2062581309E+01
                       3.7305878434E+00  3.7305878434E+00  7.5457630218E+00
                       0.0000000000E+00  3.7305878434E+00  3.0289447346E+00
                       0.0000000000E+00  3.7305878434E+00  1.2062581309E+01
             xred      0.0000000000E+00  0.0000000000E+00  0.0000000000E+00
                       0.0000000000E+00  0.0000000000E+00  5.0000000000E-01
                       5.0000000000E-01  5.0000000000E-01  2.5316900000E-01
                       5.0000000000E-01  5.0000000000E-01  7.4683100000E-01
                       5.0000000000E-01  0.0000000000E+00  2.0070500000E-01
                       5.0000000000E-01  0.0000000000E+00  7.9929500000E-01
                       5.0000000000E-01  5.0000000000E-01  5.0000000000E-01
                       0.0000000000E+00  5.0000000000E-01  2.0070500000E-01
                       0.0000000000E+00  5.0000000000E-01  7.9929500000E-01
            znucl       11.00000   72.00000    8.00000

- Timing analysis has been suppressed with timopt=0

 Suggested references for the acknowledgment of ABINIT usage.

 Calculation completed.
.Delivered  14 WARNINGs and   9 COMMENTs to log file.