.Version 9.5.2 of ABINIT

 ABINIT is a project of the Universite Catholique de Louvain,
 Corning Inc. and other collaborators, see ~abinit/doc/developers/contributors.txt .
 acknowledgments of the ABINIT effort.

.Starting date : Mon 31 May 2021.
- ( at 22h47 )

- input  file    -> /scratch/users/j/a/jabreu/flow_simple_11atoms/flow/w381/t1/run.abi
- output file    -> /scratch/users/j/a/jabreu/flow_simple_11atoms/flow/w381/t1/run.abo
- root for input  files -> /scratch/users/j/a/jabreu/flow_simple_11atoms/flow/w381/t1/indata/in
- root for output files -> /scratch/users/j/a/jabreu/flow_simple_11atoms/flow/w381/t1/outdata/out

 Symmetries : space group I4/m c m (#140); Bravais tI (body-center tetrag.)
     intxc =       0      iscf =       7    lmnmax =      18     lnmax =       6
     mgfft =      72  mpssoang =       3    mqgrid =    3001     natom =      12
  nloc_mem =       1    nspden =       1   nspinor =       1    nsppol =       1
      nsym =      16    n1xccc =    2501    ntypat =       3    occopt =       1
   xclevel =       2
-    mband =          65        mffmem =           1         mkmem =           1
-   mkqmem =           1        mk1mem =           1           mpw =       13966
      nfft =      373248          nkpt =           1
  Rough estimation (10% accuracy) of disk space for files :

------------- Echo of variables that govern the present computation ------------
-
- outvars: echo of selected default values
-   iomode0 =  0 , fftalg0 =512 , wfoptalg0 =  0
-
- outvars: echo of global parameters not present in the input file
-  max_nthreads =    0
-
 -outvars: echo values of preprocessed input variables --------
            acell      1.0000000000E+00  1.0000000000E+00  1.0000000000E+00 Bohr
              amu      4.00780000E+01  1.06420000E+02  1.89984032E+01
             ecut      4.20000000E+01 Hartree
-          fftalg         512
           irdden           1
           irdwfk           1
           istwfk        1
              ixc     -116133
              kpt      0.00000000E+00  0.00000000E+00  5.00000000E-01
           kptopt           0
P           mkmem           1
P          mkqmem           1
P          mk1mem           1
            natom          12
            nband          65
           nbdbuf           4
            ngfft          72      72      72
             nkpt           1
            nstep        2000
             nsym          16
           ntypat           3
              occ      2.000000  2.000000  2.000000  2.000000  2.000000  2.000000
                       2.000000  2.000000  2.000000  2.000000  2.000000  2.000000
                       2.000000  2.000000  2.000000  2.000000  2.000000  2.000000
                       2.000000  2.000000  2.000000  2.000000  2.000000  2.000000
                       2.000000  2.000000  2.000000  2.000000  2.000000  2.000000
                       2.000000  2.000000  2.000000  2.000000  2.000000  2.000000
                       2.000000  2.000000  2.000000  2.000000  2.000000  2.000000
                       2.000000  2.000000  2.000000  2.000000  2.000000  2.000000
                       2.000000  2.000000  2.000000  2.000000  2.000000  2.000000
                       2.000000  2.000000  0.000000  0.000000  0.000000  0.000000
                       0.000000  0.000000  0.000000  0.000000  0.000000
        optdriver           1
            prtwf          -1
            rfdir           1       1       1
           rfelfd           2
            rprim      9.4611770343E+00  0.0000000000E+00 -7.8834909422E+00
                      -2.0758240711E+00  9.2306459850E+00 -7.8834909422E+00
                       0.0000000000E+00  0.0000000000E+00  1.2315165460E+01
          spgroup         140
           symrel      1  0  0   0  1  0   0  0  1      -1  0  0   0 -1  0   0  0 -1
                       0  0  1  -1 -1 -1   1  0  0       0  0 -1   1  1  1  -1  0  0
                       0  1  0   1  0  0  -1 -1 -1       0 -1  0  -1  0  0   1  1  1
                      -1 -1 -1   0  0  1   0  1  0       1  1  1   0  0 -1   0 -1  0
                       0  1  0   1  0  0   0  0  1       0 -1  0  -1  0  0   0  0 -1
                       0  0  1  -1 -1 -1   0  1  0       0  0 -1   1  1  1   0 -1  0
                       1  0  0   0  1  0  -1 -1 -1      -1  0  0   0 -1  0   1  1  1
                      -1 -1 -1   0  0  1   1  0  0       1  1  1   0  0 -1  -1  0  0
            tnons      0.0000000  0.0000000  0.0000000     0.0000000 -0.0000000 -0.0000000
                       0.5000000  0.5000000 -0.0000000     0.5000000  0.5000000  0.0000000
                       0.0000000 -0.0000000 -0.0000000     0.0000000  0.0000000  0.0000000
                       0.5000000  0.5000000  0.0000000     0.5000000  0.5000000 -0.0000000
                       0.5000000  0.5000000  0.0000000     0.5000000  0.5000000 -0.0000000
                      -0.0000000  0.0000000 -0.0000000     0.0000000 -0.0000000  0.0000000
                       0.5000000  0.5000000 -0.0000000     0.5000000  0.5000000  0.0000000
                       0.0000000  0.0000000  0.0000000     0.0000000 -0.0000000 -0.0000000
           tolwfr      1.00000000E-20
            typat      1  1  2  2  3  3  3  3  3  3  3  3
           useylm           1
           xangst      2.9311203491E+00  3.6634856069E+00 -6.2576455961E+00
                       9.7704011638E-01  1.2211618690E+00 -2.0858818654E+00
                       2.5033196265E+00  0.0000000000E+00  1.1725705754E+00
                      -5.4923939373E-01  2.4423237379E+00  1.1725705754E+00
                       8.9602805657E-01  1.9313407655E-01  2.3107028129E+00
                       1.9622445785E+00  1.5257538316E+00  3.4438337888E-02
                       3.0121324089E+00  4.6915133993E+00 -4.1373253928E+00
                       6.7150188479E-01  3.9680775695E+00  8.5968412828E-01
                       1.9459158871E+00  3.3588936442E+00 -1.8610609179E+00
                      -3.9471463709E-01  2.6354578145E+00  3.1359486033E+00
                       3.2366585807E+00  9.1656990631E-01 -2.6863067083E+00
                       4.3028751026E+00  2.2491896614E+00 -4.9625711832E+00
            xcart      5.5390147224E+00  6.9229844887E+00 -1.1825236413E+01
                       1.8463382408E+00  2.3076614963E+00 -3.9417454711E+00
                       4.7305885172E+00  0.0000000000E+00  2.2158372589E+00
                      -1.0379120356E+00  4.6153229925E+00  2.2158372589E+00
                       1.6932476343E+00  3.6497051160E-01  4.3665954908E+00
                       3.7081048590E+00  2.8832568879E+00  6.5079027081E-02
                       5.6921053289E+00  8.8656754734E+00 -7.8184119151E+00
                       1.2689546600E+00  7.4985798804E+00  1.6245675632E+00
                       3.6772481042E+00  6.3473890971E+00 -3.5168954514E+00
                      -7.4590256474E-01  4.9802935041E+00  5.9260840270E+00
                       6.1163983032E+00  1.7320661046E+00 -5.0763839875E+00
                       8.1312555279E+00  4.2503524809E+00 -9.3779004513E+00
             xred      7.5000000000E-01  7.5000000000E-01 -5.5511151231E-17
                       2.5000000000E-01  2.5000000000E-01 -1.3877787808E-17
                       5.0000000000E-01  0.0000000000E+00  5.0000000000E-01
                      -2.7755575616E-17  5.0000000000E-01  5.0000000000E-01
                       1.8764300000E-01  3.9539000000E-02  5.0000000000E-01
                       4.6046100000E-01  3.1235700000E-01  5.0000000000E-01
                       8.1235700000E-01  9.6046100000E-01  5.0000000000E-01
                       3.1235700000E-01  8.1235700000E-01  8.5189600000E-01
                       5.3953900000E-01  6.8764300000E-01  5.0000000000E-01
                       3.9539000000E-02  5.3953900000E-01  8.5189600000E-01
                       6.8764300000E-01  1.8764300000E-01  1.4810400000E-01
                       9.6046100000E-01  4.6046100000E-01  1.4810400000E-01
            znucl       20.00000   46.00000    9.00000

 chkinp: Checking input parameters for consistency.

== DATASET  1 ==================================================================
-   mpi_nproc: 1, omp_nthreads: -1 (-1 if OMP is not activated)

--- !DatasetInfo
iteration_state: {dtset: 1, }
dimensions: {natom: 12, nkpt: 1, mband: 65, nsppol: 1, nspinor: 1, nspden: 1, mpw: 13966, }
cutoff_energies: {ecut:  42.0, pawecutdg:  -1.0, }
electrons: {nelect:   1.12000000E+02, charge:   0.00000000E+00, occopt:   1.00000000E+00, tsmear:   1.00000000E-02, }
meta: {optdriver: 1, rfelfd: 2, }
...

 Real(R)+Recip(G) space primitive vectors, cartesian coordinates (Bohr,Bohr^-1):
 R(1)=  9.4611770  0.0000000 -7.8834909  G(1)=  0.1056951  0.0237691  0.0000000
 R(2)= -2.0758241  9.2306460 -7.8834909  G(2)=  0.0000000  0.1083348  0.0000000
 R(3)=  0.0000000  0.0000000 12.3151655  G(3)=  0.0676602  0.0845657  0.0812007
 Unit cell volume ucvol=  1.0755176E+03 bohr^3
 Angles (23,13,12)=  1.29802629E+02  1.29802629E+02  7.37224927E+01 degrees

 getcut: wavevector=  0.0000  0.0000  0.0000  ngfft=  72  72  72
         ecut(hartree)=     42.000   => boxcut(ratio)=   2.00403

--- Pseudopotential description ------------------------------------------------
- pspini: atom type   1  psp file is /scratch/users/j/a/jabreu/pseudos/PBEsol/Ca.psp8
- pspatm: opening atomic psp file    /scratch/users/j/a/jabreu/pseudos/PBEsol/Ca.psp8
- Ca    ONCVPSP-3.3.0  r_core=   1.45885   1.45885   1.85192
- 20.00000  10.00000    180112                znucl, zion, pspdat
    8 -116133    2    4       400   0.00000   pspcod,pspxc,lmax,lloc,mmax,r2well
    3.99000000000000    6.00000000000000    0.00000000000000   rchrg,fchrg,qchrg
     nproj     2     2     2
     extension_switch     1
  pspatm : epsatm=   12.46045226
         --- l  ekb(1:nproj) -->
             0   10.054847    0.973777
             1    2.998958    0.458102
             2   -3.447298   -1.091650
 pspatm: atomic psp has been read  and splines computed

- pspini: atom type   2  psp file is /scratch/users/j/a/jabreu/pseudos/PBEsol/Pd.psp8
- pspatm: opening atomic psp file    /scratch/users/j/a/jabreu/pseudos/PBEsol/Pd.psp8
- Pd    ONCVPSP-3.3.0  r_core=   1.41052   1.46191   1.55175
- 46.00000  18.00000    180112                znucl, zion, pspdat
    8 -116133    2    4       600   0.00000   pspcod,pspxc,lmax,lloc,mmax,r2well
    5.99000000000000    7.00000000000000    0.00000000000000   rchrg,fchrg,qchrg
     nproj     2     2     2
     extension_switch     1
  pspatm : epsatm=   26.17262427
         --- l  ekb(1:nproj) -->
             0    7.952303   -2.096627
             1    3.304793   -0.572651
             2   -1.185452   -0.410427
 pspatm: atomic psp has been read  and splines computed

- pspini: atom type   3  psp file is /scratch/users/j/a/jabreu/pseudos/PBEsol/F.psp8
- pspatm: opening atomic psp file    /scratch/users/j/a/jabreu/pseudos/PBEsol/F.psp8
- F     ONCVPSP-3.3.0  r_core=   1.30942   1.45782   1.60379
-  9.00000   7.00000    180112                znucl, zion, pspdat
    8 -116133    2    4       600   0.00000   pspcod,pspxc,lmax,lloc,mmax,r2well
[...]
 ETOT 25  -81.080905821231      1.421E-14 3.309E-07 0.000E+00
 ETOT 26  -81.080905821231      0.000E+00 1.158E-07 0.000E+00
 ETOT 27  -81.080905821231      0.000E+00 1.186E-07 0.000E+00
 ETOT 28  -81.080905821231      0.000E+00 4.159E-08 0.000E+00
 ETOT 29  -81.080905821231      1.421E-14 4.256E-08 0.000E+00
 ETOT 30  -81.080905821231      0.000E+00 1.494E-08 0.000E+00
 ETOT 31  -81.080905821231     -1.421E-14 1.528E-08 0.000E+00
 ETOT 32  -81.080905821231      0.000E+00 5.370E-09 0.000E+00
 ETOT 33  -81.080905821231     -2.842E-14 5.487E-09 0.000E+00
 ETOT 34  -81.080905821231      2.842E-14 1.930E-09 0.000E+00
 ETOT 35  -81.080905821231      2.842E-14 1.971E-09 0.000E+00
 ETOT 36  -81.080905821231     -2.842E-14 6.940E-10 0.000E+00
 ETOT 37  -81.080905821231      0.000E+00 7.083E-10 0.000E+00
 ETOT 38  -81.080905821231     -4.263E-14 2.495E-10 0.000E+00
 ETOT 39  -81.080905821231      5.684E-14 2.545E-10 0.000E+00
 ETOT 40  -81.080905821231     -5.684E-14 8.973E-11 0.000E+00
 ETOT 41  -81.080905821231      2.842E-14 9.149E-11 0.000E+00
 ETOT 42  -81.080905821231     -1.421E-14 3.227E-11 0.000E+00
 ETOT 43  -81.080905821231      1.421E-14 3.289E-11 0.000E+00
 ETOT 44  -81.080905821231     -4.263E-14 1.160E-11 0.000E+00
 ETOT 45  -81.080905821231      0.000E+00 1.182E-11 0.000E+00
 ETOT 46  -81.080905821231      1.421E-14 4.173E-12 0.000E+00
 ETOT 47  -81.080905821231      0.000E+00 4.252E-12 0.000E+00
 ETOT 48  -81.080905821231      1.421E-14 1.501E-12 0.000E+00
 ETOT 49  -81.080905821231     -1.421E-14 1.529E-12 0.000E+00
 ETOT 50  -81.080905821231      0.000E+00 5.398E-13 0.000E+00
 ETOT 51  -81.080905821231     -2.842E-14 5.497E-13 0.000E+00
 ETOT 52  -81.080905821231      5.684E-14 1.941E-13 0.000E+00
 ETOT 53  -81.080905821231      0.000E+00 1.977E-13 0.000E+00
 ETOT 54  -81.080905821231      0.000E+00 6.982E-14 0.000E+00
 ETOT 55  -81.080905821231     -2.842E-14 7.109E-14 0.000E+00
 ETOT 56  -81.080905821231      0.000E+00 2.511E-14 0.000E+00
 ETOT 57  -81.080905821231      0.000E+00 2.557E-14 0.000E+00
 ETOT 58  -81.080905821231      0.000E+00 9.031E-15 0.000E+00
 ETOT 59  -81.080905821231      0.000E+00 9.194E-15 0.000E+00
 ETOT 60  -81.080905821231      0.000E+00 3.248E-15 0.000E+00
 ETOT 61  -81.080905821231      0.000E+00 3.307E-15 0.000E+00
[...]
 ETOT 72  -81.080905821231      2.842E-14 7.032E-18 0.000E+00
 ETOT 73  -81.080905821231      0.000E+00 7.159E-18 0.000E+00
 ETOT 74  -81.080905821231     -1.421E-14 2.529E-18 0.000E+00
 ETOT 75  -81.080905821231     -1.421E-14 2.575E-18 0.000E+00
 ETOT 76  -81.080905821231      2.842E-14 9.098E-19 0.000E+00
 ETOT 77  -81.080905821231      0.000E+00 9.263E-19 0.000E+00
 ETOT 78  -81.080905821231     -2.842E-14 3.272E-19 0.000E+00
 ETOT 79  -81.080905821231      0.000E+00 3.332E-19 0.000E+00
 ETOT 80  -81.080905821231      7.105E-14 1.177E-19 0.000E+00
 ETOT 81  -81.080905821231     -5.684E-14 1.198E-19 0.000E+00
 ETOT 82  -81.080905821231      1.421E-14 4.234E-20 0.000E+00
 ETOT 83  -81.080905821231     -2.842E-14 4.311E-20 0.000E+00
 ETOT 84  -81.080905821231      4.263E-14 1.523E-20 0.000E+00
 ETOT 85  -81.080905821231      0.000E+00 1.551E-20 0.000E+00
 ETOT 86  -81.080905821231      0.000E+00 9.584E-21 0.000E+00

 At SCF step   86   max residual=  9.58E-21 < tolwfr=  1.00E-20 =>converged.

 ----iterations are completed or convergence reached----

 dfpt_looppert: DFPT cycle converged with prtwf=-1. Will skip output of the 1st-order WFK file.
 dfpt_looppert : ek2=    1.6203157276E+02
          f-sum rule ratio=    9.8588044299E-01
 prteigrs : about to open file /scratch/users/j/a/jabreu/flow_simple_11atoms/flow/w381/t1/tmpdata/tmp_1WF1_EIG
 Expectation of eigenvalue derivatives (hartree) for nkpt=   1  k points:
  (in case of degenerate eigenvalues, averaged derivative)
 kpt#   1, nband= 65, wtk=  1.00000, kpt=  0.0000  0.0000  0.5000 (reduced coord)
   0.00000    0.00000    0.00000   -0.00000    0.00000    0.00000   -0.00000   -0.00000
  -0.00000   -0.00000    0.00000   -0.00000    0.00000    0.00000   -0.00000    0.00000
  -0.00000   -0.00000   -0.00000    0.00000   -0.00000    0.00000   -0.00000   -0.00000
   0.00000   -0.00000   -0.00000    0.00000    0.00000    0.00000   -0.00000   -0.00000
   0.00000   -0.00000   -0.00000   -0.00000    0.00000    0.00000   -0.00000   -0.00000
  -0.00000    0.00000    0.00000    0.00000   -0.00000   -0.00000   -0.00000   -0.00000
   0.00000   -0.00000   -0.00000   -0.00000    0.00000   -0.00000   -0.00000   -0.00000
  -0.00000    0.00000    0.00000    0.00000   -0.00000    0.00000   -0.00821   -0.00206
  -0.00100

 Eight components of 2nd-order total energy (hartree) are
 1,2,3: 0th-order hamiltonian combined with 1st-order wavefunctions
     kin0=   1.31916925E+02 eigvalue=   2.90509899E+00  local=  -6.19147023E+01
 4,5,6: 1st-order hamiltonian combined with 1st and 0th-order wfs
     kin1=  -1.59743759E+02  Hartree=   0.00000000E+00     xc=   0.00000000E+00
 7,8,9: eventually, occupation + non-local contributions
    edocc=   7.97691166E+00     enl0=   1.96672590E-01   enl1=  -2.41805291E+00
 1-9 gives the relaxation energy (to be shifted if some occ is /=2.0)
   erelax=  -8.10809058E+01
  No Ewald or frozen-wf contrib.: the relaxation energy is the total one
 2DEtotal=   -0.8108090582E+02 Ha. Also 2DEtotal=   -0.220632365202E+04 eV
    (  non-var. 2DEtotal :   -8.1080905821E+01 Ha)

 CALCULATION OF EFFECTIVE MASSES
 NOTE : Additional infos (eff. mass eigenvalues, eigenvectors and, if degenerate, average mass) are available in stdout.

 K-point ( 0.000, 0.000, 0.500) | band =    56
 Effective mass tensor:
             -4.8457933101              0.4739886187             -0.6037419331
              0.4739886187             -4.6326236533             -0.7547016090
             -0.6037419331             -0.7547016090             -3.6887900625
 Effective mass tensor eigenvalues:
             -5.2250330858             -4.9779486163             -2.9642253238
 Angular average effective mass 1/(<1/m>)=  -4.1116810360
 Angular average effective mass for Frohlich model (<m**0.5>)**2=  -4.2001656943
 Effective masses along directions: (cart. coord. / red. coord. -> eff. mass)
    1:   1.000000  0.000000  0.000000 /   0.976766 -0.214307  0.000000 ->  -4.6672559139
    2:   0.000000  1.000000  0.000000 /   0.000000  1.000000  0.000000 ->  -4.4030071916
    3:   0.000000  0.000000  1.000000 /  -0.474563 -0.474563  0.741337 ->  -3.4691816603
    4:   0.577350  0.577350  0.577350 /   0.126852 -0.058588  0.990190 ->  -4.9777677881
    5:   0.000000  0.707107  0.707107 /  -0.536867  0.091741  0.838664 ->  -4.8416929871
    6:   0.707107  0.000000  0.707107 /   0.099122 -0.625716  0.773728 ->  -4.7542274190
    7:   0.707107  0.707107  0.000000 /   0.797609  0.603175  0.000000 ->  -4.0116218495

 K-point ( 0.000, 0.000, 0.500) | band =    57
 Effective mass tensor:
              2.5891963375              0.8864372156              1.3079031604
              0.8864372156              2.9876988957              1.6347425068
              1.3079031604              1.6347425068              2.4743866438
 Effective mass tensor eigenvalues:
              0.9047105900              1.8798927251              5.2666785619
 Angular average effective mass 1/(<1/m>)=   1.6419066381
 Angular average effective mass for Frohlich model (<m**0.5>)**2=   1.8760506849
 Effective masses along directions: (cart. coord. / red. coord. -> eff. mass)
    1:   1.000000  0.000000  0.000000 /   0.976766 -0.214307  0.000000 ->   1.8976073259
    2:   0.000000  1.000000  0.000000 /   0.000000  1.000000  0.000000 ->   1.9074173011
    3:   0.000000  0.000000  1.000000 /  -0.474563 -0.474563  0.741337 ->   1.2888332836
    4:   0.577350  0.577350  0.577350 /   0.126852 -0.058588  0.990190 ->   5.1755416026
    5:   0.000000  0.707107  0.707107 /  -0.536867  0.091741  0.838664 ->   3.2575501079
    6:   0.707107  0.000000  0.707107 /   0.099122 -0.625716  0.773728 ->   2.6527489768
    7:   0.707107  0.707107  0.000000 /   0.797609  0.603175  0.000000 ->   1.9251124435

 END OF EFFECTIVE MASSES SECTION

 ---- first-order wavefunction calculations are completed ----

 Total localisation tensor (bohr^2) in cartesian coordinates
  WARNING : still subject to testing - especially symmetries.
      direction              matrix element
   alpha     beta       real part   imaginary part
     1        1       0.5074152634    0.0000000000
     1        2      -0.1036299754    0.0000000000
     1        3      -0.3148775019    0.0000000000
     2        1      -0.1036299754    0.0000000000
     2        2       0.4608153597    0.0000000000
     2        3      -0.3935622404    0.0000000000
     3        1      -0.3148775019    0.0000000000
     3        2      -0.3935622404    0.0000000000
     3        3       1.8853055753    0.0000000000

 respfn : d/dk was computed, but no 2DTE, so no DDB output.

== END DATASET(S) ==============================================================

 -outvars: echo values of variables after computation  --------
            acell      1.0000000000E+00  1.0000000000E+00  1.0000000000E+00 Bohr
              amu      4.00780000E+01  1.06420000E+02  1.89984032E+01
             ecut      4.20000000E+01 Hartree
           etotal     -8.1080905821E+01
            fcart      0.0000000000E+00  0.0000000000E+00  0.0000000000E+00
                       0.0000000000E+00  0.0000000000E+00  0.0000000000E+00
                       0.0000000000E+00  0.0000000000E+00  0.0000000000E+00
                       0.0000000000E+00  0.0000000000E+00  0.0000000000E+00
                       0.0000000000E+00  0.0000000000E+00  0.0000000000E+00
                       0.0000000000E+00  0.0000000000E+00  0.0000000000E+00
                       0.0000000000E+00  0.0000000000E+00  0.0000000000E+00
                       0.0000000000E+00  0.0000000000E+00  0.0000000000E+00
                       0.0000000000E+00  0.0000000000E+00  0.0000000000E+00
                       0.0000000000E+00  0.0000000000E+00  0.0000000000E+00
                       0.0000000000E+00  0.0000000000E+00  0.0000000000E+00
                       0.0000000000E+00  0.0000000000E+00  0.0000000000E+00
-          fftalg         512
           irdden           1
           irdwfk           1
           istwfk        1
              ixc     -116133
              kpt      0.00000000E+00  0.00000000E+00  5.00000000E-01
           kptopt           0
P           mkmem           1
P          mkqmem           1
P          mk1mem           1
            natom          12
            nband          65
           nbdbuf           4
            ngfft          72      72      72
             nkpt           1
            nstep        2000
             nsym          16
           ntypat           3
              occ      2.000000  2.000000  2.000000  2.000000  2.000000  2.000000
                       2.000000  2.000000  2.000000  2.000000  2.000000  2.000000
                       2.000000  2.000000  2.000000  2.000000  2.000000  2.000000
                       2.000000  2.000000  2.000000  2.000000  2.000000  2.000000
                       2.000000  2.000000  2.000000  2.000000  2.000000  2.000000
                       2.000000  2.000000  2.000000  2.000000  2.000000  2.000000
                       2.000000  2.000000  2.000000  2.000000  2.000000  2.000000
                       2.000000  2.000000  2.000000  2.000000  2.000000  2.000000
                       2.000000  2.000000  2.000000  2.000000  2.000000  2.000000
                       2.000000  2.000000  0.000000  0.000000  0.000000  0.000000
                       0.000000  0.000000  0.000000  0.000000  0.000000
        optdriver           1
            prtwf          -1
            rfdir           1       1       1
           rfelfd           2
            rprim      9.4611770343E+00  0.0000000000E+00 -7.8834909422E+00
                      -2.0758240711E+00  9.2306459850E+00 -7.8834909422E+00
                       0.0000000000E+00  0.0000000000E+00  1.2315165460E+01
          spgroup         140
           strten      0.0000000000E+00  0.0000000000E+00  0.0000000000E+00
                       0.0000000000E+00  0.0000000000E+00  0.0000000000E+00
           symrel      1  0  0   0  1  0   0  0  1      -1  0  0   0 -1  0   0  0 -1
                       0  0  1  -1 -1 -1   1  0  0       0  0 -1   1  1  1  -1  0  0
                       0  1  0   1  0  0  -1 -1 -1       0 -1  0  -1  0  0   1  1  1
                      -1 -1 -1   0  0  1   0  1  0       1  1  1   0  0 -1   0 -1  0
                       0  1  0   1  0  0   0  0  1       0 -1  0  -1  0  0   0  0 -1
                       0  0  1  -1 -1 -1   0  1  0       0  0 -1   1  1  1   0 -1  0
                       1  0  0   0  1  0  -1 -1 -1      -1  0  0   0 -1  0   1  1  1
                      -1 -1 -1   0  0  1   1  0  0       1  1  1   0  0 -1  -1  0  0
            tnons      0.0000000  0.0000000  0.0000000     0.0000000 -0.0000000 -0.0000000
                       0.5000000  0.5000000 -0.0000000     0.5000000  0.5000000  0.0000000
                       0.0000000 -0.0000000 -0.0000000     0.0000000  0.0000000  0.0000000
                       0.5000000  0.5000000  0.0000000     0.5000000  0.5000000 -0.0000000
                       0.5000000  0.5000000  0.0000000     0.5000000  0.5000000 -0.0000000
                      -0.0000000  0.0000000 -0.0000000     0.0000000 -0.0000000  0.0000000
                       0.5000000  0.5000000 -0.0000000     0.5000000  0.5000000  0.0000000
                       0.0000000  0.0000000  0.0000000     0.0000000 -0.0000000 -0.0000000
           tolwfr      1.00000000E-20
            typat      1  1  2  2  3  3  3  3  3  3  3  3
           useylm           1
           xangst      2.9311203491E+00  3.6634856069E+00 -6.2576455961E+00
                       9.7704011638E-01  1.2211618690E+00 -2.0858818654E+00
                       2.5033196265E+00  0.0000000000E+00  1.1725705754E+00
                      -5.4923939373E-01  2.4423237379E+00  1.1725705754E+00
                       8.9602805657E-01  1.9313407655E-01  2.3107028129E+00
                       1.9622445785E+00  1.5257538316E+00  3.4438337888E-02
                       3.0121324089E+00  4.6915133993E+00 -4.1373253928E+00
                       6.7150188479E-01  3.9680775695E+00  8.5968412828E-01
                       1.9459158871E+00  3.3588936442E+00 -1.8610609179E+00
                      -3.9471463709E-01  2.6354578145E+00  3.1359486033E+00
                       3.2366585807E+00  9.1656990631E-01 -2.6863067083E+00
                       4.3028751026E+00  2.2491896614E+00 -4.9625711832E+00
            xcart      5.5390147224E+00  6.9229844887E+00 -1.1825236413E+01
                       1.8463382408E+00  2.3076614963E+00 -3.9417454711E+00
                       4.7305885172E+00  0.0000000000E+00  2.2158372589E+00
                      -1.0379120356E+00  4.6153229925E+00  2.2158372589E+00
                       1.6932476343E+00  3.6497051160E-01  4.3665954908E+00
                       3.7081048590E+00  2.8832568879E+00  6.5079027081E-02
                       5.6921053289E+00  8.8656754734E+00 -7.8184119151E+00
                       1.2689546600E+00  7.4985798804E+00  1.6245675632E+00
                       3.6772481042E+00  6.3473890971E+00 -3.5168954514E+00
                      -7.4590256474E-01  4.9802935041E+00  5.9260840270E+00
                       6.1163983032E+00  1.7320661046E+00 -5.0763839875E+00
                       8.1312555279E+00  4.2503524809E+00 -9.3779004513E+00
             xred      7.5000000000E-01  7.5000000000E-01 -5.5511151231E-17
                       2.5000000000E-01  2.5000000000E-01 -1.3877787808E-17
                       5.0000000000E-01  0.0000000000E+00  5.0000000000E-01
                      -2.7755575616E-17  5.0000000000E-01  5.0000000000E-01
                       1.8764300000E-01  3.9539000000E-02  5.0000000000E-01
                       4.6046100000E-01  3.1235700000E-01  5.0000000000E-01
                       8.1235700000E-01  9.6046100000E-01  5.0000000000E-01
                       3.1235700000E-01  8.1235700000E-01  8.5189600000E-01
                       5.3953900000E-01  6.8764300000E-01  5.0000000000E-01
                       3.9539000000E-02  5.3953900000E-01  8.5189600000E-01
                       6.8764300000E-01  1.8764300000E-01  1.4810400000E-01
                       9.6046100000E-01  4.6046100000E-01  1.4810400000E-01
            znucl       20.00000   46.00000    9.00000

- Timing analysis has been suppressed with timopt=0

 Suggested references for the acknowledgment of ABINIT usage.

 Calculation completed.
.Delivered   2 WARNINGs and   5 COMMENTs to log file.