.Version 9.5.1 of ABINIT

 ABINIT is a project of the Universite Catholique de Louvain,
 Corning Inc. and other collaborators, see ~abinit/doc/developers/contributors.txt .
 acknowledgments of the ABINIT effort.

.Starting date : Wed 19 May 2021.
- ( at 13h45 )

- input  file    -> /scratch/users/j/a/jabreu/flow_simple_9atoms/flow/w184/t1/run.abi
- output file    -> /scratch/users/j/a/jabreu/flow_simple_9atoms/flow/w184/t1/run.abo
- root for input  files -> /scratch/users/j/a/jabreu/flow_simple_9atoms/flow/w184/t1/indata/in
- root for output files -> /scratch/users/j/a/jabreu/flow_simple_9atoms/flow/w184/t1/outdata/out

 Symmetries : space group Fm -3 m (#225); Bravais cF (face-center cubic)
     intxc =       0      iscf =       7    lmnmax =      18     lnmax =       6
     mgfft =      72  mpssoang =       3    mqgrid =    3001     natom =       9
  nloc_mem =       1    nspden =       1   nspinor =       1    nsppol =       1
      nsym =      48    n1xccc =    2501    ntypat =       3    occopt =       1
   xclevel =       2
-    mband =          46        mffmem =           1         mkmem =           1
-   mkqmem =           1        mk1mem =           1           mpw =       13635
      nfft =      373248          nkpt =           1
  Rough estimation (10% accuracy) of disk space for files :

------------- Echo of variables that govern the present computation ------------
-
- outvars: echo of selected default values
-   iomode0 =  0 , fftalg0 =512 , wfoptalg0 =  0
-
- outvars: echo of global parameters not present in the input file
-  max_nthreads =    0
-
 -outvars: echo values of preprocessed input variables --------
            acell      1.0000000000E+00  1.0000000000E+00  1.0000000000E+00 Bohr
              amu      8.54678000E+01  7.26100000E+01  1.89984032E+01
             ecut      4.20000000E+01 Hartree
-          fftalg         512
           irdden           1
           irdwfk           1
           istwfk        1
              ixc     -116133
           kptopt           0
P           mkmem           1
P          mkqmem           1
P          mk1mem           1
            natom           9
            nband          46
           nbdbuf           4
            ngfft          72      72      72
             nkpt           1
            nstep        2000
             nsym          48
           ntypat           3
              occ      2.000000  2.000000  2.000000  2.000000  2.000000  2.000000
                       2.000000  2.000000  2.000000  2.000000  2.000000  2.000000
                       2.000000  2.000000  2.000000  2.000000  2.000000  2.000000
                       2.000000  2.000000  2.000000  2.000000  2.000000  2.000000
                       2.000000  2.000000  2.000000  2.000000  2.000000  2.000000
                       2.000000  2.000000  2.000000  2.000000  2.000000  2.000000
                       2.000000  0.000000  0.000000  0.000000  0.000000  0.000000
                       0.000000  0.000000  0.000000  0.000000
        optdriver           1
            prtwf          -1
            rfdir           1       1       1
           rfelfd           2
            rprim      9.8737924514E+00  0.0000000000E+00  5.7006367297E+00
                       3.2912641505E+00  9.3091007978E+00  5.7006367297E+00
                       0.0000000000E+00  0.0000000000E+00  1.1401273459E+01
          spgroup         225
           symrel      1  0  0   0  1  0   0  0  1      -1  0  0   0 -1  0   0  0 -1
                       0 -1  1   0 -1  0   1 -1  0       0  1 -1   0  1  0  -1  1  0
                      -1  0  0  -1  0  1  -1  1  0       1  0  0   1  0 -1   1 -1  0
                       0  1 -1   1  0 -1   0  0 -1       0 -1  1  -1  0  1   0  0  1
                      -1  0  0  -1  1  0  -1  0  1       1  0  0   1 -1  0   1  0 -1
                       0 -1  1   1 -1  0   0 -1  0       0  1 -1  -1  1  0   0  1  0
                       1  0  0   0  0  1   0  1  0      -1  0  0   0  0 -1   0 -1  0
                       0  1 -1   0  0 -1   1  0 -1       0 -1  1   0  0  1  -1  0  1
                      -1  0  1  -1  1  0  -1  0  0       1  0 -1   1 -1  0   1  0  0
                       0 -1  0   1 -1  0   0 -1  1       0  1  0  -1  1  0   0  1 -1
                       1  0 -1   0  0 -1   0  1 -1      -1  0  1   0  0  1   0 -1  1
                       0  1  0   0  0  1   1  0  0       0 -1  0   0  0 -1  -1  0  0
                       1  0 -1   0  1 -1   0  0 -1      -1  0  1   0 -1  1   0  0  1
                       0 -1  0   0 -1  1   1 -1  0       0  1  0   0  1 -1  -1  1  0
                      -1  0  1  -1  0  0  -1  1  0       1  0 -1   1  0  0   1 -1  0
                       0  1  0   1  0  0   0  0  1       0 -1  0  -1  0  0   0  0 -1
                       0  0 -1   0  1 -1   1  0 -1       0  0  1   0 -1  1  -1  0  1
                       1 -1  0   0 -1  1   0 -1  0      -1  1  0   0  1 -1   0  1  0
                       0  0  1   1  0  0   0  1  0       0  0 -1  -1  0  0   0 -1  0
                      -1  1  0  -1  0  0  -1  0  1       1 -1  0   1  0  0   1  0 -1
                       0  0  1   0  1  0   1  0  0       0  0 -1   0 -1  0  -1  0  0
                       1 -1  0   0 -1  0   0 -1  1      -1  1  0   0  1  0   0  1 -1
                       0  0 -1   1  0 -1   0  1 -1       0  0  1  -1  0  1   0 -1  1
                      -1  1  0  -1  0  1  -1  0  0       1 -1  0   1  0 -1   1  0  0
           tolwfr      1.00000000E-20
            typat      1  1  2  3  3  3  3  3  3
           useylm           1
           xangst      5.2249859276E+00  3.6946229810E+00  9.0499410954E+00
                       1.7416619759E+00  1.2315409937E+00  3.0166470318E+00
                       0.0000000000E+00  0.0000000000E+00  0.0000000000E+00
                       5.4851205604E+00  3.8785659438E+00  6.0332940636E+00
                       2.4824256475E+00  3.8785659438E+00  4.2996873474E+00
                       4.4842222561E+00  1.0475980309E+00  7.7669007799E+00
                       1.4815273432E+00  1.0475980309E+00  6.0332940636E+00
                       4.4842222561E+00  1.0475980309E+00  4.2996873474E+00
                       2.4824256475E+00  3.8785659438E+00  7.7669007799E+00
            xcart      9.8737924514E+00  6.9818255983E+00  1.7101910189E+01
                       3.2912641505E+00  2.3272751994E+00  5.7006367297E+00
                       0.0000000000E+00  0.0000000000E+00  0.0000000000E+00
                       1.0365375665E+01  7.3294274221E+00  1.1401273459E+01
                       4.6911046190E+00  7.3294274221E+00  8.1252315436E+00
                       8.4739519829E+00  1.9796733757E+00  1.4677315375E+01
                       2.7996809370E+00  1.9796733757E+00  1.1401273459E+01
                       8.4739519829E+00  1.9796733757E+00  8.1252315436E+00
                       4.6911046190E+00  7.3294274221E+00  1.4677315375E+01
             xred      7.5000000000E-01  7.5000000000E-01  7.5000000000E-01
                       2.5000000000E-01  2.5000000000E-01  2.5000000000E-01
                       0.0000000000E+00  0.0000000000E+00  0.0000000000E+00
                       7.8734000000E-01  7.8734000000E-01  2.1266000000E-01
                       2.1266000000E-01  7.8734000000E-01  2.1266000000E-01
                       7.8734000000E-01  2.1266000000E-01  7.8734000000E-01
                       2.1266000000E-01  2.1266000000E-01  7.8734000000E-01
                       7.8734000000E-01  2.1266000000E-01  2.1266000000E-01
                       2.1266000000E-01  7.8734000000E-01  7.8734000000E-01
            znucl       37.00000   32.00000    9.00000

 chkinp: Checking input parameters for consistency.

== DATASET  1 ==================================================================
-   mpi_nproc: 1, omp_nthreads: -1 (-1 if OMP is not activated)

--- !DatasetInfo
iteration_state: {dtset: 1, }
dimensions: {natom: 9, nkpt: 1, mband: 46, nsppol: 1, nspinor: 1, nspden: 1, mpw: 13635, }
cutoff_energies: {ecut:  42.0, pawecutdg:  -1.0, }
electrons: {nelect:   7.40000000E+01, charge:   0.00000000E+00, occopt:   1.00000000E+00, tsmear:   1.00000000E-02, }
meta: {optdriver: 1, rfelfd: 2, }
...

 Real(R)+Recip(G) space primitive vectors, cartesian coordinates (Bohr,Bohr^-1):
 R(1)=  9.8737925  0.0000000  5.7006367  G(1)=  0.1012782 -0.0358073  0.0000000
 R(2)=  3.2912642  9.3091008  5.7006367  G(2)=  0.0000000  0.1074218  0.0000000
 R(3)=  0.0000000  0.0000000 11.4012735  G(3)= -0.0506391 -0.0358073  0.0877095
 Unit cell volume ucvol=  1.0479609E+03 bohr^3
 Angles (23,13,12)=  6.00000000E+01  6.00000000E+01  6.00000000E+01 degrees

 getcut: wavevector=  0.0000  0.0000  0.0000  ngfft=  72  72  72
         ecut(hartree)=     42.000   => boxcut(ratio)=   2.16466

--- Pseudopotential description ------------------------------------------------
- pspini: atom type   1  psp file is /scratch/users/j/a/jabreu/pseudos/PBEsol/Rb.psp8
- pspatm: opening atomic psp file    /scratch/users/j/a/jabreu/pseudos/PBEsol/Rb.psp8
- Rb    ONCVPSP-3.3.0  r_core=   1.71227   1.75361   1.90633
- 37.00000   9.00000    180112                znucl, zion, pspdat
    8 -116133    2    4       600   0.00000   pspcod,pspxc,lmax,lloc,mmax,r2well
    5.99000000000000    7.00000000000000    0.00000000000000   rchrg,fchrg,qchrg
     nproj     2     2     2
     extension_switch     1
  pspatm : epsatm=   34.48400912
         --- l  ekb(1:nproj) -->
             0    8.196957   -0.477221
             1    3.231347   -0.378736
             2   -1.047201    0.996637
 pspatm: atomic psp has been read  and splines computed

- pspini: atom type   2  psp file is /scratch/users/j/a/jabreu/pseudos/PBEsol/Ge.psp8
- pspatm: opening atomic psp file    /scratch/users/j/a/jabreu/pseudos/PBEsol/Ge.psp8
- Ge    ONCVPSP-3.3.0  r_core=   1.91022   1.82122   1.91022
- 32.00000  14.00000    180112                znucl, zion, pspdat
    8 -116133    2    4       600   0.00000   pspcod,pspxc,lmax,lloc,mmax,r2well
    5.99000000000000    5.00000000000000    0.00000000000000   rchrg,fchrg,qchrg
     nproj     2     2     2
     extension_switch     1
  pspatm : epsatm=   30.86751540
         --- l  ekb(1:nproj) -->
             0    6.339734    0.583066
             1    3.813259    0.738801
             2   -9.332373   -3.602819
 pspatm: atomic psp has been read  and splines computed

- pspini: atom type   3  psp file is /scratch/users/j/a/jabreu/pseudos/PBEsol/F.psp8
- pspatm: opening atomic psp file    /scratch/users/j/a/jabreu/pseudos/PBEsol/F.psp8
- F     ONCVPSP-3.3.0  r_core=   1.30942   1.45782   1.60379
-  9.00000   7.00000    180112                znucl, zion, pspdat
    8 -116133    2    4       600   0.00000   pspcod,pspxc,lmax,lloc,mmax,r2well
    5.99000000000000    2.50000000000000    0.00000000000000   rchrg,fchrg,qchrg
     nproj     2     2     1
     extension_switch     1
  pspatm : epsatm=    4.89824824
         --- l  ekb(1:nproj) -->
             0    6.506434    1.065875
             1   -3.978753   -1.295852
             2   -2.394754
 pspatm: atomic psp has been read  and splines computed

[...]
   erelax=  -4.70724381E+01
  No Ewald or frozen-wf contrib.: the relaxation energy is the total one
 2DEtotal=   -0.4707243809E+02 Ha. Also 2DEtotal=   -0.128090618217E+04 eV
    (  non-var. 2DEtotal :   -4.7072438093E+01 Ha)

 Perturbation wavevector (in red.coord.)   0.000000  0.000000  0.000000
 Perturbation : derivative vs k along direction   2
 The set of symmetries contains only one element for this perturbation.
 symkpt : not enough symmetry to change the number of k points.

[...]

 Perturbation wavevector (in red.coord.)   0.000000  0.000000  0.000000
 Perturbation : derivative vs k along direction   3
 The set of symmetries contains only one element for this perturbation.
 symkpt : not enough symmetry to change the number of k points.

-inwffil : will read wavefunctions from disk file /scratch/users/j/a/jabreu/flow_simple_9atoms/flow/w184/t1/indata/in_WFK

 Initialisation of the first-order wave-functions :
  ireadwf=   0

--- !BeginCycle
iteration_state: {dtset: 1, }
solver: {iscf: 7, nstep: 2000, nline: 4, wfoptalg: 0, }
tolerances: {tolwfr: 1.00E-20, }
...

     iter   2DEtotal(Ha)        deltaE(Ha) residm    vres2
-ETOT  1  -47.030276845606     -4.703E+01 6.276E-02 0.000E+00
 ETOT  2  -47.072351933037     -4.208E-02 8.482E-05 0.000E+00
 ETOT  3  -47.072437776362     -8.584E-05 1.046E-05 0.000E+00
 ETOT  4  -47.072438206546     -4.302E-07 4.452E-07 0.000E+00
 ETOT  5  -47.072438210035     -3.489E-09 2.557E-08 0.000E+00
 ETOT  6  -47.072438210075     -3.996E-11 1.682E-09 0.000E+00
 ETOT  7  -47.072438210076     -6.821E-13 1.139E-10 0.000E+00
 ETOT  8  -47.072438210076      8.527E-14 7.472E-12 0.000E+00
 ETOT  9  -47.072438210076      5.684E-14 5.205E-13 0.000E+00
 ETOT 10  -47.072438210076     -3.553E-14 3.318E-14 0.000E+00
 ETOT 11  -47.072438210076      0.000E+00 2.387E-15 0.000E+00
 ETOT 12  -47.072438210076      0.000E+00 1.439E-16 0.000E+00
 ETOT 13  -47.072438210076      7.105E-15 1.085E-17 0.000E+00
 ETOT 14  -47.072438210076     -7.105E-15 6.039E-19 0.000E+00
 ETOT 15  -47.072438210076      7.105E-15 4.966E-20 0.000E+00
 ETOT 16  -47.072438210076      0.000E+00 9.438E-21 0.000E+00

 At SCF step   16   max residual=  9.44E-21 < tolwfr=  1.00E-20 =>converged.

 ----iterations are completed or convergence reached----

 dfpt_looppert: DFPT cycle converged with prtwf=-1. Will skip output of the 1st-order WFK file.
 dfpt_looppert : ek2=    6.7422676130E+01
          f-sum rule ratio=    1.0562275901E+00
 prteigrs : about to open file /scratch/users/j/a/jabreu/flow_simple_9atoms/flow/w184/t1/tmpdata/tmp_1WF1_EIG
 Expectation of eigenvalue derivatives (hartree) for nkpt=   1  k points:
  (in case of degenerate eigenvalues, averaged derivative)
 kpt#   1, nband= 46, wtk=  1.00000, kpt=  0.0000  0.0000  0.0000 (reduced coord)
  -0.00000   -0.00000   -0.00000    0.00000    0.00000    0.00000    0.00000    0.00000
  -0.00000   -0.00000   -0.00000    0.00000    0.00000   -0.00000   -0.00000   -0.00000
  -0.00000   -0.00000   -0.00000   -0.00000    0.00000    0.00000    0.00000    0.00000
   0.00000    0.00000   -0.00000   -0.00000   -0.00000   -0.00000   -0.00000   -0.00000
  -0.00000   -0.00000   -0.00000   -0.00000   -0.00000   -0.00000    0.00000    0.00000
   0.00000   -0.00000   -0.00000   -0.00000   -0.00000   -0.00000

 Eight components of 2nd-order total energy (hartree) are
 1,2,3: 0th-order hamiltonian combined with 1st-order wavefunctions
     kin0=   5.58670435E+01 eigvalue=   5.84310490E+00  local=  -2.30836861E+01
 4,5,6: 1st-order hamiltonian combined with 1st and 0th-order wfs
     kin1=  -7.12136907E+01  Hartree=   0.00000000E+00     xc=   0.00000000E+00
 7,8,9: eventually, occupation + non-local contributions
    edocc=   7.40540499E+00     enl0=   1.04057089E+00   enl1=  -2.29311857E+01
 1-9 gives the relaxation energy (to be shifted if some occ is /=2.0)
   erelax=  -4.70724382E+01
  No Ewald or frozen-wf contrib.: the relaxation energy is the total one
 2DEtotal=   -0.4707243821E+02 Ha. Also 2DEtotal=   -0.128090618536E+04 eV
    (  non-var. 2DEtotal :   -4.7072438210E+01 Ha)

 CALCULATION OF EFFECTIVE MASSES
 NOTE : Additional infos (eff. mass eigenvalues, eigenvectors and, if degenerate, average mass) are available in stdout.

 COMMENTS:
 - At k-point ( 0.000, 0.000, 0.000), bands    35 through    37
   are DEGENERATE (effective mass tensor is therefore not defined).
   See Section IIIB Eqs. (67)-(70) and Appendix E of PRB 93 205147 (2016).
 - Angular average effective mass for Frohlich model is to be averaged over degenerate bands. See later.
 - Associated theta integrals calculated with ntheta=   1000 points.

 K-point ( 0.000, 0.000, 0.000) | band =    35
 Transport equivalent effective mass tensor:
             -5.3300881929             -0.0000017035              0.0000000439
             -0.0000017035             -5.3300864838              0.0000000306
              0.0000000439              0.0000000306             -5.3300783894
 Transport equivalent effective mass tensor eigenvalues:
             -5.3300892444             -5.3300854325             -5.3300783891
 Angular average effective mass 1/(<1/m>)=  -5.0331625140
 Angular average effective mass for Frohlich model (<m**0.5>)**2=  -5.0444444814
 Effective masses along directions: (cart. coord. / red. coord. -> eff. mass)
    1:   1.000000  0.000000  0.000000 /   0.948683  0.316228  0.000000 ->  -5.3750207374
    2:   0.000000  1.000000  0.000000 /   0.000000  1.000000  0.000000 ->  -6.1150524839
    3:   0.000000  0.000000  1.000000 /   0.408248  0.408248  0.816497 ->  -4.7947672909
    4:   0.577350  0.577350  0.577350 /   0.585539  0.688047  0.428644 ->  -5.1795902758
    5:   0.000000  0.707107  0.707107 /   0.289489  0.762222  0.578977 ->  -4.8271440193
    6:   0.707107  0.000000  0.707107 /   0.731423  0.422287  0.535439 ->  -4.9700663510
    7:   0.707107  0.707107  0.000000 /   0.616798  0.787122  0.000000 ->  -4.8395865619

[...]

 K-point ( 0.000, 0.000, 0.000) | band =    37
 Transport equivalent effective mass tensor:
           -115.6360857470              0.0000001596              0.0000004717
              0.0000001596           -115.6360859259              0.0000003446
              0.0000004717              0.0000003446           -115.6360852867
 Transport equivalent effective mass tensor eigenvalues:
           -115.6360860957           -115.6360860051           -115.6360848587
 Angular average effective mass 1/(<1/m>)= -16.2007656238
 Angular average effective mass for Frohlich model (<m**0.5>)**2= -19.1734526711
 Effective masses along directions: (cart. coord. / red. coord. -> eff. mass)
    1:   1.000000  0.000000  0.000000 /   0.948683  0.316228  0.000000 -> -14.1755764490
    2:   0.000000  1.000000  0.000000 /   0.000000  1.000000  0.000000 ->  -9.6189167230
    3:   0.000000  0.000000  1.000000 /   0.408248  0.408248  0.816497 -> -12.2779364852
    4:   0.577350  0.577350  0.577350 /   0.585539  0.688047  0.428644 -> -13.7013829140
    5:   0.000000  0.707107  0.707107 /   0.289489  0.762222  0.578977 -> -22.6689741972
    6:   0.707107  0.000000  0.707107 /   0.731423  0.422287  0.535439 -> -13.2659370949
    7:   0.707107  0.707107  0.000000 /   0.616798  0.787122  0.000000 -> -52.8022485734

 Angular average effective mass for Frohlich model, averaged over degenerate bands.
 Value of     (<<m**0.5>>)**2 =     9.113524E+00
 Absolute Value of <<m**0.5>> =     3.018861E+00

 K-point ( 0.000, 0.000, 0.000) | band =    38
 Effective mass tensor:
              0.6450528158             -0.0000000004             -0.0000000010
             -0.0000000004              0.6450528161             -0.0000000007
             -0.0000000010             -0.0000000007              0.6450528147
 Effective mass tensor eigenvalues:
              0.6450528138              0.6450528164              0.6450528164
 Angular average effective mass 1/(<1/m>)=   0.6450528155
 Angular average effective mass for Frohlich model (<m**0.5>)**2=   0.6450528155
 Effective masses along directions: (cart. coord. / red. coord. -> eff. mass)
    1:   1.000000  0.000000  0.000000 /   0.948683  0.316228  0.000000 ->   0.6450528158
    2:   0.000000  1.000000  0.000000 /   0.000000  1.000000  0.000000 ->   0.6450528161
    3:   0.000000  0.000000  1.000000 /   0.408248  0.408248  0.816497 ->   0.6450528147
    4:   0.577350  0.577350  0.577350 /   0.585539  0.688047  0.428644 ->   0.6450528141
    5:   0.000000  0.707107  0.707107 /   0.289489  0.762222  0.578977 ->   0.6450528147
    6:   0.707107  0.000000  0.707107 /   0.731423  0.422287  0.535439 ->   0.6450528142
    7:   0.707107  0.707107  0.000000 /   0.616798  0.787122  0.000000 ->   0.6450528155

 END OF EFFECTIVE MASSES SECTION

 ---- first-order wavefunction calculations are completed ----

 Total localisation tensor (bohr^2) in cartesian coordinates
  WARNING : still subject to testing - especially symmetries.
      direction              matrix element
   alpha     beta       real part   imaginary part
     1        1       0.6979343310    0.0000000000
     1        2       0.1974056414    0.0000000000
     1        3       0.4835430895    0.0000000000
     2        1       0.1974056414    0.0000000000
     2        2       0.5583474707    0.0000000000
     2        3       0.3419166006    0.0000000000
     3        1       0.4835430895    0.0000000000
     3        2       0.3419166006    0.0000000000
     3        3       1.2562818040    0.0000000000

 respfn : d/dk was computed, but no 2DTE, so no DDB output.

== END DATASET(S) ==============================================================

 -outvars: echo values of variables after computation  --------
            acell      1.0000000000E+00  1.0000000000E+00  1.0000000000E+00 Bohr
              amu      8.54678000E+01  7.26100000E+01  1.89984032E+01
             ecut      4.20000000E+01 Hartree
           etotal     -4.7072438210E+01
            fcart      0.0000000000E+00  0.0000000000E+00  0.0000000000E+00
                       0.0000000000E+00  0.0000000000E+00  0.0000000000E+00
                       0.0000000000E+00  0.0000000000E+00  0.0000000000E+00
                       0.0000000000E+00  0.0000000000E+00  0.0000000000E+00
                       0.0000000000E+00  0.0000000000E+00  0.0000000000E+00
                       0.0000000000E+00  0.0000000000E+00  0.0000000000E+00
                       0.0000000000E+00  0.0000000000E+00  0.0000000000E+00
                       0.0000000000E+00  0.0000000000E+00  0.0000000000E+00
                       0.0000000000E+00  0.0000000000E+00  0.0000000000E+00
-          fftalg         512
           irdden           1
           irdwfk           1
           istwfk        1
              ixc     -116133
           kptopt           0
P           mkmem           1
P          mkqmem           1
P          mk1mem           1
            natom           9
            nband          46
           nbdbuf           4
            ngfft          72      72      72
             nkpt           1
            nstep        2000
             nsym          48
           ntypat           3
              occ      2.000000  2.000000  2.000000  2.000000  2.000000  2.000000
                       2.000000  2.000000  2.000000  2.000000  2.000000  2.000000
                       2.000000  2.000000  2.000000  2.000000  2.000000  2.000000
                       2.000000  2.000000  2.000000  2.000000  2.000000  2.000000
                       2.000000  2.000000  2.000000  2.000000  2.000000  2.000000
                       2.000000  2.000000  2.000000  2.000000  2.000000  2.000000
                       2.000000  0.000000  0.000000  0.000000  0.000000  0.000000
                       0.000000  0.000000  0.000000  0.000000
        optdriver           1
            prtwf          -1
            rfdir           1       1       1
           rfelfd           2
            rprim      9.8737924514E+00  0.0000000000E+00  5.7006367297E+00
                       3.2912641505E+00  9.3091007978E+00  5.7006367297E+00
                       0.0000000000E+00  0.0000000000E+00  1.1401273459E+01
          spgroup         225
           strten      0.0000000000E+00  0.0000000000E+00  0.0000000000E+00
                       0.0000000000E+00  0.0000000000E+00  0.0000000000E+00
           symrel      1  0  0   0  1  0   0  0  1      -1  0  0   0 -1  0   0  0 -1
                       0 -1  1   0 -1  0   1 -1  0       0  1 -1   0  1  0  -1  1  0
                      -1  0  0  -1  0  1  -1  1  0       1  0  0   1  0 -1   1 -1  0
                       0  1 -1   1  0 -1   0  0 -1       0 -1  1  -1  0  1   0  0  1
                      -1  0  0  -1  1  0  -1  0  1       1  0  0   1 -1  0   1  0 -1
                       0 -1  1   1 -1  0   0 -1  0       0  1 -1  -1  1  0   0  1  0
                       1  0  0   0  0  1   0  1  0      -1  0  0   0  0 -1   0 -1  0
                       0  1 -1   0  0 -1   1  0 -1       0 -1  1   0  0  1  -1  0  1
                      -1  0  1  -1  1  0  -1  0  0       1  0 -1   1 -1  0   1  0  0
                       0 -1  0   1 -1  0   0 -1  1       0  1  0  -1  1  0   0  1 -1
                       1  0 -1   0  0 -1   0  1 -1      -1  0  1   0  0  1   0 -1  1
                       0  1  0   0  0  1   1  0  0       0 -1  0   0  0 -1  -1  0  0
                       1  0 -1   0  1 -1   0  0 -1      -1  0  1   0 -1  1   0  0  1
                       0 -1  0   0 -1  1   1 -1  0       0  1  0   0  1 -1  -1  1  0
                      -1  0  1  -1  0  0  -1  1  0       1  0 -1   1  0  0   1 -1  0
                       0  1  0   1  0  0   0  0  1       0 -1  0  -1  0  0   0  0 -1
                       0  0 -1   0  1 -1   1  0 -1       0  0  1   0 -1  1  -1  0  1
                       1 -1  0   0 -1  1   0 -1  0      -1  1  0   0  1 -1   0  1  0
                       0  0  1   1  0  0   0  1  0       0  0 -1  -1  0  0   0 -1  0
                      -1  1  0  -1  0  0  -1  0  1       1 -1  0   1  0  0   1  0 -1
                       0  0  1   0  1  0   1  0  0       0  0 -1   0 -1  0  -1  0  0
                       1 -1  0   0 -1  0   0 -1  1      -1  1  0   0  1  0   0  1 -1
                       0  0 -1   1  0 -1   0  1 -1       0  0  1  -1  0  1   0 -1  1
                      -1  1  0  -1  0  1  -1  0  0       1 -1  0   1  0 -1   1  0  0
           tolwfr      1.00000000E-20
            typat      1  1  2  3  3  3  3  3  3
           useylm           1
           xangst      5.2249859276E+00  3.6946229810E+00  9.0499410954E+00
                       1.7416619759E+00  1.2315409937E+00  3.0166470318E+00
                       0.0000000000E+00  0.0000000000E+00  0.0000000000E+00
                       5.4851205604E+00  3.8785659438E+00  6.0332940636E+00
                       2.4824256475E+00  3.8785659438E+00  4.2996873474E+00
                       4.4842222561E+00  1.0475980309E+00  7.7669007799E+00
                       1.4815273432E+00  1.0475980309E+00  6.0332940636E+00
                       4.4842222561E+00  1.0475980309E+00  4.2996873474E+00
                       2.4824256475E+00  3.8785659438E+00  7.7669007799E+00
            xcart      9.8737924514E+00  6.9818255983E+00  1.7101910189E+01
                       3.2912641505E+00  2.3272751994E+00  5.7006367297E+00
                       0.0000000000E+00  0.0000000000E+00  0.0000000000E+00
                       1.0365375665E+01  7.3294274221E+00  1.1401273459E+01
                       4.6911046190E+00  7.3294274221E+00  8.1252315436E+00
                       8.4739519829E+00  1.9796733757E+00  1.4677315375E+01
                       2.7996809370E+00  1.9796733757E+00  1.1401273459E+01
                       8.4739519829E+00  1.9796733757E+00  8.1252315436E+00
                       4.6911046190E+00  7.3294274221E+00  1.4677315375E+01
             xred      7.5000000000E-01  7.5000000000E-01  7.5000000000E-01
                       2.5000000000E-01  2.5000000000E-01  2.5000000000E-01
                       0.0000000000E+00  0.0000000000E+00  0.0000000000E+00
                       7.8734000000E-01  7.8734000000E-01  2.1266000000E-01
                       2.1266000000E-01  7.8734000000E-01  2.1266000000E-01
                       7.8734000000E-01  2.1266000000E-01  7.8734000000E-01
                       2.1266000000E-01  2.1266000000E-01  7.8734000000E-01
                       7.8734000000E-01  2.1266000000E-01  2.1266000000E-01
                       2.1266000000E-01  7.8734000000E-01  7.8734000000E-01
            znucl       37.00000   32.00000    9.00000

- Timing analysis has been suppressed with timopt=0

 Suggested references for the acknowledgment of ABINIT usage.

 Calculation completed.
.Delivered   6 WARNINGs and   5 COMMENTs to log file.