.Version 9.5.1 of ABINIT

 ABINIT is a project of the Universite Catholique de Louvain,
 Corning Inc. and other collaborators, see ~abinit/doc/developers/contributors.txt .
 acknowledgments of the ABINIT effort.

.Starting date : Wed  5 May 2021.
- ( at 19h49 )

- input  file    -> /scratch/users/j/a/jabreu/flow_simple_7atoms/flow/w146/t1/run.abi
- output file    -> /scratch/users/j/a/jabreu/flow_simple_7atoms/flow/w146/t1/run.abo
- root for input  files -> /scratch/users/j/a/jabreu/flow_simple_7atoms/flow/w146/t1/indata/in
- root for output files -> /scratch/users/j/a/jabreu/flow_simple_7atoms/flow/w146/t1/outdata/out

 Symmetries : space group I4/m m m (#139); Bravais tI (body-center tetrag.)
     intxc =       0      iscf =       7    lmnmax =      18     lnmax =       6
     mgfft =      90  mpssoang =       3    mqgrid =    3001     natom =       7
  nloc_mem =       1    nspden =       1   nspinor =       1    nsppol =       1
      nsym =      16    n1xccc =    2501    ntypat =       3    occopt =       1
   xclevel =       2
-    mband =          37        mffmem =           1         mkmem =           2
-   mkqmem =           2        mk1mem =           2           mpw =       11017
      nfft =      729000          nkpt =           2
  Rough estimation (10% accuracy) of disk space for files :

------------- Echo of variables that govern the present computation ------------
-
- outvars: echo of selected default values
-   iomode0 =  0 , fftalg0 =512 , wfoptalg0 =  0
-
- outvars: echo of global parameters not present in the input file
-  max_nthreads =    0
-
 -outvars: echo values of preprocessed input variables --------
            acell      1.0000000000E+00  1.0000000000E+00  1.0000000000E+00 Bohr
              amu      1.37327000E+02  9.12240000E+01  1.59994000E+01
             ecut      4.40000000E+01 Hartree
-          fftalg         512
           irdden           1
           irdwfk           1
           istwfk        0    1
              ixc     -116133
              kpt     -1.31687299E-01  1.31687299E-01  1.31687299E-01
                       0.00000000E+00  0.00000000E+00  0.00000000E+00
           kptopt           0
P           mkmem           2
P          mkqmem           2
P          mk1mem           2
            natom           7
            nband          37
           nbdbuf           4
            ngfft          90      90      90
             nkpt           2
            nstep        2000
             nsym          16
           ntypat           3
              occ      2.000000  2.000000  2.000000  2.000000  2.000000  2.000000
                       2.000000  2.000000  2.000000  2.000000  2.000000  2.000000
                       2.000000  2.000000  2.000000  2.000000  2.000000  2.000000
                       2.000000  2.000000  2.000000  2.000000  2.000000  2.000000
                       2.000000  2.000000  2.000000  2.000000  0.000000  0.000000
                       0.000000  0.000000  0.000000  0.000000  0.000000  0.000000
                       0.000000
        optdriver           1
            prtwf          -1
            rfdir           1       1       1
           rfelfd           2
            rprim      7.5581098192E+00  0.0000000000E+00 -1.1559403524E+01
                      -6.7078518860E-01  7.5282847495E+00 -1.1559403524E+01
                       0.0000000000E+00  0.0000000000E+00  1.3811040289E+01
          spgroup         139
           symrel      1  0  0   0  1  0   0  0  1      -1  0  0   0 -1  0   0  0 -1
                       0  0  1  -1 -1 -1   1  0  0       0  0 -1   1  1  1  -1  0  0
                       0  1  0   1  0  0  -1 -1 -1       0 -1  0  -1  0  0   1  1  1
                      -1 -1 -1   0  0  1   0  1  0       1  1  1   0  0 -1   0 -1  0
                       0  1  0   1  0  0   0  0  1       0 -1  0  -1  0  0   0  0 -1
                       0  0  1  -1 -1 -1   0  1  0       0  0 -1   1  1  1   0 -1  0
                       1  0  0   0  1  0  -1 -1 -1      -1  0  0   0 -1  0   1  1  1
                      -1 -1 -1   0  0  1   1  0  0       1  1  1   0  0 -1  -1  0  0
           tolwfr      1.00000000E-20
            typat      1  1  2  3  3  3  3
           useylm           1
              wtk        0.50000    0.50000
           xangst      1.2870302628E+00  1.4068060995E+00 -4.3201977411E+00
                       2.3575849599E+00  2.5769906097E+00 -7.9137480387E+00
                       0.0000000000E+00  0.0000000000E+00  0.0000000000E+00
                       5.7480684523E-01  6.2830051420E-01 -1.9294645247E+00
                       3.0698083774E+00  3.3554961950E+00 -1.0304481255E+01
                       1.9997897282E+00  0.0000000000E+00  5.9575742908E-01
                      -1.7748211683E-01  1.9918983546E+00  5.9575742908E-01
            xcart      2.4321347215E+00  2.6584782502E+00 -8.1639905706E+00
                       4.4551899091E+00  4.8698064993E+00 -1.4954816478E+01
                       0.0000000000E+00  0.0000000000E+00  0.0000000000E+00
                       1.0862275168E+00  1.1873159010E+00 -3.6461595348E+00
                       5.8010971138E+00  6.3409688485E+00 -1.9472647514E+01
                       3.7790549096E+00  0.0000000000E+00  1.1258183826E+00
                      -3.3539259430E-01  3.7641423748E+00  1.1258183826E+00
             xred      3.5313200000E-01  3.5313200000E-01  0.0000000000E+00
                       6.4686800000E-01  6.4686800000E-01  0.0000000000E+00
                       0.0000000000E+00  0.0000000000E+00  0.0000000000E+00
                       1.5771400000E-01  1.5771400000E-01  1.3877787808E-17
                       8.4228600000E-01  8.4228600000E-01  0.0000000000E+00
                       5.0000000000E-01  0.0000000000E+00  5.0000000000E-01
                       6.9388939039E-18  5.0000000000E-01  5.0000000000E-01
            znucl       56.00000   40.00000    8.00000

 chkinp: Checking input parameters for consistency.

== DATASET  1 ==================================================================
-   mpi_nproc: 1, omp_nthreads: -1 (-1 if OMP is not activated)

--- !DatasetInfo
iteration_state: {dtset: 1, }
dimensions: {natom: 7, nkpt: 2, mband: 37, nsppol: 1, nspinor: 1, nspden: 1, mpw: 11017, }
cutoff_energies: {ecut:  44.0, pawecutdg:  -1.0, }
electrons: {nelect:   5.60000000E+01, charge:   0.00000000E+00, occopt:   1.00000000E+00, tsmear:   1.00000000E-02, }
meta: {optdriver: 1, rfelfd: 2, }
...

 Real(R)+Recip(G) space primitive vectors, cartesian coordinates (Bohr,Bohr^-1):
 R(1)=  7.5581098  0.0000000-11.5594035  G(1)=  0.1323082  0.0117889  0.0000000
 R(2)= -0.6707852  7.5282847-11.5594035  G(2)=  0.0000000  0.1328324  0.0000000
 R(3)=  0.0000000  0.0000000 13.8110403  G(3)=  0.1107378  0.1210435  0.0724058
 Unit cell volume ucvol=  7.8584271E+02 bohr^3
 Angles (23,13,12)=  1.46821355E+02  1.46821355E+02  4.76283677E+01 degrees

 getcut: wavevector=  0.0000  0.0000  0.0000  ngfft=  90  90  90
         ecut(hartree)=     44.000   => boxcut(ratio)=   2.18280

--- Pseudopotential description ------------------------------------------------
- pspini: atom type   1  psp file is /scratch/users/j/a/jabreu/pseudos/PBEsol/Ba.psp8
- pspatm: opening atomic psp file    /scratch/users/j/a/jabreu/pseudos/PBEsol/Ba.psp8
- Ba    ONCVPSP-3.3.0  r_core=   2.15444   1.91218   2.15444
- 56.00000  10.00000    180112                znucl, zion, pspdat
    8 -116133    2    4       600   0.00000   pspcod,pspxc,lmax,lloc,mmax,r2well
    5.99000000000000    5.00000000000000    0.00000000000000   rchrg,fchrg,qchrg
     nproj     2     2     2
     extension_switch     1
  pspatm : epsatm=   26.37418029
         --- l  ekb(1:nproj) -->
             0    6.652372    0.677024
             1    5.027722    0.408462
             2    2.543237    0.416854
 pspatm: atomic psp has been read  and splines computed

- pspini: atom type   2  psp file is /scratch/users/j/a/jabreu/pseudos/PBEsol/Zr.psp8
- pspatm: opening atomic psp file    /scratch/users/j/a/jabreu/pseudos/PBEsol/Zr.psp8
- Zr    ONCVPSP-3.3.0  r_core=   1.56507   1.56507   1.51006
- 40.00000  12.00000    180112                znucl, zion, pspdat
    8 -116133    2    4       600   0.00000   pspcod,pspxc,lmax,lloc,mmax,r2well
    5.99000000000000    5.00000000000000    0.00000000000000   rchrg,fchrg,qchrg
     nproj     2     2     2
     extension_switch     1
  pspatm : epsatm=   18.88750170
         --- l  ekb(1:nproj) -->
             0   10.584966    0.890424
             1    5.814585    0.741293
             2    1.525459    0.487901
 pspatm: atomic psp has been read  and splines computed

- pspini: atom type   3  psp file is /scratch/users/j/a/jabreu/pseudos/PBEsol/O.psp8
- pspatm: opening atomic psp file    /scratch/users/j/a/jabreu/pseudos/PBEsol/O.psp8
- O     ONCVPSP-3.3.0  r_core=   1.35509   1.45563   1.26150
-  8.00000   6.00000    180112                znucl, zion, pspdat
    8 -116133    2    4       600   0.00000   pspcod,pspxc,lmax,lloc,mmax,r2well
    5.99000000000000    4.00000000000000    0.00000000000000   rchrg,fchrg,qchrg
     nproj     2     2     1
     extension_switch     1
  pspatm : epsatm=    6.22910522
         --- l  ekb(1:nproj) -->
             0    6.050032    0.820363
             1   -4.739617   -1.153841
             2   -1.335834
 pspatm: atomic psp has been read  and splines computed

   5.40692786E+03                                ecore*ucvol(ha*bohr**3)

-inwffil : will read wavefunctions from disk file /scratch/users/j/a/jabreu/flow_simple_7atoms/flow/w146/t1/indata/in_WFK

 ==>  initialize data related to q vector <==

 The list of irreducible perturbations for this q vector is:
    1)    idir= 1    ipert=   8
    2)    idir= 2    ipert=   8
    3)    idir= 3    ipert=   8

 Perturbation wavevector (in red.coord.)   0.000000  0.000000  0.000000
 Perturbation : derivative vs k along direction   1

 dfpt_looppert : COMMENT -
  In a d/dk calculation, iscf is set to -3 automatically.
 The set of symmetries contains only one element for this perturbation.
 symkpt : not enough symmetry to change the number of k points.

[...]

 Initialisation of the first-order wave-functions :
  ireadwf=   0

--- !BeginCycle
iteration_state: {dtset: 1, }
solver: {iscf: 7, nstep: 2000, nline: 4, wfoptalg: 0, }
tolerances: {tolwfr: 1.00E-20, }
...

     iter   2DEtotal(Ha)        deltaE(Ha) residm    vres2
-ETOT  1  -49.164648635706     -4.916E+01 2.226E-01 0.000E+00
 ETOT  2  -49.294261753506     -1.296E-01 3.424E-03 0.000E+00
 ETOT  3  -49.295971258256     -1.710E-03 6.232E-05 0.000E+00
 ETOT  4  -49.296002956677     -3.170E-05 7.143E-06 0.000E+00
 ETOT  5  -49.296003617178     -6.605E-07 3.708E-07 0.000E+00
 ETOT  6  -49.296003631725     -1.455E-08 5.490E-08 0.000E+00
 ETOT  7  -49.296003632056     -3.312E-10 4.983E-09 0.000E+00
 ETOT  8  -49.296003632064     -7.759E-12 1.336E-09 0.000E+00
 ETOT  9  -49.296003632064     -9.948E-14 1.701E-10 0.000E+00
 ETOT 10  -49.296003632064     -1.279E-13 4.766E-11 0.000E+00
 ETOT 11  -49.296003632064      8.527E-14 6.165E-12 0.000E+00
 ETOT 12  -49.296003632064     -5.684E-14 1.787E-12 0.000E+00
 ETOT 13  -49.296003632064      3.553E-14 2.280E-13 0.000E+00
 ETOT 14  -49.296003632064      7.105E-15 9.800E-14 0.000E+00
 ETOT 15  -49.296003632064     -2.132E-14 1.091E-14 0.000E+00
 ETOT 16  -49.296003632064      7.105E-15 5.442E-15 0.000E+00
 ETOT 17  -49.296003632064      0.000E+00 6.151E-16 0.000E+00
 ETOT 18  -49.296003632064     -1.421E-14 3.036E-16 0.000E+00
 ETOT 19  -49.296003632064      1.421E-14 3.475E-17 0.000E+00
 ETOT 20  -49.296003632064     -1.421E-14 1.696E-17 0.000E+00
 ETOT 21  -49.296003632064      0.000E+00 1.962E-18 0.000E+00
 ETOT 22  -49.296003632064     -7.105E-15 9.476E-19 0.000E+00
 ETOT 23  -49.296003632064      1.421E-14 1.106E-19 0.000E+00
 ETOT 24  -49.296003632064     -7.105E-15 5.294E-20 0.000E+00
 ETOT 25  -49.296003632064      1.421E-14 9.803E-21 0.000E+00

 At SCF step   25   max residual=  9.80E-21 < tolwfr=  1.00E-20 =>converged.

 ----iterations are completed or convergence reached----

 dfpt_looppert: DFPT cycle converged with prtwf=-1. Will skip output of the 1st-order WFK file.
 dfpt_looppert : ek2=    7.8016360150E+01
          f-sum rule ratio=    1.2318137300E+00
 prteigrs : about to open file /scratch/users/j/a/jabreu/flow_simple_7atoms/flow/w146/t1/tmpdata/tmp_1WF1_EIG
 Expectation of eigenvalue derivatives (hartree) for nkpt=   2  k points:
  (in case of degenerate eigenvalues, averaged derivative)
 kpt#   1, nband= 37, wtk=  0.50000, kpt= -0.1317  0.1317  0.1317 (reduced coord)
   0.00000    0.00000   -0.00000   -0.00000    0.00000   -0.00000   -0.00000   -0.00000
   0.00000    0.00000    0.00000   -0.00000    0.00000   -0.00000    0.00000    0.00000
   0.00000    0.00000   -0.00000    0.00000    0.00000    0.00000   -0.00000    0.00000
   0.00000    0.00000    0.00000   -0.00000   -0.00000    0.00000   -0.00000    0.00000
  -0.00000   -0.00000   -0.00000    0.00071    0.01268
 prteigrs : prtvol=0 or 1, do not print more k-points.

 Eight components of 2nd-order total energy (hartree) are
 1,2,3: 0th-order hamiltonian combined with 1st-order wavefunctions
     kin0=   7.71634656E+01 eigvalue=  -3.77817617E+00  local=  -4.63339779E+01
 4,5,6: 1st-order hamiltonian combined with 1st and 0th-order wfs
     kin1=  -9.61016236E+01  Hartree=   0.00000000E+00     xc=   0.00000000E+00
 7,8,9: eventually, occupation + non-local contributions
    edocc=   1.68594013E+01     enl0=   5.38529074E+00   enl1=  -2.49038367E+00
 1-9 gives the relaxation energy (to be shifted if some occ is /=2.0)
   erelax=  -4.92960036E+01
  No Ewald or frozen-wf contrib.: the relaxation energy is the total one
 2DEtotal=   -0.4929600363E+02 Ha. Also 2DEtotal=   -0.134141247760E+04 eV
    (  non-var. 2DEtotal :   -4.9296003632E+01 Ha)

 Perturbation wavevector (in red.coord.)   0.000000  0.000000  0.000000
 Perturbation : derivative vs k along direction   2
 The set of symmetries contains only one element for this perturbation.
 symkpt : not enough symmetry to change the number of k points.

[...]

 Perturbation wavevector (in red.coord.)   0.000000  0.000000  0.000000
 Perturbation : derivative vs k along direction   3
 The set of symmetries contains only one element for this perturbation.
 symkpt : not enough symmetry to change the number of k points.

-inwffil : will read wavefunctions from disk file /scratch/users/j/a/jabreu/flow_simple_7atoms/flow/w146/t1/indata/in_WFK

 Initialisation of the first-order wave-functions :
  ireadwf=   0

--- !BeginCycle
iteration_state: {dtset: 1, }
solver: {iscf: 7, nstep: 2000, nline: 4, wfoptalg: 0, }
tolerances: {tolwfr: 1.00E-20, }
...

     iter   2DEtotal(Ha)        deltaE(Ha) residm    vres2
-ETOT  1  -87.241189407593     -8.724E+01 2.521E-01 0.000E+00
 ETOT  2  -87.430008557768     -1.888E-01 2.062E-02 0.000E+00
 ETOT  3  -87.432543062510     -2.535E-03 7.719E-04 0.000E+00
 ETOT  4  -87.432590805209     -4.774E-05 1.474E-04 0.000E+00
 ETOT  5  -87.432591815415     -1.010E-06 1.982E-05 0.000E+00
 ETOT  6  -87.432591837970     -2.255E-08 2.884E-06 0.000E+00
 ETOT  7  -87.432591838490     -5.201E-10 7.192E-07 0.000E+00
 ETOT  8  -87.432591838502     -1.234E-11 1.098E-07 0.000E+00
 ETOT  9  -87.432591838503     -2.558E-13 2.681E-08 0.000E+00
 ETOT 10  -87.432591838503     -2.842E-14 4.129E-09 0.000E+00
 ETOT 11  -87.432591838503     -4.263E-14 1.020E-09 0.000E+00
 ETOT 12  -87.432591838503      5.684E-14 1.575E-10 0.000E+00
 ETOT 13  -87.432591838503      0.000E+00 3.934E-11 0.000E+00
 ETOT 14  -87.432591838503      0.000E+00 6.397E-12 0.000E+00
 ETOT 15  -87.432591838503     -1.421E-14 1.533E-12 0.000E+00
 ETOT 16  -87.432591838503     -2.842E-14 3.004E-13 0.000E+00
 ETOT 17  -87.432591838503      0.000E+00 6.023E-14 0.000E+00
 ETOT 18  -87.432591838503      1.421E-14 1.410E-14 0.000E+00
 ETOT 19  -87.432591838503     -1.421E-14 2.384E-15 0.000E+00
 ETOT 20  -87.432591838503      4.263E-14 6.600E-16 0.000E+00
 ETOT 21  -87.432591838503      1.421E-14 9.503E-17 0.000E+00
 ETOT 22  -87.432591838503     -2.842E-14 3.085E-17 0.000E+00
 ETOT 23  -87.432591838503     -4.263E-14 3.812E-18 0.000E+00
 ETOT 24  -87.432591838503      2.842E-14 1.445E-18 0.000E+00
 ETOT 25  -87.432591838503     -2.842E-14 1.583E-19 0.000E+00
 ETOT 26  -87.432591838503      0.000E+00 6.836E-20 0.000E+00
 ETOT 27  -87.432591838503      4.263E-14 9.981E-21 0.000E+00

 At SCF step   27   max residual=  9.98E-21 < tolwfr=  1.00E-20 =>converged.

 ----iterations are completed or convergence reached----

 dfpt_looppert: DFPT cycle converged with prtwf=-1. Will skip output of the 1st-order WFK file.
 dfpt_looppert : ek2=    1.4218475563E+02
          f-sum rule ratio=    1.1941862769E+00
 prteigrs : about to open file /scratch/users/j/a/jabreu/flow_simple_7atoms/flow/w146/t1/tmpdata/tmp_1WF1_EIG
 Expectation of eigenvalue derivatives (hartree) for nkpt=   2  k points:
  (in case of degenerate eigenvalues, averaged derivative)
 kpt#   1, nband= 37, wtk=  0.50000, kpt= -0.1317  0.1317  0.1317 (reduced coord)
   0.00043   -0.02485    0.01568    0.00530    0.00093   -0.01588    0.00337    0.11381
  -0.01179   -0.01951   -0.00052   -0.00147    0.02405   -0.00277    0.00773   -0.01364
  -0.26656   -0.13922   -0.05848   -0.06098    0.01315   -0.08620   -0.07002   -0.00919
  -0.09551    0.03136   -0.03693    0.00171    0.16436    0.07601    0.28033    0.14087
   0.27956    0.31956    0.15298   -0.03587    0.07907
 prteigrs : prtvol=0 or 1, do not print more k-points.

 Eight components of 2nd-order total energy (hartree) are
 1,2,3: 0th-order hamiltonian combined with 1st-order wavefunctions
     kin0=   1.32293560E+02 eigvalue=  -5.98186587E+00  local=  -7.71169801E+01
 4,5,6: 1st-order hamiltonian combined with 1st and 0th-order wfs
     kin1=  -1.69795084E+02  Hartree=   0.00000000E+00     xc=   0.00000000E+00
 7,8,9: eventually, occupation + non-local contributions
    edocc=   2.94933191E+01     enl0=   8.74455875E+00   enl1=  -5.07009972E+00
 1-9 gives the relaxation energy (to be shifted if some occ is /=2.0)
   erelax=  -8.74325918E+01
  No Ewald or frozen-wf contrib.: the relaxation energy is the total one
 2DEtotal=   -0.8743259184E+02 Ha. Also 2DEtotal=   -0.237916181839E+04 eV
    (  non-var. 2DEtotal :   -8.7432591838E+01 Ha)

 CALCULATION OF EFFECTIVE MASSES
 NOTE : Additional infos (eff. mass eigenvalues, eigenvectors and, if degenerate, average mass) are available in stdout.

 K-point (-0.132, 0.132, 0.132) | band =    28
 Effective mass tensor:
             -3.7186047726              0.1021938632             -0.8402566241
              0.1021938632             -1.9324145431             -0.3428057847
             -0.8402566241             -0.3428057847             -1.1486392914
 Effective mass tensor eigenvalues:
             -3.9689434457             -2.0440922535             -0.7866229080
 Angular average effective mass 1/(<1/m>)=  -1.4907364975
 Angular average effective mass for Frohlich model (<m**0.5>)**2=  -1.6996786788
 Effective masses along directions: (cart. coord. / red. coord. -> eff. mass)
    1:   1.000000  0.000000  0.000000 /   0.996085 -0.088403  0.000000 ->  -3.0358626548
    2:   0.000000  1.000000  0.000000 /   0.000000  1.000000  0.000000 ->  -1.7899684775
    3:   0.000000  0.000000  1.000000 /  -0.540145 -0.540145  0.645358 ->  -0.8893921927
    4:   0.577350  0.577350  0.577350 /  -0.264492 -0.310803  0.912932 ->  -2.5141738689
    5:   0.000000  0.707107  0.707107 /  -0.626331 -0.218421  0.748333 ->  -1.5915681214
    6:   0.707107  0.000000  0.707107 /  -0.211969 -0.647896  0.731642 ->  -2.1415160599
    7:   0.707107  0.707107  0.000000 /   0.740599  0.671948  0.000000 ->  -1.9702048539

 K-point ( 0.000, 0.000, 0.000) | band =    29
 Effective mass tensor:
              1.1900169642              0.9207971663             -2.8276740589
              0.9207971663              1.3541057209             -3.0908229845
             -2.8276740589             -3.0908229845              9.8392425780
 Effective mass tensor eigenvalues:
              0.3476160739              0.3476206130             11.6881285762
 Angular average effective mass 1/(<1/m>)=   0.5137872049
 Angular average effective mass for Frohlich model (<m**0.5>)**2=   0.6996845911
 Effective masses along directions: (cart. coord. / red. coord. -> eff. mass)
    1:   1.000000  0.000000  0.000000 /   0.996085 -0.088403  0.000000 ->   0.3746168878
    2:   0.000000  1.000000  0.000000 /   0.000000  1.000000  0.000000 ->   0.3803739636
    3:   0.000000  0.000000  1.000000 /  -0.540145 -0.540145  0.645358 ->   1.8497702306
    4:   0.577350  0.577350  0.577350 /  -0.264492 -0.310803  0.912932 ->   0.3614873610
    5:   0.000000  0.707107  0.707107 /  -0.626331 -0.218421  0.748333 ->   0.4263454150
    6:   0.707107  0.000000  0.707107 /  -0.211969 -0.647896  0.731642 ->   0.4346022297
    7:   0.707107  0.707107  0.000000 /   0.740599  0.671948  0.000000 ->   0.4127884065

 END OF EFFECTIVE MASSES SECTION

 ---- first-order wavefunction calculations are completed ----

 Total localisation tensor (bohr^2) in cartesian coordinates
  WARNING : still subject to testing - especially symmetries.
      direction              matrix element
   alpha     beta       real part   imaginary part
     1        1       1.2592526163    0.0000000000
     1        2      -0.0972336753    0.0000000000
     1        3      -1.7633569694    0.0000000000
     2        1      -0.0972336753    0.0000000000
     2        2       1.0912626093    0.0000000000
     2        3      -1.6755934813    0.0000000000
     3        1      -1.7633569694    0.0000000000
     3        2      -1.6755934813    0.0000000000
     3        3      12.7387893921    0.0000000000

 respfn : d/dk was computed, but no 2DTE, so no DDB output.

== END DATASET(S) ==============================================================

 -outvars: echo values of variables after computation  --------
            acell      1.0000000000E+00  1.0000000000E+00  1.0000000000E+00 Bohr
              amu      1.37327000E+02  9.12240000E+01  1.59994000E+01
             ecut      4.40000000E+01 Hartree
           etotal     -8.7432591839E+01
            fcart      0.0000000000E+00  0.0000000000E+00  0.0000000000E+00
                       0.0000000000E+00  0.0000000000E+00  0.0000000000E+00
                       0.0000000000E+00  0.0000000000E+00  0.0000000000E+00
                       0.0000000000E+00  0.0000000000E+00  0.0000000000E+00
                       0.0000000000E+00  0.0000000000E+00  0.0000000000E+00
                       0.0000000000E+00  0.0000000000E+00  0.0000000000E+00
                       0.0000000000E+00  0.0000000000E+00  0.0000000000E+00
-          fftalg         512
           irdden           1
           irdwfk           1
           istwfk        0    1
              ixc     -116133
              kpt     -1.31687299E-01  1.31687299E-01  1.31687299E-01
                       0.00000000E+00  0.00000000E+00  0.00000000E+00
           kptopt           0
P           mkmem           2
P          mkqmem           2
P          mk1mem           2
            natom           7
            nband          37
           nbdbuf           4
            ngfft          90      90      90
             nkpt           2
            nstep        2000
             nsym          16
           ntypat           3
              occ      2.000000  2.000000  2.000000  2.000000  2.000000  2.000000
                       2.000000  2.000000  2.000000  2.000000  2.000000  2.000000
                       2.000000  2.000000  2.000000  2.000000  2.000000  2.000000
                       2.000000  2.000000  2.000000  2.000000  2.000000  2.000000
                       2.000000  2.000000  2.000000  2.000000  0.000000  0.000000
                       0.000000  0.000000  0.000000  0.000000  0.000000  0.000000
                       0.000000
        optdriver           1
            prtwf          -1
            rfdir           1       1       1
           rfelfd           2
            rprim      7.5581098192E+00  0.0000000000E+00 -1.1559403524E+01
                      -6.7078518860E-01  7.5282847495E+00 -1.1559403524E+01
                       0.0000000000E+00  0.0000000000E+00  1.3811040289E+01
          spgroup         139
           strten      0.0000000000E+00  0.0000000000E+00  0.0000000000E+00
                       0.0000000000E+00  0.0000000000E+00  0.0000000000E+00
           symrel      1  0  0   0  1  0   0  0  1      -1  0  0   0 -1  0   0  0 -1
                       0  0  1  -1 -1 -1   1  0  0       0  0 -1   1  1  1  -1  0  0
                       0  1  0   1  0  0  -1 -1 -1       0 -1  0  -1  0  0   1  1  1
                      -1 -1 -1   0  0  1   0  1  0       1  1  1   0  0 -1   0 -1  0
                       0  1  0   1  0  0   0  0  1       0 -1  0  -1  0  0   0  0 -1
                       0  0  1  -1 -1 -1   0  1  0       0  0 -1   1  1  1   0 -1  0
                       1  0  0   0  1  0  -1 -1 -1      -1  0  0   0 -1  0   1  1  1
                      -1 -1 -1   0  0  1   1  0  0       1  1  1   0  0 -1  -1  0  0
           tolwfr      1.00000000E-20
            typat      1  1  2  3  3  3  3
           useylm           1
              wtk        0.50000    0.50000
           xangst      1.2870302628E+00  1.4068060995E+00 -4.3201977411E+00
                       2.3575849599E+00  2.5769906097E+00 -7.9137480387E+00
                       0.0000000000E+00  0.0000000000E+00  0.0000000000E+00
                       5.7480684523E-01  6.2830051420E-01 -1.9294645247E+00
                       3.0698083774E+00  3.3554961950E+00 -1.0304481255E+01
                       1.9997897282E+00  0.0000000000E+00  5.9575742908E-01
                      -1.7748211683E-01  1.9918983546E+00  5.9575742908E-01
            xcart      2.4321347215E+00  2.6584782502E+00 -8.1639905706E+00
                       4.4551899091E+00  4.8698064993E+00 -1.4954816478E+01
                       0.0000000000E+00  0.0000000000E+00  0.0000000000E+00
                       1.0862275168E+00  1.1873159010E+00 -3.6461595348E+00
                       5.8010971138E+00  6.3409688485E+00 -1.9472647514E+01
                       3.7790549096E+00  0.0000000000E+00  1.1258183826E+00
                      -3.3539259430E-01  3.7641423748E+00  1.1258183826E+00
             xred      3.5313200000E-01  3.5313200000E-01  0.0000000000E+00
                       6.4686800000E-01  6.4686800000E-01  0.0000000000E+00
                       0.0000000000E+00  0.0000000000E+00  0.0000000000E+00
                       1.5771400000E-01  1.5771400000E-01  1.3877787808E-17
                       8.4228600000E-01  8.4228600000E-01  0.0000000000E+00
                       5.0000000000E-01  0.0000000000E+00  5.0000000000E-01
                       6.9388939039E-18  5.0000000000E-01  5.0000000000E-01
            znucl       56.00000   40.00000    8.00000

- Timing analysis has been suppressed with timopt=0

 Suggested references for the acknowledgment of ABINIT usage.

 Calculation completed.
.Delivered  14 WARNINGs and   9 COMMENTs to log file.