.Version 9.5.1 of ABINIT

 ABINIT is a project of the Universite Catholique de Louvain,
 Corning Inc. and other collaborators, see ~abinit/doc/developers/contributors.txt .
 acknowledgments of the ABINIT effort.

.Starting date : Tue 27 Apr 2021.
- ( at 18h37 )

- input  file    -> /scratch/users/j/a/jabreu/flow_simple_4atoms/flow/w213/t1/run.abi
- output file    -> /scratch/users/j/a/jabreu/flow_simple_4atoms/flow/w213/t1/run.abo
- root for input  files -> /scratch/users/j/a/jabreu/flow_simple_4atoms/flow/w213/t1/indata/in
- root for output files -> /scratch/users/j/a/jabreu/flow_simple_4atoms/flow/w213/t1/outdata/out

 Symmetries : space group P6_3 m c (#186); Bravais hP (primitive hexag.)
     intxc =       0      iscf =       7    lmnmax =      18     lnmax =       6
     mgfft =      72  mpssoang =       3    mqgrid =    3401     natom =       4
  nloc_mem =       1    nspden =       1   nspinor =       1    nsppol =       1
      nsym =      12    n1xccc =    2501    ntypat =       2    occopt =       1
   xclevel =       2
-    mband =          27        mffmem =           1         mkmem =           1
-   mkqmem =           1        mk1mem =           1           mpw =        6569
      nfft =      145800          nkpt =           1
  Rough estimation (10% accuracy) of disk space for files :

------------- Echo of variables that govern the present computation ------------
-
- outvars: echo of selected default values
-   iomode0 =  0 , fftalg0 =512 , wfoptalg0 =  0
-
- outvars: echo of global parameters not present in the input file
-  max_nthreads =    0
-
 -outvars: echo values of preprocessed input variables --------
            acell      1.0000000000E+00  1.0000000000E+00  1.0000000000E+00 Bohr
              amu      6.97230000E+01  3.09737620E+01
             ecut      4.00000000E+01 Hartree
-          fftalg         512
           irdden           1
           irdwfk           1
           istwfk        1
              ixc     -116133
           kptopt           0
P           mkmem           1
P          mkqmem           1
P          mk1mem           1
            natom           4
            nband          27
           nbdbuf           4
            ngfft          45      45      72
             nkpt           1
            nstep         100
             nsym          12
           ntypat           2
              occ      2.000000  2.000000  2.000000  2.000000  2.000000  2.000000
                       2.000000  2.000000  2.000000  2.000000  2.000000  2.000000
                       2.000000  2.000000  2.000000  2.000000  2.000000  2.000000
                       0.000000  0.000000  0.000000  0.000000  0.000000  0.000000
                       0.000000  0.000000  0.000000
        optdriver           1
            prtwf          -1
            rfdir           1       1       1
           rfelfd           2
            rprim      7.2445782075E+00  0.0000000000E+00  0.0000000000E+00
                      -3.6222891037E+00  6.2739887674E+00  0.0000000000E+00
                       0.0000000000E+00  0.0000000000E+00  1.1943386997E+01
          spgroup         186
           symrel      1  0  0   0  1  0   0  0  1       0  1  0   1  0  0   0  0  1
                       1  1  0  -1  0  0   0  0  1      -1  0  0   1  1  0   0  0  1
                       0  1  0  -1 -1  0   0  0  1      -1 -1  0   0  1  0   0  0  1
                      -1  0  0   0 -1  0   0  0  1       0 -1  0  -1  0  0   0  0  1
                      -1 -1  0   1  0  0   0  0  1       1  0  0  -1 -1  0   0  0  1
                       0 -1  0   1  1  0   0  0  1       1  1  0   0 -1  0   0  0  1
            tnons      0.0000000  0.0000000  0.0000000    -0.0000000  0.0000000  0.5000000
                       0.0000000  0.0000000  0.5000000    -0.0000000  0.0000000  0.0000000
                       0.0000000  0.0000000  0.0000000     0.0000000  0.0000000  0.5000000
                       0.0000000  0.0000000  0.5000000     0.0000000  0.0000000  0.0000000
                      -0.0000000  0.0000000  0.0000000     0.0000000  0.0000000  0.5000000
                      -0.0000000  0.0000000  0.5000000     0.0000000  0.0000000  0.0000000
           tolwfr      1.00000000E-20
            typat      1  1  2  2
           useylm           1
           xangst      1.9168328366E+00  1.1066839542E+00  3.1604127449E+00
                       1.7638771742E-11  2.2133679084E+00  3.2864874600E-04
                       1.9168328366E+00  1.1066839542E+00  5.5234983514E+00
                       1.7638771742E-11  2.2133679084E+00  2.3634142552E+00
            xcart      3.6222891038E+00  2.0913295891E+00  5.9723145548E+00
                       3.3332447913E-11  4.1826591783E+00  6.2105612387E-04
                       3.6222891038E+00  2.0913295891E+00  1.0437899180E+01
                       3.3332447913E-11  4.1826591783E+00  4.4662056809E+00
             xred      6.6666666667E-01  3.3333333333E-01  5.0005200000E-01
                       3.3333333333E-01  6.6666666667E-01  5.2000000000E-05
                       6.6666666667E-01  3.3333333333E-01  8.7394800000E-01
                       3.3333333333E-01  6.6666666667E-01  3.7394800000E-01
            znucl       31.00000   15.00000

 chkinp: Checking input parameters for consistency.

== DATASET  1 ==================================================================
-   mpi_nproc: 1, omp_nthreads: -1 (-1 if OMP is not activated)

--- !DatasetInfo
iteration_state: {dtset: 1, }
dimensions: {natom: 4, nkpt: 1, mband: 27, nsppol: 1, nspinor: 1, nspden: 1, mpw: 6569, }
cutoff_energies: {ecut:  40.0, pawecutdg:  -1.0, }
electrons: {nelect:   3.60000000E+01, charge:   0.00000000E+00, occopt:   1.00000000E+00, tsmear:   1.00000000E-02, }
meta: {optdriver: 1, rfelfd: 2, }
...

 Real(R)+Recip(G) space primitive vectors, cartesian coordinates (Bohr,Bohr^-1):
 R(1)=  7.2445782  0.0000000  0.0000000  G(1)=  0.1380343  0.0796941  0.0000000
 R(2)= -3.6222891  6.2739888  0.0000000  G(2)=  0.0000000  0.1593882  0.0000000
 R(3)=  0.0000000  0.0000000 11.9433870  G(3)=  0.0000000  0.0000000  0.0837283
 Unit cell volume ucvol=  5.4285563E+02 bohr^3
 Angles (23,13,12)=  9.00000000E+01  9.00000000E+01  1.20000000E+02 degrees

 getcut: wavevector=  0.0000  0.0000  0.0000  ngfft=  45  45  72
         ecut(hartree)=     40.000   => boxcut(ratio)=   2.11743

--- Pseudopotential description ------------------------------------------------
- pspini: atom type   1  psp file is /scratch/users/j/a/jabreu/pseudos/PBEsol/Ga.psp8
- pspatm: opening atomic psp file    /scratch/users/j/a/jabreu/pseudos/PBEsol/Ga.psp8
- Ga    ONCVPSP-3.3.0  r_core=   1.66857   1.75011   1.90252
- 31.00000  13.00000    180112                znucl, zion, pspdat
    8 -116133    2    4       600   0.00000   pspcod,pspxc,lmax,lloc,mmax,r2well
    5.99000000000000    5.00000000000000    0.00000000000000   rchrg,fchrg,qchrg
     nproj     2     2     2
     extension_switch     1
  pspatm : epsatm=   24.50969055
         --- l  ekb(1:nproj) -->
             0    7.053021    1.156713
             1    6.846070    1.293139
             2   -8.368667   -2.819170
 pspatm: atomic psp has been read  and splines computed

- pspini: atom type   2  psp file is /scratch/users/j/a/jabreu/pseudos/PBEsol/P.psp8
- pspatm: opening atomic psp file    /scratch/users/j/a/jabreu/pseudos/PBEsol/P.psp8
- P     ONCVPSP-3.3.0  r_core=   1.46089   1.55067   1.70594
- 15.00000   5.00000    180112                znucl, zion, pspdat
    8 -116133    2    4       600   0.00000   pspcod,pspxc,lmax,lloc,mmax,r2well
    5.99000000000000    5.00000000000000    0.00000000000000   rchrg,fchrg,qchrg
     nproj     2     2     2
     extension_switch     1
  pspatm : epsatm=    7.31221086
         --- l  ekb(1:nproj) -->
             0    6.742364    1.063650
             1    3.449117    0.910422
             2   -3.077645   -0.799176
 pspatm: atomic psp has been read  and splines computed

   2.29117690E+03                                ecore*ucvol(ha*bohr**3)

-inwffil : will read wavefunctions from disk file /scratch/users/j/a/jabreu/flow_simple_4atoms/flow/w213/t1/indata/in_WFK

 ==>  initialize data related to q vector <==

 The list of irreducible perturbations for this q vector is:
    1)    idir= 1    ipert=   5
    2)    idir= 2    ipert=   5
    3)    idir= 3    ipert=   5

 Perturbation wavevector (in red.coord.)   0.000000  0.000000  0.000000
 Perturbation : derivative vs k along direction   1

 dfpt_looppert : COMMENT -
  In a d/dk calculation, iscf is set to -3 automatically.
 The set of symmetries contains only one element for this perturbation.
 symkpt : not enough symmetry to change the number of k points.

[...]

 Initialisation of the first-order wave-functions :
  ireadwf=   0

--- !BeginCycle
iteration_state: {dtset: 1, }
solver: {iscf: 7, nstep: 100, nline: 4, wfoptalg: 0, }
tolerances: {tolwfr: 1.00E-20, }
...

     iter   2DEtotal(Ha)        deltaE(Ha) residm    vres2
-ETOT  1  -116.15040238493     -1.162E+02 9.638E-02 0.000E+00
 ETOT  2  -116.19113671768     -4.073E-02 3.588E-04 0.000E+00
 ETOT  3  -116.19123688191     -1.002E-04 8.803E-06 0.000E+00
 ETOT  4  -116.19123733990     -4.580E-07 5.432E-08 0.000E+00
 ETOT  5  -116.19123734261     -2.710E-09 1.890E-09 0.000E+00
 ETOT  6  -116.19123734262     -1.810E-11 1.283E-11 0.000E+00
 ETOT  7  -116.19123734262     -8.527E-14 5.023E-13 0.000E+00
 ETOT  8  -116.19123734262      1.137E-13 3.847E-15 0.000E+00
 ETOT  9  -116.19123734262     -1.421E-13 1.593E-16 0.000E+00
 ETOT 10  -116.19123734262      8.527E-14 1.214E-18 0.000E+00
 ETOT 11  -116.19123734262     -1.137E-13 5.152E-20 0.000E+00
 ETOT 12  -116.19123734262      4.263E-14 9.824E-21 0.000E+00

 At SCF step   12   max residual=  9.82E-21 < tolwfr=  1.00E-20 =>converged.

 ----iterations are completed or convergence reached----

 dfpt_looppert: DFPT cycle converged with prtwf=-1. Will skip output of the 1st-order WFK file.
 dfpt_looppert : ek2=    7.2211232817E+01
          f-sum rule ratio=    2.1392336909E+00
 prteigrs : about to open file /scratch/users/j/a/jabreu/flow_simple_4atoms/flow/w213/t1/tmpdata/tmp_1WF1_EIG
 Expectation of eigenvalue derivatives (hartree) for nkpt=   1  k points:
  (in case of degenerate eigenvalues, averaged derivative)
 kpt#   1, nband= 27, wtk=  1.00000, kpt=  0.0000  0.0000  0.0000 (reduced coord)
  -0.00000   -0.00000   -0.00000   -0.00000   -0.00000   -0.00000   -0.00000   -0.00000
   0.00000    0.00000    0.00000   -0.00000    0.00000   -0.00000   -0.00000   -0.00000
  -0.00000   -0.00000   -0.00000   -0.00000    0.00000    0.00000   -0.00000    0.00000
   0.00000   -0.00003    0.01413

 Eight components of 2nd-order total energy (hartree) are
 1,2,3: 0th-order hamiltonian combined with 1st-order wavefunctions
     kin0=   7.25735457E+01 eigvalue=   4.45508641E+00  local=  -2.60731374E+01
 4,5,6: 1st-order hamiltonian combined with 1st and 0th-order wfs
     kin1=  -1.54476702E+02  Hartree=   0.00000000E+00     xc=   0.00000000E+00
 7,8,9: eventually, occupation + non-local contributions
    edocc=   5.57472841E+01     enl0=   9.48845853E+00   enl1=  -7.79057726E+01
 1-9 gives the relaxation energy (to be shifted if some occ is /=2.0)
   erelax=  -1.16191237E+02
  No Ewald or frozen-wf contrib.: the relaxation energy is the total one
 2DEtotal=   -0.1161912373E+03 Ha. Also 2DEtotal=   -0.316172436050E+04 eV
    (  non-var. 2DEtotal :   -1.1619123734E+02 Ha)

 Perturbation wavevector (in red.coord.)   0.000000  0.000000  0.000000
 Perturbation : derivative vs k along direction   2
 The set of symmetries contains only one element for this perturbation.
 symkpt : not enough symmetry to change the number of k points.

[...]

 Perturbation wavevector (in red.coord.)   0.000000  0.000000  0.000000
 Perturbation : derivative vs k along direction   3
 The set of symmetries contains only one element for this perturbation.
 symkpt : not enough symmetry to change the number of k points.

-inwffil : will read wavefunctions from disk file /scratch/users/j/a/jabreu/flow_simple_4atoms/flow/w213/t1/indata/in_WFK

 Initialisation of the first-order wave-functions :
  ireadwf=   0

--- !BeginCycle
iteration_state: {dtset: 1, }
solver: {iscf: 7, nstep: 100, nline: 4, wfoptalg: 0, }
tolerances: {tolwfr: 1.00E-20, }
...

     iter   2DEtotal(Ha)        deltaE(Ha) residm    vres2
-ETOT  1  -26.813389942746     -2.681E+01 3.595E-02 0.000E+00
 ETOT  2  -26.823805025783     -1.042E-02 1.784E-04 0.000E+00
 ETOT  3  -26.823824276569     -1.925E-05 1.229E-06 0.000E+00
 ETOT  4  -26.823824342668     -6.610E-08 9.127E-09 0.000E+00
 ETOT  5  -26.823824342955     -2.869E-10 9.385E-11 0.000E+00
 ETOT  6  -26.823824342957     -1.386E-12 8.585E-13 0.000E+00
 ETOT  7  -26.823824342957     -3.553E-15 9.406E-15 0.000E+00
 ETOT  8  -26.823824342957      3.908E-14 8.861E-17 0.000E+00
 ETOT  9  -26.823824342957     -3.553E-15 1.097E-18 0.000E+00
 ETOT 10  -26.823824342957      1.066E-14 1.004E-20 0.000E+00
 ETOT 11  -26.823824342957      3.553E-15 9.402E-21 0.000E+00

 At SCF step   11   max residual=  9.40E-21 < tolwfr=  1.00E-20 =>converged.

 ----iterations are completed or convergence reached----

 dfpt_looppert: DFPT cycle converged with prtwf=-1. Will skip output of the 1st-order WFK file.
 dfpt_looppert : ek2=    1.9926784472E+01
          f-sum rule ratio=    1.6207850459E+00
 prteigrs : about to open file /scratch/users/j/a/jabreu/flow_simple_4atoms/flow/w213/t1/tmpdata/tmp_1WF1_EIG
 Expectation of eigenvalue derivatives (hartree) for nkpt=   1  k points:
  (in case of degenerate eigenvalues, averaged derivative)
 kpt#   1, nband= 27, wtk=  1.00000, kpt=  0.0000  0.0000  0.0000 (reduced coord)
   0.00000    0.00000    0.00000    0.00000    0.00000    0.00000    0.00000    0.00000
  -0.00000   -0.00000    0.00000   -0.00000   -0.00000   -0.00000   -0.00000   -0.00000
  -0.00000   -0.00000   -0.00000   -0.00000   -0.00000   -0.00000    0.00000   -0.00000
  -0.00000    0.00000   -0.00000

 Eight components of 2nd-order total energy (hartree) are
 1,2,3: 0th-order hamiltonian combined with 1st-order wavefunctions
     kin0=   2.03832634E+01 eigvalue=   1.16769466E+00  local=  -7.33830431E+00
 4,5,6: 1st-order hamiltonian combined with 1st and 0th-order wfs
     kin1=  -3.22970343E+01  Hartree=   0.00000000E+00     xc=   0.00000000E+00
 7,8,9: eventually, occupation + non-local contributions
    edocc=   1.00156343E+01     enl0=   2.59553634E+00   enl1=  -2.13506144E+01
 1-9 gives the relaxation energy (to be shifted if some occ is /=2.0)
   erelax=  -2.68238243E+01
  No Ewald or frozen-wf contrib.: the relaxation energy is the total one
 2DEtotal=   -0.2682382434E+02 Ha. Also 2DEtotal=   -0.729913380789E+03 eV
    (  non-var. 2DEtotal :   -2.6823824343E+01 Ha)

 CALCULATION OF EFFECTIVE MASSES
 NOTE : Additional infos (eff. mass eigenvalues, eigenvectors and, if degenerate, average mass) are available in stdout.

 COMMENTS:
 - At k-point ( 0.000, 0.000, 0.000), bands    17 through    18
   are DEGENERATE (effective mass tensor is therefore not defined).
   See Section IIIB Eqs. (67)-(70) and Appendix E of PRB 93 205147 (2016).
 - Angular average effective mass for Frohlich model is to be averaged over degenerate bands. See later.
 - Associated theta integrals calculated with ntheta=   1000 points.

 K-point ( 0.000, 0.000, 0.000) | band =    17
 Transport equivalent effective mass tensor:
             -0.1031552403             -0.0000024440              0.0000093704
             -0.0000024440             -0.1031520191             -0.0000075545
              0.0000093704             -0.0000075545             -0.8931846755
 Transport equivalent effective mass tensor eigenvalues:
             -0.8931846756             -0.1031565566             -0.1031507026
 Angular average effective mass 1/(<1/m>)=  -0.1462833002
 Angular average effective mass for Frohlich model (<m**0.5>)**2=  -0.1747355441
 Effective masses along directions: (cart. coord. / red. coord. -> eff. mass)
    1:   1.000000  0.000000  0.000000 /   0.894427 -0.447214  0.000000 ->  -0.1031536003
    2:   0.000000  1.000000  0.000000 /   0.000000  1.000000  0.000000 ->  -0.1031535950
    3:   0.000000  0.000000  1.000000 /   0.000000  0.000000  1.000000 ->  -0.8929780268
    4:   0.577350  0.577350  0.577350 /   0.509525  0.186499  0.840001 ->  -0.1462840509
    5:   0.000000  0.707107  0.707107 /   0.000000  0.465049  0.885285 ->  -0.1849497958
    6:   0.707107  0.000000  0.707107 /   0.502020 -0.251010  0.827629 ->  -0.1849442229
    7:   0.707107  0.707107  0.000000 /   0.939071  0.343724  0.000000 ->  -0.1031535977

 K-point ( 0.000, 0.000, 0.000) | band =    18
 Transport equivalent effective mass tensor:
             -0.9423378407              0.0000223530              0.0000066273
              0.0000223530             -0.9423672519             -0.0000518628
              0.0000066273             -0.0000518628             -0.8931858796
 Transport equivalent effective mass tensor eigenvalues:
             -0.9423793512             -0.9423257970             -0.8931858241
 Angular average effective mass 1/(<1/m>)=  -0.9253729898
 Angular average effective mass for Frohlich model (<m**0.5>)**2=  -0.9255517819
 Effective masses along directions: (cart. coord. / red. coord. -> eff. mass)
    1:   1.000000  0.000000  0.000000 /   0.894427 -0.447214  0.000000 ->  -0.9423525338
    2:   0.000000  1.000000  0.000000 /   0.000000  1.000000  0.000000 ->  -0.9423525335
    3:   0.000000  0.000000  1.000000 /   0.000000  0.000000  1.000000 ->  -0.8933933250
    4:   0.577350  0.577350  0.577350 /   0.509525  0.186499  0.840001 ->  -0.9253624001
    5:   0.000000  0.707107  0.707107 /   0.000000  0.465049  0.885285 ->  -0.9171791418
    6:   0.707107  0.000000  0.707107 /   0.502020 -0.251010  0.827629 ->  -0.9171033582
    7:   0.707107  0.707107  0.000000 /   0.939071  0.343724  0.000000 ->  -0.9423525241

 Angular average effective mass for Frohlich model, averaged over degenerate bands.
 Value of     (<<m**0.5>>)**2 =     4.761482E-01
 Absolute Value of <<m**0.5>> =     6.900349E-01

 K-point ( 0.000, 0.000, 0.000) | band =    19
 Effective mass tensor:
              0.1231751637              0.0000000000             -0.0000000039
              0.0000000000              0.1231751621              0.0000000048
             -0.0000000039              0.0000000048              1.1510560967
 Effective mass tensor eigenvalues:
              0.1231751621              0.1231751637              1.1510560967
 Angular average effective mass 1/(<1/m>)=   0.1753790393
 Angular average effective mass for Frohlich model (<m**0.5>)**2=   0.2112483187
 Effective masses along directions: (cart. coord. / red. coord. -> eff. mass)
    1:   1.000000  0.000000  0.000000 /   0.894427 -0.447214  0.000000 ->   0.1231751637
    2:   0.000000  1.000000  0.000000 /   0.000000  1.000000  0.000000 ->   0.1231751621
    3:   0.000000  0.000000  1.000000 /   0.000000  0.000000  1.000000 ->   1.1510560967
    4:   0.577350  0.577350  0.577350 /   0.509525  0.186499  0.840001 ->   0.1753790395
    5:   0.000000  0.707107  0.707107 /   0.000000  0.465049  0.885285 ->   0.2225365629
    6:   0.707107  0.000000  0.707107 /   0.502020 -0.251010  0.827629 ->   0.2225365626
    7:   0.707107  0.707107  0.000000 /   0.939071  0.343724  0.000000 ->   0.1231751629

 END OF EFFECTIVE MASSES SECTION

 ---- first-order wavefunction calculations are completed ----

 Total localisation tensor (bohr^2) in cartesian coordinates
  WARNING : still subject to testing - especially symmetries.
      direction              matrix element
   alpha     beta       real part   imaginary part
     1        1      12.0565857339    0.0000000000
     1        2      -4.1765403522    0.0000000000
     1        3       0.0000000000    0.0000000000
     2        1      -4.1765403522    0.0000000000
     2        2       7.2339800900    0.0000000000
     2        3       0.0000000000    0.0000000000
     3        1       0.0000000000    0.0000000000
     3        2       0.0000000000    0.0000000000
     3        3       5.2777951961    0.0000000000

 respfn : d/dk was computed, but no 2DTE, so no DDB output.

== END DATASET(S) ==============================================================

 -outvars: echo values of variables after computation  --------
            acell      1.0000000000E+00  1.0000000000E+00  1.0000000000E+00 Bohr
              amu      6.97230000E+01  3.09737620E+01
             ecut      4.00000000E+01 Hartree
           etotal     -2.6823824343E+01
            fcart      0.0000000000E+00  0.0000000000E+00  0.0000000000E+00
                       0.0000000000E+00  0.0000000000E+00  0.0000000000E+00
                       0.0000000000E+00  0.0000000000E+00  0.0000000000E+00
                       0.0000000000E+00  0.0000000000E+00  0.0000000000E+00
-          fftalg         512
           irdden           1
           irdwfk           1
           istwfk        1
              ixc     -116133
           kptopt           0
P           mkmem           1
P          mkqmem           1
P          mk1mem           1
            natom           4
            nband          27
           nbdbuf           4
            ngfft          45      45      72
             nkpt           1
            nstep         100
             nsym          12
           ntypat           2
              occ      2.000000  2.000000  2.000000  2.000000  2.000000  2.000000
                       2.000000  2.000000  2.000000  2.000000  2.000000  2.000000
                       2.000000  2.000000  2.000000  2.000000  2.000000  2.000000
                       0.000000  0.000000  0.000000  0.000000  0.000000  0.000000
                       0.000000  0.000000  0.000000
        optdriver           1
            prtwf          -1
            rfdir           1       1       1
           rfelfd           2
            rprim      7.2445782075E+00  0.0000000000E+00  0.0000000000E+00
                      -3.6222891037E+00  6.2739887674E+00  0.0000000000E+00
                       0.0000000000E+00  0.0000000000E+00  1.1943386997E+01
          spgroup         186
           strten      0.0000000000E+00  0.0000000000E+00  0.0000000000E+00
                       0.0000000000E+00  0.0000000000E+00  0.0000000000E+00
           symrel      1  0  0   0  1  0   0  0  1       0  1  0   1  0  0   0  0  1
                       1  1  0  -1  0  0   0  0  1      -1  0  0   1  1  0   0  0  1
                       0  1  0  -1 -1  0   0  0  1      -1 -1  0   0  1  0   0  0  1
                      -1  0  0   0 -1  0   0  0  1       0 -1  0  -1  0  0   0  0  1
                      -1 -1  0   1  0  0   0  0  1       1  0  0  -1 -1  0   0  0  1
                       0 -1  0   1  1  0   0  0  1       1  1  0   0 -1  0   0  0  1
            tnons      0.0000000  0.0000000  0.0000000    -0.0000000  0.0000000  0.5000000
                       0.0000000  0.0000000  0.5000000    -0.0000000  0.0000000  0.0000000
                       0.0000000  0.0000000  0.0000000     0.0000000  0.0000000  0.5000000
                       0.0000000  0.0000000  0.5000000     0.0000000  0.0000000  0.0000000
                      -0.0000000  0.0000000  0.0000000     0.0000000  0.0000000  0.5000000
                      -0.0000000  0.0000000  0.5000000     0.0000000  0.0000000  0.0000000
           tolwfr      1.00000000E-20
            typat      1  1  2  2
           useylm           1
           xangst      1.9168328366E+00  1.1066839542E+00  3.1604127449E+00
                       1.7638771742E-11  2.2133679084E+00  3.2864874600E-04
                       1.9168328366E+00  1.1066839542E+00  5.5234983514E+00
                       1.7638771742E-11  2.2133679084E+00  2.3634142552E+00
            xcart      3.6222891038E+00  2.0913295891E+00  5.9723145548E+00
                       3.3332447913E-11  4.1826591783E+00  6.2105612387E-04
                       3.6222891038E+00  2.0913295891E+00  1.0437899180E+01
                       3.3332447913E-11  4.1826591783E+00  4.4662056809E+00
             xred      6.6666666667E-01  3.3333333333E-01  5.0005200000E-01
                       3.3333333333E-01  6.6666666667E-01  5.2000000000E-05
                       6.6666666667E-01  3.3333333333E-01  8.7394800000E-01
                       3.3333333333E-01  6.6666666667E-01  3.7394800000E-01
            znucl       31.00000   15.00000

- Timing analysis has been suppressed with timopt=0

 Suggested references for the acknowledgment of ABINIT usage.

 Calculation completed.
.Delivered   6 WARNINGs and   5 COMMENTs to log file.