.Version 9.5.2 of ABINIT

 ABINIT is a project of the Universite Catholique de Louvain,
 Corning Inc. and other collaborators, see ~abinit/doc/developers/contributors.txt .
 acknowledgments of the ABINIT effort.

.Starting date : Mon 31 May 2021.
- ( at 22h50 )

- input  file    -> /scratch/users/j/a/jabreu/flow_simple_11atoms/flow/w383/t1/run.abi
- output file    -> /scratch/users/j/a/jabreu/flow_simple_11atoms/flow/w383/t1/run.abo
- root for input  files -> /scratch/users/j/a/jabreu/flow_simple_11atoms/flow/w383/t1/indata/in
- root for output files -> /scratch/users/j/a/jabreu/flow_simple_11atoms/flow/w383/t1/outdata/out

 Symmetries : space group P2_1 3 (#198); Bravais cP (primitive cubic)
     intxc =       0      iscf =       7    lmnmax =      32     lnmax =       8
     mgfft =      72  mpssoang =       4    mqgrid =    3322     natom =      12
  nloc_mem =       1    nspden =       1   nspinor =       1    nsppol =       1
      nsym =      12    n1xccc =    2501    ntypat =       3    occopt =       1
   xclevel =       2
-    mband =          85        mffmem =           1         mkmem =           2
-   mkqmem =           2        mk1mem =           2           mpw =       19193
      nfft =      373248          nkpt =           2
  Rough estimation (10% accuracy) of disk space for files :

------------- Echo of variables that govern the present computation ------------
-
- outvars: echo of selected default values
-   iomode0 =  0 , fftalg0 =512 , wfoptalg0 =  0
-
- outvars: echo of global parameters not present in the input file
-  max_nthreads =    0
-
 -outvars: echo values of preprocessed input variables --------
            acell      1.0000000000E+00  1.0000000000E+00  1.0000000000E+00 Bohr
              amu      1.21753000E+02  1.92220000E+02  3.20660000E+01
             ecut      4.20000000E+01 Hartree
-          fftalg         512
           irdden           1
           irdwfk           1
              ixc     -116133
              kpt      0.00000000E+00  4.37500000E-01  0.00000000E+00
                       0.00000000E+00  3.12500000E-01  0.00000000E+00
           kptopt           0
P           mkmem           2
P          mkqmem           2
P          mk1mem           2
            natom          12
            nband          85
           nbdbuf           4
            ngfft          72      72      72
             nkpt           2
            nstep        2000
             nsym          12
           ntypat           3
              occ      2.000000  2.000000  2.000000  2.000000  2.000000  2.000000
                       2.000000  2.000000  2.000000  2.000000  2.000000  2.000000
                       2.000000  2.000000  2.000000  2.000000  2.000000  2.000000
                       2.000000  2.000000  2.000000  2.000000  2.000000  2.000000
                       2.000000  2.000000  2.000000  2.000000  2.000000  2.000000
                       2.000000  2.000000  2.000000  2.000000  2.000000  2.000000
                       2.000000  2.000000  2.000000  2.000000  2.000000  2.000000
                       2.000000  2.000000  2.000000  2.000000  2.000000  2.000000
                       2.000000  2.000000  2.000000  2.000000  2.000000  2.000000
                       2.000000  2.000000  2.000000  2.000000  2.000000  2.000000
                       2.000000  2.000000  2.000000  2.000000  2.000000  2.000000
                       2.000000  2.000000  2.000000  2.000000  2.000000  2.000000
                       2.000000  2.000000  2.000000  2.000000  0.000000  0.000000
                       0.000000  0.000000  0.000000  0.000000  0.000000  0.000000
                       0.000000
        optdriver           1
            prtwf          -1
            rfdir           1       1       1
           rfelfd           2
            rprim      1.1385430978E+01  0.0000000000E+00  0.0000000000E+00
                       0.0000000000E+00  1.1385430978E+01  0.0000000000E+00
                       0.0000000000E+00  0.0000000000E+00  1.1385430978E+01
          spgroup         198
           symrel      1  0  0   0  1  0   0  0  1      -1  0  0   0  1  0   0  0 -1
                      -1  0  0   0 -1  0   0  0  1       1  0  0   0 -1  0   0  0 -1
                       0  0  1   1  0  0   0  1  0       0  0 -1   1  0  0   0 -1  0
                       0  0 -1  -1  0  0   0  1  0       0  0  1  -1  0  0   0 -1  0
                       0  1  0   0  0  1   1  0  0       0 -1  0   0  0  1  -1  0  0
                       0 -1  0   0  0 -1   1  0  0       0  1  0   0  0 -1  -1  0  0
            tnons      0.0000000  0.0000000  0.0000000     0.0000000  0.5000000  0.5000000
                       0.5000000  0.0000000  0.5000000     0.5000000  0.5000000  0.0000000
                       0.0000000  0.0000000  0.0000000     0.5000000  0.5000000  0.0000000
                       0.0000000  0.5000000  0.5000000     0.5000000  0.0000000  0.5000000
                       0.0000000  0.0000000  0.0000000     0.5000000  0.0000000  0.5000000
                       0.5000000  0.5000000  0.0000000     0.0000000  0.5000000  0.5000000
           tolwfr      1.00000000E-20
            typat      1  1  1  1  2  2  2  2  3  3  3  3
           useylm           1
              wtk        0.50000    0.50000
           xangst      2.2645831411E+00  2.2645831411E+00  2.2645831411E+00
                       7.4787215075E-01  3.7603274426E+00  5.2770384329E+00
                       5.2770384329E+00  7.4787215075E-01  3.7603274426E+00
                       3.7603274426E+00  5.2770384329E+00  7.4787215075E-01
                       5.9293555018E+00  3.1080103737E+00  2.9169002100E+00
                       3.1080103737E+00  2.9169002100E+00  5.9293555018E+00
                       2.9169002100E+00  5.9293555018E+00  3.1080103737E+00
                       9.5555081857E-02  9.5555081857E-02  9.5555081857E-02
                       2.3077877749E+00  7.0466751696E-01  5.3202430667E+00
                       7.0466751696E-01  5.3202430667E+00  2.3077877749E+00
                       5.3202430667E+00  2.3077877749E+00  7.0466751696E-01
                       3.7171228088E+00  3.7171228088E+00  3.7171228088E+00
            xcart      4.2794419418E+00  4.2794419418E+00  4.2794419418E+00
                       1.4132735473E+00  7.1059890365E+00  9.9721574310E+00
                       9.9721574310E+00  1.4132735473E+00  7.1059890365E+00
                       7.1059890365E+00  9.9721574310E+00  1.4132735473E+00
                       1.1204858043E+01  5.8732884245E+00  5.5121425538E+00
                       5.8732884245E+00  5.5121425538E+00  1.1204858043E+01
                       5.5121425538E+00  1.1204858043E+01  5.8732884245E+00
                       1.8057293532E-01  1.8057293532E-01  1.8057293532E-01
                       4.3610868674E+00  1.3316286218E+00  1.0053802357E+01
                       1.3316286218E+00  1.0053802357E+01  4.3610868674E+00
                       1.0053802357E+01  4.3610868674E+00  1.3316286218E+00
                       7.0243441109E+00  7.0243441109E+00  7.0243441109E+00
             xred      3.7587000000E-01  3.7587000000E-01  3.7587000000E-01
                       1.2413000000E-01  6.2413000000E-01  8.7587000000E-01
                       8.7587000000E-01  1.2413000000E-01  6.2413000000E-01
                       6.2413000000E-01  8.7587000000E-01  1.2413000000E-01
                       9.8414000000E-01  5.1586000000E-01  4.8414000000E-01
                       5.1586000000E-01  4.8414000000E-01  9.8414000000E-01
                       4.8414000000E-01  9.8414000000E-01  5.1586000000E-01
                       1.5860000000E-02  1.5860000000E-02  1.5860000000E-02
                       3.8304100000E-01  1.1695900000E-01  8.8304100000E-01
                       1.1695900000E-01  8.8304100000E-01  3.8304100000E-01
                       8.8304100000E-01  3.8304100000E-01  1.1695900000E-01
                       6.1695900000E-01  6.1695900000E-01  6.1695900000E-01
            znucl       51.00000   77.00000   16.00000

 chkinp: Checking input parameters for consistency.

== DATASET  1 ==================================================================
-   mpi_nproc: 1, omp_nthreads: -1 (-1 if OMP is not activated)

--- !DatasetInfo
iteration_state: {dtset: 1, }
dimensions: {natom: 12, nkpt: 2, mband: 85, nsppol: 1, nspinor: 1, nspden: 1, mpw: 19193, }
cutoff_energies: {ecut:  42.0, pawecutdg:  -1.0, }
electrons: {nelect:   1.52000000E+02, charge:   0.00000000E+00, occopt:   1.00000000E+00, tsmear:   1.00000000E-02, }
meta: {optdriver: 1, rfelfd: 2, }
...

 Real(R)+Recip(G) space primitive vectors, cartesian coordinates (Bohr,Bohr^-1):
 R(1)= 11.3854310  0.0000000  0.0000000  G(1)=  0.0878315  0.0000000  0.0000000
 R(2)=  0.0000000 11.3854310  0.0000000  G(2)=  0.0000000  0.0878315  0.0000000
 R(3)=  0.0000000  0.0000000 11.3854310  G(3)=  0.0000000  0.0000000  0.0878315
 Unit cell volume ucvol=  1.4758711E+03 bohr^3
 Angles (23,13,12)=  9.00000000E+01  9.00000000E+01  9.00000000E+01 degrees

 getcut: wavevector=  0.0000  0.0000  0.0000  ngfft=  72  72  72
         ecut(hartree)=     42.000   => boxcut(ratio)=   2.16767

--- Pseudopotential description ------------------------------------------------
- pspini: atom type   1  psp file is /scratch/users/j/a/jabreu/pseudos/PBEsol/Sb.psp8
- pspatm: opening atomic psp file    /scratch/users/j/a/jabreu/pseudos/PBEsol/Sb.psp8
- Sb    ONCVPSP-3.3.0  r_core=   1.81962   2.12485   1.81962
- 51.00000  15.00000    180112                znucl, zion, pspdat
    8 -116133    2    4       600   0.00000   pspcod,pspxc,lmax,lloc,mmax,r2well
    5.99000000000000    5.00000000000000    0.00000000000000   rchrg,fchrg,qchrg
     nproj     2     2     2
     extension_switch     1
  pspatm : epsatm=   26.35641246
         --- l  ekb(1:nproj) -->
             0    9.727814    1.485032
             1    5.505335    0.704623
             2   -4.710637   -1.436443
 pspatm: atomic psp has been read  and splines computed

- pspini: atom type   2  psp file is /scratch/users/j/a/jabreu/pseudos/PBEsol/Ir.psp8
- pspatm: opening atomic psp file    /scratch/users/j/a/jabreu/pseudos/PBEsol/Ir.psp8
- Ir    ONCVPSP-3.3.0  r_core=   1.60470   1.60470   1.51179   2.26792
- 77.00000  17.00000    180112                znucl, zion, pspdat
    8 -116133    3    4       500   0.00000   pspcod,pspxc,lmax,lloc,mmax,r2well
    4.99000000000000    5.00000000000000    0.00000000000000   rchrg,fchrg,qchrg
     nproj     2     2     2     2
     extension_switch     1
  pspatm : epsatm=   27.71114778
         --- l  ekb(1:nproj) -->
             0 -318.624865    3.007395
             1    7.556369    1.126503
             2    2.004414    0.149292
             3    1.163764    0.379649
 pspatm: atomic psp has been read  and splines computed

- pspini: atom type   3  psp file is /scratch/users/j/a/jabreu/pseudos/PBEsol/S.psp8
- pspatm: opening atomic psp file    /scratch/users/j/a/jabreu/pseudos/PBEsol/S.psp8
- S     ONCVPSP-3.3.0  r_core=   1.45376   1.45376   1.61851
- 16.00000   6.00000    180112                znucl, zion, pspdat
[...]
 ETOT  2  -221.35361553897     -5.132E-01 8.177E-03 0.000E+00
 ETOT  3  -221.38079416347     -2.718E-02 7.571E-04 0.000E+00
 ETOT  4  -221.38365561544     -2.861E-03 3.997E-04 0.000E+00
 ETOT  5  -221.38401247264     -3.569E-04 8.746E-05 0.000E+00
 ETOT  6  -221.38406151434     -4.904E-05 5.622E-05 0.000E+00
 ETOT  7  -221.38406863200     -7.118E-06 1.379E-05 0.000E+00
 ETOT  8  -221.38406970193     -1.070E-06 9.177E-06 0.000E+00
 ETOT  9  -221.38406986632     -1.644E-07 2.363E-06 0.000E+00
 ETOT 10  -221.38406989197     -2.565E-08 1.586E-06 0.000E+00
 ETOT 11  -221.38406989601     -4.045E-09 4.190E-07 0.000E+00
 ETOT 12  -221.38406989666     -6.432E-10 2.815E-07 0.000E+00
 ETOT 13  -221.38406989676     -1.030E-10 7.553E-08 0.000E+00
 ETOT 14  -221.38406989678     -1.651E-11 5.070E-08 0.000E+00
 ETOT 15  -221.38406989678     -2.643E-12 1.374E-08 0.000E+00
 ETOT 16  -221.38406989678     -5.684E-13 9.214E-09 0.000E+00
 ETOT 17  -221.38406989678      0.000E+00 2.513E-09 0.000E+00
 ETOT 18  -221.38406989678     -1.705E-13 1.684E-09 0.000E+00
 ETOT 19  -221.38406989678      0.000E+00 4.612E-10 0.000E+00
 ETOT 20  -221.38406989678      8.527E-14 3.091E-10 0.000E+00
 ETOT 21  -221.38406989678      5.684E-14 8.489E-11 0.000E+00
 ETOT 22  -221.38406989678     -8.527E-14 5.689E-11 0.000E+00
 ETOT 23  -221.38406989678     -5.684E-14 1.566E-11 0.000E+00
 ETOT 24  -221.38406989678      1.137E-13 1.050E-11 0.000E+00
 ETOT 25  -221.38406989678     -1.137E-13 2.895E-12 0.000E+00
 ETOT 26  -221.38406989678      2.842E-14 1.941E-12 0.000E+00
 ETOT 27  -221.38406989678     -8.527E-14 5.360E-13 0.000E+00
 ETOT 28  -221.38406989678      0.000E+00 3.595E-13 0.000E+00
 ETOT 29  -221.38406989678      8.527E-14 9.939E-14 0.000E+00
 ETOT 30  -221.38406989678      0.000E+00 6.668E-14 0.000E+00
 ETOT 31  -221.38406989678      2.842E-14 1.845E-14 0.000E+00
 ETOT 32  -221.38406989678     -2.842E-14 1.238E-14 0.000E+00
 ETOT 33  -221.38406989678      2.842E-14 3.430E-15 0.000E+00
 ETOT 34  -221.38406989678     -5.684E-14 2.302E-15 0.000E+00
 ETOT 35  -221.38406989678      2.842E-14 6.382E-16 0.000E+00
 ETOT 36  -221.38406989678      0.000E+00 4.285E-16 0.000E+00
 ETOT 37  -221.38406989678      5.684E-14 1.188E-16 0.000E+00
 ETOT 38  -221.38406989678     -8.527E-14 7.981E-17 0.000E+00
 ETOT 39  -221.38406989678      1.137E-13 2.215E-17 0.000E+00
 ETOT 40  -221.38406989678      0.000E+00 1.488E-17 0.000E+00
 ETOT 41  -221.38406989678      0.000E+00 4.130E-18 0.000E+00
 ETOT 42  -221.38406989678     -5.684E-14 2.775E-18 0.000E+00
 ETOT 43  -221.38406989678      2.842E-14 7.707E-19 0.000E+00
 ETOT 44  -221.38406989678      2.842E-14 5.178E-19 0.000E+00
 ETOT 45  -221.38406989678     -2.842E-14 1.439E-19 0.000E+00
 ETOT 46  -221.38406989678      0.000E+00 9.667E-20 0.000E+00
 ETOT 47  -221.38406989678      0.000E+00 2.687E-20 0.000E+00
 ETOT 48  -221.38406989678      0.000E+00 1.806E-20 0.000E+00
 ETOT 49  -221.38406989678     -2.842E-14 9.887E-21 0.000E+00

 At SCF step   49   max residual=  9.89E-21 < tolwfr=  1.00E-20 =>converged.

 ----iterations are completed or convergence reached----

 dfpt_looppert: DFPT cycle converged with prtwf=-1. Will skip output of the 1st-order WFK file.
 dfpt_looppert : ek2=    9.2583665424E+01
          f-sum rule ratio=    9.3955578986E-01
 prteigrs : about to open file /scratch/users/j/a/jabreu/flow_simple_11atoms/flow/w383/t1/tmpdata/tmp_1WF1_EIG
 Expectation of eigenvalue derivatives (hartree) for nkpt=   2  k points:
  (in case of degenerate eigenvalues, averaged derivative)
 kpt#   1, nband= 85, wtk=  0.50000, kpt=  0.0000  0.4375  0.0000 (reduced coord)
   0.00000   -0.00000   -0.00000    0.00000    0.00000   -0.00000   -0.00000    0.00000
   0.00000    0.00000    0.00000   -0.00000    0.00000   -0.00000    0.00000    0.00000
  -0.00000   -0.00000    0.00000    0.00000    0.00000   -0.00000    0.00000    0.00000
   0.00000   -0.00000   -0.00000    0.00000   -0.00000   -0.00000    0.00000    0.00000
   0.00000    0.00000   -0.00000   -0.00000    0.00000   -0.00000   -0.00000   -0.00000
  -0.00000    0.00000    0.00000    0.00000   -0.00000   -0.00000   -0.00000   -0.00000
   0.00000   -0.00000    0.00000    0.00000   -0.00000    0.00000   -0.00000   -0.00000
  -0.00000   -0.00000    0.00000   -0.00000    0.00000    0.00000    0.00000    0.00000
  -0.00000    0.00000    0.00000   -0.00000   -0.00000   -0.00000    0.00000    0.00000
   0.00000    0.00000   -0.00000   -0.00000    0.00000   -0.00000    0.00000   -0.00000
   0.00000    0.00000    0.00000   -0.00000   -0.01279
 prteigrs : prtvol=0 or 1, do not print more k-points.

 Eight components of 2nd-order total energy (hartree) are
 1,2,3: 0th-order hamiltonian combined with 1st-order wavefunctions
     kin0=   1.17609547E+02 eigvalue=   1.43707603E+02  local=  -6.41365870E+01
 4,5,6: 1st-order hamiltonian combined with 1st and 0th-order wfs
     kin1=  -8.69875189E+01  Hartree=   0.00000000E+00     xc=   0.00000000E+00
 7,8,9: eventually, occupation + non-local contributions
    edocc=   7.78443166E+00     enl0=   1.64190749E+01   enl1=  -3.55780621E+02
 1-9 gives the relaxation energy (to be shifted if some occ is /=2.0)
   erelax=  -2.21384070E+02
  No Ewald or frozen-wf contrib.: the relaxation energy is the total one
 2DEtotal=   -0.2213840699E+03 Ha. Also 2DEtotal=   -0.602416690645E+04 eV
    (  non-var. 2DEtotal :   -2.2138406990E+02 Ha)

 CALCULATION OF EFFECTIVE MASSES
 NOTE : Additional infos (eff. mass eigenvalues, eigenvectors and, if degenerate, average mass) are available in stdout.

--- !WARNING
src_file: m_efmas.F90
src_line: 0
message: |

    Band(s)    76,
    are not band extrema, but saddle points;
    the transport equivalent formalism breaks down in these conditions.
    The associated tensor(s) will therefore not be printed.
...

 K-point ( 0.000, 0.438, 0.000) | band =    76
 Effective mass tensor:
     *** SADDLE POINT: TRANSPORT EQV. EFF. MASS NOT DEFINED (see WARNING above) ***
 Angular average effective mass 1/(<1/m>)=  -1.1690779248
 Angular average effective mass for Frohlich model (<m**0.5>)**2=  -3.6376614648
 Effective masses along directions: (cart. coord. / red. coord. -> eff. mass)
    1:   1.000000  0.000000  0.000000 /   1.000000  0.000000  0.000000 -> -10.6650510186
    2:   0.000000  1.000000  0.000000 /   0.000000  1.000000  0.000000 ->  -0.3388317401
    3:   0.000000  0.000000  1.000000 /   0.000000  0.000000  1.000000 ->   2.0878716313
    4:   0.577350  0.577350  0.577350 /   0.577350  0.577350  0.577350 ->  -1.1691622263
    5:   0.000000  0.707107  0.707107 /   0.000000  0.707107  0.707107 ->  -0.8088830722
    6:   0.707107  0.000000  0.707107 /   0.707107  0.000000  0.707107 ->   5.1891538437
    7:   0.707107  0.707107  0.000000 /   0.707107  0.707107  0.000000 ->  -0.6568276388

--- !WARNING
src_file: m_efmas.F90
src_line: 0
message: |

    Band(s)    77,
    are not band extrema, but saddle points;
    the transport equivalent formalism breaks down in these conditions.
    The associated tensor(s) will therefore not be printed.
...

 K-point ( 0.000, 0.312, 0.000) | band =    77
 Effective mass tensor:
     *** SADDLE POINT: TRANSPORT EQV. EFF. MASS NOT DEFINED (see WARNING above) ***
 Angular average effective mass 1/(<1/m>)=  -2.3882834133
 Angular average effective mass for Frohlich model (<m**0.5>)**2=  -3.6562258432
 Effective masses along directions: (cart. coord. / red. coord. -> eff. mass)
    1:   1.000000  0.000000  0.000000 /   1.000000  0.000000  0.000000 ->   1.6595550271
    2:   0.000000  1.000000  0.000000 /   0.000000  1.000000  0.000000 ->   3.0832248514
    3:   0.000000  0.000000  1.000000 /   0.000000  0.000000  1.000000 ->  -0.4580769733
    4:   0.577350  0.577350  0.577350 /   0.577350  0.577350  0.577350 ->  -2.3881604122
    5:   0.000000  0.707107  0.707107 /   0.000000  0.707107  0.707107 ->  -1.0758244219
    6:   0.707107  0.000000  0.707107 /   0.707107  0.000000  0.707107 ->  -1.2659839277
    7:   0.707107  0.707107  0.000000 /   0.707107  0.707107  0.000000 ->   2.1586407789

 END OF EFFECTIVE MASSES SECTION

 ---- first-order wavefunction calculations are completed ----

 Total localisation tensor (bohr^2) in cartesian coordinates
  WARNING : still subject to testing - especially symmetries.
      direction              matrix element
   alpha     beta       real part   imaginary part
     1        1       2.3974571163    0.0000000000
     1        2       0.0000000000    0.0000000000
     1        3       0.0000000000    0.0000000000
     2        1       0.0000000000    0.0000000000
     2        2       3.7378099100    0.0000000000
     2        3       0.0000000000    0.0000000000
     3        1       0.0000000000    0.0000000000
     3        2       0.0000000000    0.0000000000
     3        3       1.7981246797    0.0000000000

 respfn : d/dk was computed, but no 2DTE, so no DDB output.

== END DATASET(S) ==============================================================

 -outvars: echo values of variables after computation  --------
            acell      1.0000000000E+00  1.0000000000E+00  1.0000000000E+00 Bohr
              amu      1.21753000E+02  1.92220000E+02  3.20660000E+01
             ecut      4.20000000E+01 Hartree
           etotal     -2.2138406990E+02
            fcart      0.0000000000E+00  0.0000000000E+00  0.0000000000E+00
                       0.0000000000E+00  0.0000000000E+00  0.0000000000E+00
                       0.0000000000E+00  0.0000000000E+00  0.0000000000E+00
                       0.0000000000E+00  0.0000000000E+00  0.0000000000E+00
                       0.0000000000E+00  0.0000000000E+00  0.0000000000E+00
                       0.0000000000E+00  0.0000000000E+00  0.0000000000E+00
                       0.0000000000E+00  0.0000000000E+00  0.0000000000E+00
                       0.0000000000E+00  0.0000000000E+00  0.0000000000E+00
                       0.0000000000E+00  0.0000000000E+00  0.0000000000E+00
                       0.0000000000E+00  0.0000000000E+00  0.0000000000E+00
                       0.0000000000E+00  0.0000000000E+00  0.0000000000E+00
                       0.0000000000E+00  0.0000000000E+00  0.0000000000E+00
-          fftalg         512
           irdden           1
           irdwfk           1
              ixc     -116133
              kpt      0.00000000E+00  4.37500000E-01  0.00000000E+00
                       0.00000000E+00  3.12500000E-01  0.00000000E+00
           kptopt           0
P           mkmem           2
P          mkqmem           2
P          mk1mem           2
            natom          12
            nband          85
           nbdbuf           4
            ngfft          72      72      72
             nkpt           2
            nstep        2000
             nsym          12
           ntypat           3
              occ      2.000000  2.000000  2.000000  2.000000  2.000000  2.000000
                       2.000000  2.000000  2.000000  2.000000  2.000000  2.000000
                       2.000000  2.000000  2.000000  2.000000  2.000000  2.000000
                       2.000000  2.000000  2.000000  2.000000  2.000000  2.000000
                       2.000000  2.000000  2.000000  2.000000  2.000000  2.000000
                       2.000000  2.000000  2.000000  2.000000  2.000000  2.000000
                       2.000000  2.000000  2.000000  2.000000  2.000000  2.000000
                       2.000000  2.000000  2.000000  2.000000  2.000000  2.000000
                       2.000000  2.000000  2.000000  2.000000  2.000000  2.000000
                       2.000000  2.000000  2.000000  2.000000  2.000000  2.000000
                       2.000000  2.000000  2.000000  2.000000  2.000000  2.000000
                       2.000000  2.000000  2.000000  2.000000  2.000000  2.000000
                       2.000000  2.000000  2.000000  2.000000  0.000000  0.000000
                       0.000000  0.000000  0.000000  0.000000  0.000000  0.000000
                       0.000000
        optdriver           1
            prtwf          -1
            rfdir           1       1       1
           rfelfd           2
            rprim      1.1385430978E+01  0.0000000000E+00  0.0000000000E+00
                       0.0000000000E+00  1.1385430978E+01  0.0000000000E+00
                       0.0000000000E+00  0.0000000000E+00  1.1385430978E+01
          spgroup         198
           strten      0.0000000000E+00  0.0000000000E+00  0.0000000000E+00
                       0.0000000000E+00  0.0000000000E+00  0.0000000000E+00
           symrel      1  0  0   0  1  0   0  0  1      -1  0  0   0  1  0   0  0 -1
                      -1  0  0   0 -1  0   0  0  1       1  0  0   0 -1  0   0  0 -1
                       0  0  1   1  0  0   0  1  0       0  0 -1   1  0  0   0 -1  0
                       0  0 -1  -1  0  0   0  1  0       0  0  1  -1  0  0   0 -1  0
                       0  1  0   0  0  1   1  0  0       0 -1  0   0  0  1  -1  0  0
                       0 -1  0   0  0 -1   1  0  0       0  1  0   0  0 -1  -1  0  0
            tnons      0.0000000  0.0000000  0.0000000     0.0000000  0.5000000  0.5000000
                       0.5000000  0.0000000  0.5000000     0.5000000  0.5000000  0.0000000
                       0.0000000  0.0000000  0.0000000     0.5000000  0.5000000  0.0000000
                       0.0000000  0.5000000  0.5000000     0.5000000  0.0000000  0.5000000
                       0.0000000  0.0000000  0.0000000     0.5000000  0.0000000  0.5000000
                       0.5000000  0.5000000  0.0000000     0.0000000  0.5000000  0.5000000
           tolwfr      1.00000000E-20
            typat      1  1  1  1  2  2  2  2  3  3  3  3
           useylm           1
              wtk        0.50000    0.50000
           xangst      2.2645831411E+00  2.2645831411E+00  2.2645831411E+00
                       7.4787215075E-01  3.7603274426E+00  5.2770384329E+00
                       5.2770384329E+00  7.4787215075E-01  3.7603274426E+00
                       3.7603274426E+00  5.2770384329E+00  7.4787215075E-01
                       5.9293555018E+00  3.1080103737E+00  2.9169002100E+00
                       3.1080103737E+00  2.9169002100E+00  5.9293555018E+00
                       2.9169002100E+00  5.9293555018E+00  3.1080103737E+00
                       9.5555081857E-02  9.5555081857E-02  9.5555081857E-02
                       2.3077877749E+00  7.0466751696E-01  5.3202430667E+00
                       7.0466751696E-01  5.3202430667E+00  2.3077877749E+00
                       5.3202430667E+00  2.3077877749E+00  7.0466751696E-01
                       3.7171228088E+00  3.7171228088E+00  3.7171228088E+00
            xcart      4.2794419418E+00  4.2794419418E+00  4.2794419418E+00
                       1.4132735473E+00  7.1059890365E+00  9.9721574310E+00
                       9.9721574310E+00  1.4132735473E+00  7.1059890365E+00
                       7.1059890365E+00  9.9721574310E+00  1.4132735473E+00
                       1.1204858043E+01  5.8732884245E+00  5.5121425538E+00
                       5.8732884245E+00  5.5121425538E+00  1.1204858043E+01
                       5.5121425538E+00  1.1204858043E+01  5.8732884245E+00
                       1.8057293532E-01  1.8057293532E-01  1.8057293532E-01
                       4.3610868674E+00  1.3316286218E+00  1.0053802357E+01
                       1.3316286218E+00  1.0053802357E+01  4.3610868674E+00
                       1.0053802357E+01  4.3610868674E+00  1.3316286218E+00
                       7.0243441109E+00  7.0243441109E+00  7.0243441109E+00
             xred      3.7587000000E-01  3.7587000000E-01  3.7587000000E-01
                       1.2413000000E-01  6.2413000000E-01  8.7587000000E-01
                       8.7587000000E-01  1.2413000000E-01  6.2413000000E-01
                       6.2413000000E-01  8.7587000000E-01  1.2413000000E-01
                       9.8414000000E-01  5.1586000000E-01  4.8414000000E-01
                       5.1586000000E-01  4.8414000000E-01  9.8414000000E-01
                       4.8414000000E-01  9.8414000000E-01  5.1586000000E-01
                       1.5860000000E-02  1.5860000000E-02  1.5860000000E-02
                       3.8304100000E-01  1.1695900000E-01  8.8304100000E-01
                       1.1695900000E-01  8.8304100000E-01  3.8304100000E-01
                       8.8304100000E-01  3.8304100000E-01  1.1695900000E-01
                       6.1695900000E-01  6.1695900000E-01  6.1695900000E-01
            znucl       51.00000   77.00000   16.00000

- Timing analysis has been suppressed with timopt=0

 Suggested references for the acknowledgment of ABINIT usage.

 Calculation completed.
.Delivered   4 WARNINGs and   5 COMMENTs to log file.