.Version 9.5.2 of ABINIT

 ABINIT is a project of the Universite Catholique de Louvain,
 Corning Inc. and other collaborators, see ~abinit/doc/developers/contributors.txt .
 acknowledgments of the ABINIT effort.

.Starting date : Mon 24 May 2021.
- ( at 20h51 )

- input  file    -> /scratch/users/j/a/jabreu/flow_simple_10atoms/flow/w321/t1/run.abi
- output file    -> /scratch/users/j/a/jabreu/flow_simple_10atoms/flow/w321/t1/run.abo
- root for input  files -> /scratch/users/j/a/jabreu/flow_simple_10atoms/flow/w321/t1/indata/in
- root for output files -> /scratch/users/j/a/jabreu/flow_simple_10atoms/flow/w321/t1/outdata/out

 Symmetries : space group Cm c m (# 63); Bravais oC (1-face-center ortho.)
     intxc =       0      iscf =       7    lmnmax =      32     lnmax =       8
     mgfft =      96  mpssoang =       4    mqgrid =    3473     natom =      10
  nloc_mem =       1    nspden =       1   nspinor =       1    nsppol =       1
      nsym =       8    n1xccc =    2501    ntypat =       3    occopt =       1
   xclevel =       2
-    mband =          75        mffmem =           1         mkmem =           2
-   mkqmem =           2        mk1mem =           2           mpw =       28721
      nfft =      663552          nkpt =           2
  Rough estimation (10% accuracy) of disk space for files :

------------- Echo of variables that govern the present computation ------------
-
- outvars: echo of selected default values
-   iomode0 =  0 , fftalg0 =512 , wfoptalg0 =  0
-
- outvars: echo of global parameters not present in the input file
-  max_nthreads =    0
-
 -outvars: echo values of preprocessed input variables --------
            acell      1.0000000000E+00  1.0000000000E+00  1.0000000000E+00 Bohr
              amu      1.32905430E+02  7.49215900E+01  1.06420000E+02
             ecut      4.20000000E+01 Hartree
-          fftalg         512
           irdden           1
           irdwfk           1
           istwfk        1    0
              ixc     -116133
              kpt      0.00000000E+00  0.00000000E+00  0.00000000E+00
                      -3.03234646E-01  6.96765354E-01  3.12500000E-01
           kptopt           0
P           mkmem           2
P          mkqmem           2
P          mk1mem           2
            natom          10
            nband          75
           nbdbuf           4
            ngfft          96      96      72
             nkpt           2
            nstep        2000
             nsym           8
           ntypat           3
              occ      2.000000  2.000000  2.000000  2.000000  2.000000  2.000000
                       2.000000  2.000000  2.000000  2.000000  2.000000  2.000000
                       2.000000  2.000000  2.000000  2.000000  2.000000  2.000000
                       2.000000  2.000000  2.000000  2.000000  2.000000  2.000000
                       2.000000  2.000000  2.000000  2.000000  2.000000  2.000000
                       2.000000  2.000000  2.000000  2.000000  2.000000  2.000000
                       2.000000  2.000000  2.000000  2.000000  2.000000  2.000000
                       2.000000  2.000000  2.000000  2.000000  2.000000  2.000000
                       2.000000  2.000000  2.000000  2.000000  2.000000  2.000000
                       2.000000  2.000000  2.000000  2.000000  2.000000  2.000000
                       2.000000  2.000000  2.000000  2.000000  2.000000  2.000000
                       0.000000  0.000000  0.000000  0.000000  0.000000  0.000000
                       0.000000  0.000000  0.000000
        optdriver           1
            prtwf          -1
            rfdir           1       1       1
           rfelfd           2
            rprim      1.5642060673E+01  0.0000000000E+00  0.0000000000E+00
                      -1.0149947027E+01  1.1901791355E+01  0.0000000000E+00
                       0.0000000000E+00  0.0000000000E+00  1.1859170559E+01
          spgroup          63
           symrel      1  0  0   0  1  0   0  0  1      -1  0  0   0 -1  0   0  0 -1
                       0  1  0   1  0  0   0  0 -1       0 -1  0  -1  0  0   0  0  1
                      -1  0  0   0 -1  0   0  0  1       1  0  0   0  1  0   0  0 -1
                       0 -1  0  -1  0  0   0  0 -1       0  1  0   1  0  0   0  0  1
            tnons      0.0000000  0.0000000  0.0000000     0.0000000  0.0000000  0.0000000
                       0.0000000  0.0000000  0.0000000     0.0000000  0.0000000  0.0000000
                       0.0000000  0.0000000  0.5000000     0.0000000  0.0000000  0.5000000
                       0.0000000  0.0000000  0.5000000     0.0000000  0.0000000  0.5000000
           tolwfr      1.00000000E-20
            typat      1  1  1  1  2  2  2  2  3  3
           useylm           1
              wtk        0.50000    0.50000
           xangst      5.4477788468E+00  1.3057464488E+00  4.7067020794E+00
                      -2.5414774782E+00  4.9924102776E+00  1.5689006931E+00
                       2.8744230602E-01  3.6869976311E+00  4.7067020794E+00
                       2.6188590625E+00  2.6111590954E+00  1.5689006931E+00
                       1.0171830589E+00  5.8427811007E+00  1.5689006931E+00
                       1.8891183097E+00  4.5537562579E-01  4.7067020794E+00
                       3.7856397992E+00  4.5652692884E+00  4.7067020794E+00
                      -8.7933843068E-01  1.7328874380E+00  1.5689006931E+00
                       0.0000000000E+00  0.0000000000E+00  0.0000000000E+00
                       0.0000000000E+00  0.0000000000E+00  3.1378013863E+00
            xcart      1.0294810053E+01  2.4675031873E+00  8.8943779192E+00
                      -4.8026964068E+00  9.4342881677E+00  2.9647926397E+00
                       5.4318723738E-01  6.9674157753E+00  8.8943779192E+00
                       4.9489264088E+00  4.9343755797E+00  2.9647926397E+00
                       1.9221974083E+00  1.1041256135E+01  2.9647926397E+00
                       3.5699162379E+00  8.6053522034E-01  8.8943779192E+00
                       7.1538224583E+00  8.6271086780E+00  8.8943779192E+00
                      -1.6617088121E+00  3.2746826770E+00  2.9647926397E+00
                       0.0000000000E+00  0.0000000000E+00  0.0000000000E+00
                       0.0000000000E+00  0.0000000000E+00  5.9295852795E+00
             xred      7.9267800000E-01  2.0732200000E-01  7.5000000000E-01
                       2.0732200000E-01  7.9267800000E-01  2.5000000000E-01
                       4.1459100000E-01  5.8540900000E-01  7.5000000000E-01
                       5.8540900000E-01  4.1459100000E-01  2.5000000000E-01
                       7.2485800000E-01  9.2769700000E-01  2.5000000000E-01
                       2.7514200000E-01  7.2303000000E-02  7.5000000000E-01
                       9.2769700000E-01  7.2485800000E-01  7.5000000000E-01
                       7.2303000000E-02  2.7514200000E-01  2.5000000000E-01
                       0.0000000000E+00  0.0000000000E+00  0.0000000000E+00
                       0.0000000000E+00  0.0000000000E+00  5.0000000000E-01
            znucl       55.00000   33.00000   46.00000

 chkinp: Checking input parameters for consistency.

== DATASET  1 ==================================================================
-   mpi_nproc: 1, omp_nthreads: -1 (-1 if OMP is not activated)

--- !DatasetInfo
iteration_state: {dtset: 1, }
dimensions: {natom: 10, nkpt: 2, mband: 75, nsppol: 1, nspinor: 1, nspden: 1, mpw: 28721, }
cutoff_energies: {ecut:  42.0, pawecutdg:  -1.0, }
electrons: {nelect:   1.32000000E+02, charge:   0.00000000E+00, occopt:   1.00000000E+00, tsmear:   1.00000000E-02, }
meta: {optdriver: 1, rfelfd: 2, }
...

 Real(R)+Recip(G) space primitive vectors, cartesian coordinates (Bohr,Bohr^-1):
 R(1)= 15.6420607  0.0000000  0.0000000  G(1)=  0.0639302  0.0545202  0.0000000
 R(2)=-10.1499470 11.9017914  0.0000000  G(2)=  0.0000000  0.0840210  0.0000000
 R(3)=  0.0000000  0.0000000 11.8591706  G(3)=  0.0000000  0.0000000  0.0843229
 Unit cell volume ucvol=  2.2078045E+03 bohr^3
 Angles (23,13,12)=  9.00000000E+01  9.00000000E+01  1.30457822E+02 degrees

 getcut: wavevector=  0.0000  0.0000  0.0000  ngfft=  96  96  72
         ecut(hartree)=     42.000   => boxcut(ratio)=   2.08108

--- Pseudopotential description ------------------------------------------------
- pspini: atom type   1  psp file is /scratch/users/j/a/jabreu/pseudos/PBEsol/Cs.psp8
- pspatm: opening atomic psp file    /scratch/users/j/a/jabreu/pseudos/PBEsol/Cs.psp8
- Cs    ONCVPSP-3.3.0  r_core=   2.27353   1.85623   2.01788   1.90105
- 55.00000   9.00000    180112                znucl, zion, pspdat
    8 -116133    3    4       600   0.00000   pspcod,pspxc,lmax,lloc,mmax,r2well
    5.99000000000000    5.00000000000000    0.00000000000000   rchrg,fchrg,qchrg
     nproj     2     2     2     2
     extension_switch     1
  pspatm : epsatm=   22.12462445
         --- l  ekb(1:nproj) -->
             0    6.214110    0.767882
             1    6.311966    0.793598
             2    3.769790    0.913105
             3   -9.247129   -2.432478
 pspatm: atomic psp has been read  and splines computed

- pspini: atom type   2  psp file is /scratch/users/j/a/jabreu/pseudos/PBEsol/As.psp8
- pspatm: opening atomic psp file    /scratch/users/j/a/jabreu/pseudos/PBEsol/As.psp8
- As    ONCVPSP-3.3.0  r_core=   1.76603   1.70395   1.80867
- 33.00000  15.00000    180112                znucl, zion, pspdat
    8 -116133    2    4       600   0.00000   pspcod,pspxc,lmax,lloc,mmax,r2well
    5.99000000000000    5.00000000000000    0.00000000000000   rchrg,fchrg,qchrg
     nproj     2     2     2
     extension_switch     1
  pspatm : epsatm=   28.79155382
         --- l  ekb(1:nproj) -->
             0    8.270760    0.868950
             1    4.919053    0.756587
             2  -10.048665   -4.076802
 pspatm: atomic psp has been read  and splines computed

- pspini: atom type   3  psp file is /scratch/users/j/a/jabreu/pseudos/PBEsol/Pd.psp8
- pspatm: opening atomic psp file    /scratch/users/j/a/jabreu/pseudos/PBEsol/Pd.psp8
- Pd    ONCVPSP-3.3.0  r_core=   1.41052   1.46191   1.55175
- 46.00000  18.00000    180112                znucl, zion, pspdat
    8 -116133    2    4       600   0.00000   pspcod,pspxc,lmax,lloc,mmax,r2well
    5.99000000000000    7.00000000000000    0.00000000000000   rchrg,fchrg,qchrg
     nproj     2     2     2
     extension_switch     1
  pspatm : epsatm=   26.17262427
         --- l  ekb(1:nproj) -->
             0    7.952303   -2.096627
             1    3.304793   -0.572651
             2   -1.185452   -0.410427
 pspatm: atomic psp has been read  and splines computed

   3.37933149E+04                                ecore*ucvol(ha*bohr**3)

 ==>  initialize data related to q vector <==

 The list of irreducible perturbations for this q vector is:
    1)    idir= 1    ipert=  11
    2)    idir= 2    ipert=  11
    3)    idir= 3    ipert=  11

 Perturbation wavevector (in red.coord.)   0.000000  0.000000  0.000000
 Perturbation : derivative vs k along direction   1

 dfpt_looppert : COMMENT -
  In a d/dk calculation, iscf is set to -3 automatically.
[...]
  -0.00000    0.00000    0.00000    0.00000   -0.00000   -0.00000   -0.00000   -0.00000
   0.00000    0.00000    0.00000    0.00000    0.00000   -0.00000   -0.00000   -0.00000
   0.00000    0.00000    0.00000   -0.00000    0.00000   -0.00000    0.00000    0.00000
   0.00000   -0.00000   -0.00000   -0.00000   -0.00000    0.00000    0.00000    0.00000
  -0.00000   -0.00000   -0.00000    0.00000   -0.00000    0.00000    0.00000   -0.00000
  -0.00000   -0.00000   -0.00000   -0.00000    0.00000   -0.00000   -0.00000   -0.00000
  -0.00000    0.00000    0.00000   -0.00000    0.00000   -0.00000   -0.00000    0.00000
   0.00000    0.00000    0.00000
 prteigrs : prtvol=0 or 1, do not print more k-points.

 Eight components of 2nd-order total energy (hartree) are
 1,2,3: 0th-order hamiltonian combined with 1st-order wavefunctions
     kin0=   8.13457849E+01 eigvalue=   6.47211710E+00  local=  -3.90585108E+01
 4,5,6: 1st-order hamiltonian combined with 1st and 0th-order wfs
     kin1=  -7.30669224E+01  Hartree=   0.00000000E+00     xc=   0.00000000E+00
 7,8,9: eventually, occupation + non-local contributions
    edocc=   7.00182937E+00     enl0=   8.67207424E+00   enl1=  -5.57996672E+01
 1-9 gives the relaxation energy (to be shifted if some occ is /=2.0)
   erelax=  -6.44332948E+01
  No Ewald or frozen-wf contrib.: the relaxation energy is the total one
 2DEtotal=   -0.6443329480E+02 Ha. Also 2DEtotal=   -0.175331911809E+04 eV
    (  non-var. 2DEtotal :   -6.4433294797E+01 Ha)

 Perturbation wavevector (in red.coord.)   0.000000  0.000000  0.000000
 Perturbation : derivative vs k along direction   2
 The set of symmetries contains only one element for this perturbation.
 symkpt : not enough symmetry to change the number of k points.

[...]

 Perturbation wavevector (in red.coord.)   0.000000  0.000000  0.000000
 Perturbation : derivative vs k along direction   3
 The set of symmetries contains only one element for this perturbation.
 symkpt : not enough symmetry to change the number of k points.

 Initialisation of the first-order wave-functions :
  ireadwf=   0

--- !BeginCycle
iteration_state: {dtset: 1, }
solver: {iscf: 7, nstep: 2000, nline: 4, wfoptalg: 0, }
tolerances: {tolwfr: 1.00E-20, }
...

     iter   2DEtotal(Ha)        deltaE(Ha) residm    vres2
-ETOT  1  -65.180210421706     -6.518E+01 8.991E-02 0.000E+00
 ETOT  2  -65.339022396401     -1.588E-01 4.306E-03 0.000E+00
 ETOT  3  -65.345164662943     -6.142E-03 6.234E-04 0.000E+00
 ETOT  4  -65.345669720780     -5.051E-04 1.156E-04 0.000E+00
 ETOT  5  -65.345725085800     -5.537E-05 2.441E-05 0.000E+00
 ETOT  6  -65.345732134102     -7.048E-06 5.363E-06 0.000E+00
 ETOT  7  -65.345733091699     -9.576E-07 1.121E-06 0.000E+00
 ETOT  8  -65.345733226355     -1.347E-07 2.494E-07 0.000E+00
 ETOT  9  -65.345733245763     -1.941E-08 5.161E-08 0.000E+00
 ETOT 10  -65.345733248608     -2.845E-09 1.161E-08 0.000E+00
 ETOT 11  -65.345733249032     -4.233E-10 2.383E-09 0.000E+00
 ETOT 12  -65.345733249096     -6.378E-11 5.424E-10 0.000E+00
 ETOT 13  -65.345733249105     -9.763E-12 1.104E-10 0.000E+00
 ETOT 14  -65.345733249107     -1.464E-12 2.542E-11 0.000E+00
 ETOT 15  -65.345733249107     -1.847E-13 5.136E-12 0.000E+00
 ETOT 16  -65.345733249107     -4.263E-14 1.196E-12 0.000E+00
 ETOT 17  -65.345733249107     -1.421E-14 2.396E-13 0.000E+00
 ETOT 18  -65.345733249107      2.842E-14 5.639E-14 0.000E+00
 ETOT 19  -65.345733249107     -1.421E-14 1.121E-14 0.000E+00
 ETOT 20  -65.345733249107     -5.684E-14 2.668E-15 0.000E+00
 ETOT 21  -65.345733249107     -1.421E-14 5.262E-16 0.000E+00
 ETOT 22  -65.345733249107      2.842E-14 1.265E-16 0.000E+00
 ETOT 23  -65.345733249107      4.263E-14 2.476E-17 0.000E+00
 ETOT 24  -65.345733249107     -2.842E-14 6.015E-18 0.000E+00
 ETOT 25  -65.345733249107      1.421E-14 1.168E-18 0.000E+00
 ETOT 26  -65.345733249107      1.421E-14 2.866E-19 0.000E+00
 ETOT 27  -65.345733249107     -2.842E-14 5.525E-20 0.000E+00
 ETOT 28  -65.345733249107      2.842E-14 1.369E-20 0.000E+00
 ETOT 29  -65.345733249107     -1.421E-14 9.945E-21 0.000E+00

 At SCF step   29   max residual=  9.94E-21 < tolwfr=  1.00E-20 =>converged.

 ----iterations are completed or convergence reached----

 dfpt_looppert: DFPT cycle converged with prtwf=-1. Will skip output of the 1st-order WFK file.
 dfpt_looppert : ek2=    7.4106283460E+01
          f-sum rule ratio=    1.0057271762E+00
 prteigrs : about to open file /scratch/users/j/a/jabreu/flow_simple_10atoms/flow/w321/t1/tmpdata/tmp_1WF1_EIG
 Expectation of eigenvalue derivatives (hartree) for nkpt=   2  k points:
  (in case of degenerate eigenvalues, averaged derivative)
 kpt#   1, nband= 75, wtk=  0.50000, kpt=  0.0000  0.0000  0.0000 (reduced coord)
  -0.00000   -0.00000   -0.00000   -0.00000   -0.00000    0.00000   -0.00000   -0.00000
  -0.00000   -0.00000    0.00000    0.00000    0.00000    0.00000    0.00000   -0.00000
   0.00000    0.00000   -0.00000   -0.00000   -0.00000    0.00000   -0.00000   -0.00000
   0.00000   -0.00000   -0.00000    0.00000    0.00000    0.00000    0.00000   -0.00000
   0.00000   -0.00000   -0.00000   -0.00000   -0.00000    0.00000    0.00000   -0.00000
  -0.00000    0.00000    0.00000    0.00000    0.00000   -0.00000   -0.00000   -0.00000
  -0.00000   -0.00000   -0.00000   -0.00000    0.00000   -0.00000   -0.00000    0.00000
  -0.00000    0.00000   -0.00000   -0.00000   -0.00000    0.00000   -0.00000    0.00000
   0.00000   -0.00000    0.00000    0.00000    0.00000   -0.00000   -0.00000   -0.00000
   0.00000    0.00000   -0.00000
 prteigrs : prtvol=0 or 1, do not print more k-points.

 Eight components of 2nd-order total energy (hartree) are
 1,2,3: 0th-order hamiltonian combined with 1st-order wavefunctions
     kin0=   8.61702692E+01 eigvalue=   6.31516928E+00  local=  -4.23463267E+01
 4,5,6: 1st-order hamiltonian combined with 1st and 0th-order wfs
     kin1=  -7.45307032E+01  Hartree=   0.00000000E+00     xc=   0.00000000E+00
 7,8,9: eventually, occupation + non-local contributions
    edocc=   6.19405051E+00     enl0=   9.01257088E+00   enl1=  -5.61607633E+01
 1-9 gives the relaxation energy (to be shifted if some occ is /=2.0)
   erelax=  -6.53457332E+01
  No Ewald or frozen-wf contrib.: the relaxation energy is the total one
 2DEtotal=   -0.6534573325E+02 Ha. Also 2DEtotal=   -0.177814783105E+04 eV
    (  non-var. 2DEtotal :   -6.5345733249E+01 Ha)

 CALCULATION OF EFFECTIVE MASSES
 NOTE : Additional infos (eff. mass eigenvalues, eigenvectors and, if degenerate, average mass) are available in stdout.

 K-point ( 0.000, 0.000, 0.000) | band =    66
 Effective mass tensor:
             -4.8112171152             -0.0294689948              0.0000000004
             -0.0294689948             -4.8614799491             -0.0000000001
              0.0000000004             -0.0000000001             -0.3341546952
 Effective mass tensor eigenvalues:
             -4.8750784918             -4.7976185725             -0.3341546952
 Angular average effective mass 1/(<1/m>)=  -0.8807500897
 Angular average effective mass for Frohlich model (<m**0.5>)**2=  -1.4524450651
 Effective masses along directions: (cart. coord. / red. coord. -> eff. mass)
    1:   1.000000  0.000000  0.000000 /   0.838870 -0.544332  0.000000 ->  -4.8110384820
    2:   0.000000  1.000000  0.000000 /   0.000000  1.000000  0.000000 ->  -4.8612994497
    3:   0.000000  0.000000  1.000000 /   0.000000  0.000000  1.000000 ->  -0.3341546952
    4:   0.577350  0.577350  0.577350 /   0.793714  0.088893  0.601761 ->  -0.8814021586
    5:   0.000000  0.707107  0.707107 /   0.000000  0.708374  0.705837 ->  -0.6253259064
    6:   0.707107  0.000000  0.707107 /   0.707840 -0.459309  0.536655 ->  -0.6249060208
    7:   0.707107  0.707107  0.000000 /   0.993787  0.111300  0.000000 ->  -4.8656861344

 K-point (-0.303, 0.697, 0.312) | band =    67
 Effective mass tensor:
              0.7221672285             -0.0785606000             -0.0447990713
             -0.0785606000              0.5889937840             -0.0973546066
             -0.0447990713             -0.0973546066              0.7223147940
 Effective mass tensor eigenvalues:
              0.5007598795              0.7585598884              0.7741560386
 Angular average effective mass 1/(<1/m>)=   0.6511855520
 Angular average effective mass for Frohlich model (<m**0.5>)**2=   0.6596262296
 Effective masses along directions: (cart. coord. / red. coord. -> eff. mass)
    1:   1.000000  0.000000  0.000000 /   0.838870 -0.544332  0.000000 ->   0.7069607259
    2:   0.000000  1.000000  0.000000 /   0.000000  1.000000  0.000000 ->   0.5659235562
    3:   0.000000  0.000000  1.000000 /   0.000000  0.000000  1.000000 ->   0.7015313820
    4:   0.577350  0.577350  0.577350 /   0.793714  0.088893  0.601761 ->   0.5211814519
    5:   0.000000  0.707107  0.707107 /   0.000000  0.708374  0.705837 ->   0.5413341407
    6:   0.707107  0.000000  0.707107 /   0.707840 -0.459309  0.536655 ->   0.6511618375
    7:   0.707107  0.707107  0.000000 /   0.993787  0.111300  0.000000 ->   0.5559994839

 END OF EFFECTIVE MASSES SECTION

 ---- first-order wavefunction calculations are completed ----

 Total localisation tensor (bohr^2) in cartesian coordinates
  WARNING : still subject to testing - especially symmetries.
      direction              matrix element
   alpha     beta       real part   imaginary part
     1        1       2.5376577039    0.0000000000
     1        2      -0.8816557861    0.0000000000
     1        3       0.0000000000    0.0000000000
     2        1      -0.8816557861    0.0000000000
     2        2       1.0338264018    0.0000000000
     2        3       0.0000000000    0.0000000000
     3        1       0.0000000000    0.0000000000
     3        2       0.0000000000    0.0000000000
     3        3       1.2088331079    0.0000000000

 respfn : d/dk was computed, but no 2DTE, so no DDB output.

== END DATASET(S) ==============================================================

 -outvars: echo values of variables after computation  --------
            acell      1.0000000000E+00  1.0000000000E+00  1.0000000000E+00 Bohr
              amu      1.32905430E+02  7.49215900E+01  1.06420000E+02
             ecut      4.20000000E+01 Hartree
           etotal     -6.5345733249E+01
            fcart      0.0000000000E+00  0.0000000000E+00  0.0000000000E+00
                       0.0000000000E+00  0.0000000000E+00  0.0000000000E+00
                       0.0000000000E+00  0.0000000000E+00  0.0000000000E+00
                       0.0000000000E+00  0.0000000000E+00  0.0000000000E+00
                       0.0000000000E+00  0.0000000000E+00  0.0000000000E+00
                       0.0000000000E+00  0.0000000000E+00  0.0000000000E+00
                       0.0000000000E+00  0.0000000000E+00  0.0000000000E+00
                       0.0000000000E+00  0.0000000000E+00  0.0000000000E+00
                       0.0000000000E+00  0.0000000000E+00  0.0000000000E+00
                       0.0000000000E+00  0.0000000000E+00  0.0000000000E+00
-          fftalg         512
           irdden           1
           irdwfk           1
           istwfk        1    0
              ixc     -116133
              kpt      0.00000000E+00  0.00000000E+00  0.00000000E+00
                      -3.03234646E-01  6.96765354E-01  3.12500000E-01
           kptopt           0
P           mkmem           2
P          mkqmem           2
P          mk1mem           2
            natom          10
            nband          75
           nbdbuf           4
            ngfft          96      96      72
             nkpt           2
            nstep        2000
             nsym           8
           ntypat           3
              occ      2.000000  2.000000  2.000000  2.000000  2.000000  2.000000
                       2.000000  2.000000  2.000000  2.000000  2.000000  2.000000
                       2.000000  2.000000  2.000000  2.000000  2.000000  2.000000
                       2.000000  2.000000  2.000000  2.000000  2.000000  2.000000
                       2.000000  2.000000  2.000000  2.000000  2.000000  2.000000
                       2.000000  2.000000  2.000000  2.000000  2.000000  2.000000
                       2.000000  2.000000  2.000000  2.000000  2.000000  2.000000
                       2.000000  2.000000  2.000000  2.000000  2.000000  2.000000
                       2.000000  2.000000  2.000000  2.000000  2.000000  2.000000
                       2.000000  2.000000  2.000000  2.000000  2.000000  2.000000
                       2.000000  2.000000  2.000000  2.000000  2.000000  2.000000
                       0.000000  0.000000  0.000000  0.000000  0.000000  0.000000
                       0.000000  0.000000  0.000000
        optdriver           1
            prtwf          -1
            rfdir           1       1       1
           rfelfd           2
            rprim      1.5642060673E+01  0.0000000000E+00  0.0000000000E+00
                      -1.0149947027E+01  1.1901791355E+01  0.0000000000E+00
                       0.0000000000E+00  0.0000000000E+00  1.1859170559E+01
          spgroup          63
           strten      0.0000000000E+00  0.0000000000E+00  0.0000000000E+00
                       0.0000000000E+00  0.0000000000E+00  0.0000000000E+00
           symrel      1  0  0   0  1  0   0  0  1      -1  0  0   0 -1  0   0  0 -1
                       0  1  0   1  0  0   0  0 -1       0 -1  0  -1  0  0   0  0  1
                      -1  0  0   0 -1  0   0  0  1       1  0  0   0  1  0   0  0 -1
                       0 -1  0  -1  0  0   0  0 -1       0  1  0   1  0  0   0  0  1
            tnons      0.0000000  0.0000000  0.0000000     0.0000000  0.0000000  0.0000000
                       0.0000000  0.0000000  0.0000000     0.0000000  0.0000000  0.0000000
                       0.0000000  0.0000000  0.5000000     0.0000000  0.0000000  0.5000000
                       0.0000000  0.0000000  0.5000000     0.0000000  0.0000000  0.5000000
           tolwfr      1.00000000E-20
            typat      1  1  1  1  2  2  2  2  3  3
           useylm           1
              wtk        0.50000    0.50000
           xangst      5.4477788468E+00  1.3057464488E+00  4.7067020794E+00
                      -2.5414774782E+00  4.9924102776E+00  1.5689006931E+00
                       2.8744230602E-01  3.6869976311E+00  4.7067020794E+00
                       2.6188590625E+00  2.6111590954E+00  1.5689006931E+00
                       1.0171830589E+00  5.8427811007E+00  1.5689006931E+00
                       1.8891183097E+00  4.5537562579E-01  4.7067020794E+00
                       3.7856397992E+00  4.5652692884E+00  4.7067020794E+00
                      -8.7933843068E-01  1.7328874380E+00  1.5689006931E+00
                       0.0000000000E+00  0.0000000000E+00  0.0000000000E+00
                       0.0000000000E+00  0.0000000000E+00  3.1378013863E+00
            xcart      1.0294810053E+01  2.4675031873E+00  8.8943779192E+00
                      -4.8026964068E+00  9.4342881677E+00  2.9647926397E+00
                       5.4318723738E-01  6.9674157753E+00  8.8943779192E+00
                       4.9489264088E+00  4.9343755797E+00  2.9647926397E+00
                       1.9221974083E+00  1.1041256135E+01  2.9647926397E+00
                       3.5699162379E+00  8.6053522034E-01  8.8943779192E+00
                       7.1538224583E+00  8.6271086780E+00  8.8943779192E+00
                      -1.6617088121E+00  3.2746826770E+00  2.9647926397E+00
                       0.0000000000E+00  0.0000000000E+00  0.0000000000E+00
                       0.0000000000E+00  0.0000000000E+00  5.9295852795E+00
             xred      7.9267800000E-01  2.0732200000E-01  7.5000000000E-01
                       2.0732200000E-01  7.9267800000E-01  2.5000000000E-01
                       4.1459100000E-01  5.8540900000E-01  7.5000000000E-01
                       5.8540900000E-01  4.1459100000E-01  2.5000000000E-01
                       7.2485800000E-01  9.2769700000E-01  2.5000000000E-01
                       2.7514200000E-01  7.2303000000E-02  7.5000000000E-01
                       9.2769700000E-01  7.2485800000E-01  7.5000000000E-01
                       7.2303000000E-02  2.7514200000E-01  2.5000000000E-01
                       0.0000000000E+00  0.0000000000E+00  0.0000000000E+00
                       0.0000000000E+00  0.0000000000E+00  5.0000000000E-01
            znucl       55.00000   33.00000   46.00000

- Timing analysis has been suppressed with timopt=0

 Suggested references for the acknowledgment of ABINIT usage.

 Calculation completed.
.Delivered   2 WARNINGs and   7 COMMENTs to log file.