.Version 9.5.1 of ABINIT

 ABINIT is a project of the Universite Catholique de Louvain,
 Corning Inc. and other collaborators, see ~abinit/doc/developers/contributors.txt .
 acknowledgments of the ABINIT effort.

.Starting date : Mon 26 Apr 2021.
- ( at 00h46 )

- input  file    -> /scratch/users/j/a/jabreu/flow_simple/flow/w92/t1/run.abi
- output file    -> /scratch/users/j/a/jabreu/flow_simple/flow/w92/t1/run.abo
- root for input  files -> /scratch/users/j/a/jabreu/flow_simple/flow/w92/t1/indata/in
- root for output files -> /scratch/users/j/a/jabreu/flow_simple/flow/w92/t1/outdata/out

 Symmetries : space group Fm -3 m (#225); Bravais cF (face-center cubic)
     intxc =       0      iscf =       7    lmnmax =      18     lnmax =       6
     mgfft =      48  mpssoang =       3    mqgrid =    3001     natom =       3
  nloc_mem =       1    nspden =       1   nspinor =       1    nsppol =       1
      nsym =      48    n1xccc =    2501    ntypat =       2    occopt =       1
   xclevel =       2
-    mband =          21        mffmem =           1         mkmem =           2
-   mkqmem =           2        mk1mem =           2           mpw =        5104
      nfft =      110592          nkpt =           2
  Rough estimation (10% accuracy) of disk space for files :

------------- Echo of variables that govern the present computation ------------
-
- outvars: echo of selected default values
-   iomode0 =  0 , fftalg0 =512 , wfoptalg0 =  0
-
- outvars: echo of global parameters not present in the input file
-  max_nthreads =    0
-
 -outvars: echo values of preprocessed input variables --------
            acell      1.0000000000E+00  1.0000000000E+00  1.0000000000E+00 Bohr
              amu      8.54678000E+01  3.20660000E+01
             ecut      2.70000000E+01 Hartree
-          fftalg         512
           irdden           1
           irdwfk           1
           istwfk        1    1
              ixc     -116133
              kpt      5.00000000E-01  0.00000000E+00  5.00000000E-01
                       0.00000000E+00  0.00000000E+00  0.00000000E+00
           kptopt           0
P           mkmem           2
P          mkqmem           2
P          mk1mem           2
            natom           3
            nband          21
           nbdbuf           4
            ngfft          48      48      48
             nkpt           2
            nstep         100
             nsym          48
           ntypat           2
              occ      2.000000  2.000000  2.000000  2.000000  2.000000  2.000000
                       2.000000  2.000000  2.000000  2.000000  2.000000  2.000000
                       0.000000  0.000000  0.000000  0.000000  0.000000  0.000000
                       0.000000  0.000000  0.000000
        optdriver           1
            prtwf          -1
            rfdir           1       1       1
           rfelfd           2
            rprim      8.8807056517E+00  0.0000000000E+00  5.1272777986E+00
                       2.9602352172E+00  8.3728095841E+00  5.1272777986E+00
                       0.0000000000E+00  0.0000000000E+00  1.0254555597E+01
          spgroup         225
           symrel      1  0  0   0  1  0   0  0  1      -1  0  0   0 -1  0   0  0 -1
                       0 -1  1   0 -1  0   1 -1  0       0  1 -1   0  1  0  -1  1  0
                      -1  0  0  -1  0  1  -1  1  0       1  0  0   1  0 -1   1 -1  0
                       0  1 -1   1  0 -1   0  0 -1       0 -1  1  -1  0  1   0  0  1
                      -1  0  0  -1  1  0  -1  0  1       1  0  0   1 -1  0   1  0 -1
                       0 -1  1   1 -1  0   0 -1  0       0  1 -1  -1  1  0   0  1  0
                       1  0  0   0  0  1   0  1  0      -1  0  0   0  0 -1   0 -1  0
                       0  1 -1   0  0 -1   1  0 -1       0 -1  1   0  0  1  -1  0  1
                      -1  0  1  -1  1  0  -1  0  0       1  0 -1   1 -1  0   1  0  0
                       0 -1  0   1 -1  0   0 -1  1       0  1  0  -1  1  0   0  1 -1
                       1  0 -1   0  0 -1   0  1 -1      -1  0  1   0  0  1   0 -1  1
                       0  1  0   0  0  1   1  0  0       0 -1  0   0  0 -1  -1  0  0
                       1  0 -1   0  1 -1   0  0 -1      -1  0  1   0 -1  1   0  0  1
                       0 -1  0   0 -1  1   1 -1  0       0  1  0   0  1 -1  -1  1  0
                      -1  0  1  -1  0  0  -1  1  0       1  0 -1   1  0  0   1 -1  0
                       0  1  0   1  0  0   0  0  1       0 -1  0  -1  0  0   0  0 -1
                       0  0 -1   0  1 -1   1  0 -1       0  0  1   0 -1  1  -1  0  1
                       1 -1  0   0 -1  1   0 -1  0      -1  1  0   0  1 -1   0  1  0
                       0  0  1   1  0  0   0  1  0       0  0 -1  -1  0  0   0 -1  0
                      -1  1  0  -1  0  0  -1  0  1       1 -1  0   1  0  0   1  0 -1
                       0  0  1   0  1  0   1  0  0       0  0 -1   0 -1  0  -1  0  0
                       1 -1  0   0 -1  0   0 -1  1      -1  1  0   0  1  0   0  1 -1
                       0  0 -1   1  0 -1   0  1 -1       0  0  1  -1  0  1   0 -1  1
                      -1  1  0  -1  0  1  -1  0  0       1 -1  0   1  0 -1   1  0  0
           tolwfr      1.00000000E-20
            typat      1  1  2
           useylm           1
              wtk        0.50000    0.50000
           xangst      4.6994670271E+00  3.3230250028E+00  8.1397156594E+00
                       1.5664890090E+00  1.1076750009E+00  2.7132385531E+00
                       0.0000000000E+00  0.0000000000E+00  0.0000000000E+00
            xcart      8.8807056517E+00  6.2796071881E+00  1.5381833396E+01
                       2.9602352172E+00  2.0932023960E+00  5.1272777986E+00
                       0.0000000000E+00  0.0000000000E+00  0.0000000000E+00
             xred      7.5000000000E-01  7.5000000000E-01  7.5000000000E-01
                       2.5000000000E-01  2.5000000000E-01  2.5000000000E-01
                       0.0000000000E+00  0.0000000000E+00  0.0000000000E+00
            znucl       37.00000   16.00000

 chkinp: Checking input parameters for consistency.

== DATASET  1 ==================================================================
-   mpi_nproc: 1, omp_nthreads: -1 (-1 if OMP is not activated)

--- !DatasetInfo
iteration_state: {dtset: 1, }
dimensions: {natom: 3, nkpt: 2, mband: 21, nsppol: 1, nspinor: 1, nspden: 1, mpw: 5104, }
cutoff_energies: {ecut:  27.0, pawecutdg:  -1.0, }
electrons: {nelect:   2.40000000E+01, charge:   0.00000000E+00, occopt:   1.00000000E+00, tsmear:   1.00000000E-02, }
meta: {optdriver: 1, rfelfd: 2, }
...

 Real(R)+Recip(G) space primitive vectors, cartesian coordinates (Bohr,Bohr^-1):
 R(1)=  8.8807057  0.0000000  5.1272778  G(1)=  0.1126037 -0.0398114  0.0000000
 R(2)=  2.9602352  8.3728096  5.1272778  G(2)=  0.0000000  0.1194342  0.0000000
 R(3)=  0.0000000  0.0000000 10.2545556  G(3)= -0.0563018 -0.0398114  0.0975176
 Unit cell volume ucvol=  7.6249243E+02 bohr^3
 Angles (23,13,12)=  6.00000000E+01  6.00000000E+01  6.00000000E+01 degrees

 getcut: wavevector=  0.0000  0.0000  0.0000  ngfft=  48  48  48
         ecut(hartree)=     27.000   => boxcut(ratio)=   2.00114

--- Pseudopotential description ------------------------------------------------
- pspini: atom type   1  psp file is /scratch/users/j/a/jabreu/pseudos/PBEsol/Rb.psp8
- pspatm: opening atomic psp file    /scratch/users/j/a/jabreu/pseudos/PBEsol/Rb.psp8
- Rb    ONCVPSP-3.3.0  r_core=   1.71227   1.75361   1.90633
- 37.00000   9.00000    180112                znucl, zion, pspdat
    8 -116133    2    4       600   0.00000   pspcod,pspxc,lmax,lloc,mmax,r2well
    5.99000000000000    7.00000000000000    0.00000000000000   rchrg,fchrg,qchrg
     nproj     2     2     2
     extension_switch     1
  pspatm : epsatm=   34.48400912
         --- l  ekb(1:nproj) -->
             0    8.196957   -0.477221
             1    3.231347   -0.378736
             2   -1.047201    0.996637
 pspatm: atomic psp has been read  and splines computed

- pspini: atom type   2  psp file is /scratch/users/j/a/jabreu/pseudos/PBEsol/S.psp8
- pspatm: opening atomic psp file    /scratch/users/j/a/jabreu/pseudos/PBEsol/S.psp8
- S     ONCVPSP-3.3.0  r_core=   1.45376   1.45376   1.61851
- 16.00000   6.00000    180112                znucl, zion, pspdat
    8 -116133    2    4       600   0.00000   pspcod,pspxc,lmax,lloc,mmax,r2well
    5.99000000000000    6.00000000000000    0.00000000000000   rchrg,fchrg,qchrg
     nproj     2     2     2
     extension_switch     1
  pspatm : epsatm=    8.71840985
         --- l  ekb(1:nproj) -->
             0    6.834532    0.579453
             1    3.282851    0.896984
             2   -3.496974   -0.974265
 pspatm: atomic psp has been read  and splines computed

   1.86447427E+03                                ecore*ucvol(ha*bohr**3)

-inwffil : will read wavefunctions from disk file /scratch/users/j/a/jabreu/flow_simple/flow/w92/t1/indata/in_WFK

 ==>  initialize data related to q vector <==

 The list of irreducible perturbations for this q vector is:
    1)    idir= 1    ipert=   4
    2)    idir= 2    ipert=   4
    3)    idir= 3    ipert=   4

 Perturbation wavevector (in red.coord.)   0.000000  0.000000  0.000000
 Perturbation : derivative vs k along direction   1

 dfpt_looppert : COMMENT -
  In a d/dk calculation, iscf is set to -3 automatically.
 The set of symmetries contains only one element for this perturbation.
 symkpt : not enough symmetry to change the number of k points.

[...]

 Initialisation of the first-order wave-functions :
  ireadwf=   0

--- !BeginCycle
iteration_state: {dtset: 1, }
solver: {iscf: 7, nstep: 100, nline: 4, wfoptalg: 0, }
tolerances: {tolwfr: 1.00E-20, }
...

     iter   2DEtotal(Ha)        deltaE(Ha) residm    vres2
-ETOT  1  -13.801612150817     -1.380E+01 4.480E-02 0.000E+00
 ETOT  2  -13.809148661118     -7.537E-03 3.478E-03 0.000E+00
 ETOT  3  -13.809181265907     -3.260E-05 4.053E-05 0.000E+00
 ETOT  4  -13.809181481196     -2.153E-07 5.707E-06 0.000E+00
 ETOT  5  -13.809181482831     -1.635E-09 9.259E-08 0.000E+00
 ETOT  6  -13.809181482844     -1.306E-11 1.293E-08 0.000E+00
 ETOT  7  -13.809181482844     -1.226E-13 2.273E-10 0.000E+00
 ETOT  8  -13.809181482844      1.954E-14 3.141E-11 0.000E+00
 ETOT  9  -13.809181482844      1.776E-15 5.803E-13 0.000E+00
 ETOT 10  -13.809181482844     -7.105E-15 7.877E-14 0.000E+00
 ETOT 11  -13.809181482844      0.000E+00 1.505E-15 0.000E+00
 ETOT 12  -13.809181482844      0.000E+00 2.021E-16 0.000E+00
 ETOT 13  -13.809181482844      0.000E+00 3.929E-18 0.000E+00
 ETOT 14  -13.809181482844      1.776E-15 5.284E-19 0.000E+00
 ETOT 15  -13.809181482844     -3.553E-15 1.039E-20 0.000E+00
 ETOT 16  -13.809181482844      1.776E-15 9.079E-21 0.000E+00

 At SCF step   16   max residual=  9.08E-21 < tolwfr=  1.00E-20 =>converged.

 ----iterations are completed or convergence reached----

 dfpt_looppert: DFPT cycle converged with prtwf=-1. Will skip output of the 1st-order WFK file.
 dfpt_looppert : ek2=    2.7030777957E+01
          f-sum rule ratio=    1.0225279691E+00
 prteigrs : about to open file /scratch/users/j/a/jabreu/flow_simple/flow/w92/t1/tmpdata/tmp_1WF1_EIG
 Expectation of eigenvalue derivatives (hartree) for nkpt=   2  k points:
  (in case of degenerate eigenvalues, averaged derivative)
 kpt#   1, nband= 21, wtk=  0.50000, kpt=  0.5000  0.0000  0.5000 (reduced coord)
  -0.00000   -0.00000    0.00000    0.00000    0.00000   -0.00000   -0.00000    0.00000
  -0.00000   -0.00000   -0.00000   -0.00000   -0.00000   -0.00000   -0.00000   -0.00000
   0.00000    0.00000   -0.00000    0.00000    0.00000
 prteigrs : prtvol=0 or 1, do not print more k-points.

 Eight components of 2nd-order total energy (hartree) are
 1,2,3: 0th-order hamiltonian combined with 1st-order wavefunctions
     kin0=   1.06679540E+01 eigvalue=   1.82919034E+00  local=  -5.74720237E+00
 4,5,6: 1st-order hamiltonian combined with 1st and 0th-order wfs
     kin1=  -2.76397265E+01  Hartree=   0.00000000E+00     xc=   0.00000000E+00
 7,8,9: eventually, occupation + non-local contributions
    edocc=   7.00319223E+00     enl0=   5.60472609E-02   enl1=   2.13635214E-02
 1-9 gives the relaxation energy (to be shifted if some occ is /=2.0)
   erelax=  -1.38091815E+01
  No Ewald or frozen-wf contrib.: the relaxation energy is the total one
 2DEtotal=   -0.1380918148E+02 Ha. Also 2DEtotal=   -0.375766938122E+03 eV
    (  non-var. 2DEtotal :   -1.3809181483E+01 Ha)

 Perturbation wavevector (in red.coord.)   0.000000  0.000000  0.000000
 Perturbation : derivative vs k along direction   2
 The set of symmetries contains only one element for this perturbation.
 symkpt : not enough symmetry to change the number of k points.

[...]

 Perturbation wavevector (in red.coord.)   0.000000  0.000000  0.000000
 Perturbation : derivative vs k along direction   3
 The set of symmetries contains only one element for this perturbation.
 symkpt : not enough symmetry to change the number of k points.

-inwffil : will read wavefunctions from disk file /scratch/users/j/a/jabreu/flow_simple/flow/w92/t1/indata/in_WFK

 Initialisation of the first-order wave-functions :
  ireadwf=   0

--- !BeginCycle
iteration_state: {dtset: 1, }
solver: {iscf: 7, nstep: 100, nline: 4, wfoptalg: 0, }
tolerances: {tolwfr: 1.00E-20, }
...

     iter   2DEtotal(Ha)        deltaE(Ha) residm    vres2
-ETOT  1  -13.801748339942     -1.380E+01 1.237E-01 0.000E+00
 ETOT  2  -13.809148945988     -7.401E-03 7.108E-03 0.000E+00
 ETOT  3  -13.809181296345     -3.235E-05 7.341E-05 0.000E+00
 ETOT  4  -13.809181513442     -2.171E-07 5.707E-06 0.000E+00
 ETOT  5  -13.809181515102     -1.660E-09 9.259E-08 0.000E+00
 ETOT  6  -13.809181515115     -1.329E-11 1.293E-08 0.000E+00
 ETOT  7  -13.809181515115     -1.243E-13 2.273E-10 0.000E+00
 ETOT  8  -13.809181515115     -3.553E-15 3.141E-11 0.000E+00
 ETOT  9  -13.809181515115     -8.882E-15 5.803E-13 0.000E+00
 ETOT 10  -13.809181515115      1.421E-14 7.877E-14 0.000E+00
 ETOT 11  -13.809181515115     -5.329E-15 1.505E-15 0.000E+00
 ETOT 12  -13.809181515115      0.000E+00 2.021E-16 0.000E+00
 ETOT 13  -13.809181515115      1.776E-15 3.929E-18 0.000E+00
 ETOT 14  -13.809181515115     -3.553E-15 5.284E-19 0.000E+00
 ETOT 15  -13.809181515115      8.882E-15 1.039E-20 0.000E+00
 ETOT 16  -13.809181515115     -5.329E-15 9.079E-21 0.000E+00

 At SCF step   16   max residual=  9.08E-21 < tolwfr=  1.00E-20 =>converged.

 ----iterations are completed or convergence reached----

 dfpt_looppert: DFPT cycle converged with prtwf=-1. Will skip output of the 1st-order WFK file.
 dfpt_looppert : ek2=    2.7030777957E+01
          f-sum rule ratio=    1.0225279717E+00
 prteigrs : about to open file /scratch/users/j/a/jabreu/flow_simple/flow/w92/t1/tmpdata/tmp_1WF1_EIG
 Expectation of eigenvalue derivatives (hartree) for nkpt=   2  k points:
  (in case of degenerate eigenvalues, averaged derivative)
 kpt#   1, nband= 21, wtk=  0.50000, kpt=  0.5000  0.0000  0.5000 (reduced coord)
   0.00000    0.00000    0.00000   -0.00000   -0.00000    0.00000    0.00000    0.00000
  -0.00000    0.00000    0.00000    0.00000   -0.00000   -0.00000   -0.00000   -0.00000
  -0.00000   -0.00000    0.00000    0.00000    0.00000
 prteigrs : prtvol=0 or 1, do not print more k-points.

 Eight components of 2nd-order total energy (hartree) are
 1,2,3: 0th-order hamiltonian combined with 1st-order wavefunctions
     kin0=   1.06679539E+01 eigvalue=   1.82919031E+00  local=  -5.74720227E+00
 4,5,6: 1st-order hamiltonian combined with 1st and 0th-order wfs
     kin1=  -2.76397266E+01  Hartree=   0.00000000E+00     xc=   0.00000000E+00
 7,8,9: eventually, occupation + non-local contributions
    edocc=   7.00319235E+00     enl0=   5.60472636E-02   enl1=   2.13635290E-02
 1-9 gives the relaxation energy (to be shifted if some occ is /=2.0)
   erelax=  -1.38091815E+01
  No Ewald or frozen-wf contrib.: the relaxation energy is the total one
 2DEtotal=   -0.1380918152E+02 Ha. Also 2DEtotal=   -0.375766939000E+03 eV
    (  non-var. 2DEtotal :   -1.3809181515E+01 Ha)

 CALCULATION OF EFFECTIVE MASSES
 NOTE : Additional infos (eff. mass eigenvalues, eigenvectors and, if degenerate, average mass) are available in stdout.

 COMMENTS:
 - At k-point ( 0.500, 0.000, 0.500), bands    11 through    12
   are DEGENERATE (effective mass tensor is therefore not defined).
   See Section IIIB Eqs. (67)-(70) and Appendix E of PRB 93 205147 (2016).
 - Angular average effective mass for Frohlich model is to be averaged over degenerate bands. See later.
 - Associated theta integrals calculated with ntheta=   1000 points.

 K-point ( 0.500, 0.000, 0.500) | band =    11
 Transport equivalent effective mass tensor:
             -1.6560511419              0.3007159621             -0.3683003272
              0.3007159621             -1.8686894300              0.5208553110
             -0.3683003272              0.5208553110             -2.0813277039
 Transport equivalent effective mass tensor eigenvalues:
             -2.7192425900             -1.4434128433             -1.4434128426
 Angular average effective mass 1/(<1/m>)=  -1.6590489518
 Angular average effective mass for Frohlich model (<m**0.5>)**2=  -1.7006191011
 Effective masses along directions: (cart. coord. / red. coord. -> eff. mass)
    1:   1.000000  0.000000  0.000000 /   0.948683  0.316228  0.000000 ->  -1.5534992402
    2:   0.000000  1.000000  0.000000 /   0.000000  1.000000  0.000000 ->  -1.8168194948
    3:   0.000000  0.000000  1.000000 /   0.408248  0.408248  0.816497 ->  -1.7157967069
    4:   0.577350  0.577350  0.577350 /   0.585539  0.688047  0.428644 ->  -1.5614924572
    5:   0.000000  0.707107  0.707107 /   0.289489  0.762222  0.578977 ->  -1.4183528154
    6:   0.707107  0.000000  0.707107 /   0.731423  0.422287  0.535439 ->  -1.9446429122
    7:   0.707107  0.707107  0.000000 /   0.616798  0.787122  0.000000 ->  -1.3004473539

 K-point ( 0.500, 0.000, 0.500) | band =    12
 Transport equivalent effective mass tensor:
            -31.5252633350             -4.2950070563              5.2602877360
             -4.2950070563            -28.4882347917             -7.4391702010
              5.2602877360             -7.4391702010            -25.4512064217
 Transport equivalent effective mass tensor eigenvalues:
            -34.5622919736            -34.5622918619            -16.3401207129
 Angular average effective mass 1/(<1/m>)=  -5.1085030025
 Angular average effective mass for Frohlich model (<m**0.5>)**2=  -6.4246387653
 Effective masses along directions: (cart. coord. / red. coord. -> eff. mass)
    1:   1.000000  0.000000  0.000000 /   0.948683  0.316228  0.000000 ->  -6.1612608928
    2:   0.000000  1.000000  0.000000 /   0.000000  1.000000  0.000000 ->  -4.0307202038
    3:   0.000000  0.000000  1.000000 /   0.408248  0.408248  0.816497 ->  -4.8034910349
    4:   0.577350  0.577350  0.577350 /   0.585539  0.688047  0.428644 ->  -5.9255703982
    5:   0.000000  0.707107  0.707107 /   0.289489  0.762222  0.578977 ->  -9.2510624887
    6:   0.707107  0.000000  0.707107 /   0.731423  0.422287  0.535439 ->  -3.6863106816
    7:   0.707107  0.707107  0.000000 /   0.616798  0.787122  0.000000 -> -22.7749096201

 Angular average effective mass for Frohlich model, averaged over degenerate bands.
 Value of     (<<m**0.5>>)**2 =     3.684029E+00
 Absolute Value of <<m**0.5>> =     1.919382E+00

 K-point ( 0.000, 0.000, 0.000) | band =    13
 Effective mass tensor:
              0.3339264937              0.0000000000             -0.0000000000
              0.0000000000              0.3339264937             -0.0000000000
             -0.0000000000             -0.0000000000              0.3339264937
 Effective mass tensor eigenvalues:
              0.3339264937              0.3339264937              0.3339264937
 Angular average effective mass 1/(<1/m>)=   0.3339264937
 Angular average effective mass for Frohlich model (<m**0.5>)**2=   0.3339264937
 Effective masses along directions: (cart. coord. / red. coord. -> eff. mass)
    1:   1.000000  0.000000  0.000000 /   0.948683  0.316228  0.000000 ->   0.3339264937
    2:   0.000000  1.000000  0.000000 /   0.000000  1.000000  0.000000 ->   0.3339264937
    3:   0.000000  0.000000  1.000000 /   0.408248  0.408248  0.816497 ->   0.3339264937
    4:   0.577350  0.577350  0.577350 /   0.585539  0.688047  0.428644 ->   0.3339264937
    5:   0.000000  0.707107  0.707107 /   0.289489  0.762222  0.578977 ->   0.3339264937
    6:   0.707107  0.000000  0.707107 /   0.731423  0.422287  0.535439 ->   0.3339264937
    7:   0.707107  0.707107  0.000000 /   0.616798  0.787122  0.000000 ->   0.3339264937

 END OF EFFECTIVE MASSES SECTION

 ---- first-order wavefunction calculations are completed ----

 Total localisation tensor (bohr^2) in cartesian coordinates
  WARNING : still subject to testing - especially symmetries.
      direction              matrix element
   alpha     beta       real part   imaginary part
     1        1       1.6238575661    0.0000000000
     1        2       0.4592962821    0.0000000000
     1        3       1.1250415249    0.0000000000
     2        1       0.4592962821    0.0000000000
     2        2       1.2990860625    0.0000000000
     2        3       0.7955244963    0.0000000000
     3        1       1.1250415249    0.0000000000
     3        2       0.7955244963    0.0000000000
     3        3       2.9229436272    0.0000000000

 respfn : d/dk was computed, but no 2DTE, so no DDB output.

== END DATASET(S) ==============================================================

 -outvars: echo values of variables after computation  --------
            acell      1.0000000000E+00  1.0000000000E+00  1.0000000000E+00 Bohr
              amu      8.54678000E+01  3.20660000E+01
             ecut      2.70000000E+01 Hartree
           etotal     -1.3809181515E+01
            fcart      0.0000000000E+00  0.0000000000E+00  0.0000000000E+00
                       0.0000000000E+00  0.0000000000E+00  0.0000000000E+00
                       0.0000000000E+00  0.0000000000E+00  0.0000000000E+00
-          fftalg         512
           irdden           1
           irdwfk           1
           istwfk        1    1
              ixc     -116133
              kpt      5.00000000E-01  0.00000000E+00  5.00000000E-01
                       0.00000000E+00  0.00000000E+00  0.00000000E+00
           kptopt           0
P           mkmem           2
P          mkqmem           2
P          mk1mem           2
            natom           3
            nband          21
           nbdbuf           4
            ngfft          48      48      48
             nkpt           2
            nstep         100
             nsym          48
           ntypat           2
              occ      2.000000  2.000000  2.000000  2.000000  2.000000  2.000000
                       2.000000  2.000000  2.000000  2.000000  2.000000  2.000000
                       0.000000  0.000000  0.000000  0.000000  0.000000  0.000000
                       0.000000  0.000000  0.000000
        optdriver           1
            prtwf          -1
            rfdir           1       1       1
           rfelfd           2
            rprim      8.8807056517E+00  0.0000000000E+00  5.1272777986E+00
                       2.9602352172E+00  8.3728095841E+00  5.1272777986E+00
                       0.0000000000E+00  0.0000000000E+00  1.0254555597E+01
          spgroup         225
           strten      0.0000000000E+00  0.0000000000E+00  0.0000000000E+00
                       0.0000000000E+00  0.0000000000E+00  0.0000000000E+00
           symrel      1  0  0   0  1  0   0  0  1      -1  0  0   0 -1  0   0  0 -1
                       0 -1  1   0 -1  0   1 -1  0       0  1 -1   0  1  0  -1  1  0
                      -1  0  0  -1  0  1  -1  1  0       1  0  0   1  0 -1   1 -1  0
                       0  1 -1   1  0 -1   0  0 -1       0 -1  1  -1  0  1   0  0  1
                      -1  0  0  -1  1  0  -1  0  1       1  0  0   1 -1  0   1  0 -1
                       0 -1  1   1 -1  0   0 -1  0       0  1 -1  -1  1  0   0  1  0
                       1  0  0   0  0  1   0  1  0      -1  0  0   0  0 -1   0 -1  0
                       0  1 -1   0  0 -1   1  0 -1       0 -1  1   0  0  1  -1  0  1
                      -1  0  1  -1  1  0  -1  0  0       1  0 -1   1 -1  0   1  0  0
                       0 -1  0   1 -1  0   0 -1  1       0  1  0  -1  1  0   0  1 -1
                       1  0 -1   0  0 -1   0  1 -1      -1  0  1   0  0  1   0 -1  1
                       0  1  0   0  0  1   1  0  0       0 -1  0   0  0 -1  -1  0  0
                       1  0 -1   0  1 -1   0  0 -1      -1  0  1   0 -1  1   0  0  1
                       0 -1  0   0 -1  1   1 -1  0       0  1  0   0  1 -1  -1  1  0
                      -1  0  1  -1  0  0  -1  1  0       1  0 -1   1  0  0   1 -1  0
                       0  1  0   1  0  0   0  0  1       0 -1  0  -1  0  0   0  0 -1
                       0  0 -1   0  1 -1   1  0 -1       0  0  1   0 -1  1  -1  0  1
                       1 -1  0   0 -1  1   0 -1  0      -1  1  0   0  1 -1   0  1  0
                       0  0  1   1  0  0   0  1  0       0  0 -1  -1  0  0   0 -1  0
                      -1  1  0  -1  0  0  -1  0  1       1 -1  0   1  0  0   1  0 -1
                       0  0  1   0  1  0   1  0  0       0  0 -1   0 -1  0  -1  0  0
                       1 -1  0   0 -1  0   0 -1  1      -1  1  0   0  1  0   0  1 -1
                       0  0 -1   1  0 -1   0  1 -1       0  0  1  -1  0  1   0 -1  1
                      -1  1  0  -1  0  1  -1  0  0       1 -1  0   1  0 -1   1  0  0
           tolwfr      1.00000000E-20
            typat      1  1  2
           useylm           1
              wtk        0.50000    0.50000
           xangst      4.6994670271E+00  3.3230250028E+00  8.1397156594E+00
                       1.5664890090E+00  1.1076750009E+00  2.7132385531E+00
                       0.0000000000E+00  0.0000000000E+00  0.0000000000E+00
            xcart      8.8807056517E+00  6.2796071881E+00  1.5381833396E+01
                       2.9602352172E+00  2.0932023960E+00  5.1272777986E+00
                       0.0000000000E+00  0.0000000000E+00  0.0000000000E+00
             xred      7.5000000000E-01  7.5000000000E-01  7.5000000000E-01
                       2.5000000000E-01  2.5000000000E-01  2.5000000000E-01
                       0.0000000000E+00  0.0000000000E+00  0.0000000000E+00
            znucl       37.00000   16.00000

- Timing analysis has been suppressed with timopt=0

 Suggested references for the acknowledgment of ABINIT usage.

 Calculation completed.
.Delivered  14 WARNINGs and   9 COMMENTs to log file.