.Version 9.5.2 of ABINIT

 ABINIT is a project of the Universite Catholique de Louvain,
 Corning Inc. and other collaborators, see ~abinit/doc/developers/contributors.txt .
 acknowledgments of the ABINIT effort.

.Starting date : Mon 24 May 2021.
- ( at 22h56 )

- input  file    -> /scratch/users/j/a/jabreu/flow_simple_10atoms/flow/w457/t1/run.abi
- output file    -> /scratch/users/j/a/jabreu/flow_simple_10atoms/flow/w457/t1/run.abo
- root for input  files -> /scratch/users/j/a/jabreu/flow_simple_10atoms/flow/w457/t1/indata/in
- root for output files -> /scratch/users/j/a/jabreu/flow_simple_10atoms/flow/w457/t1/outdata/out

 Symmetries : space group P2_1/m (# 11); Bravais mP (primitive monocl.)
     intxc =       0      iscf =       7    lmnmax =      18     lnmax =       6
     mgfft =      96  mpssoang =       3    mqgrid =    4516     natom =      10
  nloc_mem =       1    nspden =       1   nspinor =       1    nsppol =       1
      nsym =       4    n1xccc =    2501    ntypat =       4    occopt =       1
   xclevel =       2
-    mband =          61        mffmem =           1         mkmem =           2
-   mkqmem =           2        mk1mem =           2           mpw =       19958
      nfft =      368640          nkpt =           2
  Rough estimation (10% accuracy) of disk space for files :

------------- Echo of variables that govern the present computation ------------
-
- outvars: echo of selected default values
-   iomode0 =  0 , fftalg0 =512 , wfoptalg0 =  0
-
- outvars: echo of global parameters not present in the input file
-  max_nthreads =    0
-
 -outvars: echo values of preprocessed input variables --------
            acell      1.0000000000E+00  1.0000000000E+00  1.0000000000E+00 Bohr
              amu      8.76200000E+01  6.97230000E+01  7.26100000E+01
                       1.40067400E+01
             ecut      4.20000000E+01 Hartree
-          fftalg         512
           irdden           1
           irdwfk           1
           istwfk        1    0
              ixc     -116133
              kpt      0.00000000E+00  0.00000000E+00  0.00000000E+00
                       4.16666667E-01  5.00000000E-01  5.00000000E-01
           kptopt           0
P           mkmem           2
P          mkqmem           2
P          mk1mem           2
            natom          10
            nband          61
           nbdbuf           4
            ngfft          48      80      96
             nkpt           2
            nstep        2000
             nsym           4
           ntypat           4
              occ      2.000000  2.000000  2.000000  2.000000  2.000000  2.000000
                       2.000000  2.000000  2.000000  2.000000  2.000000  2.000000
                       2.000000  2.000000  2.000000  2.000000  2.000000  2.000000
                       2.000000  2.000000  2.000000  2.000000  2.000000  2.000000
                       2.000000  2.000000  2.000000  2.000000  2.000000  2.000000
                       2.000000  2.000000  2.000000  2.000000  2.000000  2.000000
                       2.000000  2.000000  2.000000  2.000000  2.000000  2.000000
                       2.000000  2.000000  2.000000  2.000000  2.000000  2.000000
                       2.000000  2.000000  2.000000  2.000000  0.000000  0.000000
                       0.000000  0.000000  0.000000  0.000000  0.000000  0.000000
                       0.000000
        optdriver           1
            prtwf          -1
            rfdir           1       1       1
           rfelfd           2
            rprim      7.6325849957E+00  0.0000000000E+00  0.0000000000E+00
                       0.0000000000E+00  1.2325981806E+01  4.0952334977E+00
                       0.0000000000E+00  0.0000000000E+00  1.6311704363E+01
          spgroup          11
           symrel      1  0  0   0  1  0   0  0  1      -1  0  0   0 -1  0   0  0 -1
                       1  0  0   0 -1  0   0  0 -1      -1  0  0   0  1  0   0  0  1
            tnons      0.0000000  0.0000000  0.0000000     0.0000000  0.0000000 -0.0000000
                       0.5000000  0.0000000 -0.0000000     0.5000000  0.0000000  0.0000000
           tolwfr      1.00000000E-20
            typat      1  1  1  1  2  2  3  3  4  4
           useylm           1
              wtk        0.50000    0.50000
           xangst      1.0097475056E+00  4.5764588909E+00  1.8177277949E+00
                       3.0292425168E+00  2.0495729860E+00  3.9435648291E+00
                       1.0097475056E+00  4.4730556590E+00  6.8553215840E+00
                       3.0292425168E+00  1.9461697541E+00  8.9811586182E+00
                       1.0097475056E+00  2.3565605032E-01  2.2163704917E+00
                       3.0292425168E+00  6.2869725947E+00  8.5825159214E+00
                       3.0292425168E+00  5.3745025057E+00  4.3743953724E+00
                       1.0097475056E+00  1.1481261394E+00  6.4244910407E+00
                       1.0097475056E+00  2.1212827653E+00  2.1760448485E+00
                       3.0292425168E+00  4.4013458797E+00  8.6228415646E+00
            xcart      1.9081462489E+00  8.6482539623E+00  3.4350077166E+00
                       5.7244387468E+00  3.8731316329E+00  7.4522575142E+00
                       1.9081462489E+00  8.4528501727E+00  1.2954680347E+01
                       5.7244387468E+00  3.6777278433E+00  1.6971930144E+01
                       1.9081462489E+00  4.4532539665E-01  4.1883332384E+00
                       5.7244387468E+00  1.1880656409E+01  1.6218604623E+01
                       5.7244387468E+00  1.0156337836E+01  8.2664092508E+00
                       1.9081462489E+00  2.1696439694E+00  1.2140528610E+01
                       1.9081462489E+00  4.0086434768E+00  4.1121288165E+00
                       5.7244387468E+00  8.3173383288E+00  1.6294809044E+01
             xred      2.5000000000E-01  7.0162800000E-01  3.4434000000E-02
                       7.5000000000E-01  3.1422500000E-01  3.7797600000E-01
                       2.5000000000E-01  6.8577500000E-01  6.2202400000E-01
                       7.5000000000E-01  2.9837200000E-01  9.6556600000E-01
                       2.5000000000E-01  3.6129000000E-02  2.4769800000E-01
                       7.5000000000E-01  9.6387100000E-01  7.5230200000E-01
                       7.5000000000E-01  8.2397800000E-01  2.9990900000E-01
                       2.5000000000E-01  1.7602200000E-01  7.0009100000E-01
                       2.5000000000E-01  3.2521900000E-01  1.7044700000E-01
                       7.5000000000E-01  6.7478100000E-01  8.2955300000E-01
            znucl       38.00000   31.00000   32.00000    7.00000

 chkinp: Checking input parameters for consistency.

== DATASET  1 ==================================================================
-   mpi_nproc: 1, omp_nthreads: -1 (-1 if OMP is not activated)

--- !DatasetInfo
iteration_state: {dtset: 1, }
dimensions: {natom: 10, nkpt: 2, mband: 61, nsppol: 1, nspinor: 1, nspden: 1, mpw: 19958, }
cutoff_energies: {ecut:  42.0, pawecutdg:  -1.0, }
electrons: {nelect:   1.04000000E+02, charge:   0.00000000E+00, occopt:   1.00000000E+00, tsmear:   1.00000000E-02, }
meta: {optdriver: 1, rfelfd: 2, }
...

 Real(R)+Recip(G) space primitive vectors, cartesian coordinates (Bohr,Bohr^-1):
 R(1)=  7.6325850  0.0000000  0.0000000  G(1)=  0.1310172  0.0000000  0.0000000
 R(2)=  0.0000000 12.3259818  4.0952335  G(2)=  0.0000000  0.0811294  0.0000000
 R(3)=  0.0000000  0.0000000 16.3117044  G(3)=  0.0000000 -0.0203684  0.0613057
 Unit cell volume ucvol=  1.5345905E+03 bohr^3
 Angles (23,13,12)=  7.16212423E+01  9.00000000E+01  9.00000000E+01 degrees

 getcut: wavevector=  0.0000  0.0000  0.0000  ngfft=  48  80  96
         ecut(hartree)=     42.000   => boxcut(ratio)=   2.01736

--- Pseudopotential description ------------------------------------------------
- pspini: atom type   1  psp file is /scratch/users/j/a/jabreu/pseudos/PBEsol/Sr.psp8
- pspatm: opening atomic psp file    /scratch/users/j/a/jabreu/pseudos/PBEsol/Sr.psp8
- Sr    ONCVPSP-3.3.0  r_core=   1.66721   1.31335   1.51547
- 38.00000  10.00000    180112                znucl, zion, pspdat
    8 -116133    2    4       600   0.00000   pspcod,pspxc,lmax,lloc,mmax,r2well
    5.99000000000000    6.00000000000000    0.00000000000000   rchrg,fchrg,qchrg
     nproj     2     2     2
     extension_switch     1
  pspatm : epsatm=   12.46450977
         --- l  ekb(1:nproj) -->
             0   10.029206    1.044171
             1    7.472414    1.670829
             2    4.142950    0.968140
 pspatm: atomic psp has been read  and splines computed

- pspini: atom type   2  psp file is /scratch/users/j/a/jabreu/pseudos/PBEsol/Ga.psp8
- pspatm: opening atomic psp file    /scratch/users/j/a/jabreu/pseudos/PBEsol/Ga.psp8
- Ga    ONCVPSP-3.3.0  r_core=   1.66857   1.75011   1.90252
- 31.00000  13.00000    180112                znucl, zion, pspdat
    8 -116133    2    4       600   0.00000   pspcod,pspxc,lmax,lloc,mmax,r2well
    5.99000000000000    5.00000000000000    0.00000000000000   rchrg,fchrg,qchrg
     nproj     2     2     2
     extension_switch     1
  pspatm : epsatm=   24.50969055
         --- l  ekb(1:nproj) -->
             0    7.053021    1.156713
             1    6.846070    1.293139
             2   -8.368667   -2.819170
 pspatm: atomic psp has been read  and splines computed

[...]

- pspini: atom type   4  psp file is /scratch/users/j/a/jabreu/pseudos/PBEsol/N.psp8
- pspatm: opening atomic psp file    /scratch/users/j/a/jabreu/pseudos/PBEsol/N.psp8
- N     ONCVPSP-3.3.0  r_core=   1.20551   1.35824
-  7.00000   5.00000    180112                znucl, zion, pspdat
    8 -116133    1    4       600   0.00000   pspcod,pspxc,lmax,lloc,mmax,r2well
    5.99000000000000    4.00000000000000    0.00000000000000   rchrg,fchrg,qchrg
     nproj     2     2
     extension_switch     1
  pspatm : epsatm=    5.26508895
         --- l  ekb(1:nproj) -->
             0    7.464189    0.625868
             1   -4.309714   -1.012941
 pspatm: atomic psp has been read  and splines computed

   1.77988334E+04                                ecore*ucvol(ha*bohr**3)

 ==>  initialize data related to q vector <==

 The list of irreducible perturbations for this q vector is:
    1)    idir= 1    ipert=  11
    2)    idir= 2    ipert=  11
    3)    idir= 3    ipert=  11

 Perturbation wavevector (in red.coord.)   0.000000  0.000000  0.000000
 Perturbation : derivative vs k along direction   1

 dfpt_looppert : COMMENT -
  In a d/dk calculation, iscf is set to -3 automatically.
 The set of symmetries contains only one element for this perturbation.
 symkpt : not enough symmetry to change the number of k points.

 Initialisation of the first-order wave-functions :
  ireadwf=   0

--- !BeginCycle
iteration_state: {dtset: 1, }
solver: {iscf: 7, nstep: 2000, nline: 4, wfoptalg: 0, }
tolerances: {tolwfr: 1.00E-20, }
...

     iter   2DEtotal(Ha)        deltaE(Ha) residm    vres2
-ETOT  1  -145.85649167484     -1.459E+02 1.838E-01 0.000E+00
 ETOT  2  -146.03775263264     -1.813E-01 2.586E-03 0.000E+00
 ETOT  3  -146.03967070739     -1.918E-03 3.009E-04 0.000E+00
[...]

 ----iterations are completed or convergence reached----

 dfpt_looppert: DFPT cycle converged with prtwf=-1. Will skip output of the 1st-order WFK file.
 dfpt_looppert : ek2=    1.4095476867E+02
          f-sum rule ratio=    1.2399100745E+00
 prteigrs : about to open file /scratch/users/j/a/jabreu/flow_simple_10atoms/flow/w457/t1/tmpdata/tmp_1WF1_EIG
 Expectation of eigenvalue derivatives (hartree) for nkpt=   2  k points:
  (in case of degenerate eigenvalues, averaged derivative)
 kpt#   1, nband= 61, wtk=  0.50000, kpt=  0.0000  0.0000  0.0000 (reduced coord)
  -0.00000    0.00000   -0.00000    0.00000   -0.00000    0.00000    0.00000   -0.00000
  -0.00000    0.00000    0.00000   -0.00000    0.00000    0.00000   -0.00000   -0.00000
   0.00000    0.00000   -0.00000    0.00000   -0.00000    0.00000    0.00000    0.00000
   0.00000   -0.00000    0.00000   -0.00000   -0.00000    0.00000    0.00000   -0.00000
  -0.00000    0.00000    0.00000   -0.00000   -0.00000    0.00000    0.00000   -0.00000
  -0.00000    0.00000    0.00000    0.00000    0.00000   -0.00000    0.00000    0.00000
  -0.00000   -0.00000    0.00000   -0.00000    0.00000    0.00000    0.00000    0.00000
   0.00000    0.00000   -0.00000    0.00000   -0.00000
 prteigrs : prtvol=0 or 1, do not print more k-points.

 Eight components of 2nd-order total energy (hartree) are
 1,2,3: 0th-order hamiltonian combined with 1st-order wavefunctions
     kin0=   1.62880749E+02 eigvalue=   9.74886856E+00  local=  -7.78037600E+01
 4,5,6: 1st-order hamiltonian combined with 1st and 0th-order wfs
     kin1=  -1.74771238E+02  Hartree=   0.00000000E+00     xc=   0.00000000E+00
 7,8,9: eventually, occupation + non-local contributions
    edocc=   3.14484730E+01     enl0=   1.97653910E+01   enl1=  -1.17308205E+02
 1-9 gives the relaxation energy (to be shifted if some occ is /=2.0)
   erelax=  -1.46039721E+02
  No Ewald or frozen-wf contrib.: the relaxation energy is the total one
 2DEtotal=   -0.1460397213E+03 Ha. Also 2DEtotal=   -0.397394291608E+04 eV
    (  non-var. 2DEtotal :   -1.4603972134E+02 Ha)

 Perturbation wavevector (in red.coord.)   0.000000  0.000000  0.000000
 Perturbation : derivative vs k along direction   2
 The set of symmetries contains only one element for this perturbation.
 symkpt : not enough symmetry to change the number of k points.

[...]

 Perturbation wavevector (in red.coord.)   0.000000  0.000000  0.000000
 Perturbation : derivative vs k along direction   3
 The set of symmetries contains only one element for this perturbation.
 symkpt : not enough symmetry to change the number of k points.

 Initialisation of the first-order wave-functions :
  ireadwf=   0

--- !BeginCycle
iteration_state: {dtset: 1, }
solver: {iscf: 7, nstep: 2000, nline: 4, wfoptalg: 0, }
tolerances: {tolwfr: 1.00E-20, }
...

     iter   2DEtotal(Ha)        deltaE(Ha) residm    vres2
-ETOT  1  -32.058633134308     -3.206E+01 1.372E-01 0.000E+00
 ETOT  2  -32.104599500603     -4.597E-02 6.739E-03 0.000E+00
 ETOT  3  -32.104990672930     -3.912E-04 9.688E-04 0.000E+00
 ETOT  4  -32.104997377805     -6.705E-06 1.111E-04 0.000E+00
 ETOT  5  -32.104997521824     -1.440E-07 2.384E-05 0.000E+00
 ETOT  6  -32.104997525313     -3.489E-09 3.719E-06 0.000E+00
 ETOT  7  -32.104997525404     -9.093E-11 1.051E-06 0.000E+00
 ETOT  8  -32.104997525406     -2.473E-12 2.096E-07 0.000E+00
 ETOT  9  -32.104997525406     -7.816E-14 5.931E-08 0.000E+00
 ETOT 10  -32.104997525406      7.105E-15 1.318E-08 0.000E+00
 ETOT 11  -32.104997525406      0.000E+00 3.682E-09 0.000E+00
 ETOT 12  -32.104997525406      7.105E-15 8.505E-10 0.000E+00
 ETOT 13  -32.104997525406      0.000E+00 2.365E-10 0.000E+00
 ETOT 14  -32.104997525406      0.000E+00 5.536E-11 0.000E+00
 ETOT 15  -32.104997525406      0.000E+00 1.541E-11 0.000E+00
 ETOT 16  -32.104997525406     -7.105E-15 3.620E-12 0.000E+00
 ETOT 17  -32.104997525406      0.000E+00 1.010E-12 0.000E+00
 ETOT 18  -32.104997525406      0.000E+00 2.373E-13 0.000E+00
 ETOT 19  -32.104997525406      0.000E+00 6.646E-14 0.000E+00
 ETOT 20  -32.104997525406      0.000E+00 1.559E-14 0.000E+00
 ETOT 21  -32.104997525406      7.105E-15 4.548E-15 0.000E+00
 ETOT 22  -32.104997525406     -7.105E-15 1.025E-15 0.000E+00
 ETOT 23  -32.104997525406      7.105E-15 3.194E-16 0.000E+00
 ETOT 24  -32.104997525406      0.000E+00 6.742E-17 0.000E+00
 ETOT 25  -32.104997525406      0.000E+00 2.256E-17 0.000E+00
 ETOT 26  -32.104997525406      0.000E+00 4.545E-18 0.000E+00
 ETOT 27  -32.104997525406      0.000E+00 1.597E-18 0.000E+00
 ETOT 28  -32.104997525406      0.000E+00 3.203E-19 0.000E+00
 ETOT 29  -32.104997525406      0.000E+00 1.133E-19 0.000E+00
 ETOT 30  -32.104997525406      0.000E+00 2.261E-20 0.000E+00
 ETOT 31  -32.104997525406      0.000E+00 9.950E-21 0.000E+00

 At SCF step   31   max residual=  9.95E-21 < tolwfr=  1.00E-20 =>converged.

 ----iterations are completed or convergence reached----

 dfpt_looppert: DFPT cycle converged with prtwf=-1. Will skip output of the 1st-order WFK file.
 dfpt_looppert : ek2=    3.4268760434E+01
          f-sum rule ratio=    1.0528850119E+00
 prteigrs : about to open file /scratch/users/j/a/jabreu/flow_simple_10atoms/flow/w457/t1/tmpdata/tmp_1WF1_EIG
 Expectation of eigenvalue derivatives (hartree) for nkpt=   2  k points:
  (in case of degenerate eigenvalues, averaged derivative)
 kpt#   1, nband= 61, wtk=  0.50000, kpt=  0.0000  0.0000  0.0000 (reduced coord)
   0.00000   -0.00000   -0.00000    0.00000    0.00000    0.00000    0.00000   -0.00000
   0.00000   -0.00000   -0.00000    0.00000   -0.00000    0.00000   -0.00000    0.00000
  -0.00000   -0.00000    0.00000   -0.00000   -0.00000    0.00000   -0.00000   -0.00000
   0.00000   -0.00000   -0.00000    0.00000   -0.00000   -0.00000    0.00000    0.00000
  -0.00000    0.00000    0.00000    0.00000   -0.00000    0.00000   -0.00000    0.00000
   0.00000   -0.00000    0.00000    0.00000   -0.00000    0.00000    0.00000    0.00000
  -0.00000    0.00000   -0.00000   -0.00000   -0.00000   -0.00000   -0.00000   -0.00000
   0.00000   -0.00000   -0.00000   -0.00000   -0.00000
 prteigrs : prtvol=0 or 1, do not print more k-points.

 Eight components of 2nd-order total energy (hartree) are
 1,2,3: 0th-order hamiltonian combined with 1st-order wavefunctions
     kin0=   4.17250865E+01 eigvalue=   1.80624805E+00  local=  -1.95691020E+01
 4,5,6: 1st-order hamiltonian combined with 1st and 0th-order wfs
     kin1=  -3.60810642E+01  Hartree=   0.00000000E+00     xc=   0.00000000E+00
 7,8,9: eventually, occupation + non-local contributions
    edocc=   3.80936234E+00     enl0=   4.33340262E+00   enl1=  -2.81289308E+01
 1-9 gives the relaxation energy (to be shifted if some occ is /=2.0)
   erelax=  -3.21049975E+01
  No Ewald or frozen-wf contrib.: the relaxation energy is the total one
 2DEtotal=   -0.3210499753E+02 Ha. Also 2DEtotal=   -0.873621411488E+03 eV
    (  non-var. 2DEtotal :   -3.2104997525E+01 Ha)

 CALCULATION OF EFFECTIVE MASSES
 NOTE : Additional infos (eff. mass eigenvalues, eigenvectors and, if degenerate, average mass) are available in stdout.

 K-point ( 0.000, 0.000, 0.000) | band =    52
 Effective mass tensor:
             -0.0616777415             -0.0000000028             -0.0000000002
             -0.0000000028             -1.8680532019             -0.0929552322
             -0.0000000002             -0.0929552322             -0.8373022099
 Effective mass tensor eigenvalues:
             -1.8763690053             -0.8289864065             -0.0616777415
 Angular average effective mass 1/(<1/m>)=  -0.1671072632
 Angular average effective mass for Frohlich model (<m**0.5>)**2=  -0.3043973881
 Effective masses along directions: (cart. coord. / red. coord. -> eff. mass)
    1:   1.000000  0.000000  0.000000 /   1.000000  0.000000  0.000000 ->  -0.0616777415
    2:   0.000000  1.000000  0.000000 /   0.000000  1.000000  0.000000 ->  -1.8577335406
    3:   0.000000  0.000000  1.000000 /   0.000000  0.243504  0.969900 ->  -0.8326767125
    4:   0.577350  0.577350  0.577350 /   0.313173  0.673779  0.669286 ->  -0.1682272393
    5:   0.000000  0.707107  0.707107 /   0.000000  0.709469  0.704737 ->  -1.2347833998
    6:   0.707107  0.000000  0.707107 /   0.413268  0.221737  0.883200 ->  -0.1148484671
    7:   0.707107  0.707107  0.000000 /   0.526465  0.850197  0.000000 ->  -0.1193916182

--- !WARNING
src_file: m_efmas.F90
src_line: 0
message: |

    Band(s)    53,
    are not band extrema, but saddle points;
    the transport equivalent formalism breaks down in these conditions.
    The associated tensor(s) will therefore not be printed.
...

 K-point ( 0.417, 0.500, 0.500) | band =    53
 Effective mass tensor:
     *** SADDLE POINT: TRANSPORT EQV. EFF. MASS NOT DEFINED (see WARNING above) ***
 Angular average effective mass 1/(<1/m>)=   0.9036775868
 Angular average effective mass for Frohlich model (<m**0.5>)**2=   1.7523503889
 Effective masses along directions: (cart. coord. / red. coord. -> eff. mass)
    1:   1.000000  0.000000  0.000000 /   1.000000  0.000000  0.000000 ->   0.5543455926
    2:   0.000000  1.000000  0.000000 /   0.000000  1.000000  0.000000 ->   0.4944617817
    3:   0.000000  0.000000  1.000000 /   0.000000  0.243504  0.969900 ->  -1.9740929471
    4:   0.577350  0.577350  0.577350 /   0.313173  0.673779  0.669286 ->   1.0929924014
    5:   0.000000  0.707107  0.707107 /   0.000000  0.709469  0.704737 ->   2.1257798167
    6:   0.707107  0.000000  0.707107 /   0.413268  0.221737  0.883200 ->   1.5415040990
    7:   0.707107  0.707107  0.000000 /   0.526465  0.850197  0.000000 ->   0.5227034846

 END OF EFFECTIVE MASSES SECTION

 ---- first-order wavefunction calculations are completed ----

 Total localisation tensor (bohr^2) in cartesian coordinates
  WARNING : still subject to testing - especially symmetries.
      direction              matrix element
   alpha     beta       real part   imaginary part
     1        1       3.8953129546    0.0000000000
     1        2       0.0000000000    0.0000000000
     1        3       0.0000000000    0.0000000000
     2        1       0.0000000000    0.0000000000
     2        2       1.5457752217    0.0000000000
     2        3       0.5135745426    0.0000000000
     3        1       0.0000000000    0.0000000000
     3        2       0.5135745426    0.0000000000
     3        3       1.8554231639    0.0000000000

 respfn : d/dk was computed, but no 2DTE, so no DDB output.

== END DATASET(S) ==============================================================

 -outvars: echo values of variables after computation  --------
            acell      1.0000000000E+00  1.0000000000E+00  1.0000000000E+00 Bohr
              amu      8.76200000E+01  6.97230000E+01  7.26100000E+01
                       1.40067400E+01
             ecut      4.20000000E+01 Hartree
           etotal     -3.2104997525E+01
            fcart      0.0000000000E+00  0.0000000000E+00  0.0000000000E+00
                       0.0000000000E+00  0.0000000000E+00  0.0000000000E+00
                       0.0000000000E+00  0.0000000000E+00  0.0000000000E+00
                       0.0000000000E+00  0.0000000000E+00  0.0000000000E+00
                       0.0000000000E+00  0.0000000000E+00  0.0000000000E+00
                       0.0000000000E+00  0.0000000000E+00  0.0000000000E+00
                       0.0000000000E+00  0.0000000000E+00  0.0000000000E+00
                       0.0000000000E+00  0.0000000000E+00  0.0000000000E+00
                       0.0000000000E+00  0.0000000000E+00  0.0000000000E+00
                       0.0000000000E+00  0.0000000000E+00  0.0000000000E+00
-          fftalg         512
           irdden           1
           irdwfk           1
           istwfk        1    0
              ixc     -116133
              kpt      0.00000000E+00  0.00000000E+00  0.00000000E+00
                       4.16666667E-01  5.00000000E-01  5.00000000E-01
           kptopt           0
P           mkmem           2
P          mkqmem           2
P          mk1mem           2
            natom          10
            nband          61
           nbdbuf           4
            ngfft          48      80      96
             nkpt           2
            nstep        2000
             nsym           4
           ntypat           4
              occ      2.000000  2.000000  2.000000  2.000000  2.000000  2.000000
                       2.000000  2.000000  2.000000  2.000000  2.000000  2.000000
                       2.000000  2.000000  2.000000  2.000000  2.000000  2.000000
                       2.000000  2.000000  2.000000  2.000000  2.000000  2.000000
                       2.000000  2.000000  2.000000  2.000000  2.000000  2.000000
                       2.000000  2.000000  2.000000  2.000000  2.000000  2.000000
                       2.000000  2.000000  2.000000  2.000000  2.000000  2.000000
                       2.000000  2.000000  2.000000  2.000000  2.000000  2.000000
                       2.000000  2.000000  2.000000  2.000000  0.000000  0.000000
                       0.000000  0.000000  0.000000  0.000000  0.000000  0.000000
                       0.000000
        optdriver           1
            prtwf          -1
            rfdir           1       1       1
           rfelfd           2
            rprim      7.6325849957E+00  0.0000000000E+00  0.0000000000E+00
                       0.0000000000E+00  1.2325981806E+01  4.0952334977E+00
                       0.0000000000E+00  0.0000000000E+00  1.6311704363E+01
          spgroup          11
           strten      0.0000000000E+00  0.0000000000E+00  0.0000000000E+00
                       0.0000000000E+00  0.0000000000E+00  0.0000000000E+00
           symrel      1  0  0   0  1  0   0  0  1      -1  0  0   0 -1  0   0  0 -1
                       1  0  0   0 -1  0   0  0 -1      -1  0  0   0  1  0   0  0  1
            tnons      0.0000000  0.0000000  0.0000000     0.0000000  0.0000000 -0.0000000
                       0.5000000  0.0000000 -0.0000000     0.5000000  0.0000000  0.0000000
           tolwfr      1.00000000E-20
            typat      1  1  1  1  2  2  3  3  4  4
           useylm           1
              wtk        0.50000    0.50000
           xangst      1.0097475056E+00  4.5764588909E+00  1.8177277949E+00
                       3.0292425168E+00  2.0495729860E+00  3.9435648291E+00
                       1.0097475056E+00  4.4730556590E+00  6.8553215840E+00
                       3.0292425168E+00  1.9461697541E+00  8.9811586182E+00
                       1.0097475056E+00  2.3565605032E-01  2.2163704917E+00
                       3.0292425168E+00  6.2869725947E+00  8.5825159214E+00
                       3.0292425168E+00  5.3745025057E+00  4.3743953724E+00
                       1.0097475056E+00  1.1481261394E+00  6.4244910407E+00
                       1.0097475056E+00  2.1212827653E+00  2.1760448485E+00
                       3.0292425168E+00  4.4013458797E+00  8.6228415646E+00
            xcart      1.9081462489E+00  8.6482539623E+00  3.4350077166E+00
                       5.7244387468E+00  3.8731316329E+00  7.4522575142E+00
                       1.9081462489E+00  8.4528501727E+00  1.2954680347E+01
                       5.7244387468E+00  3.6777278433E+00  1.6971930144E+01
                       1.9081462489E+00  4.4532539665E-01  4.1883332384E+00
                       5.7244387468E+00  1.1880656409E+01  1.6218604623E+01
                       5.7244387468E+00  1.0156337836E+01  8.2664092508E+00
                       1.9081462489E+00  2.1696439694E+00  1.2140528610E+01
                       1.9081462489E+00  4.0086434768E+00  4.1121288165E+00
                       5.7244387468E+00  8.3173383288E+00  1.6294809044E+01
             xred      2.5000000000E-01  7.0162800000E-01  3.4434000000E-02
                       7.5000000000E-01  3.1422500000E-01  3.7797600000E-01
                       2.5000000000E-01  6.8577500000E-01  6.2202400000E-01
                       7.5000000000E-01  2.9837200000E-01  9.6556600000E-01
                       2.5000000000E-01  3.6129000000E-02  2.4769800000E-01
                       7.5000000000E-01  9.6387100000E-01  7.5230200000E-01
                       7.5000000000E-01  8.2397800000E-01  2.9990900000E-01
                       2.5000000000E-01  1.7602200000E-01  7.0009100000E-01
                       2.5000000000E-01  3.2521900000E-01  1.7044700000E-01
                       7.5000000000E-01  6.7478100000E-01  8.2955300000E-01
            znucl       38.00000   31.00000   32.00000    7.00000

- Timing analysis has been suppressed with timopt=0

 Suggested references for the acknowledgment of ABINIT usage.

 Calculation completed.
.Delivered   3 WARNINGs and   5 COMMENTs to log file.