.Version 9.5.1 of ABINIT

 ABINIT is a project of the Universite Catholique de Louvain,
 Corning Inc. and other collaborators, see ~abinit/doc/developers/contributors.txt .
 acknowledgments of the ABINIT effort.

.Starting date : Tue 27 Apr 2021.
- ( at 18h25 )

- input  file    -> /scratch/users/j/a/jabreu/flow_simple_4atoms/flow/w150/t1/run.abi
- output file    -> /scratch/users/j/a/jabreu/flow_simple_4atoms/flow/w150/t1/run.abo
- root for input  files -> /scratch/users/j/a/jabreu/flow_simple_4atoms/flow/w150/t1/indata/in
- root for output files -> /scratch/users/j/a/jabreu/flow_simple_4atoms/flow/w150/t1/outdata/out

 Symmetries : space group R-3 m (#166); Bravais hR (rhombohedral)
     intxc =       0      iscf =       7    lmnmax =      18     lnmax =       6
     mgfft =      75  mpssoang =       3    mqgrid =    3001     natom =       4
  nloc_mem =       1    nspden =       1   nspinor =       1    nsppol =       1
      nsym =      12    n1xccc =    2501    ntypat =       3    occopt =       1
   xclevel =       2
-    mband =          25        mffmem =           1         mkmem =           2
-   mkqmem =           2        mk1mem =           2           mpw =        5921
      nfft =      421875          nkpt =           2
  Rough estimation (10% accuracy) of disk space for files :

------------- Echo of variables that govern the present computation ------------
-
- outvars: echo of selected default values
-   iomode0 =  0 , fftalg0 =512 , wfoptalg0 =  0
-
- outvars: echo of global parameters not present in the input file
-  max_nthreads =    0
-
 -outvars: echo values of preprocessed input variables --------
            acell      1.0000000000E+00  1.0000000000E+00  1.0000000000E+00 Bohr
              amu      3.90983000E+01  8.89058500E+01  1.59994000E+01
             ecut      4.40000000E+01 Hartree
-          fftalg         512
           irdden           1
           irdwfk           1
           istwfk        1    1
              ixc     -116133
              kpt      0.00000000E+00  0.00000000E+00  0.00000000E+00
                       5.00000000E-01  5.00000000E-01  5.55111512E-17
           kptopt           0
P           mkmem           2
P          mkqmem           2
P          mk1mem           2
            natom           4
            nband          25
           nbdbuf           4
            ngfft          75      75      75
             nkpt           2
            nstep         100
             nsym          12
           ntypat           3
              occ      2.000000  2.000000  2.000000  2.000000  2.000000  2.000000
                       2.000000  2.000000  2.000000  2.000000  2.000000  2.000000
                       2.000000  2.000000  2.000000  2.000000  0.000000  0.000000
                       0.000000  0.000000  0.000000  0.000000  0.000000  0.000000
                       0.000000
        optdriver           1
            prtwf          -1
            rfdir           1       1       1
           rfelfd           2
            rprim      6.2577891349E+00  0.0000000000E+00  1.0473349409E+01
                       2.8905615616E+00  5.5501872686E+00  1.0473349409E+01
                       0.0000000000E+00  0.0000000000E+00  1.2200449692E+01
          spgroup         166
           symrel      1  0  0   0  1  0   0  0  1      -1  0  0   0 -1  0   0  0 -1
                       0  1  0   1  0  0   0  0  1       0 -1  0  -1  0  0   0  0 -1
                       0  0  1   1  0  0   0  1  0       0  0 -1  -1  0  0   0 -1  0
                       1  0  0   0  0  1   0  1  0      -1  0  0   0  0 -1   0 -1  0
                       0  1  0   0  0  1   1  0  0       0 -1  0   0  0 -1  -1  0  0
                       0  0  1   0  1  0   1  0  0       0  0 -1   0 -1  0  -1  0  0
           tolwfr      1.00000000E-20
            typat      1  2  3  3
           useylm           1
              wtk        0.50000    0.50000
           xangst      0.0000000000E+00  0.0000000000E+00  0.0000000000E+00
                       2.4205493424E+00  1.4685163030E+00  8.7703577607E+00
                       3.7330680178E+00  2.2648045831E+00  1.3525996553E+01
                       1.1080306670E+00  6.7222802285E-01  4.0147189685E+00
            xcart      0.0000000000E+00  0.0000000000E+00  0.0000000000E+00
                       4.5741753482E+00  2.7750936343E+00  1.6573574255E+01
                       7.0544761891E+00  4.2798604066E+00  2.5560429159E+01
                       2.0938745074E+00  1.2703268620E+00  7.5867193510E+00
             xred      0.0000000000E+00  0.0000000000E+00  0.0000000000E+00
                       5.0000000000E-01  5.0000000000E-01  5.0000000000E-01
                       7.7112000000E-01  7.7112000000E-01  7.7112000000E-01
                       2.2888000000E-01  2.2888000000E-01  2.2888000000E-01
            znucl       19.00000   39.00000    8.00000

 chkinp: Checking input parameters for consistency.

== DATASET  1 ==================================================================
-   mpi_nproc: 1, omp_nthreads: -1 (-1 if OMP is not activated)

--- !DatasetInfo
iteration_state: {dtset: 1, }
dimensions: {natom: 4, nkpt: 2, mband: 25, nsppol: 1, nspinor: 1, nspden: 1, mpw: 5921, }
cutoff_energies: {ecut:  44.0, pawecutdg:  -1.0, }
electrons: {nelect:   3.20000000E+01, charge:   0.00000000E+00, occopt:   1.00000000E+00, tsmear:   1.00000000E-02, }
meta: {optdriver: 1, rfelfd: 2, }
...

 Real(R)+Recip(G) space primitive vectors, cartesian coordinates (Bohr,Bohr^-1):
 R(1)=  6.2577891  0.0000000 10.4733494  G(1)=  0.1598008 -0.0832250  0.0000000
 R(2)=  2.8905616  5.5501873 10.4733494  G(2)=  0.0000000  0.1801741  0.0000000
 R(3)=  0.0000000  0.0000000 12.2004497  G(3)= -0.1371794 -0.0832250  0.0819642
 Unit cell volume ucvol=  4.2374482E+02 bohr^3
 Angles (23,13,12)=  3.08581675E+01  3.08581675E+01  3.08581675E+01 degrees

 getcut: wavevector=  0.0000  0.0000  0.0000  ngfft=  75  75  75
         ecut(hartree)=     44.000   => boxcut(ratio)=   2.03147

--- Pseudopotential description ------------------------------------------------
- pspini: atom type   1  psp file is /scratch/users/j/a/jabreu/pseudos/PBEsol/K.psp8
- pspatm: opening atomic psp file    /scratch/users/j/a/jabreu/pseudos/PBEsol/K.psp8
- K     ONCVPSP-3.3.0  r_core=   1.36296   1.46408   1.61068
- 19.00000   9.00000    180112                znucl, zion, pspdat
    8 -116133    2    4       400   0.00000   pspcod,pspxc,lmax,lloc,mmax,r2well
    3.99000000000000    5.00000000000000    0.00000000000000   rchrg,fchrg,qchrg
     nproj     2     2     2
     extension_switch     1
  pspatm : epsatm=    8.32487830
         --- l  ekb(1:nproj) -->
             0   10.921326    0.816676
             1    4.431000    0.560368
             2   -3.384038   -1.043186
 pspatm: atomic psp has been read  and splines computed

- pspini: atom type   2  psp file is /scratch/users/j/a/jabreu/pseudos/PBEsol/Y.psp8
- pspatm: opening atomic psp file    /scratch/users/j/a/jabreu/pseudos/PBEsol/Y.psp8
- Y     ONCVPSP-3.3.0  r_core=   1.60520   1.51226   1.56736
- 39.00000  11.00000    180112                znucl, zion, pspdat
    8 -116133    2    4       600   0.00000   pspcod,pspxc,lmax,lloc,mmax,r2well
    5.99000000000000    4.00000000000000    0.00000000000000   rchrg,fchrg,qchrg
     nproj     2     2     2
     extension_switch     1
  pspatm : epsatm=   18.54790046
         --- l  ekb(1:nproj) -->
             0   10.130768    0.866504
             1    5.598307    0.427135
             2    1.217602    0.315447
 pspatm: atomic psp has been read  and splines computed

- pspini: atom type   3  psp file is /scratch/users/j/a/jabreu/pseudos/PBEsol/O.psp8
- pspatm: opening atomic psp file    /scratch/users/j/a/jabreu/pseudos/PBEsol/O.psp8
- O     ONCVPSP-3.3.0  r_core=   1.35509   1.45563   1.26150
-  8.00000   6.00000    180112                znucl, zion, pspdat
    8 -116133    2    4       600   0.00000   pspcod,pspxc,lmax,lloc,mmax,r2well
    5.99000000000000    4.00000000000000    0.00000000000000   rchrg,fchrg,qchrg
     nproj     2     2     1
     extension_switch     1
  pspatm : epsatm=    6.22910522
         --- l  ekb(1:nproj) -->
             0    6.050032    0.820363
             1   -4.739617   -1.153841
             2   -1.335834
 pspatm: atomic psp has been read  and splines computed

   1.25859165E+03                                ecore*ucvol(ha*bohr**3)

-inwffil : will read wavefunctions from disk file /scratch/users/j/a/jabreu/flow_simple_4atoms/flow/w150/t1/indata/in_WFK

 ==>  initialize data related to q vector <==

 The list of irreducible perturbations for this q vector is:
    1)    idir= 1    ipert=   5
    2)    idir= 2    ipert=   5
    3)    idir= 3    ipert=   5

 Perturbation wavevector (in red.coord.)   0.000000  0.000000  0.000000
 Perturbation : derivative vs k along direction   1

 dfpt_looppert : COMMENT -
  In a d/dk calculation, iscf is set to -3 automatically.
 The set of symmetries contains only one element for this perturbation.
 symkpt : not enough symmetry to change the number of k points.

[...]

 Initialisation of the first-order wave-functions :
  ireadwf=   0

--- !BeginCycle
iteration_state: {dtset: 1, }
solver: {iscf: 7, nstep: 100, nline: 4, wfoptalg: 0, }
tolerances: {tolwfr: 1.00E-20, }
...

     iter   2DEtotal(Ha)        deltaE(Ha) residm    vres2
-ETOT  1  -43.355513100576     -4.336E+01 6.844E-01 0.000E+00
 ETOT  2  -43.408258041856     -5.274E-02 8.252E-02 0.000E+00
 ETOT  3  -43.408817727227     -5.597E-04 4.664E-03 0.000E+00
 ETOT  4  -43.408827651232     -9.924E-06 8.268E-04 0.000E+00
 ETOT  5  -43.408827868735     -2.175E-07 7.835E-05 0.000E+00
 ETOT  6  -43.408827873881     -5.145E-09 1.614E-05 0.000E+00
 ETOT  7  -43.408827874008     -1.274E-10 1.818E-06 0.000E+00
 ETOT  8  -43.408827874011     -3.261E-12 4.201E-07 0.000E+00
 ETOT  9  -43.408827874011     -5.684E-14 5.201E-08 0.000E+00
 ETOT 10  -43.408827874011     -3.553E-14 1.305E-08 0.000E+00
 ETOT 11  -43.408827874011      2.132E-14 1.721E-09 0.000E+00
 ETOT 12  -43.408827874011     -2.842E-14 4.511E-10 0.000E+00
 ETOT 13  -43.408827874011     -2.132E-14 6.086E-11 0.000E+00
 ETOT 14  -43.408827874011      0.000E+00 1.638E-11 0.000E+00
 ETOT 15  -43.408827874012     -1.421E-14 2.210E-12 0.000E+00
 ETOT 16  -43.408827874011      1.421E-14 6.067E-13 0.000E+00
 ETOT 17  -43.408827874011      2.132E-14 8.111E-14 0.000E+00
 ETOT 18  -43.408827874011      7.105E-15 2.269E-14 0.000E+00
 ETOT 19  -43.408827874011      0.000E+00 2.992E-15 0.000E+00
 ETOT 20  -43.408827874011     -1.421E-14 8.535E-16 0.000E+00
 ETOT 21  -43.408827874011      0.000E+00 1.108E-16 0.000E+00
 ETOT 22  -43.408827874011      1.421E-14 3.226E-17 0.000E+00
 ETOT 23  -43.408827874011     -1.421E-14 4.115E-18 0.000E+00
 ETOT 24  -43.408827874011      0.000E+00 1.225E-18 0.000E+00
 ETOT 25  -43.408827874011      0.000E+00 1.534E-19 0.000E+00
 ETOT 26  -43.408827874011      7.105E-15 4.669E-20 0.000E+00
 ETOT 27  -43.408827874011     -7.105E-15 8.977E-21 0.000E+00

 At SCF step   27   max residual=  8.98E-21 < tolwfr=  1.00E-20 =>converged.

 ----iterations are completed or convergence reached----

 dfpt_looppert: DFPT cycle converged with prtwf=-1. Will skip output of the 1st-order WFK file.
 dfpt_looppert : ek2=    8.2020882350E+01
          f-sum rule ratio=    1.0932714060E+00
 prteigrs : about to open file /scratch/users/j/a/jabreu/flow_simple_4atoms/flow/w150/t1/tmpdata/tmp_1WF1_EIG
 Expectation of eigenvalue derivatives (hartree) for nkpt=   2  k points:
  (in case of degenerate eigenvalues, averaged derivative)
 kpt#   1, nband= 25, wtk=  0.50000, kpt=  0.0000  0.0000  0.0000 (reduced coord)
   0.00000   -0.00000    0.00000    0.00000    0.00000    0.00000   -0.00000   -0.00000
   0.00000    0.00000   -0.00000   -0.00000   -0.00000   -0.00000   -0.00000   -0.00000
  -0.00000    0.00000    0.00000   -0.00000    0.00000    0.00000   -0.00000   -0.00000
  -0.00000
 prteigrs : prtvol=0 or 1, do not print more k-points.

 Eight components of 2nd-order total energy (hartree) are
 1,2,3: 0th-order hamiltonian combined with 1st-order wavefunctions
     kin0=   4.03489807E+01 eigvalue=   3.38136089E-01  local=  -1.82379787E+01
 4,5,6: 1st-order hamiltonian combined with 1st and 0th-order wfs
     kin1=  -8.96710854E+01  Hartree=   0.00000000E+00     xc=   0.00000000E+00
 7,8,9: eventually, occupation + non-local contributions
    edocc=   2.10386036E+01     enl0=  -7.89137172E-02   enl1=   2.85342962E+00
 1-9 gives the relaxation energy (to be shifted if some occ is /=2.0)
   erelax=  -4.34088279E+01
  No Ewald or frozen-wf contrib.: the relaxation energy is the total one
 2DEtotal=   -0.4340882787E+02 Ha. Also 2DEtotal=   -0.118121427819E+04 eV
    (  non-var. 2DEtotal :   -4.3408827874E+01 Ha)

 Perturbation wavevector (in red.coord.)   0.000000  0.000000  0.000000
 Perturbation : derivative vs k along direction   2
 The set of symmetries contains only one element for this perturbation.
 symkpt : not enough symmetry to change the number of k points.

[...]

 Perturbation wavevector (in red.coord.)   0.000000  0.000000  0.000000
 Perturbation : derivative vs k along direction   3
 The set of symmetries contains only one element for this perturbation.
 symkpt : not enough symmetry to change the number of k points.

-inwffil : will read wavefunctions from disk file /scratch/users/j/a/jabreu/flow_simple_4atoms/flow/w150/t1/indata/in_WFK

 Initialisation of the first-order wave-functions :
  ireadwf=   0

--- !BeginCycle
iteration_state: {dtset: 1, }
solver: {iscf: 7, nstep: 100, nline: 4, wfoptalg: 0, }
tolerances: {tolwfr: 1.00E-20, }
...

     iter   2DEtotal(Ha)        deltaE(Ha) residm    vres2
-ETOT  1  -41.861660448534     -4.186E+01 6.139E-01 0.000E+00
 ETOT  2  -41.914918657120     -5.326E-02 3.412E-02 0.000E+00
 ETOT  3  -41.915495015831     -5.764E-04 4.325E-03 0.000E+00
 ETOT  4  -41.915505417403     -1.040E-05 6.639E-04 0.000E+00
 ETOT  5  -41.915505650886     -2.335E-07 1.019E-04 0.000E+00
 ETOT  6  -41.915505656534     -5.648E-09 1.694E-05 0.000E+00
 ETOT  7  -41.915505656677     -1.432E-10 2.277E-06 0.000E+00
 ETOT  8  -41.915505656681     -3.745E-12 4.693E-07 0.000E+00
 ETOT  9  -41.915505656681     -9.948E-14 5.482E-08 0.000E+00
 ETOT 10  -41.915505656681     -2.132E-14 1.421E-08 0.000E+00
 ETOT 11  -41.915505656681     -2.132E-14 1.542E-09 0.000E+00
 ETOT 12  -41.915505656681      2.842E-14 4.459E-10 0.000E+00
 ETOT 13  -41.915505656681     -4.263E-14 4.743E-11 0.000E+00
 ETOT 14  -41.915505656681     -2.132E-14 1.413E-11 0.000E+00
 ETOT 15  -41.915505656681      2.842E-14 1.513E-12 0.000E+00
 ETOT 16  -41.915505656681     -7.105E-15 4.497E-13 0.000E+00
 ETOT 17  -41.915505656681      7.105E-15 4.897E-14 0.000E+00
 ETOT 18  -41.915505656681     -7.105E-15 1.438E-14 0.000E+00
 ETOT 19  -41.915505656681      0.000E+00 1.597E-15 0.000E+00
 ETOT 20  -41.915505656681     -2.132E-14 4.617E-16 0.000E+00
 ETOT 21  -41.915505656681      2.132E-14 5.238E-17 0.000E+00
 ETOT 22  -41.915505656681      0.000E+00 1.490E-17 0.000E+00
 ETOT 23  -41.915505656681      1.421E-14 1.725E-18 0.000E+00
 ETOT 24  -41.915505656681     -2.132E-14 4.836E-19 0.000E+00
 ETOT 25  -41.915505656681      1.421E-14 5.710E-20 0.000E+00
 ETOT 26  -41.915505656681      0.000E+00 1.580E-20 0.000E+00
 ETOT 27  -41.915505656681     -7.105E-15 9.782E-21 0.000E+00

 At SCF step   27   max residual=  9.78E-21 < tolwfr=  1.00E-20 =>converged.

 ----iterations are completed or convergence reached----

 dfpt_looppert: DFPT cycle converged with prtwf=-1. Will skip output of the 1st-order WFK file.
 dfpt_looppert : ek2=    8.2020882350E+01
          f-sum rule ratio=    1.0517525969E+00
 prteigrs : about to open file /scratch/users/j/a/jabreu/flow_simple_4atoms/flow/w150/t1/tmpdata/tmp_1WF1_EIG
 Expectation of eigenvalue derivatives (hartree) for nkpt=   2  k points:
  (in case of degenerate eigenvalues, averaged derivative)
 kpt#   1, nband= 25, wtk=  0.50000, kpt=  0.0000  0.0000  0.0000 (reduced coord)
  -0.00000    0.00000   -0.00000   -0.00000   -0.00000   -0.00000   -0.00000    0.00000
   0.00000    0.00000    0.00000   -0.00000   -0.00000   -0.00000   -0.00000   -0.00000
  -0.00000    0.00000    0.00000   -0.00000   -0.00000   -0.00000    0.00000    0.00000
  -0.00000
 prteigrs : prtvol=0 or 1, do not print more k-points.

 Eight components of 2nd-order total energy (hartree) are
 1,2,3: 0th-order hamiltonian combined with 1st-order wavefunctions
     kin0=   4.47439095E+01 eigvalue=   2.22383652E-01  local=  -2.11627727E+01
 4,5,6: 1st-order hamiltonian combined with 1st and 0th-order wfs
     kin1=  -8.62656760E+01  Hartree=   0.00000000E+00     xc=   0.00000000E+00
 7,8,9: eventually, occupation + non-local contributions
    edocc=   1.75778510E+01     enl0=   5.34134208E-01   enl1=   2.43466470E+00
 1-9 gives the relaxation energy (to be shifted if some occ is /=2.0)
   erelax=  -4.19155057E+01
  No Ewald or frozen-wf contrib.: the relaxation energy is the total one
 2DEtotal=   -0.4191550566E+02 Ha. Also 2DEtotal=   -0.114057891411E+04 eV
    (  non-var. 2DEtotal :   -4.1915505657E+01 Ha)

 CALCULATION OF EFFECTIVE MASSES
 NOTE : Additional infos (eff. mass eigenvalues, eigenvectors and, if degenerate, average mass) are available in stdout.

 COMMENTS:
 - At k-point ( 0.000, 0.000, 0.000), bands    15 through    16
   are DEGENERATE (effective mass tensor is therefore not defined).
   See Section IIIB Eqs. (67)-(70) and Appendix E of PRB 93 205147 (2016).
 - Angular average effective mass for Frohlich model is to be averaged over degenerate bands. See later.
 - Associated theta integrals calculated with ntheta=   1000 points.

 K-point ( 0.000, 0.000, 0.000) | band =    15
 Transport equivalent effective mass tensor:
             -0.7551232657             -0.1625379355             -0.9707179352
             -0.1625379355             -0.5858221181             -0.5889224036
             -0.9707179352             -0.5889224036             -4.0044419342
 Transport equivalent effective mass tensor eigenvalues:
             -4.3709588747             -0.4872159570             -0.4872124864
 Angular average effective mass 1/(<1/m>)=  -0.6505559096
 Angular average effective mass for Frohlich model (<m**0.5>)**2=  -0.7795768389
 Effective masses along directions: (cart. coord. / red. coord. -> eff. mass)
    1:   1.000000  0.000000  0.000000 /   0.907830  0.419339  0.000000 ->  -0.4864055769
    2:   0.000000  1.000000  0.000000 /   0.000000  1.000000  0.000000 ->  -0.4614783284
    3:   0.000000  0.000000  1.000000 /   0.545788  0.545788  0.635791 ->  -2.0616524649
    4:   0.577350  0.577350  0.577350 /   0.596581  0.674418  0.435030 ->  -1.0979262254
    5:   0.000000  0.707107  0.707107 /   0.461378  0.705879  0.537462 ->  -0.9466450716
    6:   0.707107  0.000000  0.707107 /   0.678886  0.542256  0.495048 ->  -1.2085783061
    7:   0.707107  0.707107  0.000000 /   0.595558  0.803312  0.000000 ->  -0.5098976469

 K-point ( 0.000, 0.000, 0.000) | band =    16
 Transport equivalent effective mass tensor:
             -2.9024269407             -0.1924213856             -1.1492528239
             -0.1924213856             -2.7019980130             -0.6972390894
             -1.1492528239             -0.6972390894             -6.7493169422
 Transport equivalent effective mass tensor eigenvalues:
             -7.1832479981             -2.5852587754             -2.5852351225
 Angular average effective mass 1/(<1/m>)=  -2.3998044168
 Angular average effective mass for Frohlich model (<m**0.5>)**2=  -2.5503266759
 Effective masses along directions: (cart. coord. / red. coord. -> eff. mass)
    1:   1.000000  0.000000  0.000000 /   0.907830  0.419339  0.000000 ->  -2.0549136928
    2:   0.000000  1.000000  0.000000 /   0.000000  1.000000  0.000000 ->  -2.1156693572
    3:   0.000000  0.000000  1.000000 /   0.545788  0.545788  0.635791 ->  -5.1454568193
    4:   0.577350  0.577350  0.577350 /   0.596581  0.674418  0.435030 ->  -2.5993600453
    5:   0.000000  0.707107  0.707107 /   0.461378  0.705879  0.537462 ->  -3.7671325203
    6:   0.707107  0.000000  0.707107 /   0.678886  0.542256  0.495048 ->  -4.4064846640
    7:   0.707107  0.707107  0.000000 /   0.595558  0.803312  0.000000 ->  -1.8632460830

 Angular average effective mass for Frohlich model, averaged over degenerate bands.
 Value of     (<<m**0.5>>)**2 =     1.537489E+00
 Absolute Value of <<m**0.5>> =     1.239955E+00

 K-point ( 0.500, 0.500, 0.000) | band =    17
 Effective mass tensor:
              0.7790881258              0.1492821505             -0.3416891834
              0.1492821505              0.6235927260             -0.2072982700
             -0.3416891834             -0.2072982700              1.0482908058
 Effective mass tensor eigenvalues:
              0.5330256455              0.5494589768              1.3684870353
 Angular average effective mass 1/(<1/m>)=   0.6776922036
 Angular average effective mass for Frohlich model (<m**0.5>)**2=   0.7102005940
 Effective masses along directions: (cart. coord. / red. coord. -> eff. mass)
    1:   1.000000  0.000000  0.000000 /   0.907830  0.419339  0.000000 ->   0.6562540607
    2:   0.000000  1.000000  0.000000 /   0.000000  1.000000  0.000000 ->   0.5725998131
    3:   0.000000  0.000000  1.000000 /   0.545788  0.545788  0.635791 ->   0.8646271312
    4:   0.577350  0.577350  0.577350 /   0.596581  0.674418  0.435030 ->   0.5494951992
    5:   0.000000  0.707107  0.707107 /   0.461378  0.705879  0.537462 ->   0.5789771380
    6:   0.707107  0.000000  0.707107 /   0.678886  0.542256  0.495048 ->   0.5572268057
    7:   0.707107  0.707107  0.000000 /   0.595558  0.803312  0.000000 ->   0.7035381258

 END OF EFFECTIVE MASSES SECTION

 ---- first-order wavefunction calculations are completed ----

 Total localisation tensor (bohr^2) in cartesian coordinates
  WARNING : still subject to testing - especially symmetries.
      direction              matrix element
   alpha     beta       real part   imaginary part
     1        1       1.3665144875    0.0000000000
     1        2       0.4613941966    0.0000000000
     1        3       2.7555585130    0.0000000000
     2        1       0.4613941966    0.0000000000
     2        2       0.8859261915    0.0000000000
     2        3       1.6717660333    0.0000000000
     3        1       2.7555585130    0.0000000000
     3        2       1.6717660333    0.0000000000
     3        3      10.1880658795    0.0000000000

 respfn : d/dk was computed, but no 2DTE, so no DDB output.

== END DATASET(S) ==============================================================

 -outvars: echo values of variables after computation  --------
            acell      1.0000000000E+00  1.0000000000E+00  1.0000000000E+00 Bohr
              amu      3.90983000E+01  8.89058500E+01  1.59994000E+01
             ecut      4.40000000E+01 Hartree
           etotal     -4.1915505657E+01
            fcart      0.0000000000E+00  0.0000000000E+00  0.0000000000E+00
                       0.0000000000E+00  0.0000000000E+00  0.0000000000E+00
                       0.0000000000E+00  0.0000000000E+00  0.0000000000E+00
                       0.0000000000E+00  0.0000000000E+00  0.0000000000E+00
-          fftalg         512
           irdden           1
           irdwfk           1
           istwfk        1    1
              ixc     -116133
              kpt      0.00000000E+00  0.00000000E+00  0.00000000E+00
                       5.00000000E-01  5.00000000E-01  5.55111512E-17
           kptopt           0
P           mkmem           2
P          mkqmem           2
P          mk1mem           2
            natom           4
            nband          25
           nbdbuf           4
            ngfft          75      75      75
             nkpt           2
            nstep         100
             nsym          12
           ntypat           3
              occ      2.000000  2.000000  2.000000  2.000000  2.000000  2.000000
                       2.000000  2.000000  2.000000  2.000000  2.000000  2.000000
                       2.000000  2.000000  2.000000  2.000000  0.000000  0.000000
                       0.000000  0.000000  0.000000  0.000000  0.000000  0.000000
                       0.000000
        optdriver           1
            prtwf          -1
            rfdir           1       1       1
           rfelfd           2
            rprim      6.2577891349E+00  0.0000000000E+00  1.0473349409E+01
                       2.8905615616E+00  5.5501872686E+00  1.0473349409E+01
                       0.0000000000E+00  0.0000000000E+00  1.2200449692E+01
          spgroup         166
           strten      0.0000000000E+00  0.0000000000E+00  0.0000000000E+00
                       0.0000000000E+00  0.0000000000E+00  0.0000000000E+00
           symrel      1  0  0   0  1  0   0  0  1      -1  0  0   0 -1  0   0  0 -1
                       0  1  0   1  0  0   0  0  1       0 -1  0  -1  0  0   0  0 -1
                       0  0  1   1  0  0   0  1  0       0  0 -1  -1  0  0   0 -1  0
                       1  0  0   0  0  1   0  1  0      -1  0  0   0  0 -1   0 -1  0
                       0  1  0   0  0  1   1  0  0       0 -1  0   0  0 -1  -1  0  0
                       0  0  1   0  1  0   1  0  0       0  0 -1   0 -1  0  -1  0  0
           tolwfr      1.00000000E-20
            typat      1  2  3  3
           useylm           1
              wtk        0.50000    0.50000
           xangst      0.0000000000E+00  0.0000000000E+00  0.0000000000E+00
                       2.4205493424E+00  1.4685163030E+00  8.7703577607E+00
                       3.7330680178E+00  2.2648045831E+00  1.3525996553E+01
                       1.1080306670E+00  6.7222802285E-01  4.0147189685E+00
            xcart      0.0000000000E+00  0.0000000000E+00  0.0000000000E+00
                       4.5741753482E+00  2.7750936343E+00  1.6573574255E+01
                       7.0544761891E+00  4.2798604066E+00  2.5560429159E+01
                       2.0938745074E+00  1.2703268620E+00  7.5867193510E+00
             xred      0.0000000000E+00  0.0000000000E+00  0.0000000000E+00
                       5.0000000000E-01  5.0000000000E-01  5.0000000000E-01
                       7.7112000000E-01  7.7112000000E-01  7.7112000000E-01
                       2.2888000000E-01  2.2888000000E-01  2.2888000000E-01
            znucl       19.00000   39.00000    8.00000

- Timing analysis has been suppressed with timopt=0

 Suggested references for the acknowledgment of ABINIT usage.

 Calculation completed.
.Delivered  14 WARNINGs and   9 COMMENTs to log file.