.Version 9.5.1 of ABINIT

 ABINIT is a project of the Universite Catholique de Louvain,
 Corning Inc. and other collaborators, see ~abinit/doc/developers/contributors.txt .
 acknowledgments of the ABINIT effort.

.Starting date : Tue 27 Apr 2021.
- ( at 18h33 )

- input  file    -> /scratch/users/j/a/jabreu/flow_simple_4atoms/flow/w194/t1/run.abi
- output file    -> /scratch/users/j/a/jabreu/flow_simple_4atoms/flow/w194/t1/run.abo
- root for input  files -> /scratch/users/j/a/jabreu/flow_simple_4atoms/flow/w194/t1/indata/in
- root for output files -> /scratch/users/j/a/jabreu/flow_simple_4atoms/flow/w194/t1/outdata/out

 Symmetries : space group Fm -3 m (#225); Bravais cF (face-center cubic)
     intxc =       0      iscf =       7    lmnmax =      18     lnmax =       6
     mgfft =      48  mpssoang =       3    mqgrid =    3001     natom =       4
  nloc_mem =       1    nspden =       1   nspinor =       1    nsppol =       1
      nsym =      48    n1xccc =    2501    ntypat =       3    occopt =       1
   xclevel =       2
-    mband =          33        mffmem =           1         mkmem =           2
-   mkqmem =           2        mk1mem =           2           mpw =        4656
      nfft =      110592          nkpt =           2
  Rough estimation (10% accuracy) of disk space for files :

------------- Echo of variables that govern the present computation ------------
-
- outvars: echo of selected default values
-   iomode0 =  0 , fftalg0 =512 , wfoptalg0 =  0
-
- outvars: echo of global parameters not present in the input file
-  max_nthreads =    0
-
 -outvars: echo values of preprocessed input variables --------
            acell      1.0000000000E+00  1.0000000000E+00  1.0000000000E+00 Bohr
              amu      4.78800000E+01  5.58470000E+01  2.80855000E+01
             ecut      4.70000000E+01 Hartree
-          fftalg         512
           irdden           1
           irdwfk           1
           istwfk        1    1
              ixc     -116133
              kpt      0.00000000E+00  0.00000000E+00  0.00000000E+00
                       5.00000000E-01 -1.23259516E-32  5.00000000E-01
           kptopt           0
P           mkmem           2
P          mkqmem           2
P          mk1mem           2
            natom           4
            nband          33
           nbdbuf           4
            ngfft          48      48      48
             nkpt           2
            nstep         100
             nsym          48
           ntypat           3
              occ      2.000000  2.000000  2.000000  2.000000  2.000000  2.000000
                       2.000000  2.000000  2.000000  2.000000  2.000000  2.000000
                       2.000000  2.000000  2.000000  2.000000  2.000000  2.000000
                       2.000000  2.000000  2.000000  2.000000  2.000000  2.000000
                       0.000000  0.000000  0.000000  0.000000  0.000000  0.000000
                       0.000000  0.000000  0.000000
        optdriver           1
            prtwf          -1
            rfdir           1       1       1
           rfelfd           2
            rprim      6.5099010718E+00  0.0000000000E+00  3.7584931362E+00
                       2.1699670239E+00  6.1375935903E+00  3.7584931362E+00
                       0.0000000000E+00  0.0000000000E+00  7.5169862724E+00
          spgroup         225
           symrel      1  0  0   0  1  0   0  0  1      -1  0  0   0 -1  0   0  0 -1
                       0 -1  1   0 -1  0   1 -1  0       0  1 -1   0  1  0  -1  1  0
                      -1  0  0  -1  0  1  -1  1  0       1  0  0   1  0 -1   1 -1  0
                       0  1 -1   1  0 -1   0  0 -1       0 -1  1  -1  0  1   0  0  1
                      -1  0  0  -1  1  0  -1  0  1       1  0  0   1 -1  0   1  0 -1
                       0 -1  1   1 -1  0   0 -1  0       0  1 -1  -1  1  0   0  1  0
                       1  0  0   0  0  1   0  1  0      -1  0  0   0  0 -1   0 -1  0
                       0  1 -1   0  0 -1   1  0 -1       0 -1  1   0  0  1  -1  0  1
                      -1  0  1  -1  1  0  -1  0  0       1  0 -1   1 -1  0   1  0  0
                       0 -1  0   1 -1  0   0 -1  1       0  1  0  -1  1  0   0  1 -1
                       1  0 -1   0  0 -1   0  1 -1      -1  0  1   0  0  1   0 -1  1
                       0  1  0   0  0  1   1  0  0       0 -1  0   0  0 -1  -1  0  0
                       1  0 -1   0  1 -1   0  0 -1      -1  0  1   0 -1  1   0  0  1
                       0 -1  0   0 -1  1   1 -1  0       0  1  0   0  1 -1  -1  1  0
                      -1  0  1  -1  0  0  -1  1  0       1  0 -1   1  0  0   1 -1  0
                       0  1  0   1  0  0   0  0  1       0 -1  0  -1  0  0   0  0 -1
                       0  0 -1   0  1 -1   1  0 -1       0  0  1   0 -1  1  -1  0  1
                       1 -1  0   0 -1  1   0 -1  0      -1  1  0   0  1 -1   0  1  0
                       0  0  1   1  0  0   0  1  0       0  0 -1  -1  0  0   0 -1  0
                      -1  1  0  -1  0  0  -1  0  1       1 -1  0   1  0  0   1  0 -1
                       0  0  1   0  1  0   1  0  0       0  0 -1   0 -1  0  -1  0  0
                       1 -1  0   0 -1  0   0 -1  1      -1  1  0   0  1  0   0  1 -1
                       0  0 -1   1  0 -1   0  1 -1       0  0  1  -1  0  1   0 -1  1
                      -1  1  0  -1  0  1  -1  0  0       1 -1  0   1  0 -1   1  0  0
           tolwfr      1.00000000E-20
            typat      1  2  2  3
           useylm           1
              wtk        0.50000    0.50000
           xangst      0.0000000000E+00  0.0000000000E+00  0.0000000000E+00
                       3.4448912774E+00  2.4359059827E+00  5.9667267190E+00
                       1.1482970925E+00  8.1196866089E-01  1.9889089063E+00
                       2.2965941849E+00  1.6239373218E+00  3.9778178126E+00
            xcart      0.0000000000E+00  0.0000000000E+00  0.0000000000E+00
                       6.5099010718E+00  4.6031951927E+00  1.1275479409E+01
                       2.1699670239E+00  1.5343983976E+00  3.7584931362E+00
                       4.3399340479E+00  3.0687967951E+00  7.5169862724E+00
             xred      0.0000000000E+00  0.0000000000E+00  0.0000000000E+00
                       7.5000000000E-01  7.5000000000E-01  7.5000000000E-01
                       2.5000000000E-01  2.5000000000E-01  2.5000000000E-01
                       5.0000000000E-01  5.0000000000E-01  5.0000000000E-01
            znucl       22.00000   26.00000   14.00000

 chkinp: Checking input parameters for consistency.

== DATASET  1 ==================================================================
-   mpi_nproc: 1, omp_nthreads: -1 (-1 if OMP is not activated)

--- !DatasetInfo
iteration_state: {dtset: 1, }
dimensions: {natom: 4, nkpt: 2, mband: 33, nsppol: 1, nspinor: 1, nspden: 1, mpw: 4656, }
cutoff_energies: {ecut:  47.0, pawecutdg:  -1.0, }
electrons: {nelect:   4.80000000E+01, charge:   0.00000000E+00, occopt:   1.00000000E+00, tsmear:   1.00000000E-02, }
meta: {optdriver: 1, rfelfd: 2, }
...

 Real(R)+Recip(G) space primitive vectors, cartesian coordinates (Bohr,Bohr^-1):
 R(1)=  6.5099011  0.0000000  3.7584931  G(1)=  0.1536122 -0.0543101  0.0000000
 R(2)=  2.1699670  6.1375936  3.7584931  G(2)=  0.0000000  0.1629303  0.0000000
 R(3)=  0.0000000  0.0000000  7.5169863  G(3)= -0.0768061 -0.0543101  0.1330320
 Unit cell volume ucvol=  3.0034214E+02 bohr^3
 Angles (23,13,12)=  6.00000000E+01  6.00000000E+01  6.00000000E+01 degrees

 getcut: wavevector=  0.0000  0.0000  0.0000  ngfft=  48  48  48
         ecut(hartree)=     47.000   => boxcut(ratio)=   2.06911

--- Pseudopotential description ------------------------------------------------
- pspini: atom type   1  psp file is /scratch/users/j/a/jabreu/pseudos/PBEsol/Ti.psp8
- pspatm: opening atomic psp file    /scratch/users/j/a/jabreu/pseudos/PBEsol/Ti.psp8
- Ti    ONCVPSP-3.3.0  r_core=   1.35825   1.31050   1.66360
- 22.00000  12.00000    180112                znucl, zion, pspdat
    8 -116133    2    4       600   0.00000   pspcod,pspxc,lmax,lloc,mmax,r2well
    5.99000000000000    2.50000000000000    0.00000000000000   rchrg,fchrg,qchrg
     nproj     2     2     2
     extension_switch     1
  pspatm : epsatm=   14.76919902
         --- l  ekb(1:nproj) -->
             0   11.321950    1.254474
             1    1.946894   -0.084268
             2   -5.237105   -1.488377
 pspatm: atomic psp has been read  and splines computed

- pspini: atom type   2  psp file is /scratch/users/j/a/jabreu/pseudos/PBEsol/Fe.psp8
- pspatm: opening atomic psp file    /scratch/users/j/a/jabreu/pseudos/PBEsol/Fe.psp8
- Fe    ONCVPSP-3.3.0  r_core=   1.26437   1.20546   1.56719
- 26.00000  16.00000    180112                znucl, zion, pspdat
    8 -116133    2    4       600   0.00000   pspcod,pspxc,lmax,lloc,mmax,r2well
    5.99000000000000    3.00000000000000    0.00000000000000   rchrg,fchrg,qchrg
     nproj     2     2     2
     extension_switch     1
  pspatm : epsatm=   15.04792780
         --- l  ekb(1:nproj) -->
             0   10.133364    1.456638
             1    1.580231   -0.508538
             2   -5.545701   -2.037616
 pspatm: atomic psp has been read  and splines computed

- pspini: atom type   3  psp file is /scratch/users/j/a/jabreu/pseudos/PBEsol/Si.psp8
- pspatm: opening atomic psp file    /scratch/users/j/a/jabreu/pseudos/PBEsol/Si.psp8
- Si    ONCVPSP-3.3.0  r_core=   1.60303   1.72197   1.91712
- 14.00000   4.00000    180112                znucl, zion, pspdat
    8 -116133    2    4       600   0.00000   pspcod,pspxc,lmax,lloc,mmax,r2well
    5.99000000000000    4.00000000000000    0.00000000000000   rchrg,fchrg,qchrg
     nproj     2     2     2
     extension_switch     1
  pspatm : epsatm=    7.86468782
         --- l  ekb(1:nproj) -->
             0    5.384426    0.843824
             1    2.663259    0.615854
             2   -2.267219   -0.458043
 pspatm: atomic psp has been read  and splines computed

   2.53102764E+03                                ecore*ucvol(ha*bohr**3)

-inwffil : will read wavefunctions from disk file /scratch/users/j/a/jabreu/flow_simple_4atoms/flow/w194/t1/indata/in_WFK

 ==>  initialize data related to q vector <==

 The list of irreducible perturbations for this q vector is:
    1)    idir= 1    ipert=   5
    2)    idir= 2    ipert=   5
    3)    idir= 3    ipert=   5

 Perturbation wavevector (in red.coord.)   0.000000  0.000000  0.000000
 Perturbation : derivative vs k along direction   1

 dfpt_looppert : COMMENT -
  In a d/dk calculation, iscf is set to -3 automatically.
 The set of symmetries contains only one element for this perturbation.
 symkpt : not enough symmetry to change the number of k points.

[...]

 Initialisation of the first-order wave-functions :
  ireadwf=   0

--- !BeginCycle
iteration_state: {dtset: 1, }
solver: {iscf: 7, nstep: 100, nline: 4, wfoptalg: 0, }
tolerances: {tolwfr: 1.00E-20, }
...

     iter   2DEtotal(Ha)        deltaE(Ha) residm    vres2
-ETOT  1  -61.158014167859     -6.116E+01 2.397E-01 0.000E+00
 ETOT  2  -61.240263359183     -8.225E-02 9.290E-03 0.000E+00
[...]
  -0.00000   -0.00000    0.00000    0.00000   -0.00000   -0.00000   -0.00000   -0.00000
  -0.00000
 prteigrs : prtvol=0 or 1, do not print more k-points.

 Eight components of 2nd-order total energy (hartree) are
 1,2,3: 0th-order hamiltonian combined with 1st-order wavefunctions
     kin0=   6.22294045E+01 eigvalue=  -6.34375901E+00  local=  -2.58887660E+01
 4,5,6: 1st-order hamiltonian combined with 1st and 0th-order wfs
     kin1=  -1.34084686E+02  Hartree=   0.00000000E+00     xc=   0.00000000E+00
 7,8,9: eventually, occupation + non-local contributions
    edocc=   2.96172260E+01     enl0=   1.62718898E+00   enl1=   1.16020973E+01
 1-9 gives the relaxation energy (to be shifted if some occ is /=2.0)
   erelax=  -6.12412946E+01
  No Ewald or frozen-wf contrib.: the relaxation energy is the total one
 2DEtotal=   -0.6124129456E+02 Ha. Also 2DEtotal=   -0.166646037435E+04 eV
    (  non-var. 2DEtotal :   -6.1241294559E+01 Ha)

 Perturbation wavevector (in red.coord.)   0.000000  0.000000  0.000000
 Perturbation : derivative vs k along direction   2
 The set of symmetries contains only one element for this perturbation.
 symkpt : not enough symmetry to change the number of k points.

[...]

 Perturbation wavevector (in red.coord.)   0.000000  0.000000  0.000000
 Perturbation : derivative vs k along direction   3
 The set of symmetries contains only one element for this perturbation.
 symkpt : not enough symmetry to change the number of k points.

-inwffil : will read wavefunctions from disk file /scratch/users/j/a/jabreu/flow_simple_4atoms/flow/w194/t1/indata/in_WFK

 Initialisation of the first-order wave-functions :
  ireadwf=   0

--- !BeginCycle
iteration_state: {dtset: 1, }
solver: {iscf: 7, nstep: 100, nline: 4, wfoptalg: 0, }
tolerances: {tolwfr: 1.00E-20, }
...

     iter   2DEtotal(Ha)        deltaE(Ha) residm    vres2
-ETOT  1  -61.158188872394     -6.116E+01 1.135E-01 0.000E+00
 ETOT  2  -61.240264807024     -8.208E-02 2.402E-02 0.000E+00
 ETOT  3  -61.241273360667     -1.009E-03 4.188E-03 0.000E+00
 ETOT  4  -61.241294016400     -2.066E-05 9.731E-04 0.000E+00
 ETOT  5  -61.241294555017     -5.386E-07 1.994E-04 0.000E+00
 ETOT  6  -61.241294570615     -1.560E-08 4.336E-05 0.000E+00
 ETOT  7  -61.241294571110     -4.952E-10 8.592E-06 0.000E+00
 ETOT  8  -61.241294571126     -1.619E-11 1.911E-06 0.000E+00
 ETOT  9  -61.241294571126     -5.258E-13 3.735E-07 0.000E+00
 ETOT 10  -61.241294571127     -1.421E-14 8.411E-08 0.000E+00
 ETOT 11  -61.241294571127     -4.263E-14 1.662E-08 0.000E+00
 ETOT 12  -61.241294571127      1.421E-14 3.744E-09 0.000E+00
 ETOT 13  -61.241294571127     -3.553E-14 7.539E-10 0.000E+00
 ETOT 14  -61.241294571127     -7.105E-15 1.687E-10 0.000E+00
 ETOT 15  -61.241294571127      2.842E-14 3.447E-11 0.000E+00
 ETOT 16  -61.241294571127      0.000E+00 7.652E-12 0.000E+00
 ETOT 17  -61.241294571127     -4.263E-14 1.575E-12 0.000E+00
 ETOT 18  -61.241294571127      4.263E-14 3.481E-13 0.000E+00
 ETOT 19  -61.241294571127     -2.842E-14 7.183E-14 0.000E+00
 ETOT 20  -61.241294571127      2.842E-14 1.584E-14 0.000E+00
 ETOT 21  -61.241294571127      1.421E-14 3.268E-15 0.000E+00
 ETOT 22  -61.241294571127      0.000E+00 7.211E-16 0.000E+00
 ETOT 23  -61.241294571127      0.000E+00 1.484E-16 0.000E+00
 ETOT 24  -61.241294571127     -7.105E-15 3.282E-17 0.000E+00
 ETOT 25  -61.241294571127      2.842E-14 6.734E-18 0.000E+00
 ETOT 26  -61.241294571127     -2.842E-14 1.493E-18 0.000E+00
 ETOT 27  -61.241294571127     -2.132E-14 3.054E-19 0.000E+00
 ETOT 28  -61.241294571127      1.421E-14 6.795E-20 0.000E+00
 ETOT 29  -61.241294571127      7.105E-15 1.385E-20 0.000E+00
 ETOT 30  -61.241294571127      0.000E+00 9.501E-21 0.000E+00

 At SCF step   30   max residual=  9.50E-21 < tolwfr=  1.00E-20 =>converged.

 ----iterations are completed or convergence reached----

 dfpt_looppert: DFPT cycle converged with prtwf=-1. Will skip output of the 1st-order WFK file.
 dfpt_looppert : ek2=    1.0060850939E+02
          f-sum rule ratio=    1.3327370348E+00
 prteigrs : about to open file /scratch/users/j/a/jabreu/flow_simple_4atoms/flow/w194/t1/tmpdata/tmp_1WF1_EIG
 Expectation of eigenvalue derivatives (hartree) for nkpt=   2  k points:
  (in case of degenerate eigenvalues, averaged derivative)
 kpt#   1, nband= 33, wtk=  0.50000, kpt=  0.0000  0.0000  0.0000 (reduced coord)
  -0.00000    0.00000    0.00000   -0.00000   -0.00000   -0.00000   -0.00000   -0.00000
  -0.00000   -0.00000   -0.00000   -0.00000   -0.00000   -0.00000   -0.00000   -0.00000
  -0.00000   -0.00000   -0.00000   -0.00000   -0.00000   -0.00000   -0.00000   -0.00000
   0.00000    0.00000   -0.00000   -0.00000    0.00000    0.00000    0.00000    0.00000
  -0.00000
 prteigrs : prtvol=0 or 1, do not print more k-points.

 Eight components of 2nd-order total energy (hartree) are
 1,2,3: 0th-order hamiltonian combined with 1st-order wavefunctions
     kin0=   6.22591779E+01 eigvalue=  -6.34527944E+00  local=  -2.59041241E+01
 4,5,6: 1st-order hamiltonian combined with 1st and 0th-order wfs
     kin1=  -1.34084686E+02  Hartree=   0.00000000E+00     xc=   0.00000000E+00
 7,8,9: eventually, occupation + non-local contributions
    edocc=   2.96091329E+01     enl0=   1.62238729E+00   enl1=   1.16020973E+01
 1-9 gives the relaxation energy (to be shifted if some occ is /=2.0)
   erelax=  -6.12412946E+01
  No Ewald or frozen-wf contrib.: the relaxation energy is the total one
 2DEtotal=   -0.6124129457E+02 Ha. Also 2DEtotal=   -0.166646037466E+04 eV
    (  non-var. 2DEtotal :   -6.1241294571E+01 Ha)

 CALCULATION OF EFFECTIVE MASSES
 NOTE : Additional infos (eff. mass eigenvalues, eigenvectors and, if degenerate, average mass) are available in stdout.

 COMMENTS:
 - At k-point ( 0.000, 0.000, 0.000), bands    22 through    24
   are DEGENERATE (effective mass tensor is therefore not defined).
   See Section IIIB Eqs. (67)-(70) and Appendix E of PRB 93 205147 (2016).
 - Angular average effective mass for Frohlich model is to be averaged over degenerate bands. See later.
 - Associated theta integrals calculated with ntheta=   1000 points.

 K-point ( 0.000, 0.000, 0.000) | band =    22
 Transport equivalent effective mass tensor:
             -0.3293456924             -0.0000001460             -0.0000000004
             -0.0000001460             -0.3293454752              0.0000000002
             -0.0000000004              0.0000000002             -0.3293443638
 Transport equivalent effective mass tensor eigenvalues:
             -0.3293457657             -0.3293454019             -0.3293443638
 Angular average effective mass 1/(<1/m>)=  -0.2329017112
 Angular average effective mass for Frohlich model (<m**0.5>)**2=  -0.2373139105
 Effective masses along directions: (cart. coord. / red. coord. -> eff. mass)
    1:   1.000000  0.000000  0.000000 /   0.948683  0.316228  0.000000 ->  -0.2412980742
    2:   0.000000  1.000000  0.000000 /   0.000000  1.000000  0.000000 ->  -0.3520490836
    3:   0.000000  0.000000  1.000000 /   0.408248  0.408248  0.816497 ->  -0.2797262823
    4:   0.577350  0.577350  0.577350 /   0.585539  0.688047  0.428644 ->  -0.2459038886
    5:   0.000000  0.707107  0.707107 /   0.289489  0.762222  0.578977 ->  -0.2084531615
    6:   0.707107  0.000000  0.707107 /   0.731423  0.422287  0.535439 ->  -0.2522638062
    7:   0.707107  0.707107  0.000000 /   0.616798  0.787122  0.000000 ->  -0.1851193484

[...]

 K-point ( 0.000, 0.000, 0.000) | band =    24
 Transport equivalent effective mass tensor:
             -0.9473453642              0.0000003640             -0.0000000003
              0.0000003640             -0.9473440327             -0.0000000000
             -0.0000000003             -0.0000000000             -0.9473440001
 Transport equivalent effective mass tensor eigenvalues:
             -0.9473454572             -0.9473440001             -0.9473439397
 Angular average effective mass 1/(<1/m>)=  -0.6126875538
 Angular average effective mass for Frohlich model (<m**0.5>)**2=  -0.6251932921
 Effective masses along directions: (cart. coord. / red. coord. -> eff. mass)
    1:   1.000000  0.000000  0.000000 /   0.948683  0.316228  0.000000 ->  -0.4967437354
    2:   0.000000  1.000000  0.000000 /   0.000000  1.000000  0.000000 ->  -0.3872308212
    3:   0.000000  0.000000  1.000000 /   0.408248  0.408248  0.816497 ->  -0.7290263905
    4:   0.577350  0.577350  0.577350 /   0.585539  0.688047  0.428644 ->  -0.5658470556
    5:   0.000000  0.707107  0.707107 /   0.289489  0.762222  0.578977 ->  -0.7110771234
    6:   0.707107  0.000000  0.707107 /   0.731423  0.422287  0.535439 ->  -0.6429899006
    7:   0.707107  0.707107  0.000000 /   0.616798  0.787122  0.000000 ->  -0.7008446754

 Angular average effective mass for Frohlich model, averaged over degenerate bands.
 Value of     (<<m**0.5>>)**2 =     4.206097E-01
 Absolute Value of <<m**0.5>> =     6.485443E-01

 K-point ( 0.500,-0.000, 0.500) | band =    25
 Effective mass tensor:
              7.1067625556             -9.2654465034             11.3478080863
             -9.2654465034             13.6584226039            -16.0482240948
             11.3478080863            -16.0482240948             20.2100826540
 Effective mass tensor eigenvalues:
              0.5551024997              0.5551025007             39.8650628131
 Angular average effective mass 1/(<1/m>)=   0.8268966741
 Angular average effective mass for Frohlich model (<m**0.5>)**2=   1.1876989115
 Effective masses along directions: (cart. coord. / red. coord. -> eff. mass)
    1:   1.000000  0.000000  0.000000 /   0.948683  0.316228  0.000000 ->   0.6642730618
    2:   0.000000  1.000000  0.000000 /   0.000000  1.000000  0.000000 ->   0.8268966741
    3:   0.000000  0.000000  1.000000 /   0.408248  0.408248  0.816497 ->   1.0949582143
    4:   0.577350  0.577350  0.577350 /   0.585539  0.688047  0.428644 ->   0.6134675410
    5:   0.000000  0.707107  0.707107 /   0.289489  0.762222  0.578977 ->   0.5597490632
    6:   0.707107  0.000000  0.707107 /   0.731423  0.422287  0.535439 ->   1.4356617305
    7:   0.707107  0.707107  0.000000 /   0.616798  0.787122  0.000000 ->   0.5630406134

 END OF EFFECTIVE MASSES SECTION

 ---- first-order wavefunction calculations are completed ----

 Total localisation tensor (bohr^2) in cartesian coordinates
  WARNING : still subject to testing - especially symmetries.
      direction              matrix element
   alpha     beta       real part   imaginary part
     1        1       7.1427336897    0.0000000000
     1        2       2.0202701736    0.0000000000
     1        3       4.9486310632    0.0000000000
     2        1       2.0202701736    0.0000000000
     2        2       5.7141869585    0.0000000000
     2        3       3.4992105858    0.0000000000
     3        1       4.9486310632    0.0000000000
     3        2       3.4992105858    0.0000000000
     3        3      12.8569206636    0.0000000000

 respfn : d/dk was computed, but no 2DTE, so no DDB output.

== END DATASET(S) ==============================================================

 -outvars: echo values of variables after computation  --------
            acell      1.0000000000E+00  1.0000000000E+00  1.0000000000E+00 Bohr
              amu      4.78800000E+01  5.58470000E+01  2.80855000E+01
             ecut      4.70000000E+01 Hartree
           etotal     -6.1241294571E+01
            fcart      0.0000000000E+00  0.0000000000E+00  0.0000000000E+00
                       0.0000000000E+00  0.0000000000E+00  0.0000000000E+00
                       0.0000000000E+00  0.0000000000E+00  0.0000000000E+00
                       0.0000000000E+00  0.0000000000E+00  0.0000000000E+00
-          fftalg         512
           irdden           1
           irdwfk           1
           istwfk        1    1
              ixc     -116133
              kpt      0.00000000E+00  0.00000000E+00  0.00000000E+00
                       5.00000000E-01 -1.23259516E-32  5.00000000E-01
           kptopt           0
P           mkmem           2
P          mkqmem           2
P          mk1mem           2
            natom           4
            nband          33
           nbdbuf           4
            ngfft          48      48      48
             nkpt           2
            nstep         100
             nsym          48
           ntypat           3
              occ      2.000000  2.000000  2.000000  2.000000  2.000000  2.000000
                       2.000000  2.000000  2.000000  2.000000  2.000000  2.000000
                       2.000000  2.000000  2.000000  2.000000  2.000000  2.000000
                       2.000000  2.000000  2.000000  2.000000  2.000000  2.000000
                       0.000000  0.000000  0.000000  0.000000  0.000000  0.000000
                       0.000000  0.000000  0.000000
        optdriver           1
            prtwf          -1
            rfdir           1       1       1
           rfelfd           2
            rprim      6.5099010718E+00  0.0000000000E+00  3.7584931362E+00
                       2.1699670239E+00  6.1375935903E+00  3.7584931362E+00
                       0.0000000000E+00  0.0000000000E+00  7.5169862724E+00
          spgroup         225
           strten      0.0000000000E+00  0.0000000000E+00  0.0000000000E+00
                       0.0000000000E+00  0.0000000000E+00  0.0000000000E+00
           symrel      1  0  0   0  1  0   0  0  1      -1  0  0   0 -1  0   0  0 -1
                       0 -1  1   0 -1  0   1 -1  0       0  1 -1   0  1  0  -1  1  0
                      -1  0  0  -1  0  1  -1  1  0       1  0  0   1  0 -1   1 -1  0
                       0  1 -1   1  0 -1   0  0 -1       0 -1  1  -1  0  1   0  0  1
                      -1  0  0  -1  1  0  -1  0  1       1  0  0   1 -1  0   1  0 -1
                       0 -1  1   1 -1  0   0 -1  0       0  1 -1  -1  1  0   0  1  0
                       1  0  0   0  0  1   0  1  0      -1  0  0   0  0 -1   0 -1  0
                       0  1 -1   0  0 -1   1  0 -1       0 -1  1   0  0  1  -1  0  1
                      -1  0  1  -1  1  0  -1  0  0       1  0 -1   1 -1  0   1  0  0
                       0 -1  0   1 -1  0   0 -1  1       0  1  0  -1  1  0   0  1 -1
                       1  0 -1   0  0 -1   0  1 -1      -1  0  1   0  0  1   0 -1  1
                       0  1  0   0  0  1   1  0  0       0 -1  0   0  0 -1  -1  0  0
                       1  0 -1   0  1 -1   0  0 -1      -1  0  1   0 -1  1   0  0  1
                       0 -1  0   0 -1  1   1 -1  0       0  1  0   0  1 -1  -1  1  0
                      -1  0  1  -1  0  0  -1  1  0       1  0 -1   1  0  0   1 -1  0
                       0  1  0   1  0  0   0  0  1       0 -1  0  -1  0  0   0  0 -1
                       0  0 -1   0  1 -1   1  0 -1       0  0  1   0 -1  1  -1  0  1
                       1 -1  0   0 -1  1   0 -1  0      -1  1  0   0  1 -1   0  1  0
                       0  0  1   1  0  0   0  1  0       0  0 -1  -1  0  0   0 -1  0
                      -1  1  0  -1  0  0  -1  0  1       1 -1  0   1  0  0   1  0 -1
                       0  0  1   0  1  0   1  0  0       0  0 -1   0 -1  0  -1  0  0
                       1 -1  0   0 -1  0   0 -1  1      -1  1  0   0  1  0   0  1 -1
                       0  0 -1   1  0 -1   0  1 -1       0  0  1  -1  0  1   0 -1  1
                      -1  1  0  -1  0  1  -1  0  0       1 -1  0   1  0 -1   1  0  0
           tolwfr      1.00000000E-20
            typat      1  2  2  3
           useylm           1
              wtk        0.50000    0.50000
           xangst      0.0000000000E+00  0.0000000000E+00  0.0000000000E+00
                       3.4448912774E+00  2.4359059827E+00  5.9667267190E+00
                       1.1482970925E+00  8.1196866089E-01  1.9889089063E+00
                       2.2965941849E+00  1.6239373218E+00  3.9778178126E+00
            xcart      0.0000000000E+00  0.0000000000E+00  0.0000000000E+00
                       6.5099010718E+00  4.6031951927E+00  1.1275479409E+01
                       2.1699670239E+00  1.5343983976E+00  3.7584931362E+00
                       4.3399340479E+00  3.0687967951E+00  7.5169862724E+00
             xred      0.0000000000E+00  0.0000000000E+00  0.0000000000E+00
                       7.5000000000E-01  7.5000000000E-01  7.5000000000E-01
                       2.5000000000E-01  2.5000000000E-01  2.5000000000E-01
                       5.0000000000E-01  5.0000000000E-01  5.0000000000E-01
            znucl       22.00000   26.00000   14.00000

- Timing analysis has been suppressed with timopt=0

 Suggested references for the acknowledgment of ABINIT usage.

 Calculation completed.
.Delivered  14 WARNINGs and   9 COMMENTs to log file.