.Version 9.5.1 of ABINIT

 ABINIT is a project of the Universite Catholique de Louvain,
 Corning Inc. and other collaborators, see ~abinit/doc/developers/contributors.txt .
 acknowledgments of the ABINIT effort.

.Starting date : Wed 19 May 2021.
- ( at 04h41 )

- input  file    -> /scratch/users/j/a/jabreu/flow_simple_8atoms/flow/w474/t1/run.abi
- output file    -> /scratch/users/j/a/jabreu/flow_simple_8atoms/flow/w474/t1/run.abo
- root for input  files -> /scratch/users/j/a/jabreu/flow_simple_8atoms/flow/w474/t1/indata/in
- root for output files -> /scratch/users/j/a/jabreu/flow_simple_8atoms/flow/w474/t1/outdata/out

 Symmetries : space group Cm c m (# 63); Bravais oC (1-face-center ortho.)
     intxc =       0      iscf =       7    lmnmax =      25     lnmax =       7
     mgfft =      72  mpssoang =       4    mqgrid =    3524     natom =       8
  nloc_mem =       1    nspden =       1   nspinor =       1    nsppol =       1
      nsym =       8    n1xccc =    2501    ntypat =       3    occopt =       1
   xclevel =       2
-    mband =          61        mffmem =           1         mkmem =           2
-   mkqmem =           2        mk1mem =           2           mpw =       22994
      nfft =      373248          nkpt =           2
  Rough estimation (10% accuracy) of disk space for files :

------------- Echo of variables that govern the present computation ------------
-
- outvars: echo of selected default values
-   iomode0 =  0 , fftalg0 =512 , wfoptalg0 =  0
-
- outvars: echo of global parameters not present in the input file
-  max_nthreads =    0
-
 -outvars: echo values of preprocessed input variables --------
            acell      1.0000000000E+00  1.0000000000E+00  1.0000000000E+00 Bohr
              amu      3.90983000E+01  1.21753000E+02  1.96966540E+02
             ecut      4.20000000E+01 Hartree
-          fftalg         512
           irdden           1
           irdwfk           1
           istwfk        0    1
              ixc     -116133
              kpt     -5.00000000E-01  5.00000000E-01  0.00000000E+00
                       0.00000000E+00  0.00000000E+00  0.00000000E+00
           kptopt           0
P           mkmem           2
P          mkqmem           2
P          mk1mem           2
            natom           8
            nband          61
           nbdbuf           4
            ngfft          72      72      72
             nkpt           2
            nstep        2000
             nsym           8
           ntypat           3
              occ      2.000000  2.000000  2.000000  2.000000  2.000000  2.000000
                       2.000000  2.000000  2.000000  2.000000  2.000000  2.000000
                       2.000000  2.000000  2.000000  2.000000  2.000000  2.000000
                       2.000000  2.000000  2.000000  2.000000  2.000000  2.000000
                       2.000000  2.000000  2.000000  2.000000  2.000000  2.000000
                       2.000000  2.000000  2.000000  2.000000  2.000000  2.000000
                       2.000000  2.000000  2.000000  2.000000  2.000000  2.000000
                       2.000000  2.000000  2.000000  2.000000  2.000000  2.000000
                       2.000000  2.000000  2.000000  2.000000  0.000000  0.000000
                       0.000000  0.000000  0.000000  0.000000  0.000000  0.000000
                       0.000000
        optdriver           1
            prtwf          -1
            rfdir           1       1       1
           rfelfd           2
            rprim      1.2332105589E+01  0.0000000000E+00  0.0000000000E+00
                      -3.4226090230E+00  1.1847640091E+01  0.0000000000E+00
                       0.0000000000E+00  0.0000000000E+00  1.2077244821E+01
          spgroup          63
           symrel      1  0  0   0  1  0   0  0  1      -1  0  0   0 -1  0   0  0 -1
                       0 -1  0  -1  0  0   0  0 -1       0  1  0   1  0  0   0  0  1
                      -1  0  0   0 -1  0   0  0  1       1  0  0   0  1  0   0  0 -1
                       0  1  0   1  0  0   0  0 -1       0 -1  0  -1  0  0   0  0  1
            tnons      0.0000000  0.0000000  0.0000000    -0.0000000 -0.0000000  0.0000000
                      -0.0000000 -0.0000000  0.0000000     0.0000000 -0.0000000  0.0000000
                      -0.0000000 -0.0000000  0.5000000     0.0000000  0.0000000  0.5000000
                       0.0000000 -0.0000000  0.5000000    -0.0000000 -0.0000000  0.5000000
           tolwfr      1.00000000E-20
            typat      1  1  1  1  2  2  3  3
           useylm           1
              wtk        0.50000    0.50000
           xangst      3.0015855979E+00  1.0208377880E+00  1.5977506755E+00
                       4.5670177059E+00  3.1025127812E+00  4.7932520265E+00
                       1.4768481667E-01  3.1669883306E+00  1.5977506755E+00
                       1.7131169246E+00  5.2486633237E+00  4.7932520265E+00
                       1.2720644582E+00  1.6915615560E+00  4.7932520265E+00
                       3.4426380644E+00  4.5779395558E+00  1.5977506755E+00
                       0.0000000000E+00  0.0000000000E+00  3.1955013510E+00
                       0.0000000000E+00  0.0000000000E+00  0.0000000000E+00
            xcart      5.6721747445E+00  1.9291038455E+00  3.0193112054E+00
                       8.6304127082E+00  5.8628994802E+00  9.0579336161E+00
                       2.7908385749E-01  5.9847406108E+00  3.0193112054E+00
                       3.2373218212E+00  9.9185362455E+00  9.0579336161E+00
                       2.4038534494E+00  3.1965880777E+00  9.0579336161E+00
                       6.5056431163E+00  8.6510520133E+00  3.0193112054E+00
                       0.0000000000E+00  0.0000000000E+00  6.0386224107E+00
                       0.0000000000E+00  0.0000000000E+00  0.0000000000E+00
             xred      5.0514200000E-01  1.6282600000E-01  2.5000000000E-01
                       8.3717400000E-01  4.9485800000E-01  7.5000000000E-01
                       1.6282600000E-01  5.0514200000E-01  2.5000000000E-01
                       4.9485800000E-01  8.3717400000E-01  7.5000000000E-01
                       2.6980800000E-01  2.6980800000E-01  7.5000000000E-01
                       7.3019200000E-01  7.3019200000E-01  2.5000000000E-01
                       0.0000000000E+00  0.0000000000E+00  5.0000000000E-01
                       0.0000000000E+00  0.0000000000E+00  0.0000000000E+00
            znucl       19.00000   51.00000   79.00000

 chkinp: Checking input parameters for consistency.

== DATASET  1 ==================================================================
-   mpi_nproc: 1, omp_nthreads: -1 (-1 if OMP is not activated)

--- !DatasetInfo
iteration_state: {dtset: 1, }
dimensions: {natom: 8, nkpt: 2, mband: 61, nsppol: 1, nspinor: 1, nspden: 1, mpw: 22994, }
cutoff_energies: {ecut:  42.0, pawecutdg:  -1.0, }
electrons: {nelect:   1.04000000E+02, charge:   0.00000000E+00, occopt:   1.00000000E+00, tsmear:   1.00000000E-02, }
meta: {optdriver: 1, rfelfd: 2, }
...

 Real(R)+Recip(G) space primitive vectors, cartesian coordinates (Bohr,Bohr^-1):
 R(1)= 12.3321056  0.0000000  0.0000000  G(1)=  0.0810892  0.0234255  0.0000000
 R(2)= -3.4226090 11.8476401  0.0000000  G(2)=  0.0000000  0.0844050  0.0000000
 R(3)=  0.0000000  0.0000000 12.0772448  G(3)=  0.0000000  0.0000000  0.0828003
 Unit cell volume ucvol=  1.7645621E+03 bohr^3
 Angles (23,13,12)=  9.00000000E+01  9.00000000E+01  1.06113228E+02 degrees

 getcut: wavevector=  0.0000  0.0000  0.0000  ngfft=  72  72  72
         ecut(hartree)=     42.000   => boxcut(ratio)=   2.00127

--- Pseudopotential description ------------------------------------------------
- pspini: atom type   1  psp file is /scratch/users/j/a/jabreu/pseudos/PBEsol/K.psp8
- pspatm: opening atomic psp file    /scratch/users/j/a/jabreu/pseudos/PBEsol/K.psp8
- K     ONCVPSP-3.3.0  r_core=   1.36296   1.46408   1.61068
- 19.00000   9.00000    180112                znucl, zion, pspdat
    8 -116133    2    4       400   0.00000   pspcod,pspxc,lmax,lloc,mmax,r2well
    3.99000000000000    5.00000000000000    0.00000000000000   rchrg,fchrg,qchrg
     nproj     2     2     2
     extension_switch     1
  pspatm : epsatm=    8.32487830
         --- l  ekb(1:nproj) -->
             0   10.921326    0.816676
             1    4.431000    0.560368
             2   -3.384038   -1.043186
 pspatm: atomic psp has been read  and splines computed

- pspini: atom type   2  psp file is /scratch/users/j/a/jabreu/pseudos/PBEsol/Sb.psp8
- pspatm: opening atomic psp file    /scratch/users/j/a/jabreu/pseudos/PBEsol/Sb.psp8
- Sb    ONCVPSP-3.3.0  r_core=   1.81962   2.12485   1.81962
- 51.00000  15.00000    180112                znucl, zion, pspdat
    8 -116133    2    4       600   0.00000   pspcod,pspxc,lmax,lloc,mmax,r2well
    5.99000000000000    5.00000000000000    0.00000000000000   rchrg,fchrg,qchrg
     nproj     2     2     2
     extension_switch     1
  pspatm : epsatm=   26.35641246
         --- l  ekb(1:nproj) -->
             0    9.727814    1.485032
             1    5.505335    0.704623
             2   -4.710637   -1.436443
 pspatm: atomic psp has been read  and splines computed

- pspini: atom type   3  psp file is /scratch/users/j/a/jabreu/pseudos/PBEsol/Au.psp8
- pspatm: opening atomic psp file    /scratch/users/j/a/jabreu/pseudos/PBEsol/Au.psp8
- Au    ONCVPSP-3.3.0  r_core=   1.45604   1.56407   1.56407   1.60183
- 79.00000  19.00000    180112                znucl, zion, pspdat
    8 -116133    3    4       500   0.00000   pspcod,pspxc,lmax,lloc,mmax,r2well
    4.99000000000000    5.00000000000000    0.00000000000000   rchrg,fchrg,qchrg
     nproj     2     2     2     1
     extension_switch     1
  pspatm : epsatm=   32.21965837
         --- l  ekb(1:nproj) -->
             0    9.413866   -0.196587
             1    2.474292   -1.517497
             2    1.503483    0.298081
             3    1.177996
 pspatm: atomic psp has been read  and splines computed

   1.56469721E+04                                ecore*ucvol(ha*bohr**3)

-inwffil : will read wavefunctions from disk file /scratch/users/j/a/jabreu/flow_simple_8atoms/flow/w474/t1/indata/in_WFK

 ==>  initialize data related to q vector <==

 The list of irreducible perturbations for this q vector is:
    1)    idir= 1    ipert=   9
    2)    idir= 2    ipert=   9
    3)    idir= 3    ipert=   9

 Perturbation wavevector (in red.coord.)   0.000000  0.000000  0.000000
 Perturbation : derivative vs k along direction   1

 dfpt_looppert : COMMENT -
  In a d/dk calculation, iscf is set to -3 automatically.
 The set of symmetries contains only one element for this perturbation.
 symkpt : not enough symmetry to change the number of k points.

[...]

 Initialisation of the first-order wave-functions :
  ireadwf=   0

--- !BeginCycle
iteration_state: {dtset: 1, }
solver: {iscf: 7, nstep: 2000, nline: 4, wfoptalg: 0, }
tolerances: {tolwfr: 1.00E-20, }
...

     iter   2DEtotal(Ha)        deltaE(Ha) residm    vres2
-ETOT  1  -40.614417017797     -4.061E+01 5.283E-02 0.000E+00
 ETOT  2  -40.723307558062     -1.089E-01 4.274E-03 0.000E+00
[...]
 ETOT 18  -40.725658295705      0.000E+00 5.627E-16 0.000E+00
 ETOT 19  -40.725658295705      1.421E-14 5.181E-17 0.000E+00
 ETOT 20  -40.725658295705     -1.421E-14 1.765E-17 0.000E+00
 ETOT 21  -40.725658295705     -7.105E-15 1.634E-18 0.000E+00
 ETOT 22  -40.725658295705     -7.105E-15 5.560E-19 0.000E+00
 ETOT 23  -40.725658295705      1.421E-14 5.173E-20 0.000E+00
 ETOT 24  -40.725658295705      0.000E+00 1.758E-20 0.000E+00
 ETOT 25  -40.725658295705      0.000E+00 9.870E-21 0.000E+00

 At SCF step   25   max residual=  9.87E-21 < tolwfr=  1.00E-20 =>converged.

 ----iterations are completed or convergence reached----

 dfpt_looppert: DFPT cycle converged with prtwf=-1. Will skip output of the 1st-order WFK file.
 dfpt_looppert : ek2=    5.8500471492E+01
          f-sum rule ratio=    1.0653906966E+00
 prteigrs : about to open file /scratch/users/j/a/jabreu/flow_simple_8atoms/flow/w474/t1/tmpdata/tmp_1WF1_EIG
 Expectation of eigenvalue derivatives (hartree) for nkpt=   2  k points:
  (in case of degenerate eigenvalues, averaged derivative)
 kpt#   1, nband= 61, wtk=  0.50000, kpt= -0.5000  0.5000  0.0000 (reduced coord)
   0.00000    0.00000   -0.00000   -0.00000    0.00000   -0.00000   -0.00000   -0.00000
  -0.00000   -0.00000   -0.00000    0.00000   -0.00000   -0.00000    0.00000   -0.00000
   0.00000    0.00000    0.00000   -0.00000    0.00000    0.00000   -0.00000    0.00000
   0.00000   -0.00000   -0.00000    0.00000   -0.00000    0.00000    0.00000    0.00000
  -0.00000    0.00000   -0.00000    0.00000   -0.00000    0.00000   -0.00000    0.00000
   0.00000   -0.00000    0.00000   -0.00000   -0.00000   -0.00000    0.00000    0.00000
   0.00000   -0.00000    0.00000    0.00000   -0.00000   -0.00000    0.00000    0.00000
  -0.00000    0.00000    0.00000   -0.00000    0.00003
 prteigrs : prtvol=0 or 1, do not print more k-points.

 Eight components of 2nd-order total energy (hartree) are
 1,2,3: 0th-order hamiltonian combined with 1st-order wavefunctions
     kin0=   5.62658185E+01 eigvalue=   5.46757552E+00  local=  -3.39629640E+01
 4,5,6: 1st-order hamiltonian combined with 1st and 0th-order wfs
     kin1=  -6.23258581E+01  Hartree=   0.00000000E+00     xc=   0.00000000E+00
 7,8,9: eventually, occupation + non-local contributions
    edocc=   7.16238128E+00     enl0=   5.79284702E+00   enl1=  -1.91254585E+01
 1-9 gives the relaxation energy (to be shifted if some occ is /=2.0)
   erelax=  -4.07256583E+01
  No Ewald or frozen-wf contrib.: the relaxation energy is the total one
 2DEtotal=   -0.4072565830E+02 Ha. Also 2DEtotal=   -0.110820152084E+04 eV
    (  non-var. 2DEtotal :   -4.0725658295E+01 Ha)

 Perturbation wavevector (in red.coord.)   0.000000  0.000000  0.000000
 Perturbation : derivative vs k along direction   2
 The set of symmetries contains only one element for this perturbation.
 symkpt : not enough symmetry to change the number of k points.

[...]

 Perturbation wavevector (in red.coord.)   0.000000  0.000000  0.000000
 Perturbation : derivative vs k along direction   3
 The set of symmetries contains only one element for this perturbation.
 symkpt : not enough symmetry to change the number of k points.

-inwffil : will read wavefunctions from disk file /scratch/users/j/a/jabreu/flow_simple_8atoms/flow/w474/t1/indata/in_WFK

 Initialisation of the first-order wave-functions :
  ireadwf=   0

--- !BeginCycle
iteration_state: {dtset: 1, }
solver: {iscf: 7, nstep: 2000, nline: 4, wfoptalg: 0, }
tolerances: {tolwfr: 1.00E-20, }
...

     iter   2DEtotal(Ha)        deltaE(Ha) residm    vres2
-ETOT  1  -41.481331013227     -4.148E+01 4.491E-02 0.000E+00
 ETOT  2  -41.565994749450     -8.466E-02 5.988E-03 0.000E+00
 ETOT  3  -41.567779789927     -1.785E-03 3.643E-04 0.000E+00
 ETOT  4  -41.567851515737     -7.173E-05 7.159E-05 0.000E+00
 ETOT  5  -41.567855207316     -3.692E-06 5.597E-06 0.000E+00
 ETOT  6  -41.567855414638     -2.073E-07 1.141E-06 0.000E+00
 ETOT  7  -41.567855426920     -1.228E-08 9.522E-08 0.000E+00
 ETOT  8  -41.567855427668     -7.475E-10 2.012E-08 0.000E+00
 ETOT  9  -41.567855427714     -4.631E-11 2.049E-09 0.000E+00
 ETOT 10  -41.567855427717     -2.935E-12 3.761E-10 0.000E+00
 ETOT 11  -41.567855427717     -1.990E-13 4.951E-11 0.000E+00
 ETOT 12  -41.567855427717     -7.105E-15 7.300E-12 0.000E+00
 ETOT 13  -41.567855427717     -7.105E-15 1.205E-12 0.000E+00
 ETOT 14  -41.567855427717     -1.421E-14 1.445E-13 0.000E+00
 ETOT 15  -41.567855427717      1.421E-14 2.953E-14 0.000E+00
 ETOT 16  -41.567855427717     -7.105E-15 3.371E-15 0.000E+00
 ETOT 17  -41.567855427717     -2.132E-14 7.268E-16 0.000E+00
 ETOT 18  -41.567855427717      2.842E-14 8.343E-17 0.000E+00
 ETOT 19  -41.567855427717     -1.421E-14 1.796E-17 0.000E+00
 ETOT 20  -41.567855427717      0.000E+00 2.073E-18 0.000E+00
 ETOT 21  -41.567855427717      1.421E-14 4.452E-19 0.000E+00
 ETOT 22  -41.567855427717     -7.105E-15 5.166E-20 0.000E+00
 ETOT 23  -41.567855427717     -1.421E-14 1.106E-20 0.000E+00
 ETOT 24  -41.567855427717      2.132E-14 9.840E-21 0.000E+00

 At SCF step   24   max residual=  9.84E-21 < tolwfr=  1.00E-20 =>converged.

 ----iterations are completed or convergence reached----

 dfpt_looppert: DFPT cycle converged with prtwf=-1. Will skip output of the 1st-order WFK file.
 dfpt_looppert : ek2=    5.6297269504E+01
          f-sum rule ratio=    1.1452600466E+00
 prteigrs : about to open file /scratch/users/j/a/jabreu/flow_simple_8atoms/flow/w474/t1/tmpdata/tmp_1WF1_EIG
 Expectation of eigenvalue derivatives (hartree) for nkpt=   2  k points:
  (in case of degenerate eigenvalues, averaged derivative)
 kpt#   1, nband= 61, wtk=  0.50000, kpt= -0.5000  0.5000  0.0000 (reduced coord)
   0.00000   -0.00000   -0.00000   -0.00000   -0.00000   -0.00000   -0.00000   -0.00000
   0.00000   -0.00000   -0.00000   -0.00000    0.00000   -0.00000    0.00000   -0.00000
   0.00000   -0.00000    0.00000   -0.00000    0.00000    0.00000   -0.00000   -0.00000
  -0.00000    0.00000    0.00000    0.00000    0.00000   -0.00000   -0.00000   -0.00000
  -0.00000    0.00000    0.00000    0.00000   -0.00000   -0.00000   -0.00000   -0.00000
   0.00000    0.00000   -0.00000   -0.00000    0.00000    0.00000    0.00000   -0.00000
  -0.00000    0.00000   -0.00000    0.00000   -0.00000    0.00000    0.00000   -0.00000
   0.00000   -0.00000   -0.00000    0.00000   -0.00011
 prteigrs : prtvol=0 or 1, do not print more k-points.

 Eight components of 2nd-order total energy (hartree) are
 1,2,3: 0th-order hamiltonian combined with 1st-order wavefunctions
     kin0=   5.37551065E+01 eigvalue=   5.31164161E+00  local=  -3.20861235E+01
 4,5,6: 1st-order hamiltonian combined with 1st and 0th-order wfs
     kin1=  -6.44750135E+01  Hartree=   0.00000000E+00     xc=   0.00000000E+00
 7,8,9: eventually, occupation + non-local contributions
    edocc=   9.22724175E+00     enl0=   5.35998903E+00   enl1=  -1.86606974E+01
 1-9 gives the relaxation energy (to be shifted if some occ is /=2.0)
   erelax=  -4.15678554E+01
  No Ewald or frozen-wf contrib.: the relaxation energy is the total one
 2DEtotal=   -0.4156785543E+02 Ha. Also 2DEtotal=   -0.113111887028E+04 eV
    (  non-var. 2DEtotal :   -4.1567855427E+01 Ha)

 CALCULATION OF EFFECTIVE MASSES
 NOTE : Additional infos (eff. mass eigenvalues, eigenvectors and, if degenerate, average mass) are available in stdout.

 K-point (-0.500, 0.500, 0.000) | band =    52
 Effective mass tensor:
             -1.1456697133             -0.2952099662             -0.0000003390
             -0.2952099662             -1.3162332552             -0.0000004211
             -0.0000003390             -0.0000004211             -1.0070288741
 Effective mass tensor eigenvalues:
             -1.5382329588             -1.0070288741             -0.9236700096
 Angular average effective mass 1/(<1/m>)=  -1.1006126917
 Angular average effective mass for Frohlich model (<m**0.5>)**2=  -1.1157907995
 Effective masses along directions: (cart. coord. / red. coord. -> eff. mass)
    1:   1.000000  0.000000  0.000000 /   0.963578 -0.267428  0.000000 ->  -1.0794588621
    2:   0.000000  1.000000  0.000000 /   0.000000  1.000000  0.000000 ->  -1.2401651501
    3:   0.000000  0.000000  1.000000 /   0.000000  0.000000  1.000000 ->  -1.0070288741
    4:   0.577350  0.577350  0.577350 /   0.642052  0.438636  0.628783 ->  -1.2985862270
    5:   0.000000  0.707107  0.707107 /   0.000000  0.700289  0.713860 ->  -1.1115039221
    6:   0.707107  0.000000  0.707107 /   0.700807 -0.194499  0.686324 ->  -1.0419869511
    7:   0.707107  0.707107  0.000000 /   0.825704  0.564103  0.000000 ->  -1.5183890258

 K-point ( 0.000, 0.000, 0.000) | band =    53
 Effective mass tensor:
              0.5928390125              0.0755427396              0.0000001340
              0.0755427396              0.6364853745             -0.0000002769
              0.0000001340             -0.0000002769              0.1472899316
 Effective mass tensor eigenvalues:
              0.1472899316              0.5360304141              0.6932939729
 Angular average effective mass 1/(<1/m>)=   0.2971095493
 Angular average effective mass for Frohlich model (<m**0.5>)**2=   0.3462786633
 Effective masses along directions: (cart. coord. / red. coord. -> eff. mass)
    1:   1.000000  0.000000  0.000000 /   0.963578 -0.267428  0.000000 ->   0.5838730477
    2:   0.000000  1.000000  0.000000 /   0.000000  1.000000  0.000000 ->   0.6268593118
    3:   0.000000  0.000000  1.000000 /   0.000000  0.000000  1.000000 ->   0.1472899316
    4:   0.577350  0.577350  0.577350 /   0.642052  0.438636  0.628783 ->   0.3095739970
    5:   0.000000  0.707107  0.707107 /   0.000000  0.700289  0.713860 ->   0.2385328045
    6:   0.707107  0.000000  0.707107 /   0.700807 -0.194499  0.686324 ->   0.2352380056
    7:   0.707107  0.707107  0.000000 /   0.825704  0.564103  0.000000 ->   0.6893215459

 END OF EFFECTIVE MASSES SECTION

 ---- first-order wavefunction calculations are completed ----

 Total localisation tensor (bohr^2) in cartesian coordinates
  WARNING : still subject to testing - especially symmetries.
      direction              matrix element
   alpha     beta       real part   imaginary part
     1        1       1.7055462144    0.0000000000
     1        2      -0.4222331142    0.0000000000
     1        3       0.0000000000    0.0000000000
     2        1      -0.4222331142    0.0000000000
     2        2       1.4615943387    0.0000000000
     2        3       0.0000000000    0.0000000000
     3        1       0.0000000000    0.0000000000
     3        2       0.0000000000    0.0000000000
     3        3       2.0901003796    0.0000000000

 respfn : d/dk was computed, but no 2DTE, so no DDB output.

== END DATASET(S) ==============================================================

 -outvars: echo values of variables after computation  --------
            acell      1.0000000000E+00  1.0000000000E+00  1.0000000000E+00 Bohr
              amu      3.90983000E+01  1.21753000E+02  1.96966540E+02
             ecut      4.20000000E+01 Hartree
           etotal     -4.1567855428E+01
            fcart      0.0000000000E+00  0.0000000000E+00  0.0000000000E+00
                       0.0000000000E+00  0.0000000000E+00  0.0000000000E+00
                       0.0000000000E+00  0.0000000000E+00  0.0000000000E+00
                       0.0000000000E+00  0.0000000000E+00  0.0000000000E+00
                       0.0000000000E+00  0.0000000000E+00  0.0000000000E+00
                       0.0000000000E+00  0.0000000000E+00  0.0000000000E+00
                       0.0000000000E+00  0.0000000000E+00  0.0000000000E+00
                       0.0000000000E+00  0.0000000000E+00  0.0000000000E+00
-          fftalg         512
           irdden           1
           irdwfk           1
           istwfk        0    1
              ixc     -116133
              kpt     -5.00000000E-01  5.00000000E-01  0.00000000E+00
                       0.00000000E+00  0.00000000E+00  0.00000000E+00
           kptopt           0
P           mkmem           2
P          mkqmem           2
P          mk1mem           2
            natom           8
            nband          61
           nbdbuf           4
            ngfft          72      72      72
             nkpt           2
            nstep        2000
             nsym           8
           ntypat           3
              occ      2.000000  2.000000  2.000000  2.000000  2.000000  2.000000
                       2.000000  2.000000  2.000000  2.000000  2.000000  2.000000
                       2.000000  2.000000  2.000000  2.000000  2.000000  2.000000
                       2.000000  2.000000  2.000000  2.000000  2.000000  2.000000
                       2.000000  2.000000  2.000000  2.000000  2.000000  2.000000
                       2.000000  2.000000  2.000000  2.000000  2.000000  2.000000
                       2.000000  2.000000  2.000000  2.000000  2.000000  2.000000
                       2.000000  2.000000  2.000000  2.000000  2.000000  2.000000
                       2.000000  2.000000  2.000000  2.000000  0.000000  0.000000
                       0.000000  0.000000  0.000000  0.000000  0.000000  0.000000
                       0.000000
        optdriver           1
            prtwf          -1
            rfdir           1       1       1
           rfelfd           2
            rprim      1.2332105589E+01  0.0000000000E+00  0.0000000000E+00
                      -3.4226090230E+00  1.1847640091E+01  0.0000000000E+00
                       0.0000000000E+00  0.0000000000E+00  1.2077244821E+01
          spgroup          63
           strten      0.0000000000E+00  0.0000000000E+00  0.0000000000E+00
                       0.0000000000E+00  0.0000000000E+00  0.0000000000E+00
           symrel      1  0  0   0  1  0   0  0  1      -1  0  0   0 -1  0   0  0 -1
                       0 -1  0  -1  0  0   0  0 -1       0  1  0   1  0  0   0  0  1
                      -1  0  0   0 -1  0   0  0  1       1  0  0   0  1  0   0  0 -1
                       0  1  0   1  0  0   0  0 -1       0 -1  0  -1  0  0   0  0  1
            tnons      0.0000000  0.0000000  0.0000000    -0.0000000 -0.0000000  0.0000000
                      -0.0000000 -0.0000000  0.0000000     0.0000000 -0.0000000  0.0000000
                      -0.0000000 -0.0000000  0.5000000     0.0000000  0.0000000  0.5000000
                       0.0000000 -0.0000000  0.5000000    -0.0000000 -0.0000000  0.5000000
           tolwfr      1.00000000E-20
            typat      1  1  1  1  2  2  3  3
           useylm           1
              wtk        0.50000    0.50000
           xangst      3.0015855979E+00  1.0208377880E+00  1.5977506755E+00
                       4.5670177059E+00  3.1025127812E+00  4.7932520265E+00
                       1.4768481667E-01  3.1669883306E+00  1.5977506755E+00
                       1.7131169246E+00  5.2486633237E+00  4.7932520265E+00
                       1.2720644582E+00  1.6915615560E+00  4.7932520265E+00
                       3.4426380644E+00  4.5779395558E+00  1.5977506755E+00
                       0.0000000000E+00  0.0000000000E+00  3.1955013510E+00
                       0.0000000000E+00  0.0000000000E+00  0.0000000000E+00
            xcart      5.6721747445E+00  1.9291038455E+00  3.0193112054E+00
                       8.6304127082E+00  5.8628994802E+00  9.0579336161E+00
                       2.7908385749E-01  5.9847406108E+00  3.0193112054E+00
                       3.2373218212E+00  9.9185362455E+00  9.0579336161E+00
                       2.4038534494E+00  3.1965880777E+00  9.0579336161E+00
                       6.5056431163E+00  8.6510520133E+00  3.0193112054E+00
                       0.0000000000E+00  0.0000000000E+00  6.0386224107E+00
                       0.0000000000E+00  0.0000000000E+00  0.0000000000E+00
             xred      5.0514200000E-01  1.6282600000E-01  2.5000000000E-01
                       8.3717400000E-01  4.9485800000E-01  7.5000000000E-01
                       1.6282600000E-01  5.0514200000E-01  2.5000000000E-01
                       4.9485800000E-01  8.3717400000E-01  7.5000000000E-01
                       2.6980800000E-01  2.6980800000E-01  7.5000000000E-01
                       7.3019200000E-01  7.3019200000E-01  2.5000000000E-01
                       0.0000000000E+00  0.0000000000E+00  5.0000000000E-01
                       0.0000000000E+00  0.0000000000E+00  0.0000000000E+00
            znucl       19.00000   51.00000   79.00000

- Timing analysis has been suppressed with timopt=0

 Suggested references for the acknowledgment of ABINIT usage.

 Calculation completed.
.Delivered  14 WARNINGs and  11 COMMENTs to log file.