.Version 9.5.1 of ABINIT

 ABINIT is a project of the Universite Catholique de Louvain,
 Corning Inc. and other collaborators, see ~abinit/doc/developers/contributors.txt .
 acknowledgments of the ABINIT effort.

.Starting date : Tue 27 Apr 2021.
- ( at 18h23 )

- input  file    -> /scratch/users/j/a/jabreu/flow_simple_4atoms/flow/w139/t1/run.abi
- output file    -> /scratch/users/j/a/jabreu/flow_simple_4atoms/flow/w139/t1/run.abo
- root for input  files -> /scratch/users/j/a/jabreu/flow_simple_4atoms/flow/w139/t1/indata/in
- root for output files -> /scratch/users/j/a/jabreu/flow_simple_4atoms/flow/w139/t1/outdata/out

 Symmetries : space group P6_3 m c (#186); Bravais hP (primitive hexag.)
     intxc =       0      iscf =       7    lmnmax =      18     lnmax =       6
     mgfft =      60  mpssoang =       3    mqgrid =    3001     natom =       4
  nloc_mem =       1    nspden =       1   nspinor =       1    nsppol =       1
      nsym =      12    n1xccc =    2501    ntypat =       2    occopt =       1
   xclevel =       2
-    mband =          27        mffmem =           1         mkmem =           1
-   mkqmem =           1        mk1mem =           1           mpw =        3995
      nfft =       77760          nkpt =           1
  Rough estimation (10% accuracy) of disk space for files :

------------- Echo of variables that govern the present computation ------------
-
- outvars: echo of selected default values
-   iomode0 =  0 , fftalg0 =512 , wfoptalg0 =  0
-
- outvars: echo of global parameters not present in the input file
-  max_nthreads =    0
-
 -outvars: echo values of preprocessed input variables --------
            acell      1.0000000000E+00  1.0000000000E+00  1.0000000000E+00 Bohr
              amu      6.97230000E+01  1.40067400E+01
             ecut      4.20000000E+01 Hartree
-          fftalg         512
           irdden           1
           irdwfk           1
           istwfk        1
              ixc     -116133
           kptopt           0
P           mkmem           1
P          mkqmem           1
P          mk1mem           1
            natom           4
            nband          27
           nbdbuf           4
            ngfft          36      36      60
             nkpt           1
            nstep         100
             nsym          12
           ntypat           2
              occ      2.000000  2.000000  2.000000  2.000000  2.000000  2.000000
                       2.000000  2.000000  2.000000  2.000000  2.000000  2.000000
                       2.000000  2.000000  2.000000  2.000000  2.000000  2.000000
                       0.000000  0.000000  0.000000  0.000000  0.000000  0.000000
                       0.000000  0.000000  0.000000
        optdriver           1
            prtwf          -1
            rfdir           1       1       1
           rfelfd           2
            rprim      6.0162889376E+00  0.0000000000E+00  0.0000000000E+00
                      -3.0081444688E+00  5.2102590565E+00  0.0000000000E+00
                       0.0000000000E+00  0.0000000000E+00  9.8012850386E+00
          spgroup         186
           symrel      1  0  0   0  1  0   0  0  1       0  1  0   1  0  0   0  0  1
                       1  1  0  -1  0  0   0  0  1      -1  0  0   1  1  0   0  0  1
                       0  1  0  -1 -1  0   0  0  1      -1 -1  0   0  1  0   0  0  1
                      -1  0  0   0 -1  0   0  0  1       0 -1  0  -1  0  0   0  0  1
                      -1 -1  0   1  0  0   0  0  1       1  0  0  -1 -1  0   0  0  1
                       0 -1  0   1  1  0   0  0  1       1  1  0   0 -1  0   0  0  1
            tnons      0.0000000  0.0000000  0.0000000     0.0000000  0.0000000  0.5000000
                       0.0000000  0.0000000  0.5000000    -0.0000000  0.0000000  0.0000000
                       0.0000000  0.0000000  0.0000000     0.0000000 -0.0000000  0.5000000
                       0.0000000  0.0000000  0.5000000     0.0000000  0.0000000  0.0000000
                      -0.0000000  0.0000000  0.0000000     0.0000000  0.0000000  0.5000000
                       0.0000000 -0.0000000  0.5000000     0.0000000  0.0000000  0.0000000
           tolwfr      1.00000000E-20
            typat      1  1  2  2
           useylm           1
           xangst     -4.7000377687E-16  1.8381002290E+00  2.5975561677E+00
                       1.5918414930E+00  9.1905011452E-01  4.2478390423E-03
                      -4.7000377687E-16  1.8381002290E+00  6.4407924312E-01
                       1.5918414930E+00  9.1905011452E-01  3.2373875718E+00
            xcart     -8.8817841970E-16  3.4735060377E+00  4.9086697717E+00
                       3.0081444688E+00  1.7367530188E+00  8.0272524466E-03
                      -8.8817841970E-16  3.4735060377E+00  1.2171333774E+00
                       3.0081444688E+00  1.7367530188E+00  6.1177758967E+00
             xred      3.3333333333E-01  6.6666666667E-01  5.0081900000E-01
                       6.6666666667E-01  3.3333333333E-01  8.1900000000E-04
                       3.3333333333E-01  6.6666666667E-01  1.2418100000E-01
                       6.6666666667E-01  3.3333333333E-01  6.2418100000E-01
            znucl       31.00000    7.00000

 chkinp: Checking input parameters for consistency.

== DATASET  1 ==================================================================
-   mpi_nproc: 1, omp_nthreads: -1 (-1 if OMP is not activated)

--- !DatasetInfo
iteration_state: {dtset: 1, }
dimensions: {natom: 4, nkpt: 1, mband: 27, nsppol: 1, nspinor: 1, nspden: 1, mpw: 3995, }
cutoff_energies: {ecut:  42.0, pawecutdg:  -1.0, }
electrons: {nelect:   3.60000000E+01, charge:   0.00000000E+00, occopt:   1.00000000E+00, tsmear:   1.00000000E-02, }
meta: {optdriver: 1, rfelfd: 2, }
...

 Real(R)+Recip(G) space primitive vectors, cartesian coordinates (Bohr,Bohr^-1):
 R(1)=  6.0162889  0.0000000  0.0000000  G(1)=  0.1662154  0.0959645  0.0000000
 R(2)= -3.0081445  5.2102591  0.0000000  G(2)=  0.0000000  0.1919290  0.0000000
 R(3)=  0.0000000  0.0000000  9.8012850  G(3)=  0.0000000  0.0000000  0.1020274
 Unit cell volume ucvol=  3.0723524E+02 bohr^3
 Angles (23,13,12)=  9.00000000E+01  9.00000000E+01  1.20000000E+02 degrees

 getcut: wavevector=  0.0000  0.0000  0.0000  ngfft=  36  36  60
         ecut(hartree)=     42.000   => boxcut(ratio)=   2.05109

--- Pseudopotential description ------------------------------------------------
- pspini: atom type   1  psp file is /scratch/users/j/a/jabreu/pseudos/PBEsol/Ga.psp8
- pspatm: opening atomic psp file    /scratch/users/j/a/jabreu/pseudos/PBEsol/Ga.psp8
- Ga    ONCVPSP-3.3.0  r_core=   1.66857   1.75011   1.90252
- 31.00000  13.00000    180112                znucl, zion, pspdat
    8 -116133    2    4       600   0.00000   pspcod,pspxc,lmax,lloc,mmax,r2well
    5.99000000000000    5.00000000000000    0.00000000000000   rchrg,fchrg,qchrg
     nproj     2     2     2
     extension_switch     1
  pspatm : epsatm=   24.50969055
         --- l  ekb(1:nproj) -->
             0    7.053021    1.156713
             1    6.846070    1.293139
             2   -8.368667   -2.819170
 pspatm: atomic psp has been read  and splines computed

- pspini: atom type   2  psp file is /scratch/users/j/a/jabreu/pseudos/PBEsol/N.psp8
- pspatm: opening atomic psp file    /scratch/users/j/a/jabreu/pseudos/PBEsol/N.psp8
- N     ONCVPSP-3.3.0  r_core=   1.20551   1.35824
-  7.00000   5.00000    180112                znucl, zion, pspdat
    8 -116133    1    4       600   0.00000   pspcod,pspxc,lmax,lloc,mmax,r2well
    5.99000000000000    4.00000000000000    0.00000000000000   rchrg,fchrg,qchrg
     nproj     2     2
     extension_switch     1
  pspatm : epsatm=    5.26508895
         --- l  ekb(1:nproj) -->
             0    7.464189    0.625868
             1   -4.309714   -1.012941
 pspatm: atomic psp has been read  and splines computed

   2.14378412E+03                                ecore*ucvol(ha*bohr**3)

-inwffil : will read wavefunctions from disk file /scratch/users/j/a/jabreu/flow_simple_4atoms/flow/w139/t1/indata/in_WFK

 ==>  initialize data related to q vector <==

 The list of irreducible perturbations for this q vector is:
    1)    idir= 1    ipert=   5
    2)    idir= 2    ipert=   5
    3)    idir= 3    ipert=   5

 Perturbation wavevector (in red.coord.)   0.000000  0.000000  0.000000
 Perturbation : derivative vs k along direction   1

 dfpt_looppert : COMMENT -
  In a d/dk calculation, iscf is set to -3 automatically.
 The set of symmetries contains only one element for this perturbation.
 symkpt : not enough symmetry to change the number of k points.

[...]

 Initialisation of the first-order wave-functions :
  ireadwf=   0

--- !BeginCycle
iteration_state: {dtset: 1, }
solver: {iscf: 7, nstep: 100, nline: 4, wfoptalg: 0, }
tolerances: {tolwfr: 1.00E-20, }
...

     iter   2DEtotal(Ha)        deltaE(Ha) residm    vres2
-ETOT  1  -141.54781056846     -1.415E+02 1.063E-01 0.000E+00
 ETOT  2  -141.60961109927     -6.180E-02 1.457E-04 0.000E+00
 ETOT  3  -141.60970027778     -8.918E-05 4.581E-07 0.000E+00
 ETOT  4  -141.60970048137     -2.036E-07 6.866E-10 0.000E+00
 ETOT  5  -141.60970048197     -6.085E-10 5.824E-12 0.000E+00
 ETOT  6  -141.60970048198     -2.217E-12 1.446E-14 0.000E+00
 ETOT  7  -141.60970048198     -8.527E-14 9.536E-17 0.000E+00
 ETOT  8  -141.60970048198      2.842E-14 3.350E-19 0.000E+00
 ETOT  9  -141.60970048198      2.842E-14 9.566E-21 0.000E+00

 At SCF step    9   max residual=  9.57E-21 < tolwfr=  1.00E-20 =>converged.

 ----iterations are completed or convergence reached----

 dfpt_looppert: DFPT cycle converged with prtwf=-1. Will skip output of the 1st-order WFK file.
 dfpt_looppert : ek2=    1.0470648941E+02
          f-sum rule ratio=    1.6841033436E+00
 prteigrs : about to open file /scratch/users/j/a/jabreu/flow_simple_4atoms/flow/w139/t1/tmpdata/tmp_1WF1_EIG
 Expectation of eigenvalue derivatives (hartree) for nkpt=   1  k points:
  (in case of degenerate eigenvalues, averaged derivative)
 kpt#   1, nband= 27, wtk=  1.00000, kpt=  0.0000  0.0000  0.0000 (reduced coord)
   0.00000    0.00000   -0.00000    0.00000    0.00000   -0.00000   -0.00000    0.00000
   0.00000    0.00000    0.00000    0.00000    0.00000    0.00000    0.00000   -0.00000
  -0.00000   -0.00000   -0.00000   -0.00000   -0.00000    0.00000    0.00000    0.00000
  -0.00000   -0.00000    0.00006

 Eight components of 2nd-order total energy (hartree) are
 1,2,3: 0th-order hamiltonian combined with 1st-order wavefunctions
     kin0=   1.25640113E+02 eigvalue=   3.10965723E+00  local=  -4.07590903E+01
 4,5,6: 1st-order hamiltonian combined with 1st and 0th-order wfs
     kin1=  -1.76336549E+02  Hartree=   0.00000000E+00     xc=   0.00000000E+00
 7,8,9: eventually, occupation + non-local contributions
    edocc=   4.52147292E+01     enl0=   8.40429124E+00   enl1=  -1.06882852E+02
 1-9 gives the relaxation energy (to be shifted if some occ is /=2.0)
   erelax=  -1.41609700E+02
  No Ewald or frozen-wf contrib.: the relaxation energy is the total one
 2DEtotal=   -0.1416097005E+03 Ha. Also 2DEtotal=   -0.385339591811E+04 eV
    (  non-var. 2DEtotal :   -1.4160970048E+02 Ha)

 Perturbation wavevector (in red.coord.)   0.000000  0.000000  0.000000
 Perturbation : derivative vs k along direction   2
 The set of symmetries contains only one element for this perturbation.
 symkpt : not enough symmetry to change the number of k points.

[...]

 Perturbation wavevector (in red.coord.)   0.000000  0.000000  0.000000
 Perturbation : derivative vs k along direction   3
 The set of symmetries contains only one element for this perturbation.
 symkpt : not enough symmetry to change the number of k points.

-inwffil : will read wavefunctions from disk file /scratch/users/j/a/jabreu/flow_simple_4atoms/flow/w139/t1/indata/in_WFK

 Initialisation of the first-order wave-functions :
  ireadwf=   0

--- !BeginCycle
iteration_state: {dtset: 1, }
solver: {iscf: 7, nstep: 100, nline: 4, wfoptalg: 0, }
tolerances: {tolwfr: 1.00E-20, }
...

     iter   2DEtotal(Ha)        deltaE(Ha) residm    vres2
-ETOT  1  -35.757318228752     -3.576E+01 6.034E-02 0.000E+00
 ETOT  2  -35.778464128294     -2.115E-02 6.912E-04 0.000E+00
 ETOT  3  -35.778483261551     -1.913E-05 4.046E-06 0.000E+00
 ETOT  4  -35.778483290539     -2.899E-08 6.093E-08 0.000E+00
 ETOT  5  -35.778483290595     -5.638E-11 5.101E-10 0.000E+00
 ETOT  6  -35.778483290596     -1.634E-13 7.438E-12 0.000E+00
 ETOT  7  -35.778483290596      4.263E-14 7.021E-14 0.000E+00
 ETOT  8  -35.778483290596     -1.421E-14 9.697E-16 0.000E+00
 ETOT  9  -35.778483290596     -7.105E-15 9.981E-18 0.000E+00
 ETOT 10  -35.778483290596     -7.105E-15 1.309E-19 0.000E+00
 ETOT 11  -35.778483290596      7.105E-15 9.354E-21 0.000E+00

 At SCF step   11   max residual=  9.35E-21 < tolwfr=  1.00E-20 =>converged.

 ----iterations are completed or convergence reached----

 dfpt_looppert: DFPT cycle converged with prtwf=-1. Will skip output of the 1st-order WFK file.
 dfpt_looppert : ek2=    2.9588721103E+01
          f-sum rule ratio=    1.3905048112E+00
 prteigrs : about to open file /scratch/users/j/a/jabreu/flow_simple_4atoms/flow/w139/t1/tmpdata/tmp_1WF1_EIG
 Expectation of eigenvalue derivatives (hartree) for nkpt=   1  k points:
  (in case of degenerate eigenvalues, averaged derivative)
 kpt#   1, nband= 27, wtk=  1.00000, kpt=  0.0000  0.0000  0.0000 (reduced coord)
   0.00000    0.00000   -0.00000    0.00000    0.00000    0.00000    0.00000    0.00000
   0.00000    0.00000    0.00000   -0.00000   -0.00000   -0.00000   -0.00000   -0.00000
   0.00000    0.00000   -0.00000    0.00000   -0.00000   -0.00000   -0.00000    0.00000
   0.00000    0.00000   -0.00000

 Eight components of 2nd-order total energy (hartree) are
 1,2,3: 0th-order hamiltonian combined with 1st-order wavefunctions
     kin0=   3.66065098E+01 eigvalue=   7.02904568E-01  local=  -1.18192651E+01
 4,5,6: 1st-order hamiltonian combined with 1st and 0th-order wfs
     kin1=  -4.11432591E+01  Hartree=   0.00000000E+00     xc=   0.00000000E+00
 7,8,9: eventually, occupation + non-local contributions
    edocc=   8.15573860E+00     enl0=   2.13259546E+00   enl1=  -3.04137075E+01
 1-9 gives the relaxation energy (to be shifted if some occ is /=2.0)
   erelax=  -3.57784833E+01
  No Ewald or frozen-wf contrib.: the relaxation energy is the total one
 2DEtotal=   -0.3577848329E+02 Ha. Also 2DEtotal=   -0.973582042749E+03 eV
    (  non-var. 2DEtotal :   -3.5778483290E+01 Ha)

 CALCULATION OF EFFECTIVE MASSES
 NOTE : Additional infos (eff. mass eigenvalues, eigenvectors and, if degenerate, average mass) are available in stdout.

 COMMENTS:
 - At k-point ( 0.000, 0.000, 0.000), bands    17 through    18
   are DEGENERATE (effective mass tensor is therefore not defined).
   See Section IIIB Eqs. (67)-(70) and Appendix E of PRB 93 205147 (2016).
 - Angular average effective mass for Frohlich model is to be averaged over degenerate bands. See later.
 - Associated theta integrals calculated with ntheta=   1000 points.

 K-point ( 0.000, 0.000, 0.000) | band =    17
 Transport equivalent effective mass tensor:
             -0.1696203464             -0.0000000001              0.0000000131
             -0.0000000001             -0.1696203463             -0.0000000072
              0.0000000131             -0.0000000072             -2.0678576617
 Transport equivalent effective mass tensor eigenvalues:
             -2.0678576617             -0.1696203464             -0.1696203463
 Angular average effective mass 1/(<1/m>)=  -0.2444065409
 Angular average effective mass for Frohlich model (<m**0.5>)**2=  -0.3028925683
 Effective masses along directions: (cart. coord. / red. coord. -> eff. mass)
    1:   1.000000  0.000000  0.000000 /   0.894427 -0.447214  0.000000 ->  -0.1696203464
    2:   0.000000  1.000000  0.000000 /   0.000000  1.000000  0.000000 ->  -0.1696203463
    3:   0.000000  0.000000  1.000000 /   0.000000  0.000000  1.000000 ->  -2.0678576594
    4:   0.577350  0.577350  0.577350 /   0.513800  0.188064  0.837044 ->  -0.2444065403
    5:   0.000000  0.707107  0.707107 /   0.000000  0.469389  0.882992 ->  -0.3135232915
    6:   0.707107  0.000000  0.707107 /   0.506107 -0.253054  0.824512 ->  -0.3135232861
    7:   0.707107  0.707107  0.000000 /   0.939071  0.343724  0.000000 ->  -0.1696203464

 K-point ( 0.000, 0.000, 0.000) | band =    18
 Transport equivalent effective mass tensor:
             -2.2032402447              0.0000000005             -0.0000000000
              0.0000000005             -2.2032402437              0.0000000000
             -0.0000000000              0.0000000000             -2.0678576617
 Transport equivalent effective mass tensor eigenvalues:
             -2.2032402450             -2.2032402435             -2.0678576617
 Angular average effective mass 1/(<1/m>)=  -2.1561851170
 Angular average effective mass for Frohlich model (<m**0.5>)**2=  -2.1567695866
 Effective masses along directions: (cart. coord. / red. coord. -> eff. mass)
    1:   1.000000  0.000000  0.000000 /   0.894427 -0.447214  0.000000 ->  -2.2032402445
    2:   0.000000  1.000000  0.000000 /   0.000000  1.000000  0.000000 ->  -2.2032402443
    3:   0.000000  0.000000  1.000000 /   0.000000  0.000000  1.000000 ->  -2.0678576641
    4:   0.577350  0.577350  0.577350 /   0.513800  0.188064  0.837044 ->  -2.1561851152
    5:   0.000000  0.707107  0.707107 /   0.000000  0.469389  0.882992 ->  -2.1334033160
    6:   0.707107  0.000000  0.707107 /   0.506107 -0.253054  0.824512 ->  -2.1334033179
    7:   0.707107  0.707107  0.000000 /   0.939071  0.343724  0.000000 ->  -2.2032402406

 Angular average effective mass for Frohlich model, averaged over degenerate bands.
 Value of     (<<m**0.5>>)**2 =     1.019041E+00
 Absolute Value of <<m**0.5>> =     1.009476E+00

 K-point ( 0.000, 0.000, 0.000) | band =    19
 Effective mass tensor:
              0.1750505167             -0.0000000000              0.0000000010
             -0.0000000000              0.1750505168             -0.0000000004
              0.0000000010             -0.0000000004              0.1579146175
 Effective mass tensor eigenvalues:
              0.1579146175              0.1750505167              0.1750505168
 Angular average effective mass 1/(<1/m>)=   0.1689397574
 Angular average effective mass for Frohlich model (<m**0.5>)**2=   0.1690614301
 Effective masses along directions: (cart. coord. / red. coord. -> eff. mass)
    1:   1.000000  0.000000  0.000000 /   0.894427 -0.447214  0.000000 ->   0.1750505167
    2:   0.000000  1.000000  0.000000 /   0.000000  1.000000  0.000000 ->   0.1750505168
    3:   0.000000  0.000000  1.000000 /   0.000000  0.000000  1.000000 ->   0.1579146175
    4:   0.577350  0.577350  0.577350 /   0.513800  0.188064  0.837044 ->   0.1689397579
    5:   0.000000  0.707107  0.707107 /   0.000000  0.469389  0.882992 ->   0.1660416212
    6:   0.707107  0.000000  0.707107 /   0.506107 -0.253054  0.824512 ->   0.1660416225
    7:   0.707107  0.707107  0.000000 /   0.939071  0.343724  0.000000 ->   0.1750505167

 END OF EFFECTIVE MASSES SECTION

 ---- first-order wavefunction calculations are completed ----

 Total localisation tensor (bohr^2) in cartesian coordinates
  WARNING : still subject to testing - especially symmetries.
      direction              matrix element
   alpha     beta       real part   imaginary part
     1        1       5.3042343993    0.0000000000
     1        2      -1.8374406947    0.0000000000
     1        3       0.0000000000    0.0000000000
     2        1      -1.8374406947    0.0000000000
     2        2       3.1825406391    0.0000000000
     2        3       0.0000000000    0.0000000000
     3        1       0.0000000000    0.0000000000
     3        2       0.0000000000    0.0000000000
     3        3       2.7699613443    0.0000000000

 respfn : d/dk was computed, but no 2DTE, so no DDB output.

== END DATASET(S) ==============================================================

 -outvars: echo values of variables after computation  --------
            acell      1.0000000000E+00  1.0000000000E+00  1.0000000000E+00 Bohr
              amu      6.97230000E+01  1.40067400E+01
             ecut      4.20000000E+01 Hartree
           etotal     -3.5778483291E+01
            fcart      0.0000000000E+00  0.0000000000E+00  0.0000000000E+00
                       0.0000000000E+00  0.0000000000E+00  0.0000000000E+00
                       0.0000000000E+00  0.0000000000E+00  0.0000000000E+00
                       0.0000000000E+00  0.0000000000E+00  0.0000000000E+00
-          fftalg         512
           irdden           1
           irdwfk           1
           istwfk        1
              ixc     -116133
           kptopt           0
P           mkmem           1
P          mkqmem           1
P          mk1mem           1
            natom           4
            nband          27
           nbdbuf           4
            ngfft          36      36      60
             nkpt           1
            nstep         100
             nsym          12
           ntypat           2
              occ      2.000000  2.000000  2.000000  2.000000  2.000000  2.000000
                       2.000000  2.000000  2.000000  2.000000  2.000000  2.000000
                       2.000000  2.000000  2.000000  2.000000  2.000000  2.000000
                       0.000000  0.000000  0.000000  0.000000  0.000000  0.000000
                       0.000000  0.000000  0.000000
        optdriver           1
            prtwf          -1
            rfdir           1       1       1
           rfelfd           2
            rprim      6.0162889376E+00  0.0000000000E+00  0.0000000000E+00
                      -3.0081444688E+00  5.2102590565E+00  0.0000000000E+00
                       0.0000000000E+00  0.0000000000E+00  9.8012850386E+00
          spgroup         186
           strten      0.0000000000E+00  0.0000000000E+00  0.0000000000E+00
                       0.0000000000E+00  0.0000000000E+00  0.0000000000E+00
           symrel      1  0  0   0  1  0   0  0  1       0  1  0   1  0  0   0  0  1
                       1  1  0  -1  0  0   0  0  1      -1  0  0   1  1  0   0  0  1
                       0  1  0  -1 -1  0   0  0  1      -1 -1  0   0  1  0   0  0  1
                      -1  0  0   0 -1  0   0  0  1       0 -1  0  -1  0  0   0  0  1
                      -1 -1  0   1  0  0   0  0  1       1  0  0  -1 -1  0   0  0  1
                       0 -1  0   1  1  0   0  0  1       1  1  0   0 -1  0   0  0  1
            tnons      0.0000000  0.0000000  0.0000000     0.0000000  0.0000000  0.5000000
                       0.0000000  0.0000000  0.5000000    -0.0000000  0.0000000  0.0000000
                       0.0000000  0.0000000  0.0000000     0.0000000 -0.0000000  0.5000000
                       0.0000000  0.0000000  0.5000000     0.0000000  0.0000000  0.0000000
                      -0.0000000  0.0000000  0.0000000     0.0000000  0.0000000  0.5000000
                       0.0000000 -0.0000000  0.5000000     0.0000000  0.0000000  0.0000000
           tolwfr      1.00000000E-20
            typat      1  1  2  2
           useylm           1
           xangst     -4.7000377687E-16  1.8381002290E+00  2.5975561677E+00
                       1.5918414930E+00  9.1905011452E-01  4.2478390423E-03
                      -4.7000377687E-16  1.8381002290E+00  6.4407924312E-01
                       1.5918414930E+00  9.1905011452E-01  3.2373875718E+00
            xcart     -8.8817841970E-16  3.4735060377E+00  4.9086697717E+00
                       3.0081444688E+00  1.7367530188E+00  8.0272524466E-03
                      -8.8817841970E-16  3.4735060377E+00  1.2171333774E+00
                       3.0081444688E+00  1.7367530188E+00  6.1177758967E+00
             xred      3.3333333333E-01  6.6666666667E-01  5.0081900000E-01
                       6.6666666667E-01  3.3333333333E-01  8.1900000000E-04
                       3.3333333333E-01  6.6666666667E-01  1.2418100000E-01
                       6.6666666667E-01  3.3333333333E-01  6.2418100000E-01
            znucl       31.00000    7.00000

- Timing analysis has been suppressed with timopt=0

 Suggested references for the acknowledgment of ABINIT usage.

 Calculation completed.
.Delivered   6 WARNINGs and   5 COMMENTs to log file.