.Version 9.5.1 of ABINIT

 ABINIT is a project of the Universite Catholique de Louvain,
 Corning Inc. and other collaborators, see ~abinit/doc/developers/contributors.txt .
 acknowledgments of the ABINIT effort.

.Starting date : Tue 27 Apr 2021.
- ( at 18h42 )

- input  file    -> /scratch/users/j/a/jabreu/flow_simple_4atoms/flow/w239/t1/run.abi
- output file    -> /scratch/users/j/a/jabreu/flow_simple_4atoms/flow/w239/t1/run.abo
- root for input  files -> /scratch/users/j/a/jabreu/flow_simple_4atoms/flow/w239/t1/indata/in
- root for output files -> /scratch/users/j/a/jabreu/flow_simple_4atoms/flow/w239/t1/outdata/out

 Symmetries : space group P6_3 m c (#186); Bravais hP (primitive hexag.)
     intxc =       0      iscf =       7    lmnmax =      18     lnmax =       6
     mgfft =      75  mpssoang =       3    mqgrid =    3628     natom =       4
  nloc_mem =       1    nspden =       1   nspinor =       1    nsppol =       1
      nsym =      12    n1xccc =    2501    ntypat =       2    occopt =       1
   xclevel =       2
-    mband =          27        mffmem =           1         mkmem =           2
-   mkqmem =           2        mk1mem =           2           mpw =        8017
      nfft =      172800          nkpt =           2
  Rough estimation (10% accuracy) of disk space for files :

------------- Echo of variables that govern the present computation ------------
-
- outvars: echo of selected default values
-   iomode0 =  0 , fftalg0 =512 , wfoptalg0 =  0
-
- outvars: echo of global parameters not present in the input file
-  max_nthreads =    0
-
 -outvars: echo values of preprocessed input variables --------
            acell      1.0000000000E+00  1.0000000000E+00  1.0000000000E+00 Bohr
              amu      2.69815390E+01  7.49215900E+01
             ecut      4.20000000E+01 Hartree
-          fftalg         512
           irdden           1
           irdwfk           1
           istwfk        1    0
              ixc     -116133
              kpt      0.00000000E+00  0.00000000E+00  0.00000000E+00
                       5.00000000E-01 -5.55111512E-17  3.66666667E-01
           kptopt           0
P           mkmem           2
P          mkqmem           2
P          mk1mem           2
            natom           4
            nband          27
           nbdbuf           4
            ngfft          48      48      75
             nkpt           2
            nstep         100
             nsym          12
           ntypat           2
              occ      2.000000  2.000000  2.000000  2.000000  2.000000  2.000000
                       2.000000  2.000000  2.000000  2.000000  2.000000  2.000000
                       2.000000  2.000000  2.000000  2.000000  2.000000  2.000000
                       0.000000  0.000000  0.000000  0.000000  0.000000  0.000000
                       0.000000  0.000000  0.000000
        optdriver           1
            prtwf          -1
            rfdir           1       1       1
           rfelfd           2
            rprim      7.5653461024E+00  0.0000000000E+00  0.0000000000E+00
                      -3.7826730512E+00  6.5517819131E+00  0.0000000000E+00
                       0.0000000000E+00  0.0000000000E+00  1.2434570848E+01
          spgroup         186
           symrel      1  0  0   0  1  0   0  0  1       0  1  0   1  0  0   0  0  1
                       1  1  0  -1  0  0   0  0  1      -1  0  0   1  1  0   0  0  1
                       0  1  0  -1 -1  0   0  0  1      -1 -1  0   0  1  0   0  0  1
                      -1  0  0   0 -1  0   0  0  1       0 -1  0  -1  0  0   0  0  1
                      -1 -1  0   1  0  0   0  0  1       1  0  0  -1 -1  0   0  0  1
                       0 -1  0   1  1  0   0  0  1       1  1  0   0 -1  0   0  0  1
            tnons      0.0000000  0.0000000  0.0000000     0.0000000 -0.0000000  0.5000000
                      -0.0000000 -0.0000000  0.5000000    -0.0000000  0.0000000  0.0000000
                      -0.0000000 -0.0000000  0.0000000    -0.0000000 -0.0000000  0.5000000
                      -0.0000000 -0.0000000  0.5000000    -0.0000000 -0.0000000  0.0000000
                      -0.0000000 -0.0000000  0.0000000    -0.0000000 -0.0000000  0.5000000
                       0.0000000 -0.0000000  0.5000000     0.0000000 -0.0000000  0.0000000
           tolwfr      1.00000000E-20
            typat      1  1  2  2
           useylm           1
              wtk        0.50000    0.50000
           xangst      2.0017043662E+00  1.1556845547E+00  6.5751761629E+00
                       2.3500188843E-16  2.3113691094E+00  3.2851304173E+00
                       2.0017043662E+00  1.1556845547E+00  4.1108924189E+00
                       2.3500188843E-16  2.3113691094E+00  8.2084667326E-01
            xcart      3.7826730512E+00  2.1839273044E+00  1.2425282223E+01
                       4.4408920985E-16  4.3678546087E+00  6.2079967995E+00
                       3.7826730512E+00  2.1839273044E+00  7.7684608335E+00
                       4.4408920985E-16  4.3678546087E+00  1.5511754096E+00
             xred      6.6666666667E-01  3.3333333333E-01  9.9925300000E-01
                       3.3333333333E-01  6.6666666667E-01  4.9925300000E-01
                       6.6666666667E-01  3.3333333333E-01  6.2474700000E-01
                       3.3333333333E-01  6.6666666667E-01  1.2474700000E-01
            znucl       13.00000   33.00000

 chkinp: Checking input parameters for consistency.

== DATASET  1 ==================================================================
-   mpi_nproc: 1, omp_nthreads: -1 (-1 if OMP is not activated)

--- !DatasetInfo
iteration_state: {dtset: 1, }
dimensions: {natom: 4, nkpt: 2, mband: 27, nsppol: 1, nspinor: 1, nspden: 1, mpw: 8017, }
cutoff_energies: {ecut:  42.0, pawecutdg:  -1.0, }
electrons: {nelect:   3.60000000E+01, charge:   0.00000000E+00, occopt:   1.00000000E+00, tsmear:   1.00000000E-02, }
meta: {optdriver: 1, rfelfd: 2, }
...

 Real(R)+Recip(G) space primitive vectors, cartesian coordinates (Bohr,Bohr^-1):
 R(1)=  7.5653461  0.0000000  0.0000000  G(1)=  0.1321817  0.0763151  0.0000000
 R(2)= -3.7826731  6.5517819  0.0000000  G(2)=  0.0000000  0.1526302  0.0000000
 R(3)=  0.0000000  0.0000000 12.4345708  G(3)=  0.0000000  0.0000000  0.0804210
 Unit cell volume ucvol=  6.1633813E+02 bohr^3
 Angles (23,13,12)=  9.00000000E+01  9.00000000E+01  1.20000000E+02 degrees

 getcut: wavevector=  0.0000  0.0000  0.0000  ngfft=  48  48  75
         ecut(hartree)=     42.000   => boxcut(ratio)=   2.03991

--- Pseudopotential description ------------------------------------------------
- pspini: atom type   1  psp file is /scratch/users/j/a/jabreu/pseudos/PBEsol/Al.psp8
- pspatm: opening atomic psp file    /scratch/users/j/a/jabreu/pseudos/PBEsol/Al.psp8
- Al    ONCVPSP-3.3.0  r_core=   1.76802   1.76802   1.70587
- 13.00000   3.00000    180112                znucl, zion, pspdat
    8 -116133    2    4       600   0.00000   pspcod,pspxc,lmax,lloc,mmax,r2well
    5.99000000000000    5.00000000000000    0.00000000000000   rchrg,fchrg,qchrg
     nproj     2     2     2
     extension_switch     1
  pspatm : epsatm=    0.68509324
         --- l  ekb(1:nproj) -->
             0    5.834965    0.726662
             1    6.225605    0.924840
             2   -2.432733   -0.548689
 pspatm: atomic psp has been read  and splines computed

- pspini: atom type   2  psp file is /scratch/users/j/a/jabreu/pseudos/PBEsol/As.psp8
- pspatm: opening atomic psp file    /scratch/users/j/a/jabreu/pseudos/PBEsol/As.psp8
- As    ONCVPSP-3.3.0  r_core=   1.76603   1.70395   1.80867
- 33.00000  15.00000    180112                znucl, zion, pspdat
    8 -116133    2    4       600   0.00000   pspcod,pspxc,lmax,lloc,mmax,r2well
    5.99000000000000    5.00000000000000    0.00000000000000   rchrg,fchrg,qchrg
     nproj     2     2     2
     extension_switch     1
  pspatm : epsatm=   28.79155382
         --- l  ekb(1:nproj) -->
             0    8.270760    0.868950
             1    4.919053    0.756587
             2  -10.048665   -4.076802
 pspatm: atomic psp has been read  and splines computed

   2.12231859E+03                                ecore*ucvol(ha*bohr**3)

-inwffil : will read wavefunctions from disk file /scratch/users/j/a/jabreu/flow_simple_4atoms/flow/w239/t1/indata/in_WFK

 ==>  initialize data related to q vector <==

 The list of irreducible perturbations for this q vector is:
    1)    idir= 1    ipert=   5
    2)    idir= 2    ipert=   5
    3)    idir= 3    ipert=   5

 Perturbation wavevector (in red.coord.)   0.000000  0.000000  0.000000
 Perturbation : derivative vs k along direction   1

 dfpt_looppert : COMMENT -
  In a d/dk calculation, iscf is set to -3 automatically.
 The set of symmetries contains only one element for this perturbation.
 symkpt : not enough symmetry to change the number of k points.

[...]

 Initialisation of the first-order wave-functions :
  ireadwf=   0

--- !BeginCycle
iteration_state: {dtset: 1, }
solver: {iscf: 7, nstep: 100, nline: 4, wfoptalg: 0, }
tolerances: {tolwfr: 1.00E-20, }
...

     iter   2DEtotal(Ha)        deltaE(Ha) residm    vres2
-ETOT  1  -90.424538092808     -9.042E+01 9.548E-02 0.000E+00
 ETOT  2  -90.478059721015     -5.352E-02 4.390E-04 0.000E+00
 ETOT  3  -90.478099245370     -3.952E-05 8.908E-06 0.000E+00
 ETOT  4  -90.478099386496     -1.411E-07 6.948E-08 0.000E+00
 ETOT  5  -90.478099387506     -1.010E-09 1.811E-09 0.000E+00
 ETOT  6  -90.478099387515     -8.583E-12 1.744E-11 0.000E+00
 ETOT  7  -90.478099387515     -1.421E-13 5.106E-13 0.000E+00
 ETOT  8  -90.478099387515      0.000E+00 5.651E-15 0.000E+00
 ETOT  9  -90.478099387515      4.263E-14 1.716E-16 0.000E+00
 ETOT 10  -90.478099387515      5.684E-14 2.054E-18 0.000E+00
 ETOT 11  -90.478099387515     -1.421E-14 6.007E-20 0.000E+00
 ETOT 12  -90.478099387515      0.000E+00 9.376E-21 0.000E+00

 At SCF step   12   max residual=  9.38E-21 < tolwfr=  1.00E-20 =>converged.

 ----iterations are completed or convergence reached----

 dfpt_looppert: DFPT cycle converged with prtwf=-1. Will skip output of the 1st-order WFK file.
 dfpt_looppert : ek2=    6.6217589557E+01
          f-sum rule ratio=    1.4360421975E+00
 prteigrs : about to open file /scratch/users/j/a/jabreu/flow_simple_4atoms/flow/w239/t1/tmpdata/tmp_1WF1_EIG
 Expectation of eigenvalue derivatives (hartree) for nkpt=   2  k points:
  (in case of degenerate eigenvalues, averaged derivative)
 kpt#   1, nband= 27, wtk=  0.50000, kpt=  0.0000  0.0000  0.0000 (reduced coord)
  -0.00000   -0.00000   -0.00000   -0.00000   -0.00000   -0.00000   -0.00000   -0.00000
   0.00000    0.00000   -0.00000    0.00000    0.00000   -0.00000   -0.00000    0.00000
   0.00000    0.00000    0.00000    0.00000    0.00000    0.00000   -0.00000    0.00000
   0.00000   -0.00002   -0.00002
 prteigrs : prtvol=0 or 1, do not print more k-points.

 Eight components of 2nd-order total energy (hartree) are
 1,2,3: 0th-order hamiltonian combined with 1st-order wavefunctions
     kin0=   7.12068759E+01 eigvalue=   1.01086861E+01  local=  -2.59380738E+01
 4,5,6: 1st-order hamiltonian combined with 1st and 0th-order wfs
     kin1=  -9.50912528E+01  Hartree=   0.00000000E+00     xc=   0.00000000E+00
 7,8,9: eventually, occupation + non-local contributions
    edocc=   2.72916562E+01     enl0=   7.80895494E+00   enl1=  -8.58649460E+01
 1-9 gives the relaxation energy (to be shifted if some occ is /=2.0)
   erelax=  -9.04780994E+01
  No Ewald or frozen-wf contrib.: the relaxation energy is the total one
 2DEtotal=   -0.9047809939E+02 Ha. Also 2DEtotal=   -0.246203429336E+04 eV
    (  non-var. 2DEtotal :   -9.0478099387E+01 Ha)

 Perturbation wavevector (in red.coord.)   0.000000  0.000000  0.000000
 Perturbation : derivative vs k along direction   2
 The set of symmetries contains only one element for this perturbation.
 symkpt : not enough symmetry to change the number of k points.

[...]

 Perturbation wavevector (in red.coord.)   0.000000  0.000000  0.000000
 Perturbation : derivative vs k along direction   3
 The set of symmetries contains only one element for this perturbation.
 symkpt : not enough symmetry to change the number of k points.

-inwffil : will read wavefunctions from disk file /scratch/users/j/a/jabreu/flow_simple_4atoms/flow/w239/t1/indata/in_WFK

 Initialisation of the first-order wave-functions :
  ireadwf=   0

--- !BeginCycle
iteration_state: {dtset: 1, }
solver: {iscf: 7, nstep: 100, nline: 4, wfoptalg: 0, }
tolerances: {tolwfr: 1.00E-20, }
...

     iter   2DEtotal(Ha)        deltaE(Ha) residm    vres2
-ETOT  1  -24.218986746345     -2.422E+01 4.840E-02 0.000E+00
 ETOT  2  -24.235861525842     -1.687E-02 2.049E-04 0.000E+00
 ETOT  3  -24.235870837188     -9.311E-06 2.527E-06 0.000E+00
 ETOT  4  -24.235870861307     -2.412E-08 2.036E-08 0.000E+00
 ETOT  5  -24.235870861463     -1.564E-10 3.991E-10 0.000E+00
 ETOT  6  -24.235870861465     -1.382E-12 6.639E-12 0.000E+00
 ETOT  7  -24.235870861465      7.105E-15 1.728E-13 0.000E+00
 ETOT  8  -24.235870861465     -1.066E-14 3.308E-15 0.000E+00
 ETOT  9  -24.235870861465     -4.263E-14 8.618E-17 0.000E+00
 ETOT 10  -24.235870861465      1.066E-14 1.646E-18 0.000E+00
 ETOT 11  -24.235870861465      3.553E-15 4.268E-20 0.000E+00
 ETOT 12  -24.235870861465     -3.553E-15 9.782E-21 0.000E+00

 At SCF step   12   max residual=  9.78E-21 < tolwfr=  1.00E-20 =>converged.

 ----iterations are completed or convergence reached----

 dfpt_looppert: DFPT cycle converged with prtwf=-1. Will skip output of the 1st-order WFK file.
 dfpt_looppert : ek2=    1.8383602922E+01
          f-sum rule ratio=    1.3412547372E+00
 prteigrs : about to open file /scratch/users/j/a/jabreu/flow_simple_4atoms/flow/w239/t1/tmpdata/tmp_1WF1_EIG
 Expectation of eigenvalue derivatives (hartree) for nkpt=   2  k points:
  (in case of degenerate eigenvalues, averaged derivative)
 kpt#   1, nband= 27, wtk=  0.50000, kpt=  0.0000  0.0000  0.0000 (reduced coord)
   0.00000   -0.00000    0.00000    0.00000   -0.00000   -0.00000    0.00000    0.00000
   0.00000    0.00000    0.00000   -0.00000    0.00000   -0.00000   -0.00000   -0.00000
  -0.00000   -0.00000   -0.00000   -0.00000   -0.00000   -0.00000   -0.00000    0.00000
   0.00000   -0.00000   -0.00000
 prteigrs : prtvol=0 or 1, do not print more k-points.

 Eight components of 2nd-order total energy (hartree) are
 1,2,3: 0th-order hamiltonian combined with 1st-order wavefunctions
     kin0=   1.97597345E+01 eigvalue=   2.81409427E+00  local=  -7.19382995E+00
 4,5,6: 1st-order hamiltonian combined with 1st and 0th-order wfs
     kin1=  -2.46570945E+01  Hartree=   0.00000000E+00     xc=   0.00000000E+00
 7,8,9: eventually, occupation + non-local contributions
    edocc=   6.69256191E+00     enl0=   2.16331012E+00   enl1=  -2.38146472E+01
 1-9 gives the relaxation energy (to be shifted if some occ is /=2.0)
   erelax=  -2.42358709E+01
  No Ewald or frozen-wf contrib.: the relaxation energy is the total one
 2DEtotal=   -0.2423587086E+02 Ha. Also 2DEtotal=   -0.659491585193E+03 eV
    (  non-var. 2DEtotal :   -2.4235870861E+01 Ha)

 CALCULATION OF EFFECTIVE MASSES
 NOTE : Additional infos (eff. mass eigenvalues, eigenvectors and, if degenerate, average mass) are available in stdout.

 COMMENTS:
 - At k-point ( 0.000, 0.000, 0.000), bands    17 through    18
   are DEGENERATE (effective mass tensor is therefore not defined).
   See Section IIIB Eqs. (67)-(70) and Appendix E of PRB 93 205147 (2016).
 - Angular average effective mass for Frohlich model is to be averaged over degenerate bands. See later.
 - Associated theta integrals calculated with ntheta=   1000 points.

 K-point ( 0.000, 0.000, 0.000) | band =    17
 Transport equivalent effective mass tensor:
             -0.1089024562              0.0000000118             -0.0000002378
              0.0000000118             -0.1089024701              0.0000001144
             -0.0000002378              0.0000001144             -1.1433158079
 Transport equivalent effective mass tensor eigenvalues:
             -1.1433158079             -0.1089024768             -0.1089024495
 Angular average effective mass 1/(<1/m>)=  -0.1559275346
 Angular average effective mass for Frohlich model (<m**0.5>)**2=  -0.1902006302
 Effective masses along directions: (cart. coord. / red. coord. -> eff. mass)
    1:   1.000000  0.000000  0.000000 /   0.894427 -0.447214  0.000000 ->  -0.1089024632
    2:   0.000000  1.000000  0.000000 /   0.000000  1.000000  0.000000 ->  -0.1089024631
    3:   0.000000  0.000000  1.000000 /   0.000000  0.000000  1.000000 ->  -1.1433151044
    4:   0.577350  0.577350  0.577350 /   0.510612  0.186897  0.839253 ->  -0.1559275540
    5:   0.000000  0.707107  0.707107 /   0.000000  0.466151  0.884705 ->  -0.1988629026
    6:   0.707107  0.000000  0.707107 /   0.503059 -0.251530  0.826840 ->  -0.1988630142
    7:   0.707107  0.707107  0.000000 /   0.939071  0.343724  0.000000 ->  -0.1089024631

 K-point ( 0.000, 0.000, 0.000) | band =    18
 Transport equivalent effective mass tensor:
             -1.4143425864             -0.0000001531              0.0000002047
             -0.0000001531             -1.4143424054              0.0000002156
              0.0000002047              0.0000002156             -1.1433158079
 Transport equivalent effective mass tensor eigenvalues:
             -1.4143426738             -1.4143423181             -1.1433158079
 Angular average effective mass 1/(<1/m>)=  -1.3107685309
 Angular average effective mass for Frohlich model (<m**0.5>)**2=  -1.3148685863
 Effective masses along directions: (cart. coord. / red. coord. -> eff. mass)
    1:   1.000000  0.000000  0.000000 /   0.894427 -0.447214  0.000000 ->  -1.4143424952
    2:   0.000000  1.000000  0.000000 /   0.000000  1.000000  0.000000 ->  -1.4143424952
    3:   0.000000  0.000000  1.000000 /   0.000000  0.000000  1.000000 ->  -1.1433165113
    4:   0.577350  0.577350  0.577350 /   0.510612  0.186897  0.839253 ->  -1.3107679915
    5:   0.000000  0.707107  0.707107 /   0.000000  0.466151  0.884705 ->  -1.2644693466
    6:   0.707107  0.000000  0.707107 /   0.503059 -0.251530  0.826840 ->  -1.2644693693
    7:   0.707107  0.707107  0.000000 /   0.939071  0.343724  0.000000 ->  -1.4143424961

 Angular average effective mass for Frohlich model, averaged over degenerate bands.
 Value of     (<<m**0.5>>)**2 =     6.263117E-01
 Absolute Value of <<m**0.5>> =     7.913986E-01

 K-point ( 0.500,-0.000, 0.367) | band =    19
 Effective mass tensor:
              2.8975984268              1.5468274060             -0.0000189926
              1.5468274060              1.1114765814             -0.0000110911
             -0.0000189926             -0.0000110911              0.1848677731
 Effective mass tensor eigenvalues:
              0.1848677730              0.2184152139              3.7906597945
 Angular average effective mass 1/(<1/m>)=   0.2926397135
 Angular average effective mass for Frohlich model (<m**0.5>)**2=   0.3797838906
 Effective masses along directions: (cart. coord. / red. coord. -> eff. mass)
    1:   1.000000  0.000000  0.000000 /   0.894427 -0.447214  0.000000 ->   0.7448989782
    2:   0.000000  1.000000  0.000000 /   0.000000  1.000000  0.000000 ->   0.2857324059
    3:   0.000000  0.000000  1.000000 /   0.000000  0.000000  1.000000 ->   0.1848677730
    4:   0.577350  0.577350  0.577350 /   0.510612  0.186897  0.839253 ->   0.4604742421
    5:   0.000000  0.707107  0.707107 /   0.000000  0.466151  0.884705 ->   0.2244899265
    6:   0.707107  0.000000  0.707107 /   0.503059 -0.251530  0.826840 ->   0.2962178660
    7:   0.707107  0.707107  0.000000 /   0.939071  0.343724  0.000000 ->   1.8088693542

 END OF EFFECTIVE MASSES SECTION

 ---- first-order wavefunction calculations are completed ----

 Total localisation tensor (bohr^2) in cartesian coordinates
  WARNING : still subject to testing - especially symmetries.
      direction              matrix element
   alpha     beta       real part   imaginary part
     1        1       6.4790733734    0.0000000000
     1        2      -2.6382743091    0.0000000000
     1        3       0.0000000000    0.0000000000
     2        1      -2.6382743091    0.0000000000
     2        2       4.5696251477    0.0000000000
     2        3       0.0000000000    0.0000000000
     3        1       0.0000000000    0.0000000000
     3        2       0.0000000000    0.0000000000
     3        3       3.3254811607    0.0000000000

 respfn : d/dk was computed, but no 2DTE, so no DDB output.

== END DATASET(S) ==============================================================

 -outvars: echo values of variables after computation  --------
            acell      1.0000000000E+00  1.0000000000E+00  1.0000000000E+00 Bohr
              amu      2.69815390E+01  7.49215900E+01
             ecut      4.20000000E+01 Hartree
           etotal     -2.4235870861E+01
            fcart      0.0000000000E+00  0.0000000000E+00  0.0000000000E+00
                       0.0000000000E+00  0.0000000000E+00  0.0000000000E+00
                       0.0000000000E+00  0.0000000000E+00  0.0000000000E+00
                       0.0000000000E+00  0.0000000000E+00  0.0000000000E+00
-          fftalg         512
           irdden           1
           irdwfk           1
           istwfk        1    0
              ixc     -116133
              kpt      0.00000000E+00  0.00000000E+00  0.00000000E+00
                       5.00000000E-01 -5.55111512E-17  3.66666667E-01
           kptopt           0
P           mkmem           2
P          mkqmem           2
P          mk1mem           2
            natom           4
            nband          27
           nbdbuf           4
            ngfft          48      48      75
             nkpt           2
            nstep         100
             nsym          12
           ntypat           2
              occ      2.000000  2.000000  2.000000  2.000000  2.000000  2.000000
                       2.000000  2.000000  2.000000  2.000000  2.000000  2.000000
                       2.000000  2.000000  2.000000  2.000000  2.000000  2.000000
                       0.000000  0.000000  0.000000  0.000000  0.000000  0.000000
                       0.000000  0.000000  0.000000
        optdriver           1
            prtwf          -1
            rfdir           1       1       1
           rfelfd           2
            rprim      7.5653461024E+00  0.0000000000E+00  0.0000000000E+00
                      -3.7826730512E+00  6.5517819131E+00  0.0000000000E+00
                       0.0000000000E+00  0.0000000000E+00  1.2434570848E+01
          spgroup         186
           strten      0.0000000000E+00  0.0000000000E+00  0.0000000000E+00
                       0.0000000000E+00  0.0000000000E+00  0.0000000000E+00
           symrel      1  0  0   0  1  0   0  0  1       0  1  0   1  0  0   0  0  1
                       1  1  0  -1  0  0   0  0  1      -1  0  0   1  1  0   0  0  1
                       0  1  0  -1 -1  0   0  0  1      -1 -1  0   0  1  0   0  0  1
                      -1  0  0   0 -1  0   0  0  1       0 -1  0  -1  0  0   0  0  1
                      -1 -1  0   1  0  0   0  0  1       1  0  0  -1 -1  0   0  0  1
                       0 -1  0   1  1  0   0  0  1       1  1  0   0 -1  0   0  0  1
            tnons      0.0000000  0.0000000  0.0000000     0.0000000 -0.0000000  0.5000000
                      -0.0000000 -0.0000000  0.5000000    -0.0000000  0.0000000  0.0000000
                      -0.0000000 -0.0000000  0.0000000    -0.0000000 -0.0000000  0.5000000
                      -0.0000000 -0.0000000  0.5000000    -0.0000000 -0.0000000  0.0000000
                      -0.0000000 -0.0000000  0.0000000    -0.0000000 -0.0000000  0.5000000
                       0.0000000 -0.0000000  0.5000000     0.0000000 -0.0000000  0.0000000
           tolwfr      1.00000000E-20
            typat      1  1  2  2
           useylm           1
              wtk        0.50000    0.50000
           xangst      2.0017043662E+00  1.1556845547E+00  6.5751761629E+00
                       2.3500188843E-16  2.3113691094E+00  3.2851304173E+00
                       2.0017043662E+00  1.1556845547E+00  4.1108924189E+00
                       2.3500188843E-16  2.3113691094E+00  8.2084667326E-01
            xcart      3.7826730512E+00  2.1839273044E+00  1.2425282223E+01
                       4.4408920985E-16  4.3678546087E+00  6.2079967995E+00
                       3.7826730512E+00  2.1839273044E+00  7.7684608335E+00
                       4.4408920985E-16  4.3678546087E+00  1.5511754096E+00
             xred      6.6666666667E-01  3.3333333333E-01  9.9925300000E-01
                       3.3333333333E-01  6.6666666667E-01  4.9925300000E-01
                       6.6666666667E-01  3.3333333333E-01  6.2474700000E-01
                       3.3333333333E-01  6.6666666667E-01  1.2474700000E-01
            znucl       13.00000   33.00000

- Timing analysis has been suppressed with timopt=0

 Suggested references for the acknowledgment of ABINIT usage.

 Calculation completed.
.Delivered  14 WARNINGs and   9 COMMENTs to log file.