.Version 9.5.1 of ABINIT

 ABINIT is a project of the Universite Catholique de Louvain,
 Corning Inc. and other collaborators, see ~abinit/doc/developers/contributors.txt .
 acknowledgments of the ABINIT effort.

.Starting date : Wed  5 May 2021.
- ( at 19h49 )

- input  file    -> /scratch/users/j/a/jabreu/flow_simple_7atoms/flow/w147/t1/run.abi
- output file    -> /scratch/users/j/a/jabreu/flow_simple_7atoms/flow/w147/t1/run.abo
- root for input  files -> /scratch/users/j/a/jabreu/flow_simple_7atoms/flow/w147/t1/indata/in
- root for output files -> /scratch/users/j/a/jabreu/flow_simple_7atoms/flow/w147/t1/outdata/out

 Symmetries : space group I4/m m m (#139); Bravais tI (body-center tetrag.)
     intxc =       0      iscf =       7    lmnmax =      18     lnmax =       6
     mgfft =      90  mpssoang =       3    mqgrid =    3001     natom =       7
  nloc_mem =       1    nspden =       1   nspinor =       1    nsppol =       1
      nsym =      16    n1xccc =    2501    ntypat =       3    occopt =       1
   xclevel =       2
-    mband =          37        mffmem =           1         mkmem =           2
-   mkqmem =           2        mk1mem =           2           mpw =        9901
      nfft =      729000          nkpt =           2
  Rough estimation (10% accuracy) of disk space for files :

------------- Echo of variables that govern the present computation ------------
-
- outvars: echo of selected default values
-   iomode0 =  0 , fftalg0 =512 , wfoptalg0 =  0
-
- outvars: echo of global parameters not present in the input file
-  max_nthreads =    0
-
 -outvars: echo values of preprocessed input variables --------
            acell      1.0000000000E+00  1.0000000000E+00  1.0000000000E+00 Bohr
              amu      8.54678000E+01  2.43050000E+01  1.89984032E+01
             ecut      4.20000000E+01 Hartree
-          fftalg         512
           irdden           1
           irdwfk           1
           istwfk        1    1
              ixc     -116133
              kpt      0.00000000E+00 -2.77555756E-17  5.00000000E-01
                       0.00000000E+00  0.00000000E+00  0.00000000E+00
           kptopt           0
P           mkmem           2
P          mkqmem           2
P          mk1mem           2
            natom           7
            nband          37
           nbdbuf           4
            ngfft          90      90      90
             nkpt           2
            nstep        2000
             nsym          16
           ntypat           3
              occ      2.000000  2.000000  2.000000  2.000000  2.000000  2.000000
                       2.000000  2.000000  2.000000  2.000000  2.000000  2.000000
                       2.000000  2.000000  2.000000  2.000000  2.000000  2.000000
                       2.000000  2.000000  2.000000  2.000000  2.000000  2.000000
                       2.000000  2.000000  2.000000  2.000000  0.000000  0.000000
                       0.000000  0.000000  0.000000  0.000000  0.000000  0.000000
                       0.000000
        optdriver           1
            prtwf          -1
            rfdir           1       1       1
           rfelfd           2
            rprim      7.3704584148E+00  0.0000000000E+00 -1.1969278016E+01
                      -5.9111718660E-01  7.3467161179E+00 -1.1969278016E+01
                       0.0000000000E+00  0.0000000000E+00  1.4056574030E+01
          spgroup         139
           symrel      1  0  0   0  1  0   0  0  1      -1  0  0   0 -1  0   0  0 -1
                       0  0  1  -1 -1 -1   1  0  0       0  0 -1   1  1  1  -1  0  0
                       0  1  0   1  0  0  -1 -1 -1       0 -1  0  -1  0  0   1  1  1
                      -1 -1 -1   0  0  1   0  1  0       1  1  1   0  0 -1   0 -1  0
                       0  1  0   1  0  0   0  0  1       0 -1  0  -1  0  0   0  0 -1
                       0  0  1  -1 -1 -1   0  1  0       0  0 -1   1  1  1   0 -1  0
                       1  0  0   0  1  0  -1 -1 -1      -1  0  0   0 -1  0   1  1  1
                      -1 -1 -1   0  0  1   1  0  0       1  1  1   0  0 -1  -1  0  0
           tolwfr      1.00000000E-20
            typat      1  1  2  3  3  3  3
           useylm           1
              wtk        0.50000    0.50000
           xangst      1.2624496393E+00  1.3681062512E+00 -4.4578404318E+00
                       2.3250232279E+00  2.5196084764E+00 -8.2098978265E+00
                       0.0000000000E+00  0.0000000000E+00  0.0000000000E+00
                       1.9501393050E+00  0.0000000000E+00  5.5227473917E-01
                      -1.5640287138E-01  1.9438573638E+00  5.5227473917E-01
                       5.2272349654E-01  5.6647113753E-01 -1.8457908061E+00
                       3.0647493707E+00  3.3212435900E+00 -1.0821947452E+01
            xcart      2.3856840749E+00  2.5853461355E+00 -8.4240975602E+00
                       4.3936571533E+00  4.7613699824E+00 -1.5514458471E+01
                       0.0000000000E+00  0.0000000000E+00  0.0000000000E+00
                       3.6852292074E+00  0.0000000000E+00  1.0436480071E+00
                      -2.9555859330E-01  3.6733580589E+00  1.0436480071E+00
                       9.8780425168E-01  1.0704753121E+00 -3.4880391222E+00
                       5.7915369765E+00  6.2762408058E+00 -2.0450516909E+01
             xred      3.5190500000E-01  3.5190500000E-01  0.0000000000E+00
                       6.4809500000E-01  6.4809500000E-01  0.0000000000E+00
                       0.0000000000E+00  0.0000000000E+00  0.0000000000E+00
                       5.0000000000E-01  0.0000000000E+00  5.0000000000E-01
                       6.9388939039E-18  5.0000000000E-01  5.0000000000E-01
                       1.4570800000E-01  1.4570800000E-01  2.7755575616E-17
                       8.5429200000E-01  8.5429200000E-01  1.1102230246E-16
            znucl       37.00000   12.00000    9.00000

 chkinp: Checking input parameters for consistency.

== DATASET  1 ==================================================================
-   mpi_nproc: 1, omp_nthreads: -1 (-1 if OMP is not activated)

--- !DatasetInfo
iteration_state: {dtset: 1, }
dimensions: {natom: 7, nkpt: 2, mband: 37, nsppol: 1, nspinor: 1, nspden: 1, mpw: 9901, }
cutoff_energies: {ecut:  42.0, pawecutdg:  -1.0, }
electrons: {nelect:   5.60000000E+01, charge:   0.00000000E+00, occopt:   1.00000000E+00, tsmear:   1.00000000E-02, }
meta: {optdriver: 1, rfelfd: 2, }
...

 Real(R)+Recip(G) space primitive vectors, cartesian coordinates (Bohr,Bohr^-1):
 R(1)=  7.3704584  0.0000000-11.9692780  G(1)=  0.1356768  0.0109166  0.0000000
 R(2)= -0.5911172  7.3467161-11.9692780  G(2)=  0.0000000  0.1361152  0.0000000
 R(3)=  0.0000000  0.0000000 14.0565740  G(3)=  0.1155298  0.1251987  0.0711411
 Unit cell volume ucvol=  7.6114473E+02 bohr^3
 Angles (23,13,12)=  1.48376012E+02  1.48376012E+02  4.53306010E+01 degrees

 getcut: wavevector=  0.0000  0.0000  0.0000  ngfft=  90  90  90
         ecut(hartree)=     42.000   => boxcut(ratio)=   2.19512

--- Pseudopotential description ------------------------------------------------
- pspini: atom type   1  psp file is /scratch/users/j/a/jabreu/pseudos/PBEsol/Rb.psp8
- pspatm: opening atomic psp file    /scratch/users/j/a/jabreu/pseudos/PBEsol/Rb.psp8
- Rb    ONCVPSP-3.3.0  r_core=   1.71227   1.75361   1.90633
- 37.00000   9.00000    180112                znucl, zion, pspdat
    8 -116133    2    4       600   0.00000   pspcod,pspxc,lmax,lloc,mmax,r2well
    5.99000000000000    7.00000000000000    0.00000000000000   rchrg,fchrg,qchrg
     nproj     2     2     2
     extension_switch     1
  pspatm : epsatm=   34.48400912
         --- l  ekb(1:nproj) -->
             0    8.196957   -0.477221
             1    3.231347   -0.378736
             2   -1.047201    0.996637
 pspatm: atomic psp has been read  and splines computed

- pspini: atom type   2  psp file is /scratch/users/j/a/jabreu/pseudos/PBEsol/Mg.psp8
- pspatm: opening atomic psp file    /scratch/users/j/a/jabreu/pseudos/PBEsol/Mg.psp8
- Mg    ONCVPSP-3.3.0  r_core=   1.16056   1.56380
- 12.00000  10.00000    180112                znucl, zion, pspdat
    8 -116133    1    4       400   0.00000   pspcod,pspxc,lmax,lloc,mmax,r2well
    3.99000000000000    0.00000000000000    0.00000000000000   rchrg,fchrg,qchrg
     nproj     2     2
     extension_switch     1
  pspatm : epsatm=    9.18164846
         --- l  ekb(1:nproj) -->
             0    2.230603   -0.826587
             1   -6.503151   -2.501445
 pspatm: atomic psp has been read  and splines computed

- pspini: atom type   3  psp file is /scratch/users/j/a/jabreu/pseudos/PBEsol/F.psp8
- pspatm: opening atomic psp file    /scratch/users/j/a/jabreu/pseudos/PBEsol/F.psp8
- F     ONCVPSP-3.3.0  r_core=   1.30942   1.45782   1.60379
-  9.00000   7.00000    180112                znucl, zion, pspdat
    8 -116133    2    4       600   0.00000   pspcod,pspxc,lmax,lloc,mmax,r2well
    5.99000000000000    2.50000000000000    0.00000000000000   rchrg,fchrg,qchrg
     nproj     2     2     1
     extension_switch     1
  pspatm : epsatm=    4.89824824
         --- l  ekb(1:nproj) -->
             0    6.506434    1.065875
             1   -3.978753   -1.295852
             2   -2.394754
 pspatm: atomic psp has been read  and splines computed

   5.47358894E+03                                ecore*ucvol(ha*bohr**3)

-inwffil : will read wavefunctions from disk file /scratch/users/j/a/jabreu/flow_simple_7atoms/flow/w147/t1/indata/in_WFK

 ==>  initialize data related to q vector <==

 The list of irreducible perturbations for this q vector is:
    1)    idir= 1    ipert=   8
    2)    idir= 2    ipert=   8
    3)    idir= 3    ipert=   8

 Perturbation wavevector (in red.coord.)   0.000000  0.000000  0.000000
 Perturbation : derivative vs k along direction   1

 dfpt_looppert : COMMENT -
  In a d/dk calculation, iscf is set to -3 automatically.
 The set of symmetries contains only one element for this perturbation.
 symkpt : not enough symmetry to change the number of k points.

[...]

 Initialisation of the first-order wave-functions :
  ireadwf=   0

--- !BeginCycle
iteration_state: {dtset: 1, }
solver: {iscf: 7, nstep: 2000, nline: 4, wfoptalg: 0, }
tolerances: {tolwfr: 1.00E-20, }
...

     iter   2DEtotal(Ha)        deltaE(Ha) residm    vres2
-ETOT  1  -46.135705944733     -4.614E+01 1.375E-01 0.000E+00
 ETOT  2  -46.166261940657     -3.056E-02 1.564E-03 0.000E+00
 ETOT  3  -46.166351504447     -8.956E-05 3.019E-05 0.000E+00
 ETOT  4  -46.166352017579     -5.131E-07 1.453E-06 0.000E+00
 ETOT  5  -46.166352021490     -3.910E-09 5.031E-08 0.000E+00
 ETOT  6  -46.166352021525     -3.523E-11 2.750E-09 0.000E+00
 ETOT  7  -46.166352021525     -3.837E-13 1.087E-10 0.000E+00
 ETOT  8  -46.166352021525     -1.421E-14 5.967E-12 0.000E+00
 ETOT  9  -46.166352021525     -2.842E-14 2.517E-13 0.000E+00
 ETOT 10  -46.166352021525      0.000E+00 1.383E-14 0.000E+00
 ETOT 11  -46.166352021525      0.000E+00 6.065E-16 0.000E+00
 ETOT 12  -46.166352021525     -1.421E-14 3.350E-17 0.000E+00
 ETOT 13  -46.166352021525     -7.105E-15 1.518E-18 0.000E+00
 ETOT 14  -46.166352021525      0.000E+00 8.398E-20 0.000E+00
 ETOT 15  -46.166352021525      1.421E-14 1.000E-20 0.000E+00

 At SCF step   15   max residual=  1.00E-20 < tolwfr=  1.00E-20 =>converged.

 ----iterations are completed or convergence reached----

 dfpt_looppert: DFPT cycle converged with prtwf=-1. Will skip output of the 1st-order WFK file.
 dfpt_looppert : ek2=    8.1920244894E+01
          f-sum rule ratio=    1.0576233299E+00
 prteigrs : about to open file /scratch/users/j/a/jabreu/flow_simple_7atoms/flow/w147/t1/tmpdata/tmp_1WF1_EIG
 Expectation of eigenvalue derivatives (hartree) for nkpt=   2  k points:
  (in case of degenerate eigenvalues, averaged derivative)
 kpt#   1, nband= 37, wtk=  0.50000, kpt=  0.0000  0.0000  0.5000 (reduced coord)
  -0.00000   -0.00000    0.00000   -0.00000   -0.00000   -0.00000   -0.00000   -0.00000
   0.00000   -0.00000    0.00000    0.00000   -0.00000    0.00000   -0.00000    0.00000
  -0.00000   -0.00000   -0.00000    0.00000    0.00000    0.00000   -0.00000   -0.00000
   0.00000    0.00000   -0.00000   -0.00000   -0.00000    0.00000   -0.00000   -0.00000
  -0.00000    0.00000   -0.00000    0.00004    0.00008
 prteigrs : prtvol=0 or 1, do not print more k-points.

 Eight components of 2nd-order total energy (hartree) are
 1,2,3: 0th-order hamiltonian combined with 1st-order wavefunctions
     kin0=   5.41246428E+01 eigvalue=   5.15940425E+00  local=  -2.21418434E+01
 4,5,6: 1st-order hamiltonian combined with 1st and 0th-order wfs
     kin1=  -8.66407622E+01  Hartree=   0.00000000E+00     xc=   0.00000000E+00
 7,8,9: eventually, occupation + non-local contributions
    edocc=   1.00659157E+01     enl0=  -1.04176733E+00   enl1=  -5.69194185E+00
 1-9 gives the relaxation energy (to be shifted if some occ is /=2.0)
   erelax=  -4.61663520E+01
  No Ewald or frozen-wf contrib.: the relaxation energy is the total one
 2DEtotal=   -0.4616635202E+02 Ha. Also 2DEtotal=   -0.125625032627E+04 eV
    (  non-var. 2DEtotal :   -4.6166352021E+01 Ha)

 Perturbation wavevector (in red.coord.)   0.000000  0.000000  0.000000
 Perturbation : derivative vs k along direction   2
 The set of symmetries contains only one element for this perturbation.
 symkpt : not enough symmetry to change the number of k points.

[...]

 Perturbation wavevector (in red.coord.)   0.000000  0.000000  0.000000
 Perturbation : derivative vs k along direction   3
 The set of symmetries contains only one element for this perturbation.
 symkpt : not enough symmetry to change the number of k points.

-inwffil : will read wavefunctions from disk file /scratch/users/j/a/jabreu/flow_simple_7atoms/flow/w147/t1/indata/in_WFK

 Initialisation of the first-order wave-functions :
  ireadwf=   0

--- !BeginCycle
iteration_state: {dtset: 1, }
solver: {iscf: 7, nstep: 2000, nline: 4, wfoptalg: 0, }
tolerances: {tolwfr: 1.00E-20, }
...

     iter   2DEtotal(Ha)        deltaE(Ha) residm    vres2
-ETOT  1  -85.193348652876     -8.519E+01 9.010E-02 0.000E+00
 ETOT  2  -85.227282739083     -3.393E-02 2.159E-04 0.000E+00
 ETOT  3  -85.227348494382     -6.576E-05 9.145E-06 0.000E+00
 ETOT  4  -85.227348842336     -3.480E-07 5.782E-08 0.000E+00
 ETOT  5  -85.227348845089     -2.753E-09 2.542E-09 0.000E+00
 ETOT  6  -85.227348845114     -2.557E-11 4.242E-11 0.000E+00
 ETOT  7  -85.227348845115     -1.990E-13 1.913E-12 0.000E+00
 ETOT  8  -85.227348845115      0.000E+00 3.558E-14 0.000E+00
 ETOT  9  -85.227348845115     -7.105E-14 1.514E-15 0.000E+00
 ETOT 10  -85.227348845115      1.421E-14 2.982E-17 0.000E+00
 ETOT 11  -85.227348845115      0.000E+00 1.219E-18 0.000E+00
 ETOT 12  -85.227348845115      0.000E+00 2.538E-20 0.000E+00
 ETOT 13  -85.227348845115      0.000E+00 9.861E-21 0.000E+00

 At SCF step   13   max residual=  9.86E-21 < tolwfr=  1.00E-20 =>converged.

 ----iterations are completed or convergence reached----

 dfpt_looppert: DFPT cycle converged with prtwf=-1. Will skip output of the 1st-order WFK file.
 dfpt_looppert : ek2=    1.5070033971E+02
          f-sum rule ratio=    1.0619882096E+00
 prteigrs : about to open file /scratch/users/j/a/jabreu/flow_simple_7atoms/flow/w147/t1/tmpdata/tmp_1WF1_EIG
 Expectation of eigenvalue derivatives (hartree) for nkpt=   2  k points:
  (in case of degenerate eigenvalues, averaged derivative)
 kpt#   1, nband= 37, wtk=  0.50000, kpt=  0.0000  0.0000  0.5000 (reduced coord)
  -0.00000   -0.00000   -0.00000   -0.00000   -0.00000   -0.00000   -0.00000   -0.00000
  -0.00000    0.00000    0.00000    0.00000    0.00000    0.00000   -0.00000    0.00000
  -0.00000   -0.00000   -0.00000    0.00000   -0.00000   -0.00000   -0.00000   -0.00000
   0.00000    0.00000   -0.00000   -0.00000   -0.00000    0.00000   -0.00000   -0.00000
   0.00000    0.00000   -0.00000    0.00003    0.00003
 prteigrs : prtvol=0 or 1, do not print more k-points.

 Eight components of 2nd-order total energy (hartree) are
 1,2,3: 0th-order hamiltonian combined with 1st-order wavefunctions
     kin0=   9.93013639E+01 eigvalue=   9.48175099E+00  local=  -4.05528707E+01
 4,5,6: 1st-order hamiltonian combined with 1st and 0th-order wfs
     kin1=  -1.60041984E+02  Hartree=   0.00000000E+00     xc=   0.00000000E+00
 7,8,9: eventually, occupation + non-local contributions
    edocc=   1.87554253E+01     enl0=  -1.75832066E+00   enl1=  -1.04127137E+01
 1-9 gives the relaxation energy (to be shifted if some occ is /=2.0)
   erelax=  -8.52273488E+01
  No Ewald or frozen-wf contrib.: the relaxation energy is the total one
 2DEtotal=   -0.8522734885E+02 Ha. Also 2DEtotal=   -0.231915410479E+04 eV
    (  non-var. 2DEtotal :   -8.5227348845E+01 Ha)

 CALCULATION OF EFFECTIVE MASSES
 NOTE : Additional infos (eff. mass eigenvalues, eigenvectors and, if degenerate, average mass) are available in stdout.

 K-point ( 0.000,-0.000, 0.500) | band =    28
 Effective mass tensor:
             -6.6562851959              3.6468850581              1.2954190060
              3.6468850581             -6.0694030990              1.4038424379
              1.2954190060              1.4038424379             -6.4810029990
 Effective mass tensor eigenvalues:
            -10.0215158020             -7.2786622348             -1.9065132572
 Angular average effective mass 1/(<1/m>)=  -3.9386054672
 Angular average effective mass for Frohlich model (<m**0.5>)**2=  -4.6719255333
 Effective masses along directions: (cart. coord. / red. coord. -> eff. mass)
    1:   1.000000  0.000000  0.000000 /   0.996799 -0.079944  0.000000 ->  -3.7218536274
    2:   0.000000  1.000000  0.000000 /   0.000000  1.000000  0.000000 ->  -3.3541459809
    3:   0.000000  0.000000  1.000000 /  -0.543994 -0.543994  0.638860 ->  -5.1316497307
    4:   0.577350  0.577350  0.577350 /  -0.293258 -0.332467  0.896362 ->  -1.9778619065
    5:   0.000000  0.707107  0.707107 /  -0.628901 -0.242883  0.738574 ->  -2.8763076411
    6:   0.707107  0.000000  0.707107 /  -0.237008 -0.647323  0.724431 ->  -3.0757186751
    7:   0.707107  0.707107  0.000000 /   0.737187  0.675689  0.000000 ->  -2.1438757486

 K-point ( 0.000, 0.000, 0.000) | band =    29
 Effective mass tensor:
              0.4784615463              0.0013900858             -0.0045294588
              0.0013900858              0.4786852390             -0.0049085372
             -0.0045294588             -0.0049085372              0.4931728030
 Effective mass tensor eigenvalues:
              0.4771788144              0.4771788145              0.4959619593
 Angular average effective mass 1/(<1/m>)=   0.4832797621
 Angular average effective mass for Frohlich model (<m**0.5>)**2=   0.4833274621
 Effective masses along directions: (cart. coord. / red. coord. -> eff. mass)
    1:   1.000000  0.000000  0.000000 /   0.996799 -0.079944  0.000000 ->   0.4784161667
    2:   0.000000  1.000000  0.000000 /   0.000000  1.000000  0.000000 ->   0.4786326032
    3:   0.000000  0.000000  1.000000 /  -0.543994 -0.543994  0.638860 ->   0.4930798598
    4:   0.577350  0.577350  0.577350 /  -0.293258 -0.332467  0.896362 ->   0.4780422238
    5:   0.000000  0.707107  0.707107 /  -0.628901 -0.242883  0.738574 ->   0.4809038452
    6:   0.707107  0.000000  0.707107 /  -0.237008 -0.647323  0.724431 ->   0.4811651283
    7:   0.707107  0.707107  0.000000 /   0.737187  0.675689  0.000000 ->   0.4798731450

 END OF EFFECTIVE MASSES SECTION

 ---- first-order wavefunction calculations are completed ----

 Total localisation tensor (bohr^2) in cartesian coordinates
  WARNING : still subject to testing - especially symmetries.
      direction              matrix element
   alpha     beta       real part   imaginary part
     1        1       0.5594427868    0.0000000000
     1        2      -0.0444375256    0.0000000000
     1        3      -0.8303047675    0.0000000000
     2        1      -0.0444375256    0.0000000000
     2        2       0.5522930016    0.0000000000
     2        3      -0.8997963683    0.0000000000
     3        1      -0.8303047675    0.0000000000
     3        2      -0.8997963683    0.0000000000
     3        3       6.6859295600    0.0000000000

 respfn : d/dk was computed, but no 2DTE, so no DDB output.

== END DATASET(S) ==============================================================

 -outvars: echo values of variables after computation  --------
            acell      1.0000000000E+00  1.0000000000E+00  1.0000000000E+00 Bohr
              amu      8.54678000E+01  2.43050000E+01  1.89984032E+01
             ecut      4.20000000E+01 Hartree
           etotal     -8.5227348845E+01
            fcart      0.0000000000E+00  0.0000000000E+00  0.0000000000E+00
                       0.0000000000E+00  0.0000000000E+00  0.0000000000E+00
                       0.0000000000E+00  0.0000000000E+00  0.0000000000E+00
                       0.0000000000E+00  0.0000000000E+00  0.0000000000E+00
                       0.0000000000E+00  0.0000000000E+00  0.0000000000E+00
                       0.0000000000E+00  0.0000000000E+00  0.0000000000E+00
                       0.0000000000E+00  0.0000000000E+00  0.0000000000E+00
-          fftalg         512
           irdden           1
           irdwfk           1
           istwfk        1    1
              ixc     -116133
              kpt      0.00000000E+00 -2.77555756E-17  5.00000000E-01
                       0.00000000E+00  0.00000000E+00  0.00000000E+00
           kptopt           0
P           mkmem           2
P          mkqmem           2
P          mk1mem           2
            natom           7
            nband          37
           nbdbuf           4
            ngfft          90      90      90
             nkpt           2
            nstep        2000
             nsym          16
           ntypat           3
              occ      2.000000  2.000000  2.000000  2.000000  2.000000  2.000000
                       2.000000  2.000000  2.000000  2.000000  2.000000  2.000000
                       2.000000  2.000000  2.000000  2.000000  2.000000  2.000000
                       2.000000  2.000000  2.000000  2.000000  2.000000  2.000000
                       2.000000  2.000000  2.000000  2.000000  0.000000  0.000000
                       0.000000  0.000000  0.000000  0.000000  0.000000  0.000000
                       0.000000
        optdriver           1
            prtwf          -1
            rfdir           1       1       1
           rfelfd           2
            rprim      7.3704584148E+00  0.0000000000E+00 -1.1969278016E+01
                      -5.9111718660E-01  7.3467161179E+00 -1.1969278016E+01
                       0.0000000000E+00  0.0000000000E+00  1.4056574030E+01
          spgroup         139
           strten      0.0000000000E+00  0.0000000000E+00  0.0000000000E+00
                       0.0000000000E+00  0.0000000000E+00  0.0000000000E+00
           symrel      1  0  0   0  1  0   0  0  1      -1  0  0   0 -1  0   0  0 -1
                       0  0  1  -1 -1 -1   1  0  0       0  0 -1   1  1  1  -1  0  0
                       0  1  0   1  0  0  -1 -1 -1       0 -1  0  -1  0  0   1  1  1
                      -1 -1 -1   0  0  1   0  1  0       1  1  1   0  0 -1   0 -1  0
                       0  1  0   1  0  0   0  0  1       0 -1  0  -1  0  0   0  0 -1
                       0  0  1  -1 -1 -1   0  1  0       0  0 -1   1  1  1   0 -1  0
                       1  0  0   0  1  0  -1 -1 -1      -1  0  0   0 -1  0   1  1  1
                      -1 -1 -1   0  0  1   1  0  0       1  1  1   0  0 -1  -1  0  0
           tolwfr      1.00000000E-20
            typat      1  1  2  3  3  3  3
           useylm           1
              wtk        0.50000    0.50000
           xangst      1.2624496393E+00  1.3681062512E+00 -4.4578404318E+00
                       2.3250232279E+00  2.5196084764E+00 -8.2098978265E+00
                       0.0000000000E+00  0.0000000000E+00  0.0000000000E+00
                       1.9501393050E+00  0.0000000000E+00  5.5227473917E-01
                      -1.5640287138E-01  1.9438573638E+00  5.5227473917E-01
                       5.2272349654E-01  5.6647113753E-01 -1.8457908061E+00
                       3.0647493707E+00  3.3212435900E+00 -1.0821947452E+01
            xcart      2.3856840749E+00  2.5853461355E+00 -8.4240975602E+00
                       4.3936571533E+00  4.7613699824E+00 -1.5514458471E+01
                       0.0000000000E+00  0.0000000000E+00  0.0000000000E+00
                       3.6852292074E+00  0.0000000000E+00  1.0436480071E+00
                      -2.9555859330E-01  3.6733580589E+00  1.0436480071E+00
                       9.8780425168E-01  1.0704753121E+00 -3.4880391222E+00
                       5.7915369765E+00  6.2762408058E+00 -2.0450516909E+01
             xred      3.5190500000E-01  3.5190500000E-01  0.0000000000E+00
                       6.4809500000E-01  6.4809500000E-01  0.0000000000E+00
                       0.0000000000E+00  0.0000000000E+00  0.0000000000E+00
                       5.0000000000E-01  0.0000000000E+00  5.0000000000E-01
                       6.9388939039E-18  5.0000000000E-01  5.0000000000E-01
                       1.4570800000E-01  1.4570800000E-01  2.7755575616E-17
                       8.5429200000E-01  8.5429200000E-01  1.1102230246E-16
            znucl       37.00000   12.00000    9.00000

- Timing analysis has been suppressed with timopt=0

 Suggested references for the acknowledgment of ABINIT usage.

 Calculation completed.
.Delivered  14 WARNINGs and   9 COMMENTs to log file.