.Version 9.5.1 of ABINIT

 ABINIT is a project of the Universite Catholique de Louvain,
 Corning Inc. and other collaborators, see ~abinit/doc/developers/contributors.txt .
 acknowledgments of the ABINIT effort.

.Starting date : Tue 27 Apr 2021.
- ( at 18h31 )

- input  file    -> /scratch/users/j/a/jabreu/flow_simple_4atoms/flow/w182/t1/run.abi
- output file    -> /scratch/users/j/a/jabreu/flow_simple_4atoms/flow/w182/t1/run.abo
- root for input  files -> /scratch/users/j/a/jabreu/flow_simple_4atoms/flow/w182/t1/indata/in
- root for output files -> /scratch/users/j/a/jabreu/flow_simple_4atoms/flow/w182/t1/outdata/out

 Symmetries : space group P6_3 m c (#186); Bravais hP (primitive hexag.)
     intxc =       0      iscf =       7    lmnmax =      18     lnmax =       6
     mgfft =      54  mpssoang =       3    mqgrid =    3001     natom =       4
  nloc_mem =       1    nspden =       1   nspinor =       1    nsppol =       1
      nsym =      12    n1xccc =    2501    ntypat =       2    occopt =       1
   xclevel =       2
-    mband =          17        mffmem =           1         mkmem =           2
-   mkqmem =           2        mk1mem =           2           mpw =        3110
      nfft =       69984          nkpt =           2
  Rough estimation (10% accuracy) of disk space for files :

------------- Echo of variables that govern the present computation ------------
-
- outvars: echo of selected default values
-   iomode0 =  0 , fftalg0 =512 , wfoptalg0 =  0
-
- outvars: echo of global parameters not present in the input file
-  max_nthreads =    0
-
 -outvars: echo values of preprocessed input variables --------
            acell      1.0000000000E+00  1.0000000000E+00  1.0000000000E+00 Bohr
              amu      2.69815390E+01  3.09737620E+01
             ecut      2.40000000E+01 Hartree
-          fftalg         512
           irdden           1
           irdwfk           1
           istwfk        1    1
              ixc     -116133
              kpt      0.00000000E+00  0.00000000E+00  0.00000000E+00
                       5.00000000E-01 -2.77555756E-17  0.00000000E+00
           kptopt           0
P           mkmem           2
P          mkqmem           2
P          mk1mem           2
            natom           4
            nband          17
           nbdbuf           4
            ngfft          36      36      54
             nkpt           2
            nstep         100
             nsym          12
           ntypat           2
              occ      2.000000  2.000000  2.000000  2.000000  2.000000  2.000000
                       2.000000  2.000000  0.000000  0.000000  0.000000  0.000000
                       0.000000  0.000000  0.000000  0.000000  0.000000
        optdriver           1
            prtwf          -1
            rfdir           1       1       1
           rfelfd           2
            rprim      7.2947601682E+00  0.0000000000E+00  0.0000000000E+00
                      -3.6473800841E+00  6.3174476202E+00  0.0000000000E+00
                       0.0000000000E+00  0.0000000000E+00  1.1975944390E+01
          spgroup         186
           symrel      1  0  0   0  1  0   0  0  1       0  1  0   1  0  0   0  0  1
                       1  1  0  -1  0  0   0  0  1      -1  0  0   1  1  0   0  0  1
                       0  1  0  -1 -1  0   0  0  1      -1 -1  0   0  1  0   0  0  1
                      -1  0  0   0 -1  0   0  0  1       0 -1  0  -1  0  0   0  0  1
                      -1 -1  0   1  0  0   0  0  1       1  0  0  -1 -1  0   0  0  1
                       0 -1  0   1  1  0   0  0  1       1  1  0   0 -1  0   0  0  1
            tnons      0.0000000  0.0000000  0.0000000     0.0000000  0.0000000  0.5000000
                      -0.0000000  0.0000000  0.5000000     0.0000000  0.0000000  0.0000000
                       0.0000000 -0.0000000  0.0000000     0.0000000  0.0000000  0.5000000
                       0.0000000  0.0000000  0.5000000     0.0000000  0.0000000  0.0000000
                       0.0000000  0.0000000  0.0000000    -0.0000000  0.0000000  0.5000000
                       0.0000000  0.0000000  0.5000000     0.0000000 -0.0000000  0.0000000
           tolwfr      1.00000000E-20
            typat      1  1  2  2
           useylm           1
              wtk        0.50000    0.50000
           xangst      1.9301104116E+00  1.1143497657E+00  6.3368137818E+00
                      -4.7000377687E-16  2.2286995314E+00  3.1681153707E+00
                       1.9301104116E+00  1.1143497657E+00  3.9614560545E+00
                      -4.7000377687E-16  2.2286995314E+00  7.9275764330E-01
            xcart      3.6473800841E+00  2.1058158734E+00  1.1974842603E+01
                      -8.8817841970E-16  4.2116317468E+00  5.9868704079E+00
                       3.6473800841E+00  2.1058158734E+00  7.4860670304E+00
                      -8.8817841970E-16  4.2116317468E+00  1.4980948356E+00
             xred      6.6666666667E-01  3.3333333333E-01  9.9990800000E-01
                       3.3333333333E-01  6.6666666667E-01  4.9990800000E-01
                       6.6666666667E-01  3.3333333333E-01  6.2509200000E-01
                       3.3333333333E-01  6.6666666667E-01  1.2509200000E-01
            znucl       13.00000   15.00000

 chkinp: Checking input parameters for consistency.

== DATASET  1 ==================================================================
-   mpi_nproc: 1, omp_nthreads: -1 (-1 if OMP is not activated)

--- !DatasetInfo
iteration_state: {dtset: 1, }
dimensions: {natom: 4, nkpt: 2, mband: 17, nsppol: 1, nspinor: 1, nspden: 1, mpw: 3110, }
cutoff_energies: {ecut:  24.0, pawecutdg:  -1.0, }
electrons: {nelect:   1.60000000E+01, charge:   0.00000000E+00, occopt:   1.00000000E+00, tsmear:   1.00000000E-02, }
meta: {optdriver: 1, rfelfd: 2, }
...

 Real(R)+Recip(G) space primitive vectors, cartesian coordinates (Bohr,Bohr^-1):
 R(1)=  7.2947602  0.0000000  0.0000000  G(1)=  0.1370847  0.0791459  0.0000000
 R(2)= -3.6473801  6.3174476  0.0000000  G(2)=  0.0000000  0.1582918  0.0000000
 R(3)=  0.0000000  0.0000000 11.9759444  G(3)=  0.0000000  0.0000000  0.0835007
 Unit cell volume ucvol=  5.5190260E+02 bohr^3
 Angles (23,13,12)=  9.00000000E+01  9.00000000E+01  1.20000000E+02 degrees

 getcut: wavevector=  0.0000  0.0000  0.0000  ngfft=  36  36  54
         ecut(hartree)=     24.000   => boxcut(ratio)=   2.04462

--- Pseudopotential description ------------------------------------------------
- pspini: atom type   1  psp file is /scratch/users/j/a/jabreu/pseudos/PBEsol/Al.psp8
- pspatm: opening atomic psp file    /scratch/users/j/a/jabreu/pseudos/PBEsol/Al.psp8
- Al    ONCVPSP-3.3.0  r_core=   1.76802   1.76802   1.70587
- 13.00000   3.00000    180112                znucl, zion, pspdat
    8 -116133    2    4       600   0.00000   pspcod,pspxc,lmax,lloc,mmax,r2well
    5.99000000000000    5.00000000000000    0.00000000000000   rchrg,fchrg,qchrg
     nproj     2     2     2
     extension_switch     1
  pspatm : epsatm=    0.68509324
         --- l  ekb(1:nproj) -->
             0    5.834965    0.726662
             1    6.225605    0.924840
             2   -2.432733   -0.548689
 pspatm: atomic psp has been read  and splines computed

- pspini: atom type   2  psp file is /scratch/users/j/a/jabreu/pseudos/PBEsol/P.psp8
- pspatm: opening atomic psp file    /scratch/users/j/a/jabreu/pseudos/PBEsol/P.psp8
- P     ONCVPSP-3.3.0  r_core=   1.46089   1.55067   1.70594
- 15.00000   5.00000    180112                znucl, zion, pspdat
    8 -116133    2    4       600   0.00000   pspcod,pspxc,lmax,lloc,mmax,r2well
    5.99000000000000    5.00000000000000    0.00000000000000   rchrg,fchrg,qchrg
     nproj     2     2     2
     extension_switch     1
  pspatm : epsatm=    7.31221086
         --- l  ekb(1:nproj) -->
             0    6.742364    1.063650
             1    3.449117    0.910422
             2   -3.077645   -0.799176
 pspatm: atomic psp has been read  and splines computed

   2.55913731E+02                                ecore*ucvol(ha*bohr**3)

-inwffil : will read wavefunctions from disk file /scratch/users/j/a/jabreu/flow_simple_4atoms/flow/w182/t1/indata/in_WFK

 ==>  initialize data related to q vector <==

 The list of irreducible perturbations for this q vector is:
    1)    idir= 1    ipert=   5
    2)    idir= 2    ipert=   5
    3)    idir= 3    ipert=   5

 Perturbation wavevector (in red.coord.)   0.000000  0.000000  0.000000
 Perturbation : derivative vs k along direction   1

 dfpt_looppert : COMMENT -
  In a d/dk calculation, iscf is set to -3 automatically.
 The set of symmetries contains only one element for this perturbation.
 symkpt : not enough symmetry to change the number of k points.

[...]

 Initialisation of the first-order wave-functions :
  ireadwf=   0

--- !BeginCycle
iteration_state: {dtset: 1, }
solver: {iscf: 7, nstep: 100, nline: 4, wfoptalg: 0, }
tolerances: {tolwfr: 1.00E-20, }
...

     iter   2DEtotal(Ha)        deltaE(Ha) residm    vres2
-ETOT  1  -23.744527891658     -2.374E+01 2.636E-02 0.000E+00
 ETOT  2  -23.747994882909     -3.467E-03 1.228E-04 0.000E+00
 ETOT  3  -23.748004651714     -9.769E-06 1.448E-06 0.000E+00
 ETOT  4  -23.748004702811     -5.110E-08 6.680E-09 0.000E+00
 ETOT  5  -23.748004703120     -3.086E-10 9.993E-11 0.000E+00
 ETOT  6  -23.748004703122     -1.933E-12 5.592E-13 0.000E+00
 ETOT  7  -23.748004703122     -3.553E-14 8.378E-15 0.000E+00
 ETOT  8  -23.748004703122     -1.066E-14 6.662E-17 0.000E+00
 ETOT  9  -23.748004703122     -3.553E-15 1.005E-18 0.000E+00
 ETOT 10  -23.748004703122      1.066E-14 1.719E-20 0.000E+00
 ETOT 11  -23.748004703122     -3.553E-15 9.079E-21 0.000E+00

 At SCF step   11   max residual=  9.08E-21 < tolwfr=  1.00E-20 =>converged.

 ----iterations are completed or convergence reached----

 dfpt_looppert: DFPT cycle converged with prtwf=-1. Will skip output of the 1st-order WFK file.
 dfpt_looppert : ek2=    3.1653840929E+01
          f-sum rule ratio=    1.5922732157E+00
 prteigrs : about to open file /scratch/users/j/a/jabreu/flow_simple_4atoms/flow/w182/t1/tmpdata/tmp_1WF1_EIG
 Expectation of eigenvalue derivatives (hartree) for nkpt=   2  k points:
  (in case of degenerate eigenvalues, averaged derivative)
 kpt#   1, nband= 17, wtk=  0.50000, kpt=  0.0000  0.0000  0.0000 (reduced coord)
  -0.00000   -0.00000    0.00000    0.00000    0.00000   -0.00000   -0.00000   -0.00000
   0.00000    0.00000   -0.00000   -0.00000    0.00000   -0.00000   -0.00000    0.00000
   0.00000
 prteigrs : prtvol=0 or 1, do not print more k-points.

 Eight components of 2nd-order total energy (hartree) are
 1,2,3: 0th-order hamiltonian combined with 1st-order wavefunctions
     kin0=   4.13946073E+00 eigvalue=  -2.04202703E-01  local=  -2.00820366E+00
 4,5,6: 1st-order hamiltonian combined with 1st and 0th-order wfs
     kin1=  -5.04015631E+01  Hartree=   0.00000000E+00     xc=   0.00000000E+00
 7,8,9: eventually, occupation + non-local contributions
    edocc=   2.11639027E+01     enl0=   6.57047593E-01   enl1=   2.90555368E+00
 1-9 gives the relaxation energy (to be shifted if some occ is /=2.0)
   erelax=  -2.37480047E+01
  No Ewald or frozen-wf contrib.: the relaxation energy is the total one
 2DEtotal=   -0.2374800470E+02 Ha. Also 2DEtotal=   -0.646216071886E+03 eV
    (  non-var. 2DEtotal :   -2.3748004703E+01 Ha)

 Perturbation wavevector (in red.coord.)   0.000000  0.000000  0.000000
 Perturbation : derivative vs k along direction   2
 The set of symmetries contains only one element for this perturbation.
 symkpt : not enough symmetry to change the number of k points.

[...]

 Perturbation wavevector (in red.coord.)   0.000000  0.000000  0.000000
 Perturbation : derivative vs k along direction   3
 The set of symmetries contains only one element for this perturbation.
 symkpt : not enough symmetry to change the number of k points.

-inwffil : will read wavefunctions from disk file /scratch/users/j/a/jabreu/flow_simple_4atoms/flow/w182/t1/indata/in_WFK

 Initialisation of the first-order wave-functions :
  ireadwf=   0

--- !BeginCycle
iteration_state: {dtset: 1, }
solver: {iscf: 7, nstep: 100, nline: 4, wfoptalg: 0, }
tolerances: {tolwfr: 1.00E-20, }
...

     iter   2DEtotal(Ha)        deltaE(Ha) residm    vres2
-ETOT  1  -5.1307996006662     -5.131E+00 1.178E-02 0.000E+00
 ETOT  2  -5.1314659832481     -6.664E-04 4.872E-05 0.000E+00
 ETOT  3  -5.1314675374281     -1.554E-06 4.479E-07 0.000E+00
 ETOT  4  -5.1314675444417     -7.014E-09 3.646E-09 0.000E+00
 ETOT  5  -5.1314675444787     -3.701E-11 7.523E-11 0.000E+00
 ETOT  6  -5.1314675444789     -1.901E-13 7.643E-13 0.000E+00
 ETOT  7  -5.1314675444789     -2.665E-14 1.582E-14 0.000E+00
 ETOT  8  -5.1314675444789      3.020E-14 1.678E-16 0.000E+00
 ETOT  9  -5.1314675444789     -2.309E-14 3.417E-18 0.000E+00
 ETOT 10  -5.1314675444789      1.776E-15 3.744E-20 0.000E+00
 ETOT 11  -5.1314675444789     -1.776E-15 9.982E-21 0.000E+00

 At SCF step   11   max residual=  9.98E-21 < tolwfr=  1.00E-20 =>converged.

 ----iterations are completed or convergence reached----

 dfpt_looppert: DFPT cycle converged with prtwf=-1. Will skip output of the 1st-order WFK file.
 dfpt_looppert : ek2=    8.8082609757E+00
          f-sum rule ratio=    1.2373281417E+00
 prteigrs : about to open file /scratch/users/j/a/jabreu/flow_simple_4atoms/flow/w182/t1/tmpdata/tmp_1WF1_EIG
 Expectation of eigenvalue derivatives (hartree) for nkpt=   2  k points:
  (in case of degenerate eigenvalues, averaged derivative)
 kpt#   1, nband= 17, wtk=  0.50000, kpt=  0.0000  0.0000  0.0000 (reduced coord)
  -0.00000    0.00000   -0.00000   -0.00000   -0.00000   -0.00000    0.00000    0.00000
   0.00000   -0.00000   -0.00000   -0.00000   -0.00000    0.00000    0.00000   -0.00000
  -0.00000
 prteigrs : prtvol=0 or 1, do not print more k-points.

 Eight components of 2nd-order total energy (hartree) are
 1,2,3: 0th-order hamiltonian combined with 1st-order wavefunctions
     kin0=   1.20794511E+00 eigvalue=  -8.50941118E-02  local=  -5.31727712E-01
 4,5,6: 1st-order hamiltonian combined with 1st and 0th-order wfs
     kin1=  -1.08987092E+01  Hartree=   0.00000000E+00     xc=   0.00000000E+00
 7,8,9: eventually, occupation + non-local contributions
    edocc=   4.39843560E+00     enl0=   1.41908652E-01   enl1=   6.35774096E-01
 1-9 gives the relaxation energy (to be shifted if some occ is /=2.0)
   erelax=  -5.13146754E+00
  No Ewald or frozen-wf contrib.: the relaxation energy is the total one
 2DEtotal=   -0.5131467544E+01 Ha. Also 2DEtotal=   -0.139634333118E+03 eV
    (  non-var. 2DEtotal :   -5.1314675444E+00 Ha)

 CALCULATION OF EFFECTIVE MASSES
 NOTE : Additional infos (eff. mass eigenvalues, eigenvectors and, if degenerate, average mass) are available in stdout.

 COMMENTS:
 - At k-point ( 0.000, 0.000, 0.000), bands     7 through     8
   are DEGENERATE (effective mass tensor is therefore not defined).
   See Section IIIB Eqs. (67)-(70) and Appendix E of PRB 93 205147 (2016).
 - Angular average effective mass for Frohlich model is to be averaged over degenerate bands. See later.
 - Associated theta integrals calculated with ntheta=   1000 points.

 K-point ( 0.000, 0.000, 0.000) | band =     7
 Transport equivalent effective mass tensor:
             -0.1783341333              0.0000000000             -0.0000000001
              0.0000000000             -0.1783341333              0.0000000001
             -0.0000000001              0.0000000001             -1.3132773402
 Transport equivalent effective mass tensor eigenvalues:
             -1.3132773402             -0.1783341333             -0.1783341333
 Angular average effective mass 1/(<1/m>)=  -0.2504935402
 Angular average effective mass for Frohlich model (<m**0.5>)**2=  -0.2938927363
 Effective masses along directions: (cart. coord. / red. coord. -> eff. mass)
    1:   1.000000  0.000000  0.000000 /   0.894427 -0.447214  0.000000 ->  -0.1783341333
    2:   0.000000  1.000000  0.000000 /   0.000000  1.000000  0.000000 ->  -0.1783341333
    3:   0.000000  0.000000  1.000000 /   0.000000  0.000000  1.000000 ->  -1.3132773391
    4:   0.577350  0.577350  0.577350 /   0.511029  0.187049  0.838965 ->  -0.2504935402
    5:   0.000000  0.707107  0.707107 /   0.000000  0.466574  0.884482 ->  -0.3140257103
    6:   0.707107  0.000000  0.707107 /   0.503458 -0.251729  0.826536 ->  -0.3140257103
    7:   0.707107  0.707107  0.000000 /   0.939071  0.343724  0.000000 ->  -0.1783341333

 K-point ( 0.000, 0.000, 0.000) | band =     8
 Transport equivalent effective mass tensor:
             -1.6765726114             -0.0000000000             -0.0000000008
             -0.0000000000             -1.6765726117              0.0000000000
             -0.0000000008              0.0000000000             -1.3132773402
 Transport equivalent effective mass tensor eigenvalues:
             -1.6765726117             -1.6765726114             -1.3132773402
 Angular average effective mass 1/(<1/m>)=  -1.5350265078
 Angular average effective mass for Frohlich model (<m**0.5>)**2=  -1.5413877746
 Effective masses along directions: (cart. coord. / red. coord. -> eff. mass)
    1:   1.000000  0.000000  0.000000 /   0.894427 -0.447214  0.000000 ->  -1.6765726118
    2:   0.000000  1.000000  0.000000 /   0.000000  1.000000  0.000000 ->  -1.6765726117
    3:   0.000000  0.000000  1.000000 /   0.000000  0.000000  1.000000 ->  -1.3132773413
    4:   0.577350  0.577350  0.577350 /   0.511029  0.187049  0.838965 ->  -1.5350265080
    5:   0.000000  0.707107  0.707107 /   0.000000  0.466574  0.884482 ->  -1.4728530568
    6:   0.707107  0.000000  0.707107 /   0.503458 -0.251729  0.826536 ->  -1.4728530575
    7:   0.707107  0.707107  0.000000 /   0.939071  0.343724  0.000000 ->  -1.6765726112

 Angular average effective mass for Frohlich model, averaged over degenerate bands.
 Value of     (<<m**0.5>>)**2 =     7.953475E-01
 Absolute Value of <<m**0.5>> =     8.918226E-01

 K-point ( 0.500,-0.000, 0.000) | band =     9
 Effective mass tensor:
              0.8027367467              0.3869900368              0.0000006541
              0.3869900368              0.3558742431             -0.0000011302
              0.0000006541             -0.0000011302              1.0235666067
 Effective mass tensor eigenvalues:
              0.1324466661              1.0235666067              1.0261643237
 Angular average effective mass 1/(<1/m>)=   0.3157333826
 Angular average effective mass for Frohlich model (<m**0.5>)**2=   0.4304311940
 Effective masses along directions: (cart. coord. / red. coord. -> eff. mass)
    1:   1.000000  0.000000  0.000000 /   0.894427 -0.447214  0.000000 ->   0.3819103129
    2:   0.000000  1.000000  0.000000 /   0.000000  1.000000  0.000000 ->   0.1693108533
    3:   0.000000  0.000000  1.000000 /   0.000000  0.000000  1.000000 ->   1.0235666067
    4:   0.577350  0.577350  0.577350 /   0.511029  0.187049  0.838965 ->   0.7880258299
    5:   0.000000  0.707107  0.707107 /   0.000000  0.466574  0.884482 ->   0.2905587898
    6:   0.707107  0.000000  0.707107 /   0.503458 -0.251729  0.826536 ->   0.5562691000
    7:   0.707107  0.707107  0.000000 /   0.939071  0.343724  0.000000 ->   0.7067140879

 END OF EFFECTIVE MASSES SECTION

 ---- first-order wavefunction calculations are completed ----

 Total localisation tensor (bohr^2) in cartesian coordinates
  WARNING : still subject to testing - especially symmetries.
      direction              matrix element
   alpha     beta       real part   imaginary part
     1        1       7.8868141857    0.0000000000
     1        2      -3.6095906718    0.0000000000
     1        3       0.0000000000    0.0000000000
     2        1      -3.6095906718    0.0000000000
     2        2       6.2519944381    0.0000000000
     2        3       0.0000000000    0.0000000000
     3        1       0.0000000000    0.0000000000
     3        2       0.0000000000    0.0000000000
     3        3       3.0984375549    0.0000000000

 respfn : d/dk was computed, but no 2DTE, so no DDB output.

== END DATASET(S) ==============================================================

 -outvars: echo values of variables after computation  --------
            acell      1.0000000000E+00  1.0000000000E+00  1.0000000000E+00 Bohr
              amu      2.69815390E+01  3.09737620E+01
             ecut      2.40000000E+01 Hartree
           etotal     -5.1314675445E+00
            fcart      0.0000000000E+00  0.0000000000E+00  0.0000000000E+00
                       0.0000000000E+00  0.0000000000E+00  0.0000000000E+00
                       0.0000000000E+00  0.0000000000E+00  0.0000000000E+00
                       0.0000000000E+00  0.0000000000E+00  0.0000000000E+00
-          fftalg         512
           irdden           1
           irdwfk           1
           istwfk        1    1
              ixc     -116133
              kpt      0.00000000E+00  0.00000000E+00  0.00000000E+00
                       5.00000000E-01 -2.77555756E-17  0.00000000E+00
           kptopt           0
P           mkmem           2
P          mkqmem           2
P          mk1mem           2
            natom           4
            nband          17
           nbdbuf           4
            ngfft          36      36      54
             nkpt           2
            nstep         100
             nsym          12
           ntypat           2
              occ      2.000000  2.000000  2.000000  2.000000  2.000000  2.000000
                       2.000000  2.000000  0.000000  0.000000  0.000000  0.000000
                       0.000000  0.000000  0.000000  0.000000  0.000000
        optdriver           1
            prtwf          -1
            rfdir           1       1       1
           rfelfd           2
            rprim      7.2947601682E+00  0.0000000000E+00  0.0000000000E+00
                      -3.6473800841E+00  6.3174476202E+00  0.0000000000E+00
                       0.0000000000E+00  0.0000000000E+00  1.1975944390E+01
          spgroup         186
           strten      0.0000000000E+00  0.0000000000E+00  0.0000000000E+00
                       0.0000000000E+00  0.0000000000E+00  0.0000000000E+00
           symrel      1  0  0   0  1  0   0  0  1       0  1  0   1  0  0   0  0  1
                       1  1  0  -1  0  0   0  0  1      -1  0  0   1  1  0   0  0  1
                       0  1  0  -1 -1  0   0  0  1      -1 -1  0   0  1  0   0  0  1
                      -1  0  0   0 -1  0   0  0  1       0 -1  0  -1  0  0   0  0  1
                      -1 -1  0   1  0  0   0  0  1       1  0  0  -1 -1  0   0  0  1
                       0 -1  0   1  1  0   0  0  1       1  1  0   0 -1  0   0  0  1
            tnons      0.0000000  0.0000000  0.0000000     0.0000000  0.0000000  0.5000000
                      -0.0000000  0.0000000  0.5000000     0.0000000  0.0000000  0.0000000
                       0.0000000 -0.0000000  0.0000000     0.0000000  0.0000000  0.5000000
                       0.0000000  0.0000000  0.5000000     0.0000000  0.0000000  0.0000000
                       0.0000000  0.0000000  0.0000000    -0.0000000  0.0000000  0.5000000
                       0.0000000  0.0000000  0.5000000     0.0000000 -0.0000000  0.0000000
           tolwfr      1.00000000E-20
            typat      1  1  2  2
           useylm           1
              wtk        0.50000    0.50000
           xangst      1.9301104116E+00  1.1143497657E+00  6.3368137818E+00
                      -4.7000377687E-16  2.2286995314E+00  3.1681153707E+00
                       1.9301104116E+00  1.1143497657E+00  3.9614560545E+00
                      -4.7000377687E-16  2.2286995314E+00  7.9275764330E-01
            xcart      3.6473800841E+00  2.1058158734E+00  1.1974842603E+01
                      -8.8817841970E-16  4.2116317468E+00  5.9868704079E+00
                       3.6473800841E+00  2.1058158734E+00  7.4860670304E+00
                      -8.8817841970E-16  4.2116317468E+00  1.4980948356E+00
             xred      6.6666666667E-01  3.3333333333E-01  9.9990800000E-01
                       3.3333333333E-01  6.6666666667E-01  4.9990800000E-01
                       6.6666666667E-01  3.3333333333E-01  6.2509200000E-01
                       3.3333333333E-01  6.6666666667E-01  1.2509200000E-01
            znucl       13.00000   15.00000

- Timing analysis has been suppressed with timopt=0

 Suggested references for the acknowledgment of ABINIT usage.

 Calculation completed.
.Delivered  14 WARNINGs and   9 COMMENTs to log file.