.Version 9.5.1 of ABINIT

 ABINIT is a project of the Universite Catholique de Louvain,
 Corning Inc. and other collaborators, see ~abinit/doc/developers/contributors.txt .
 acknowledgments of the ABINIT effort.

.Starting date : Thu 29 Apr 2021.
- ( at 14h35 )

- input  file    -> /scratch/users/j/a/jabreu/flow_simple_5atoms/flow/w157/t1/run.abi
- output file    -> /scratch/users/j/a/jabreu/flow_simple_5atoms/flow/w157/t1/run.abo
- root for input  files -> /scratch/users/j/a/jabreu/flow_simple_5atoms/flow/w157/t1/indata/in
- root for output files -> /scratch/users/j/a/jabreu/flow_simple_5atoms/flow/w157/t1/outdata/out

 Symmetries : space group Im m m (# 71); Bravais oI (body-center ortho.)
     intxc =       0      iscf =       7    lmnmax =      32     lnmax =       8
     mgfft =      72  mpssoang =       4    mqgrid =    3243     natom =       5
  nloc_mem =       1    nspden =       1   nspinor =       1    nsppol =       1
      nsym =       8    n1xccc =    2501    ntypat =       3    occopt =       1
   xclevel =       2
-    mband =          43        mffmem =           1         mkmem =           2
-   mkqmem =           2        mk1mem =           2           mpw =       12008
      nfft =      373248          nkpt =           2
  Rough estimation (10% accuracy) of disk space for files :

------------- Echo of variables that govern the present computation ------------
-
- outvars: echo of selected default values
-   iomode0 =  0 , fftalg0 =512 , wfoptalg0 =  0
-
- outvars: echo of global parameters not present in the input file
-  max_nthreads =    0
-
 -outvars: echo values of preprocessed input variables --------
            acell      1.0000000000E+00  1.0000000000E+00  1.0000000000E+00 Bohr
              amu      3.90983000E+01  1.95080000E+02  7.89600000E+01
             ecut      4.30000000E+01 Hartree
-          fftalg         512
           irdden           1
           irdwfk           1
              ixc     -116133
              kpt      5.00000000E-01  5.00000000E-01 -5.00000000E-01
                       3.65384615E-01  1.34615385E-01  1.34615385E-01
           kptopt           0
P           mkmem           2
P          mkqmem           2
P          mk1mem           2
            natom           5
            nband          43
           nbdbuf           4
            ngfft          72      72      72
             nkpt           2
            nstep         100
             nsym           8
           ntypat           3
              occ      2.000000  2.000000  2.000000  2.000000  2.000000  2.000000
                       2.000000  2.000000  2.000000  2.000000  2.000000  2.000000
                       2.000000  2.000000  2.000000  2.000000  2.000000  2.000000
                       2.000000  2.000000  2.000000  2.000000  2.000000  2.000000
                       2.000000  2.000000  2.000000  2.000000  2.000000  2.000000
                       2.000000  2.000000  2.000000  2.000000  0.000000  0.000000
                       0.000000  0.000000  0.000000  0.000000  0.000000  0.000000
                       0.000000
        optdriver           1
            prtwf          -1
            rfdir           1       1       1
           rfelfd           2
            rprim      1.1251929069E+01  0.0000000000E+00 -4.1118832073E+00
                      -1.4693073953E+00  6.6159878796E+00 -9.8784275797E+00
                       0.0000000000E+00  0.0000000000E+00  1.1979711653E+01
          spgroup          71
           symrel      1  0  0   0  1  0   0  0  1      -1  0  0   0 -1  0   0  0 -1
                       0  0  1  -1 -1 -1   1  0  0       0  0 -1   1  1  1  -1  0  0
                      -1 -1 -1   0  0  1   0  1  0       1  1  1   0  0 -1   0 -1  0
                       0  1  0   1  0  0  -1 -1 -1       0 -1  0  -1  0  0   1  1  1
           tolwfr      1.00000000E-20
            typat      1  1  2  3  3
           useylm           1
              wtk        0.50000    0.50000
           xangst      1.1624534536E+00  2.7996021391E+00 -1.6624464923E+00
                       4.0142869765E+00  7.0142785911E-01  5.9848325498E-01
                       0.0000000000E+00  0.0000000000E+00  0.0000000000E+00
                       9.3180454053E-01  1.7505149991E+00  1.4793722328E+00
                       4.2449358896E+00  1.7505149991E+00 -2.5433354701E+00
            xcart      2.1967186696E+00  5.2904813239E+00 -3.1415685809E+00
                       7.5859030044E+00  1.3255065557E+00  1.1309694470E+00
                       0.0000000000E+00  0.0000000000E+00  0.0000000000E+00
                       1.7608553910E+00  3.3079939398E+00  2.7956083686E+00
                       8.0217662830E+00  3.3079939398E+00 -4.8062075025E+00
             xred      2.9965100000E-01  7.9965100000E-01  5.0000000000E-01
                       7.0034900000E-01  2.0034900000E-01  5.0000000000E-01
                       0.0000000000E+00  0.0000000000E+00  0.0000000000E+00
                       2.2178500000E-01  5.0000000000E-01  7.2178500000E-01
                       7.7821500000E-01  5.0000000000E-01  2.7821500000E-01
            znucl       19.00000   78.00000   34.00000

 chkinp: Checking input parameters for consistency.

== DATASET  1 ==================================================================
-   mpi_nproc: 1, omp_nthreads: -1 (-1 if OMP is not activated)

--- !DatasetInfo
iteration_state: {dtset: 1, }
dimensions: {natom: 5, nkpt: 2, mband: 43, nsppol: 1, nspinor: 1, nspden: 1, mpw: 12008, }
cutoff_energies: {ecut:  43.0, pawecutdg:  -1.0, }
electrons: {nelect:   6.80000000E+01, charge:   0.00000000E+00, occopt:   1.00000000E+00, tsmear:   1.00000000E-02, }
meta: {optdriver: 1, rfelfd: 2, }
...

 Real(R)+Recip(G) space primitive vectors, cartesian coordinates (Bohr,Bohr^-1):
 R(1)= 11.2519291  0.0000000 -4.1118832  G(1)=  0.0888736  0.0197374  0.0000000
 R(2)= -1.4693074  6.6159879 -9.8784276  G(2)=  0.0000000  0.1511490  0.0000000
 R(3)=  0.0000000  0.0000000 11.9797117  G(3)=  0.0305047  0.1314116  0.0834745
 Unit cell volume ucvol=  8.9180120E+02 bohr^3
 Angles (23,13,12)=  1.45547598E+02  1.10074228E+02  8.03381113E+01 degrees

 getcut: wavevector=  0.0000  0.0000  0.0000  ngfft=  72  72  72
         ecut(hartree)=     43.000   => boxcut(ratio)=   2.03634

--- Pseudopotential description ------------------------------------------------
- pspini: atom type   1  psp file is /scratch/users/j/a/jabreu/pseudos/PBEsol/K.psp8
- pspatm: opening atomic psp file    /scratch/users/j/a/jabreu/pseudos/PBEsol/K.psp8
- K     ONCVPSP-3.3.0  r_core=   1.36296   1.46408   1.61068
- 19.00000   9.00000    180112                znucl, zion, pspdat
    8 -116133    2    4       400   0.00000   pspcod,pspxc,lmax,lloc,mmax,r2well
    3.99000000000000    5.00000000000000    0.00000000000000   rchrg,fchrg,qchrg
     nproj     2     2     2
     extension_switch     1
  pspatm : epsatm=    8.32487830
         --- l  ekb(1:nproj) -->
             0   10.921326    0.816676
             1    4.431000    0.560368
             2   -3.384038   -1.043186
 pspatm: atomic psp has been read  and splines computed

- pspini: atom type   2  psp file is /scratch/users/j/a/jabreu/pseudos/PBEsol/Pt.psp8
- pspatm: opening atomic psp file    /scratch/users/j/a/jabreu/pseudos/PBEsol/Pt.psp8
- Pt    ONCVPSP-3.3.0  r_core=   1.45722   1.45722   1.45722   1.91724
- 78.00000  18.00000    180112                znucl, zion, pspdat
    8 -116133    3    4       500   0.00000   pspcod,pspxc,lmax,lloc,mmax,r2well
    4.99000000000000    5.00000000000000    0.00000000000000   rchrg,fchrg,qchrg
     nproj     2     2     2     2
     extension_switch     1
  pspatm : epsatm=   26.54019552
         --- l  ekb(1:nproj) -->
             0   18.149684    1.747248
             1    8.048135    1.208190
             2    2.365973    0.348456
             3    3.491561    0.381218
 pspatm: atomic psp has been read  and splines computed

- pspini: atom type   3  psp file is /scratch/users/j/a/jabreu/pseudos/PBEsol/Se.psp8
- pspatm: opening atomic psp file    /scratch/users/j/a/jabreu/pseudos/PBEsol/Se.psp8
- Se    ONCVPSP-3.3.0  r_core=   1.81943   1.50330   1.90835
- 34.00000  16.00000    180112                znucl, zion, pspdat
    8 -116133    2    4       600   0.00000   pspcod,pspxc,lmax,lloc,mmax,r2well
    5.99000000000000    5.00000000000000    0.00000000000000   rchrg,fchrg,qchrg
     nproj     2     2     2
     extension_switch     1
  pspatm : epsatm=   29.17862020
         --- l  ekb(1:nproj) -->
             0    8.973804    1.019550
             1    6.849857    1.297308
             2   -9.203962   -3.731027
 pspatm: atomic psp has been read  and splines computed

   6.90520909E+03                                ecore*ucvol(ha*bohr**3)

-inwffil : will read wavefunctions from disk file /scratch/users/j/a/jabreu/flow_simple_5atoms/flow/w157/t1/indata/in_WFK

 ==>  initialize data related to q vector <==

 The list of irreducible perturbations for this q vector is:
    1)    idir= 1    ipert=   6
    2)    idir= 2    ipert=   6
    3)    idir= 3    ipert=   6

 Perturbation wavevector (in red.coord.)   0.000000  0.000000  0.000000
 Perturbation : derivative vs k along direction   1

 dfpt_looppert : COMMENT -
  In a d/dk calculation, iscf is set to -3 automatically.
 The set of symmetries contains only one element for this perturbation.
 symkpt : not enough symmetry to change the number of k points.

[...]

 Initialisation of the first-order wave-functions :
  ireadwf=   0

--- !BeginCycle
iteration_state: {dtset: 1, }
solver: {iscf: 7, nstep: 100, nline: 4, wfoptalg: 0, }
tolerances: {tolwfr: 1.00E-20, }
...

     iter   2DEtotal(Ha)        deltaE(Ha) residm    vres2
-ETOT  1  -38.617145552215     -3.862E+01 1.171E-01 0.000E+00
 ETOT  2  -38.676288337938     -5.914E-02 1.205E-02 0.000E+00
 ETOT  3  -38.677025179762     -7.368E-04 1.751E-03 0.000E+00
 ETOT  4  -38.677047789804     -2.261E-05 2.615E-04 0.000E+00
 ETOT  5  -38.677048767365     -9.776E-07 5.245E-05 0.000E+00
 ETOT  6  -38.677048817417     -5.005E-08 1.112E-05 0.000E+00
 ETOT  7  -38.677048820215     -2.798E-09 1.948E-06 0.000E+00
 ETOT  8  -38.677048820376     -1.617E-10 4.521E-07 0.000E+00
 ETOT  9  -38.677048820386     -9.521E-12 7.621E-08 0.000E+00
 ETOT 10  -38.677048820387     -5.755E-13 1.780E-08 0.000E+00
 ETOT 11  -38.677048820387     -4.974E-14 3.048E-09 0.000E+00
 ETOT 12  -38.677048820387     -7.105E-15 7.141E-10 0.000E+00
 ETOT 13  -38.677048820387      2.842E-14 1.231E-10 0.000E+00
 ETOT 14  -38.677048820387     -1.421E-14 2.888E-11 0.000E+00
 ETOT 15  -38.677048820387      0.000E+00 6.347E-12 0.000E+00
 ETOT 16  -38.677048820387     -7.105E-15 1.692E-12 0.000E+00
 ETOT 17  -38.677048820387      7.105E-15 3.813E-13 0.000E+00
 ETOT 18  -38.677048820387     -1.421E-14 1.037E-13 0.000E+00
 ETOT 19  -38.677048820387      0.000E+00 2.316E-14 0.000E+00
 ETOT 20  -38.677048820387      0.000E+00 6.381E-15 0.000E+00
 ETOT 21  -38.677048820387      0.000E+00 1.415E-15 0.000E+00
 ETOT 22  -38.677048820387      0.000E+00 3.932E-16 0.000E+00
 ETOT 23  -38.677048820387      0.000E+00 8.682E-17 0.000E+00
 ETOT 24  -38.677048820387      0.000E+00 2.426E-17 0.000E+00
 ETOT 25  -38.677048820387      0.000E+00 5.338E-18 0.000E+00
 ETOT 26  -38.677048820387      0.000E+00 1.497E-18 0.000E+00
 ETOT 27  -38.677048820387      0.000E+00 3.287E-19 0.000E+00
 ETOT 28  -38.677048820387      0.000E+00 9.242E-20 0.000E+00
 ETOT 29  -38.677048820387     -7.105E-15 2.025E-20 0.000E+00
 ETOT 30  -38.677048820387      0.000E+00 9.884E-21 0.000E+00

 At SCF step   30   max residual=  9.88E-21 < tolwfr=  1.00E-20 =>converged.

 ----iterations are completed or convergence reached----

 dfpt_looppert: DFPT cycle converged with prtwf=-1. Will skip output of the 1st-order WFK file.
 dfpt_looppert : ek2=    4.4499305043E+01
          f-sum rule ratio=    1.0049804290E+00
 prteigrs : about to open file /scratch/users/j/a/jabreu/flow_simple_5atoms/flow/w157/t1/tmpdata/tmp_1WF1_EIG
 Expectation of eigenvalue derivatives (hartree) for nkpt=   2  k points:
  (in case of degenerate eigenvalues, averaged derivative)
 kpt#   1, nband= 43, wtk=  0.50000, kpt=  0.5000  0.5000 -0.5000 (reduced coord)
   0.00000   -0.00000   -0.00000    0.00000   -0.00000   -0.00000   -0.00000    0.00000
  -0.00000   -0.00000    0.00000   -0.00000    0.00000   -0.00000    0.00000   -0.00000
   0.00000    0.00000    0.00000    0.00000   -0.00000    0.00000    0.00000    0.00000
  -0.00000    0.00000   -0.00000   -0.00000   -0.00000    0.00000    0.00000   -0.00000
  -0.00000    0.00000   -0.00000   -0.00000   -0.00000    0.00000   -0.00000    0.00000
  -0.00000   -0.00000   -0.00000
 prteigrs : prtvol=0 or 1, do not print more k-points.

 Eight components of 2nd-order total energy (hartree) are
 1,2,3: 0th-order hamiltonian combined with 1st-order wavefunctions
     kin0=   4.57004521E+01 eigvalue=   5.37027588E+00  local=  -2.15808618E+01
 4,5,6: 1st-order hamiltonian combined with 1st and 0th-order wfs
     kin1=  -4.47209307E+01  Hartree=   0.00000000E+00     xc=   0.00000000E+00
 7,8,9: eventually, occupation + non-local contributions
    edocc=   5.26440204E+00     enl0=   3.92278059E+00   enl1=  -3.26331670E+01
 1-9 gives the relaxation energy (to be shifted if some occ is /=2.0)
   erelax=  -3.86770488E+01
  No Ewald or frozen-wf contrib.: the relaxation energy is the total one
 2DEtotal=   -0.3867704882E+02 Ha. Also 2DEtotal=   -0.105245602202E+04 eV
    (  non-var. 2DEtotal :   -3.8677048820E+01 Ha)

 Perturbation wavevector (in red.coord.)   0.000000  0.000000  0.000000
 Perturbation : derivative vs k along direction   2
 The set of symmetries contains only one element for this perturbation.
 symkpt : not enough symmetry to change the number of k points.

[...]

 Perturbation wavevector (in red.coord.)   0.000000  0.000000  0.000000
 Perturbation : derivative vs k along direction   3
 The set of symmetries contains only one element for this perturbation.
 symkpt : not enough symmetry to change the number of k points.

-inwffil : will read wavefunctions from disk file /scratch/users/j/a/jabreu/flow_simple_5atoms/flow/w157/t1/indata/in_WFK

 Initialisation of the first-order wave-functions :
  ireadwf=   0

--- !BeginCycle
iteration_state: {dtset: 1, }
solver: {iscf: 7, nstep: 100, nline: 4, wfoptalg: 0, }
tolerances: {tolwfr: 1.00E-20, }
...

     iter   2DEtotal(Ha)        deltaE(Ha) residm    vres2
-ETOT  1  -119.53339361171     -1.195E+02 3.286E-01 0.000E+00
 ETOT  2  -119.71988554156     -1.865E-01 2.739E-02 0.000E+00
 ETOT  3  -119.72284314803     -2.958E-03 4.383E-03 0.000E+00
 ETOT  4  -119.72296485178     -1.217E-04 6.906E-04 0.000E+00
 ETOT  5  -119.72297133485     -6.483E-06 1.391E-04 0.000E+00
 ETOT  6  -119.72297171303     -3.782E-07 2.819E-05 0.000E+00
 ETOT  7  -119.72297173639     -2.336E-08 6.310E-06 0.000E+00
 ETOT  8  -119.72297173788     -1.487E-09 1.331E-06 0.000E+00
 ETOT  9  -119.72297173798     -9.661E-11 2.947E-07 0.000E+00
 ETOT 10  -119.72297173798     -6.438E-12 6.638E-08 0.000E+00
 ETOT 11  -119.72297173798     -3.695E-13 1.442E-08 0.000E+00
 ETOT 12  -119.72297173798     -1.279E-13 3.390E-09 0.000E+00
 ETOT 13  -119.72297173798      1.137E-13 7.234E-10 0.000E+00
 ETOT 14  -119.72297173798     -2.842E-14 1.751E-10 0.000E+00
 ETOT 15  -119.72297173798     -2.842E-14 3.685E-11 0.000E+00
 ETOT 16  -119.72297173798      1.421E-14 9.110E-12 0.000E+00
 ETOT 17  -119.72297173798     -2.842E-14 1.897E-12 0.000E+00
 ETOT 18  -119.72297173798      1.421E-14 4.763E-13 0.000E+00
 ETOT 19  -119.72297173798     -2.842E-14 9.837E-14 0.000E+00
 ETOT 20  -119.72297173798      2.842E-14 2.501E-14 0.000E+00
 ETOT 21  -119.72297173798      0.000E+00 5.132E-15 0.000E+00
 ETOT 22  -119.72297173798      0.000E+00 1.317E-15 0.000E+00
 ETOT 23  -119.72297173798      0.000E+00 2.691E-16 0.000E+00
 ETOT 24  -119.72297173798     -1.421E-14 6.963E-17 0.000E+00
 ETOT 25  -119.72297173798      7.105E-14 1.417E-17 0.000E+00
 ETOT 26  -119.72297173798     -5.684E-14 3.690E-18 0.000E+00
 ETOT 27  -119.72297173798      2.842E-14 7.482E-19 0.000E+00
 ETOT 28  -119.72297173798     -1.421E-14 1.960E-19 0.000E+00
 ETOT 29  -119.72297173798     -2.842E-14 3.964E-20 0.000E+00
 ETOT 30  -119.72297173798      5.684E-14 1.044E-20 0.000E+00
 ETOT 31  -119.72297173798      0.000E+00 9.898E-21 0.000E+00

 At SCF step   31   max residual=  9.90E-21 < tolwfr=  1.00E-20 =>converged.

 ----iterations are completed or convergence reached----

 dfpt_looppert: DFPT cycle converged with prtwf=-1. Will skip output of the 1st-order WFK file.
 dfpt_looppert : ek2=    1.3512606557E+02
          f-sum rule ratio=    1.0385796284E+00
 prteigrs : about to open file /scratch/users/j/a/jabreu/flow_simple_5atoms/flow/w157/t1/tmpdata/tmp_1WF1_EIG
 Expectation of eigenvalue derivatives (hartree) for nkpt=   2  k points:
  (in case of degenerate eigenvalues, averaged derivative)
 kpt#   1, nband= 43, wtk=  0.50000, kpt=  0.5000  0.5000 -0.5000 (reduced coord)
  -0.00000   -0.00000   -0.00000   -0.00000    0.00000    0.00000    0.00000    0.00000
   0.00000    0.00000    0.00000   -0.00000   -0.00000   -0.00000   -0.00000    0.00000
   0.00000   -0.00000   -0.00000    0.00000   -0.00000    0.00000    0.00000    0.00000
  -0.00000   -0.00000    0.00000    0.00000   -0.00000    0.00000    0.00000    0.00000
  -0.00000    0.00000    0.00000    0.00000    0.00000    0.00000   -0.00000    0.00000
  -0.00000    0.00000    0.00062
 prteigrs : prtvol=0 or 1, do not print more k-points.

 Eight components of 2nd-order total energy (hartree) are
 1,2,3: 0th-order hamiltonian combined with 1st-order wavefunctions
     kin0=   1.35540425E+02 eigvalue=   1.56429933E+01  local=  -6.32359730E+01
 4,5,6: 1st-order hamiltonian combined with 1st and 0th-order wfs
     kin1=  -1.40339179E+02  Hartree=   0.00000000E+00     xc=   0.00000000E+00
 7,8,9: eventually, occupation + non-local contributions
    edocc=   2.06738068E+01     enl0=   1.11017195E+01   enl1=  -9.91067645E+01
 1-9 gives the relaxation energy (to be shifted if some occ is /=2.0)
   erelax=  -1.19722972E+02
  No Ewald or frozen-wf contrib.: the relaxation energy is the total one
 2DEtotal=   -0.1197229717E+03 Ha. Also 2DEtotal=   -0.325782774082E+04 eV
    (  non-var. 2DEtotal :   -1.1972297174E+02 Ha)

 CALCULATION OF EFFECTIVE MASSES
 NOTE : Additional infos (eff. mass eigenvalues, eigenvectors and, if degenerate, average mass) are available in stdout.

 K-point ( 0.500, 0.500,-0.500) | band =    34
 Effective mass tensor:
             -5.0247660111             -2.6306416624              5.4710239249
             -2.6306416624             -2.7828520309              3.7621315935
              5.4710239249              3.7621315935             -9.0234634803
 Effective mass tensor eigenvalues:
            -14.6281177966             -1.1992114724             -1.0037522534
 Angular average effective mass 1/(<1/m>)=  -1.5801911033
 Angular average effective mass for Frohlich model (<m**0.5>)**2=  -1.9820216885
 Effective masses along directions: (cart. coord. / red. coord. -> eff. mass)
    1:   1.000000  0.000000  0.000000 /   0.991582 -0.129483  0.000000 ->  -1.6069635775
    2:   0.000000  1.000000  0.000000 /   0.000000  1.000000  0.000000 ->  -1.1427337237
    3:   0.000000  0.000000  1.000000 /  -0.255992 -0.614999  0.745818 ->  -2.4930294443
    4:   0.577350  0.577350  0.577350 /   0.484828 -0.321298  0.813455 ->  -1.1287472156
    5:   0.000000  0.707107  0.707107 /  -0.314384 -0.249438  0.915938 ->  -1.1181600525
    6:   0.707107  0.000000  0.707107 /   0.397120 -0.631146  0.666296 ->  -1.2280376109
    7:   0.707107  0.707107  0.000000 /   0.909385  0.415956  0.000000 ->  -1.7558474791

--- !WARNING
src_file: m_efmas.F90
src_line: 0
message: |

    Band(s)    35,
    are not band extrema, but saddle points;
    the transport equivalent formalism breaks down in these conditions.
    The associated tensor(s) will therefore not be printed.
...

 K-point ( 0.365, 0.135, 0.135) | band =    35
 Effective mass tensor:
     *** SADDLE POINT: TRANSPORT EQV. EFF. MASS NOT DEFINED (see WARNING above) ***
 Angular average effective mass 1/(<1/m>)=   0.5570397583
 Angular average effective mass for Frohlich model (<m**0.5>)**2=   1.1358307305
 Effective masses along directions: (cart. coord. / red. coord. -> eff. mass)
    1:   1.000000  0.000000  0.000000 /   0.991582 -0.129483  0.000000 ->   0.5897372119
    2:   0.000000  1.000000  0.000000 /   0.000000  1.000000  0.000000 ->   0.3694430401
    3:   0.000000  0.000000  1.000000 /  -0.255992 -0.614999  0.745818 ->   1.0171240262
    4:   0.577350  0.577350  0.577350 /   0.484828 -0.321298  0.813455 ->   0.3720672458
    5:   0.000000  0.707107  0.707107 /  -0.314384 -0.249438  0.915938 ->   0.3607578712
    6:   0.707107  0.000000  0.707107 /   0.397120 -0.631146  0.666296 ->   0.4139623017
    7:   0.707107  0.707107  0.000000 /   0.909385  0.415956  0.000000 ->   0.6507391370

 END OF EFFECTIVE MASSES SECTION

 ---- first-order wavefunction calculations are completed ----

 Total localisation tensor (bohr^2) in cartesian coordinates
  WARNING : still subject to testing - especially symmetries.
      direction              matrix element
   alpha     beta       real part   imaginary part
     1        1       0.9554897539    0.0000000000
     1        2      -0.2186660338    0.0000000000
     1        3      -0.0049323833    0.0000000000
     2        1      -0.2186660338    0.0000000000
     2        2       0.9846080090    0.0000000000
     2        3      -1.4701325166    0.0000000000
     3        1      -0.0049323833    0.0000000000
     3        2      -1.4701325166    0.0000000000
     3        3       6.0528104261    0.0000000000

 respfn : d/dk was computed, but no 2DTE, so no DDB output.

== END DATASET(S) ==============================================================

 -outvars: echo values of variables after computation  --------
            acell      1.0000000000E+00  1.0000000000E+00  1.0000000000E+00 Bohr
              amu      3.90983000E+01  1.95080000E+02  7.89600000E+01
             ecut      4.30000000E+01 Hartree
           etotal     -1.1972297174E+02
            fcart      0.0000000000E+00  0.0000000000E+00  0.0000000000E+00
                       0.0000000000E+00  0.0000000000E+00  0.0000000000E+00
                       0.0000000000E+00  0.0000000000E+00  0.0000000000E+00
                       0.0000000000E+00  0.0000000000E+00  0.0000000000E+00
                       0.0000000000E+00  0.0000000000E+00  0.0000000000E+00
-          fftalg         512
           irdden           1
           irdwfk           1
              ixc     -116133
              kpt      5.00000000E-01  5.00000000E-01 -5.00000000E-01
                       3.65384615E-01  1.34615385E-01  1.34615385E-01
           kptopt           0
P           mkmem           2
P          mkqmem           2
P          mk1mem           2
            natom           5
            nband          43
           nbdbuf           4
            ngfft          72      72      72
             nkpt           2
            nstep         100
             nsym           8
           ntypat           3
              occ      2.000000  2.000000  2.000000  2.000000  2.000000  2.000000
                       2.000000  2.000000  2.000000  2.000000  2.000000  2.000000
                       2.000000  2.000000  2.000000  2.000000  2.000000  2.000000
                       2.000000  2.000000  2.000000  2.000000  2.000000  2.000000
                       2.000000  2.000000  2.000000  2.000000  2.000000  2.000000
                       2.000000  2.000000  2.000000  2.000000  0.000000  0.000000
                       0.000000  0.000000  0.000000  0.000000  0.000000  0.000000
                       0.000000
        optdriver           1
            prtwf          -1
            rfdir           1       1       1
           rfelfd           2
            rprim      1.1251929069E+01  0.0000000000E+00 -4.1118832073E+00
                      -1.4693073953E+00  6.6159878796E+00 -9.8784275797E+00
                       0.0000000000E+00  0.0000000000E+00  1.1979711653E+01
          spgroup          71
           strten      0.0000000000E+00  0.0000000000E+00  0.0000000000E+00
                       0.0000000000E+00  0.0000000000E+00  0.0000000000E+00
           symrel      1  0  0   0  1  0   0  0  1      -1  0  0   0 -1  0   0  0 -1
                       0  0  1  -1 -1 -1   1  0  0       0  0 -1   1  1  1  -1  0  0
                      -1 -1 -1   0  0  1   0  1  0       1  1  1   0  0 -1   0 -1  0
                       0  1  0   1  0  0  -1 -1 -1       0 -1  0  -1  0  0   1  1  1
           tolwfr      1.00000000E-20
            typat      1  1  2  3  3
           useylm           1
              wtk        0.50000    0.50000
           xangst      1.1624534536E+00  2.7996021391E+00 -1.6624464923E+00
                       4.0142869765E+00  7.0142785911E-01  5.9848325498E-01
                       0.0000000000E+00  0.0000000000E+00  0.0000000000E+00
                       9.3180454053E-01  1.7505149991E+00  1.4793722328E+00
                       4.2449358896E+00  1.7505149991E+00 -2.5433354701E+00
            xcart      2.1967186696E+00  5.2904813239E+00 -3.1415685809E+00
                       7.5859030044E+00  1.3255065557E+00  1.1309694470E+00
                       0.0000000000E+00  0.0000000000E+00  0.0000000000E+00
                       1.7608553910E+00  3.3079939398E+00  2.7956083686E+00
                       8.0217662830E+00  3.3079939398E+00 -4.8062075025E+00
             xred      2.9965100000E-01  7.9965100000E-01  5.0000000000E-01
                       7.0034900000E-01  2.0034900000E-01  5.0000000000E-01
                       0.0000000000E+00  0.0000000000E+00  0.0000000000E+00
                       2.2178500000E-01  5.0000000000E-01  7.2178500000E-01
                       7.7821500000E-01  5.0000000000E-01  2.7821500000E-01
            znucl       19.00000   78.00000   34.00000

- Timing analysis has been suppressed with timopt=0

 Suggested references for the acknowledgment of ABINIT usage.

 Calculation completed.
.Delivered  15 WARNINGs and   9 COMMENTs to log file.