.Version 9.5.1 of ABINIT

 ABINIT is a project of the Universite Catholique de Louvain,
 Corning Inc. and other collaborators, see ~abinit/doc/developers/contributors.txt .
 acknowledgments of the ABINIT effort.

.Starting date : Tue 27 Apr 2021.
- ( at 18h25 )

- input  file    -> /scratch/users/j/a/jabreu/flow_simple_4atoms/flow/w148/t1/run.abi
- output file    -> /scratch/users/j/a/jabreu/flow_simple_4atoms/flow/w148/t1/run.abo
- root for input  files -> /scratch/users/j/a/jabreu/flow_simple_4atoms/flow/w148/t1/indata/in
- root for output files -> /scratch/users/j/a/jabreu/flow_simple_4atoms/flow/w148/t1/outdata/out

 Symmetries : space group R-3 m (#166); Bravais hR (rhombohedral)
     intxc =       0      iscf =       7    lmnmax =      18     lnmax =       6
     mgfft =      80  mpssoang =       3    mqgrid =    3001     natom =       4
  nloc_mem =       1    nspden =       1   nspinor =       1    nsppol =       1
      nsym =      12    n1xccc =    2501    ntypat =       3    occopt =       1
   xclevel =       2
-    mband =          25        mffmem =           1         mkmem =           2
-   mkqmem =           2        mk1mem =           2           mpw =        5408
      nfft =      512000          nkpt =           2
  Rough estimation (10% accuracy) of disk space for files :

------------- Echo of variables that govern the present computation ------------
-
- outvars: echo of selected default values
-   iomode0 =  0 , fftalg0 =512 , wfoptalg0 =  0
-
- outvars: echo of global parameters not present in the input file
-  max_nthreads =    0
-
 -outvars: echo values of preprocessed input variables --------
            acell      1.0000000000E+00  1.0000000000E+00  1.0000000000E+00 Bohr
              amu      8.54678000E+01  4.49559100E+01  1.59994000E+01
             ecut      4.40000000E+01 Hartree
-          fftalg         512
           irdden           1
           irdwfk           1
           istwfk        1    1
              ixc     -116133
              kpt      0.00000000E+00  0.00000000E+00  0.00000000E+00
                       5.00000000E-01  5.00000000E-01  0.00000000E+00
           kptopt           0
P           mkmem           2
P          mkqmem           2
P          mk1mem           2
            natom           4
            nband          25
           nbdbuf           4
            ngfft          80      80      80
             nkpt           2
            nstep         100
             nsym          12
           ntypat           3
              occ      2.000000  2.000000  2.000000  2.000000  2.000000  2.000000
                       2.000000  2.000000  2.000000  2.000000  2.000000  2.000000
                       2.000000  2.000000  2.000000  2.000000  0.000000  0.000000
                       0.000000  0.000000  0.000000  0.000000  0.000000  0.000000
                       0.000000
        optdriver           1
            prtwf          -1
            rfdir           1       1       1
           rfelfd           2
            rprim      5.9216715844E+00  0.0000000000E+00  1.0996377544E+01
                       2.7726048582E+00  5.2324809272E+00  1.0996377544E+01
                       0.0000000000E+00  0.0000000000E+00  1.2489456091E+01
          spgroup         166
           symrel      1  0  0   0  1  0   0  0  1      -1  0  0   0 -1  0   0  0 -1
                       0  1  0   1  0  0   0  0  1       0 -1  0  -1  0  0   0  0 -1
                       0  0  1   1  0  0   0  1  0       0  0 -1  -1  0  0   0 -1  0
                       1  0  0   0  0  1   0  1  0      -1  0  0   0  0 -1   0 -1  0
                       0  1  0   0  0  1   1  0  0       0 -1  0   0  0 -1  -1  0  0
                       0  0  1   0  1  0   1  0  0       0  0 -1   0 -1  0  -1  0  0
           tolwfr      1.00000000E-20
            typat      1  2  3  3
           useylm           1
              wtk        0.50000    0.50000
           xangst      0.0000000000E+00  0.0000000000E+00  0.0000000000E+00
                       2.3004064693E+00  1.3844548255E+00  9.1236001291E+00
                       1.0253509739E+00  6.1708751156E-01  4.0666257911E+00
                       3.5754619647E+00  2.1518221395E+00  1.4180574467E+01
            xcart      0.0000000000E+00  0.0000000000E+00  0.0000000000E+00
                       4.3471382213E+00  2.6162404636E+00  1.7241105590E+01
                       1.9376325308E+00  1.1661263969E+00  7.6848090302E+00
                       6.7566439118E+00  4.0663545303E+00  2.6797402150E+01
             xred      0.0000000000E+00  0.0000000000E+00  0.0000000000E+00
                       5.0000000000E-01  5.0000000000E-01  5.0000000000E-01
                       2.2286300000E-01  2.2286300000E-01  2.2286300000E-01
                       7.7713700000E-01  7.7713700000E-01  7.7713700000E-01
            znucl       37.00000   21.00000    8.00000

 chkinp: Checking input parameters for consistency.

== DATASET  1 ==================================================================
-   mpi_nproc: 1, omp_nthreads: -1 (-1 if OMP is not activated)

--- !DatasetInfo
iteration_state: {dtset: 1, }
dimensions: {natom: 4, nkpt: 2, mband: 25, nsppol: 1, nspinor: 1, nspden: 1, mpw: 5408, }
cutoff_energies: {ecut:  44.0, pawecutdg:  -1.0, }
electrons: {nelect:   3.20000000E+01, charge:   0.00000000E+00, occopt:   1.00000000E+00, tsmear:   1.00000000E-02, }
meta: {optdriver: 1, rfelfd: 2, }
...

 Real(R)+Recip(G) space primitive vectors, cartesian coordinates (Bohr,Bohr^-1):
 R(1)=  5.9216716  0.0000000 10.9963775  G(1)=  0.1688712 -0.0894821  0.0000000
 R(2)=  2.7726049  5.2324809 10.9963775  G(2)=  0.0000000  0.1911139  0.0000000
 R(3)=  0.0000000  0.0000000 12.4894561  G(3)= -0.1486832 -0.0894821  0.0800675
 Unit cell volume ucvol=  3.8698622E+02 bohr^3
 Angles (23,13,12)=  2.83029580E+01  2.83029580E+01  2.83029580E+01 degrees

 getcut: wavevector=  0.0000  0.0000  0.0000  ngfft=  80  80  80
         ecut(hartree)=     44.000   => boxcut(ratio)=   2.14533

--- Pseudopotential description ------------------------------------------------
- pspini: atom type   1  psp file is /scratch/users/j/a/jabreu/pseudos/PBEsol/Rb.psp8
- pspatm: opening atomic psp file    /scratch/users/j/a/jabreu/pseudos/PBEsol/Rb.psp8
- Rb    ONCVPSP-3.3.0  r_core=   1.71227   1.75361   1.90633
- 37.00000   9.00000    180112                znucl, zion, pspdat
    8 -116133    2    4       600   0.00000   pspcod,pspxc,lmax,lloc,mmax,r2well
    5.99000000000000    7.00000000000000    0.00000000000000   rchrg,fchrg,qchrg
     nproj     2     2     2
     extension_switch     1
  pspatm : epsatm=   34.48400912
         --- l  ekb(1:nproj) -->
             0    8.196957   -0.477221
             1    3.231347   -0.378736
             2   -1.047201    0.996637
 pspatm: atomic psp has been read  and splines computed

- pspini: atom type   2  psp file is /scratch/users/j/a/jabreu/pseudos/PBEsol/Sc.psp8
- pspatm: opening atomic psp file    /scratch/users/j/a/jabreu/pseudos/PBEsol/Sc.psp8
- Sc    ONCVPSP-3.3.0  r_core=   1.35663   1.35663   1.66161
- 21.00000  11.00000    180112                znucl, zion, pspdat
    8 -116133    2    4       600   0.00000   pspcod,pspxc,lmax,lloc,mmax,r2well
    5.99000000000000    5.00000000000000    0.00000000000000   rchrg,fchrg,qchrg
     nproj     2     2     2
     extension_switch     1
  pspatm : epsatm=   13.58981094
         --- l  ekb(1:nproj) -->
             0   10.810997    0.948773
             1    2.871172    0.364831
             2   -4.789751   -1.321945
 pspatm: atomic psp has been read  and splines computed

- pspini: atom type   3  psp file is /scratch/users/j/a/jabreu/pseudos/PBEsol/O.psp8
- pspatm: opening atomic psp file    /scratch/users/j/a/jabreu/pseudos/PBEsol/O.psp8
- O     ONCVPSP-3.3.0  r_core=   1.35509   1.45563   1.26150
-  8.00000   6.00000    180112                znucl, zion, pspdat
    8 -116133    2    4       600   0.00000   pspcod,pspxc,lmax,lloc,mmax,r2well
    5.99000000000000    4.00000000000000    0.00000000000000   rchrg,fchrg,qchrg
     nproj     2     2     1
     extension_switch     1
  pspatm : epsatm=    6.22910522
         --- l  ekb(1:nproj) -->
             0    6.050032    0.820363
             1   -4.739617   -1.153841
             2   -1.335834
 pspatm: atomic psp has been read  and splines computed

   1.93702498E+03                                ecore*ucvol(ha*bohr**3)

-inwffil : will read wavefunctions from disk file /scratch/users/j/a/jabreu/flow_simple_4atoms/flow/w148/t1/indata/in_WFK

 ==>  initialize data related to q vector <==

 The list of irreducible perturbations for this q vector is:
    1)    idir= 1    ipert=   5
    2)    idir= 2    ipert=   5
    3)    idir= 3    ipert=   5

 Perturbation wavevector (in red.coord.)   0.000000  0.000000  0.000000
 Perturbation : derivative vs k along direction   1

 dfpt_looppert : COMMENT -
  In a d/dk calculation, iscf is set to -3 automatically.
 The set of symmetries contains only one element for this perturbation.
 symkpt : not enough symmetry to change the number of k points.

[...]

 Initialisation of the first-order wave-functions :
  ireadwf=   0

--- !BeginCycle
iteration_state: {dtset: 1, }
solver: {iscf: 7, nstep: 100, nline: 4, wfoptalg: 0, }
tolerances: {tolwfr: 1.00E-20, }
...

     iter   2DEtotal(Ha)        deltaE(Ha) residm    vres2
-ETOT  1  -51.550494392543     -5.155E+01 1.114E-01 0.000E+00
 ETOT  2  -51.580859840456     -3.037E-02 5.281E-03 0.000E+00
 ETOT  3  -51.580977574075     -1.177E-04 1.507E-04 0.000E+00
 ETOT  4  -51.580978386088     -8.120E-07 1.251E-05 0.000E+00
 ETOT  5  -51.580978393009     -6.921E-09 3.449E-07 0.000E+00
 ETOT  6  -51.580978393076     -6.676E-11 6.735E-08 0.000E+00
 ETOT  7  -51.580978393076     -6.750E-13 1.863E-09 0.000E+00
 ETOT  8  -51.580978393076      0.000E+00 5.379E-10 0.000E+00
 ETOT  9  -51.580978393076     -5.684E-14 1.456E-11 0.000E+00
 ETOT 10  -51.580978393076      0.000E+00 5.633E-12 0.000E+00
 ETOT 11  -51.580978393076      0.000E+00 2.282E-13 0.000E+00
 ETOT 12  -51.580978393076      0.000E+00 6.214E-14 0.000E+00
 ETOT 13  -51.580978393076     -7.105E-15 3.997E-15 0.000E+00
 ETOT 14  -51.580978393076      2.132E-14 1.212E-15 0.000E+00
 ETOT 15  -51.580978393076     -7.105E-15 9.065E-17 0.000E+00
 ETOT 16  -51.580978393076      0.000E+00 2.412E-17 0.000E+00
 ETOT 17  -51.580978393076      7.105E-15 1.841E-18 0.000E+00
 ETOT 18  -51.580978393076     -7.105E-15 4.815E-19 0.000E+00
 ETOT 19  -51.580978393076     -1.421E-14 3.486E-20 0.000E+00
 ETOT 20  -51.580978393076      2.132E-14 9.945E-21 0.000E+00

 At SCF step   20   max residual=  9.94E-21 < tolwfr=  1.00E-20 =>converged.

 ----iterations are completed or convergence reached----

 dfpt_looppert: DFPT cycle converged with prtwf=-1. Will skip output of the 1st-order WFK file.
 dfpt_looppert : ek2=    9.2283573366E+01
          f-sum rule ratio=    1.1500703898E+00
 prteigrs : about to open file /scratch/users/j/a/jabreu/flow_simple_4atoms/flow/w148/t1/tmpdata/tmp_1WF1_EIG
 Expectation of eigenvalue derivatives (hartree) for nkpt=   2  k points:
  (in case of degenerate eigenvalues, averaged derivative)
 kpt#   1, nband= 25, wtk=  0.50000, kpt=  0.0000  0.0000  0.0000 (reduced coord)
   0.00000    0.00000    0.00000    0.00000    0.00000    0.00000   -0.00000   -0.00000
  -0.00000   -0.00000   -0.00000   -0.00000   -0.00000   -0.00000    0.00000    0.00000
  -0.00000    0.00000    0.00000    0.00000    0.00000    0.00000    0.00000    0.00000
  -0.00014
 prteigrs : prtvol=0 or 1, do not print more k-points.

 Eight components of 2nd-order total energy (hartree) are
 1,2,3: 0th-order hamiltonian combined with 1st-order wavefunctions
     kin0=   4.97171759E+01 eigvalue=  -1.27004025E-01  local=  -2.06902841E+01
 4,5,6: 1st-order hamiltonian combined with 1st and 0th-order wfs
     kin1=  -1.06132605E+02  Hartree=   0.00000000E+00     xc=   0.00000000E+00
 7,8,9: eventually, occupation + non-local contributions
    edocc=   2.54025786E+01     enl0=  -2.72148803E+00   enl1=   2.97064841E+00
 1-9 gives the relaxation energy (to be shifted if some occ is /=2.0)
   erelax=  -5.15809784E+01
  No Ewald or frozen-wf contrib.: the relaxation energy is the total one
 2DEtotal=   -0.5158097839E+02 Ha. Also 2DEtotal=   -0.140358980293E+04 eV
    (  non-var. 2DEtotal :   -5.1580978393E+01 Ha)

 Perturbation wavevector (in red.coord.)   0.000000  0.000000  0.000000
 Perturbation : derivative vs k along direction   2
 The set of symmetries contains only one element for this perturbation.
 symkpt : not enough symmetry to change the number of k points.

[...]

 Perturbation wavevector (in red.coord.)   0.000000  0.000000  0.000000
 Perturbation : derivative vs k along direction   3
 The set of symmetries contains only one element for this perturbation.
 symkpt : not enough symmetry to change the number of k points.

-inwffil : will read wavefunctions from disk file /scratch/users/j/a/jabreu/flow_simple_4atoms/flow/w148/t1/indata/in_WFK

 Initialisation of the first-order wave-functions :
  ireadwf=   0

--- !BeginCycle
iteration_state: {dtset: 1, }
solver: {iscf: 7, nstep: 100, nline: 4, wfoptalg: 0, }
tolerances: {tolwfr: 1.00E-20, }
...

     iter   2DEtotal(Ha)        deltaE(Ha) residm    vres2
-ETOT  1  -47.769752829646     -4.777E+01 1.328E-01 0.000E+00
 ETOT  2  -47.796739200852     -2.699E-02 5.269E-03 0.000E+00
 ETOT  3  -47.796839815438     -1.006E-04 1.182E-04 0.000E+00
 ETOT  4  -47.796840522629     -7.072E-07 1.252E-05 0.000E+00
 ETOT  5  -47.796840528699     -6.069E-09 4.603E-07 0.000E+00
 ETOT  6  -47.796840528758     -5.899E-11 6.768E-08 0.000E+00
 ETOT  7  -47.796840528758     -6.466E-13 2.873E-09 0.000E+00
 ETOT  8  -47.796840528758     -3.553E-14 5.464E-10 0.000E+00
 ETOT  9  -47.796840528758      2.842E-14 2.133E-11 0.000E+00
 ETOT 10  -47.796840528758     -7.105E-15 5.725E-12 0.000E+00
 ETOT 11  -47.796840528758     -7.105E-15 4.619E-13 0.000E+00
 ETOT 12  -47.796840528758      2.132E-14 1.177E-13 0.000E+00
 ETOT 13  -47.796840528758      7.105E-15 9.411E-15 0.000E+00
 ETOT 14  -47.796840528758      0.000E+00 2.799E-15 0.000E+00
 ETOT 15  -47.796840528758      7.105E-15 1.503E-16 0.000E+00
 ETOT 16  -47.796840528758     -7.105E-15 8.246E-17 0.000E+00
 ETOT 17  -47.796840528758      0.000E+00 3.951E-18 0.000E+00
 ETOT 18  -47.796840528758      0.000E+00 2.453E-18 0.000E+00
 ETOT 19  -47.796840528758      1.421E-14 1.037E-19 0.000E+00
 ETOT 20  -47.796840528758     -1.421E-14 6.045E-20 0.000E+00
 ETOT 21  -47.796840528758      7.105E-15 9.950E-21 0.000E+00

 At SCF step   21   max residual=  9.95E-21 < tolwfr=  1.00E-20 =>converged.

 ----iterations are completed or convergence reached----

 dfpt_looppert: DFPT cycle converged with prtwf=-1. Will skip output of the 1st-order WFK file.
 dfpt_looppert : ek2=    9.2283573366E+01
          f-sum rule ratio=    1.0698152492E+00
 prteigrs : about to open file /scratch/users/j/a/jabreu/flow_simple_4atoms/flow/w148/t1/tmpdata/tmp_1WF1_EIG
 Expectation of eigenvalue derivatives (hartree) for nkpt=   2  k points:
  (in case of degenerate eigenvalues, averaged derivative)
 kpt#   1, nband= 25, wtk=  0.50000, kpt=  0.0000  0.0000  0.0000 (reduced coord)
   0.00000   -0.00000   -0.00000    0.00000    0.00000   -0.00000    0.00000    0.00000
  -0.00000   -0.00000   -0.00000   -0.00000   -0.00000    0.00000    0.00000    0.00000
   0.00000   -0.00000   -0.00000   -0.00000    0.00000   -0.00000   -0.00000    0.00000
   0.00017
 prteigrs : prtvol=0 or 1, do not print more k-points.

 Eight components of 2nd-order total energy (hartree) are
 1,2,3: 0th-order hamiltonian combined with 1st-order wavefunctions
     kin0=   4.68305583E+01 eigvalue=   6.81869972E-02  local=  -1.92310831E+01
 4,5,6: 1st-order hamiltonian combined with 1st and 0th-order wfs
     kin1=  -9.87263740E+01  Hartree=   0.00000000E+00     xc=   0.00000000E+00
 7,8,9: eventually, occupation + non-local contributions
    edocc=   2.22989065E+01     enl0=  -2.16972817E+00   enl1=   3.13269298E+00
 1-9 gives the relaxation energy (to be shifted if some occ is /=2.0)
   erelax=  -4.77968405E+01
  No Ewald or frozen-wf contrib.: the relaxation energy is the total one
 2DEtotal=   -0.4779684053E+02 Ha. Also 2DEtotal=   -0.130061817492E+04 eV
    (  non-var. 2DEtotal :   -4.7796840529E+01 Ha)

 CALCULATION OF EFFECTIVE MASSES
 NOTE : Additional infos (eff. mass eigenvalues, eigenvectors and, if degenerate, average mass) are available in stdout.

 COMMENTS:
 - At k-point ( 0.000, 0.000, 0.000), bands    15 through    16
   are DEGENERATE (effective mass tensor is therefore not defined).
   See Section IIIB Eqs. (67)-(70) and Appendix E of PRB 93 205147 (2016).
 - Angular average effective mass for Frohlich model is to be averaged over degenerate bands. See later.
 - Associated theta integrals calculated with ntheta=   1000 points.

 K-point ( 0.000, 0.000, 0.000) | band =    15
 Transport equivalent effective mass tensor:
             -0.7409916638             -0.1690083160             -1.1137808433
             -0.1690083160             -0.5618782383             -0.6703043578
             -1.1137808433             -0.6703043578             -4.8775301996
 Transport equivalent effective mass tensor eigenvalues:
             -5.2600695329             -0.4601663315             -0.4601642374
 Angular average effective mass 1/(<1/m>)=  -0.6232962129
 Angular average effective mass for Frohlich model (<m**0.5>)**2=  -0.7666952870
 Effective masses along directions: (cart. coord. / red. coord. -> eff. mass)
    1:   1.000000  0.000000  0.000000 /   0.905646  0.424035  0.000000 ->  -0.4573630674
    2:   0.000000  1.000000  0.000000 /   0.000000  1.000000  0.000000 ->  -0.4369436757
    3:   0.000000  0.000000  1.000000 /   0.551318  0.551318  0.626176 ->  -2.3861325111
    4:   0.577350  0.577350  0.577350 /   0.596927  0.670438  0.440671 ->  -1.0194334518
    5:   0.000000  0.707107  0.707107 /   0.473085  0.698196  0.537320 ->  -0.9160631117
    6:   0.707107  0.000000  0.707107 /   0.673075  0.547791  0.496886 ->  -1.1735418959
    7:   0.707107  0.707107  0.000000 /   0.594707  0.803942  0.000000 ->  -0.4750226261

 K-point ( 0.000, 0.000, 0.000) | band =    16
 Transport equivalent effective mass tensor:
             -2.3259049785             -0.2136046782             -1.4076488261
             -0.2136046782             -2.0995581542             -0.8471858251
             -1.4076488261             -0.8471858251             -7.5538991478
 Transport equivalent effective mass tensor eigenvalues:
             -8.0373745049             -1.9710006966             -1.9709870790
 Angular average effective mass 1/(<1/m>)=  -2.0476328483
 Angular average effective mass for Frohlich model (<m**0.5>)**2=  -2.2530764226
 Effective masses along directions: (cart. coord. / red. coord. -> eff. mass)
    1:   1.000000  0.000000  0.000000 /   0.905646  0.424035  0.000000 ->  -1.6411868648
    2:   0.000000  1.000000  0.000000 /   0.000000  1.000000  0.000000 ->  -1.6595000268
    3:   0.000000  0.000000  1.000000 /   0.551318  0.551318  0.626176 ->  -5.8084990565
    4:   0.577350  0.577350  0.577350 /   0.596927  0.670438  0.440671 ->  -2.3929920324
    5:   0.000000  0.707107  0.707107 /   0.473085  0.698196  0.537320 ->  -3.4203101340
    6:   0.707107  0.000000  0.707107 /   0.673075  0.547791  0.496886 ->  -4.0353361622
    7:   0.707107  0.707107  0.000000 /   0.594707  0.803942  0.000000 ->  -1.5426016111

 Angular average effective mass for Frohlich model, averaged over degenerate bands.
 Value of     (<<m**0.5>>)**2 =     1.412100E+00
 Absolute Value of <<m**0.5>> =     1.188318E+00

 K-point ( 0.500, 0.500, 0.000) | band =    17
 Effective mass tensor:
              0.7400914207              0.2062363636             -0.3225767408
              0.2062363636              0.5215289637             -0.1941365282
             -0.3225767408             -0.1941365282              1.0600348531
 Effective mass tensor eigenvalues:
              0.3974096254              0.5731092918              1.3511363202
 Angular average effective mass 1/(<1/m>)=   0.5998463161
 Angular average effective mass for Frohlich model (<m**0.5>)**2=   0.6412455470
 Effective masses along directions: (cart. coord. / red. coord. -> eff. mass)
    1:   1.000000  0.000000  0.000000 /   0.905646  0.424035  0.000000 ->   0.5973672252
    2:   0.000000  1.000000  0.000000 /   0.000000  1.000000  0.000000 ->   0.4522389514
    3:   0.000000  0.000000  1.000000 /   0.551318  0.551318  0.626176 ->   0.8960184441
    4:   0.577350  0.577350  0.577350 /   0.596927  0.670438  0.440671 ->   0.5636944089
    5:   0.000000  0.707107  0.707107 /   0.473085  0.698196  0.537320 ->   0.5223721966
    6:   0.707107  0.000000  0.707107 /   0.673075  0.547791  0.496886 ->   0.5519956726
    7:   0.707107  0.707107  0.000000 /   0.594707  0.803942  0.000000 ->   0.6965221389

 END OF EFFECTIVE MASSES SECTION

 ---- first-order wavefunction calculations are completed ----

 Total localisation tensor (bohr^2) in cartesian coordinates
  WARNING : still subject to testing - especially symmetries.
      direction              matrix element
   alpha     beta       real part   imaginary part
     1        1       1.5038308883    0.0000000000
     1        2       0.5102964814    0.0000000000
     1        3       3.3628699938    0.0000000000
     2        1       0.5102964814    0.0000000000
     2        2       0.9630353919    0.0000000000
     2        3       2.0238775650    0.0000000000
     3        1       3.3628699938    0.0000000000
     3        2       2.0238775650    0.0000000000
     3        3      13.2623181211    0.0000000000

 respfn : d/dk was computed, but no 2DTE, so no DDB output.

== END DATASET(S) ==============================================================

 -outvars: echo values of variables after computation  --------
            acell      1.0000000000E+00  1.0000000000E+00  1.0000000000E+00 Bohr
              amu      8.54678000E+01  4.49559100E+01  1.59994000E+01
             ecut      4.40000000E+01 Hartree
           etotal     -4.7796840529E+01
            fcart      0.0000000000E+00  0.0000000000E+00  0.0000000000E+00
                       0.0000000000E+00  0.0000000000E+00  0.0000000000E+00
                       0.0000000000E+00  0.0000000000E+00  0.0000000000E+00
                       0.0000000000E+00  0.0000000000E+00  0.0000000000E+00
-          fftalg         512
           irdden           1
           irdwfk           1
           istwfk        1    1
              ixc     -116133
              kpt      0.00000000E+00  0.00000000E+00  0.00000000E+00
                       5.00000000E-01  5.00000000E-01  0.00000000E+00
           kptopt           0
P           mkmem           2
P          mkqmem           2
P          mk1mem           2
            natom           4
            nband          25
           nbdbuf           4
            ngfft          80      80      80
             nkpt           2
            nstep         100
             nsym          12
           ntypat           3
              occ      2.000000  2.000000  2.000000  2.000000  2.000000  2.000000
                       2.000000  2.000000  2.000000  2.000000  2.000000  2.000000
                       2.000000  2.000000  2.000000  2.000000  0.000000  0.000000
                       0.000000  0.000000  0.000000  0.000000  0.000000  0.000000
                       0.000000
        optdriver           1
            prtwf          -1
            rfdir           1       1       1
           rfelfd           2
            rprim      5.9216715844E+00  0.0000000000E+00  1.0996377544E+01
                       2.7726048582E+00  5.2324809272E+00  1.0996377544E+01
                       0.0000000000E+00  0.0000000000E+00  1.2489456091E+01
          spgroup         166
           strten      0.0000000000E+00  0.0000000000E+00  0.0000000000E+00
                       0.0000000000E+00  0.0000000000E+00  0.0000000000E+00
           symrel      1  0  0   0  1  0   0  0  1      -1  0  0   0 -1  0   0  0 -1
                       0  1  0   1  0  0   0  0  1       0 -1  0  -1  0  0   0  0 -1
                       0  0  1   1  0  0   0  1  0       0  0 -1  -1  0  0   0 -1  0
                       1  0  0   0  0  1   0  1  0      -1  0  0   0  0 -1   0 -1  0
                       0  1  0   0  0  1   1  0  0       0 -1  0   0  0 -1  -1  0  0
                       0  0  1   0  1  0   1  0  0       0  0 -1   0 -1  0  -1  0  0
           tolwfr      1.00000000E-20
            typat      1  2  3  3
           useylm           1
              wtk        0.50000    0.50000
           xangst      0.0000000000E+00  0.0000000000E+00  0.0000000000E+00
                       2.3004064693E+00  1.3844548255E+00  9.1236001291E+00
                       1.0253509739E+00  6.1708751156E-01  4.0666257911E+00
                       3.5754619647E+00  2.1518221395E+00  1.4180574467E+01
            xcart      0.0000000000E+00  0.0000000000E+00  0.0000000000E+00
                       4.3471382213E+00  2.6162404636E+00  1.7241105590E+01
                       1.9376325308E+00  1.1661263969E+00  7.6848090302E+00
                       6.7566439118E+00  4.0663545303E+00  2.6797402150E+01
             xred      0.0000000000E+00  0.0000000000E+00  0.0000000000E+00
                       5.0000000000E-01  5.0000000000E-01  5.0000000000E-01
                       2.2286300000E-01  2.2286300000E-01  2.2286300000E-01
                       7.7713700000E-01  7.7713700000E-01  7.7713700000E-01
            znucl       37.00000   21.00000    8.00000

- Timing analysis has been suppressed with timopt=0

 Suggested references for the acknowledgment of ABINIT usage.

 Calculation completed.
.Delivered  14 WARNINGs and   9 COMMENTs to log file.