.Version 9.7.2 of ABINIT

 ABINIT is a project of the Universite Catholique de Louvain,
 Corning Inc. and other collaborators, see ~abinit/doc/developers/contributors.txt .
 acknowledgments of the ABINIT effort.

.Starting date : Wed  1 Dec 2021.
- ( at 21h53 )

- input  file    -> /scratch/users/j/a/jabreu/flow_simple_remain_atoms/flow/w259/t1/run.abi
- output file    -> /scratch/users/j/a/jabreu/flow_simple_remain_atoms/flow/w259/t1/run.abo
- root for input  files -> /scratch/users/j/a/jabreu/flow_simple_remain_atoms/flow/w259/t1/indata/in
- root for output files -> /scratch/users/j/a/jabreu/flow_simple_remain_atoms/flow/w259/t1/outdata/out

 Symmetries : space group P-3 m 1 (#164); Bravais hP (primitive hexag.)
     intxc =       0      iscf =       7    lmnmax =      18     lnmax =       6
     mgfft =      80  mpssoang =       3    mqgrid =    3867     natom =       5
  nloc_mem =       1    nspden =       1   nspinor =       1    nsppol =       1
      nsym =      12    n1xccc =    2501    ntypat =       3    occopt =       1
   xclevel =       2
-    mband =          39        mffmem =           1         mkmem =           2
-   mkqmem =           2        mk1mem =           2           mpw =        8724
      nfft =      184320          nkpt =           2
  Rough estimation (10% accuracy) of disk space for files :

------------- Echo of variables that govern the present computation ------------
-
- outvars: echo of selected default values
-   iomode0 =  0 , fftalg0 =512 , wfoptalg0 =  0
-
- outvars: echo of global parameters not present in the input file
-  max_nthreads =    0
-
 -outvars: echo values of preprocessed input variables --------
            acell      1.0000000000E+00  1.0000000000E+00  1.0000000000E+00 Bohr
              amu      8.76200000E+01  6.53900000E+01  3.09737620E+01
             ecut      4.20000000E+01 Hartree
-          fftalg         512
           irdden           1
           irdwfk           1
           istwfk        1    1
              ixc     -116133
              kpt      0.00000000E+00  0.00000000E+00  0.00000000E+00
                       5.00000000E-01  0.00000000E+00  0.00000000E+00
           kptopt           0
P           mkmem           2
P          mkqmem           2
P          mk1mem           2
            natom           5
            nband          39
           nbdbuf           4
            ngfft          48      48      80
             nkpt           2
            nstep        2000
             nsym          12
           ntypat           3
              occ      2.000000  2.000000  2.000000  2.000000  2.000000  2.000000
                       2.000000  2.000000  2.000000  2.000000  2.000000  2.000000
                       2.000000  2.000000  2.000000  2.000000  2.000000  2.000000
                       2.000000  2.000000  2.000000  2.000000  2.000000  2.000000
                       2.000000  2.000000  2.000000  2.000000  2.000000  2.000000
                       0.000000  0.000000  0.000000  0.000000  0.000000  0.000000
                       0.000000  0.000000  0.000000
        optdriver           1
            prtwf          -1
            rfdir           1       1       1
           rfelfd           2
            rprim      7.6398519753E+00  0.0000000000E+00  0.0000000000E+00
                      -3.8199259876E+00  6.6163058918E+00  0.0000000000E+00
                       0.0000000000E+00  0.0000000000E+00  1.3254262647E+01
          spgroup         164
           symrel      1  0  0   0  1  0   0  0  1      -1  0  0   0 -1  0   0  0 -1
                      -1  0  0   1  1  0   0  0  1       1  0  0  -1 -1  0   0  0 -1
                       0  1  0  -1 -1  0   0  0  1       0 -1  0   1  1  0   0  0 -1
                       0 -1  0  -1  0  0   0  0  1       0  1  0   1  0  0   0  0 -1
                      -1 -1  0   1  0  0   0  0  1       1  1  0  -1  0  0   0  0 -1
                       1  1  0   0 -1  0   0  0  1      -1 -1  0   0  1  0   0  0 -1
           tolwfr      1.00000000E-20
            typat      1  2  2  3  3
           useylm           1
              wtk        0.50000    0.50000
           xangst      0.0000000000E+00  0.0000000000E+00  0.0000000000E+00
                       2.0214177712E+00  1.1670660943E+00  4.4175284679E+00
                       1.7639241746E-11  2.3341321887E+00  2.5963252414E+00
                       2.0214177712E+00  1.1670660943E+00  1.9224271632E+00
                       1.7639241746E-11  2.3341321887E+00  5.0914265462E+00
            xcart      0.0000000000E+00  0.0000000000E+00  0.0000000000E+00
                       3.8199259877E+00  2.2054352973E+00  8.3479189886E+00
                       3.3333336091E-11  4.4108705945E+00  4.9063436582E+00
                       3.8199259877E+00  2.2054352973E+00  3.6328608489E+00
                       3.3333336091E-11  4.4108705945E+00  9.6214017979E+00
             xred      0.0000000000E+00  0.0000000000E+00  0.0000000000E+00
                       6.6666666667E-01  3.3333333333E-01  6.2982900000E-01
                       3.3333333333E-01  6.6666666667E-01  3.7017100000E-01
                       6.6666666667E-01  3.3333333333E-01  2.7409000000E-01
                       3.3333333333E-01  6.6666666667E-01  7.2591000000E-01
            znucl       38.00000   30.00000   15.00000

 chkinp: Checking input parameters for consistency.

== DATASET  1 ==================================================================
-   mpi_nproc: 1, omp_nthreads: -1 (-1 if OMP is not activated)

--- !DatasetInfo
iteration_state: {dtset: 1, }
dimensions: {natom: 5, nkpt: 2, mband: 39, nsppol: 1, nspinor: 1, nspden: 1, mpw: 8724, }
cutoff_energies: {ecut:  42.0, pawecutdg:  -1.0, }
electrons: {nelect:   6.00000000E+01, charge:   0.00000000E+00, occopt:   1.00000000E+00, tsmear:   1.00000000E-02, }
meta: {optdriver: 1, rfelfd: 2, }
...

 Real(R)+Recip(G) space primitive vectors, cartesian coordinates (Bohr,Bohr^-1):
 R(1)=  7.6398520  0.0000000  0.0000000  G(1)=  0.1308926  0.0755709  0.0000000
 R(2)= -3.8199260  6.6163059  0.0000000  G(2)=  0.0000000  0.1511417  0.0000000
 R(3)=  0.0000000  0.0000000 13.2542626  G(3)=  0.0000000  0.0000000  0.0754474
 Unit cell volume ucvol=  6.6997114E+02 bohr^3
 Angles (23,13,12)=  9.00000000E+01  9.00000000E+01  1.20000000E+02 degrees

 getcut: wavevector=  0.0000  0.0000  0.0000  ngfft=  48  48  80
         ecut(hartree)=     42.000   => boxcut(ratio)=   2.06892

--- Pseudopotential description ------------------------------------------------
- pspini: atom type   1  psp file is /scratch/users/j/a/jabreu/pseudos/PBEsol/Sr.psp8
- pspatm: opening atomic psp file    /scratch/users/j/a/jabreu/pseudos/PBEsol/Sr.psp8
- Sr    ONCVPSP-3.3.0  r_core=   1.66721   1.31335   1.51547
- 38.00000  10.00000    180112                znucl, zion, pspdat
    8 -116133    2    4       600   0.00000   pspcod,pspxc,lmax,lloc,mmax,r2well
    5.99000000000000    6.00000000000000    0.00000000000000   rchrg,fchrg,qchrg
     nproj     2     2     2
     extension_switch     1
  pspatm : epsatm=   12.46450977
         --- l  ekb(1:nproj) -->
             0   10.029206    1.044171
             1    7.472414    1.670829
             2    4.142950    0.968140
 pspatm: atomic psp has been read  and splines computed

- pspini: atom type   2  psp file is /scratch/users/j/a/jabreu/pseudos/PBEsol/Zn.psp8
- pspatm: opening atomic psp file    /scratch/users/j/a/jabreu/pseudos/PBEsol/Zn.psp8
- Zn    ONCVPSP-3.3.0  r_core=   1.35823   1.66358   1.85211
- 30.00000  20.00000    180112                znucl, zion, pspdat
    8 -116133    2    4       600   0.00000   pspcod,pspxc,lmax,lloc,mmax,r2well
    5.99000000000000    2.50000000000000    0.00000000000000   rchrg,fchrg,qchrg
     nproj     2     2     2
     extension_switch     1
  pspatm : epsatm=   26.57343589
         --- l  ekb(1:nproj) -->
             0    2.830835   -1.519107
             1   -4.626739   -1.324150
             2   -6.948510   -2.555500
 pspatm: atomic psp has been read  and splines computed

- pspini: atom type   3  psp file is /scratch/users/j/a/jabreu/pseudos/PBEsol/P.psp8
- pspatm: opening atomic psp file    /scratch/users/j/a/jabreu/pseudos/PBEsol/P.psp8
- P     ONCVPSP-3.3.0  r_core=   1.46089   1.55067   1.70594
- 15.00000   5.00000    180112                znucl, zion, pspdat
    8 -116133    2    4       600   0.00000   pspcod,pspxc,lmax,lloc,mmax,r2well
    5.99000000000000    5.00000000000000    0.00000000000000   rchrg,fchrg,qchrg
     nproj     2     2     2
     extension_switch     1
  pspatm : epsatm=    7.31221086
         --- l  ekb(1:nproj) -->
             0    6.742364    1.063650
             1    3.449117    0.910422
             2   -3.077645   -0.799176
 pspatm: atomic psp has been read  and splines computed

   4.81414820E+03                                ecore*ucvol(ha*bohr**3)

 ==>  initialize data related to q vector <==

 The list of irreducible perturbations for this q vector is:
    1)    idir= 1    ipert=   6
    2)    idir= 2    ipert=   6
    3)    idir= 3    ipert=   6

 Perturbation wavevector (in red.coord.)   0.000000  0.000000  0.000000
 Perturbation : derivative vs k along direction   1

 dfpt_looppert : COMMENT -
  In a d/dk calculation, iscf is set to -3 automatically.
 The set of symmetries contains only one element for this perturbation.
 symkpt : not enough symmetry to change the number of k points.

 Initialisation of the first-order wave-functions :
  ireadwf=   0

--- !BeginCycle
iteration_state: {dtset: 1, }
solver: {iscf: 7, nstep: 2000, nline: 4, wfoptalg: 0, }
tolerances: {tolwfr: 1.00E-20, }
...

     iter   2DEtotal(Ha)        deltaE(Ha) residm    vres2
-ETOT  1  -78.205155573570     -7.821E+01 1.122E-01 0.000E+00
 ETOT  2  -78.278141555903     -7.299E-02 1.599E-02 0.000E+00
 ETOT  3  -78.278778480630     -6.369E-04 2.636E-03 0.000E+00
 ETOT  4  -78.278788810519     -1.033E-05 5.859E-04 0.000E+00
 ETOT  5  -78.278789027266     -2.167E-07 1.171E-04 0.000E+00
 ETOT  6  -78.278789032411     -5.145E-09 2.514E-05 0.000E+00
 ETOT  7  -78.278789032540     -1.295E-10 5.291E-06 0.000E+00
 ETOT  8  -78.278789032544     -3.396E-12 1.122E-06 0.000E+00
 ETOT  9  -78.278789032544     -9.948E-14 2.414E-07 0.000E+00
 ETOT 10  -78.278789032544     -7.105E-14 5.062E-08 0.000E+00
 ETOT 11  -78.278789032544      1.421E-14 1.101E-08 0.000E+00
 ETOT 12  -78.278789032544      0.000E+00 2.302E-09 0.000E+00
 ETOT 13  -78.278789032544     -1.421E-14 5.036E-10 0.000E+00
 ETOT 14  -78.278789032544     -1.421E-14 1.054E-10 0.000E+00
 ETOT 15  -78.278789032544      0.000E+00 2.310E-11 0.000E+00
 ETOT 16  -78.278789032544      1.421E-14 4.855E-12 0.000E+00
 ETOT 17  -78.278789032544     -1.421E-14 1.063E-12 0.000E+00
 ETOT 18  -78.278789032544      0.000E+00 2.246E-13 0.000E+00
 ETOT 19  -78.278789032544      1.421E-14 4.904E-14 0.000E+00
 ETOT 20  -78.278789032544      1.421E-14 1.042E-14 0.000E+00
 ETOT 21  -78.278789032544     -2.842E-14 2.269E-15 0.000E+00
 ETOT 22  -78.278789032544      0.000E+00 4.844E-16 0.000E+00
 ETOT 23  -78.278789032544      2.842E-14 1.052E-16 0.000E+00
 ETOT 24  -78.278789032544      0.000E+00 2.256E-17 0.000E+00
 ETOT 25  -78.278789032544      1.421E-14 4.888E-18 0.000E+00
 ETOT 26  -78.278789032544     -1.421E-14 1.052E-18 0.000E+00
 ETOT 27  -78.278789032544     -1.421E-14 2.275E-19 0.000E+00
 ETOT 28  -78.278789032544      0.000E+00 4.910E-20 0.000E+00
 ETOT 29  -78.278789032544     -1.421E-14 1.061E-20 0.000E+00
 ETOT 30  -78.278789032544      0.000E+00 9.959E-21 0.000E+00

 At SCF step   30   max residual=  9.96E-21 < tolwfr=  1.00E-20 =>converged.

 ----iterations are completed or convergence reached----

 dfpt_looppert: DFPT cycle converged with prtwf=-1. Will skip output of the 1st-order WFK file.
 dfpt_looppert : ek2=    1.0822057354E+02
          f-sum rule ratio=    1.3100439366E+00
 prteigrs : about to open file /scratch/users/j/a/jabreu/flow_simple_remain_atoms/flow/w259/t1/tmpdata/tmp_1WF1_EIG
 Expectation of eigenvalue derivatives (hartree) for nkpt=   2  k points:
  (in case of degenerate eigenvalues, averaged derivative)
 kpt#   1, nband= 39, wtk=  0.50000, kpt=  0.0000  0.0000  0.0000 (reduced coord)
  -0.00000    0.00000    0.00000    0.00000   -0.00000   -0.00000    0.00000    0.00000
   0.00000   -0.00000   -0.00000   -0.00000   -0.00000    0.00000    0.00000    0.00000
   0.00000    0.00000    0.00000    0.00000    0.00000   -0.00000   -0.00000   -0.00000
  -0.00000   -0.00000   -0.00000    0.00000    0.00000    0.00000   -0.00000    0.00000
   0.00000   -0.00000   -0.00000    0.00000    0.00000   -0.00000   -0.00000
 prteigrs : prtvol=0 or 1, do not print more k-points.

 Eight components of 2nd-order total energy (hartree) are
 1,2,3: 0th-order hamiltonian combined with 1st-order wavefunctions
     kin0=   7.56645927E+01 eigvalue=   1.17051444E+00  local=  -2.93089716E+01
 4,5,6: 1st-order hamiltonian combined with 1st and 0th-order wfs
     kin1=  -1.41773706E+02  Hartree=   0.00000000E+00     xc=   0.00000000E+00
 7,8,9: eventually, occupation + non-local contributions
    edocc=   3.09975519E+01     enl0=  -2.44898353E-01   enl1=  -1.47838719E+01
 1-9 gives the relaxation energy (to be shifted if some occ is /=2.0)
   erelax=  -7.82787890E+01
  No Ewald or frozen-wf contrib.: the relaxation energy is the total one
 2DEtotal=   -0.7827878903E+02 Ha. Also 2DEtotal=   -0.213007417646E+04 eV
    (  non-var. 2DEtotal :   -7.8278789032E+01 Ha)

 Perturbation wavevector (in red.coord.)   0.000000  0.000000  0.000000
 Perturbation : derivative vs k along direction   2
 The set of symmetries contains only one element for this perturbation.
 symkpt : not enough symmetry to change the number of k points.

[...]

 Perturbation wavevector (in red.coord.)   0.000000  0.000000  0.000000
 Perturbation : derivative vs k along direction   3
 The set of symmetries contains only one element for this perturbation.
 symkpt : not enough symmetry to change the number of k points.

 Initialisation of the first-order wave-functions :
  ireadwf=   0

--- !BeginCycle
iteration_state: {dtset: 1, }
solver: {iscf: 7, nstep: 2000, nline: 4, wfoptalg: 0, }
tolerances: {tolwfr: 1.00E-20, }
...

     iter   2DEtotal(Ha)        deltaE(Ha) residm    vres2
-ETOT  1  -17.425866354077     -1.743E+01 5.430E-02 0.000E+00
 ETOT  2  -17.444871541509     -1.901E-02 3.638E-03 0.000E+00
 ETOT  3  -17.445021734158     -1.502E-04 3.910E-04 0.000E+00
 ETOT  4  -17.445024019802     -2.286E-06 3.630E-05 0.000E+00
 ETOT  5  -17.445024064139     -4.434E-08 4.866E-06 0.000E+00
 ETOT  6  -17.445024065092     -9.528E-10 5.768E-07 0.000E+00
 ETOT  7  -17.445024065114     -2.174E-11 1.131E-07 0.000E+00
 ETOT  8  -17.445024065114     -5.720E-13 1.769E-08 0.000E+00
 ETOT  9  -17.445024065114      1.421E-14 4.284E-09 0.000E+00
 ETOT 10  -17.445024065114     -1.066E-14 7.227E-10 0.000E+00
 ETOT 11  -17.445024065114     -7.105E-15 1.832E-10 0.000E+00
 ETOT 12  -17.445024065114     -1.421E-14 3.103E-11 0.000E+00
 ETOT 13  -17.445024065114      1.066E-14 7.934E-12 0.000E+00
 ETOT 14  -17.445024065114      3.553E-15 1.345E-12 0.000E+00
 ETOT 15  -17.445024065114      0.000E+00 3.448E-13 0.000E+00
 ETOT 16  -17.445024065114      3.553E-15 5.850E-14 0.000E+00
 ETOT 17  -17.445024065114     -3.553E-15 1.502E-14 0.000E+00
 ETOT 18  -17.445024065114      0.000E+00 2.549E-15 0.000E+00
 ETOT 19  -17.445024065114      0.000E+00 6.553E-16 0.000E+00
 ETOT 20  -17.445024065114      0.000E+00 1.111E-16 0.000E+00
 ETOT 21  -17.445024065114      0.000E+00 2.863E-17 0.000E+00
 ETOT 22  -17.445024065114     -7.105E-15 4.850E-18 0.000E+00
 ETOT 23  -17.445024065114      7.105E-15 1.252E-18 0.000E+00
 ETOT 24  -17.445024065114      0.000E+00 2.117E-19 0.000E+00
 ETOT 25  -17.445024065114     -7.105E-15 5.476E-20 0.000E+00
 ETOT 26  -17.445024065114      7.105E-15 9.968E-21 0.000E+00

 At SCF step   26   max residual=  9.97E-21 < tolwfr=  1.00E-20 =>converged.

 ----iterations are completed or convergence reached----

 dfpt_looppert: DFPT cycle converged with prtwf=-1. Will skip output of the 1st-order WFK file.
 dfpt_looppert : ek2=    2.6966826321E+01
          f-sum rule ratio=    1.1412556681E+00
 prteigrs : about to open file /scratch/users/j/a/jabreu/flow_simple_remain_atoms/flow/w259/t1/tmpdata/tmp_1WF1_EIG
 Expectation of eigenvalue derivatives (hartree) for nkpt=   2  k points:
  (in case of degenerate eigenvalues, averaged derivative)
 kpt#   1, nband= 39, wtk=  0.50000, kpt=  0.0000  0.0000  0.0000 (reduced coord)
  -0.00000   -0.00000    0.00000    0.00000    0.00000    0.00000   -0.00000   -0.00000
   0.00000    0.00000   -0.00000   -0.00000   -0.00000    0.00000    0.00000    0.00000
   0.00000    0.00000   -0.00000   -0.00000   -0.00000    0.00000   -0.00000   -0.00000
   0.00000    0.00000    0.00000    0.00000    0.00000    0.00000   -0.00000   -0.00000
  -0.00000    0.00000    0.00000    0.00000    0.00000   -0.00000   -0.00000
 prteigrs : prtvol=0 or 1, do not print more k-points.

 Eight components of 2nd-order total energy (hartree) are
 1,2,3: 0th-order hamiltonian combined with 1st-order wavefunctions
     kin0=   1.96541998E+01 eigvalue=   2.37519567E-01  local=  -7.90719478E+00
 4,5,6: 1st-order hamiltonian combined with 1st and 0th-order wfs
     kin1=  -3.07760434E+01  Hartree=   0.00000000E+00     xc=   0.00000000E+00
 7,8,9: eventually, occupation + non-local contributions
    edocc=   5.45141333E+00     enl0=   9.08617129E-03   enl1=  -4.11400474E+00
 1-9 gives the relaxation energy (to be shifted if some occ is /=2.0)
   erelax=  -1.74450241E+01
  No Ewald or frozen-wf contrib.: the relaxation energy is the total one
 2DEtotal=   -0.1744502407E+02 Ha. Also 2DEtotal=   -0.474703246283E+03 eV
    (  non-var. 2DEtotal :   -1.7445024065E+01 Ha)

 CALCULATION OF EFFECTIVE MASSES
 NOTE : Additional infos (eff. mass eigenvalues, eigenvectors and, if degenerate, average mass) are available in stdout.

 COMMENTS:
 - At k-point ( 0.000, 0.000, 0.000), bands    29 through    30
   are DEGENERATE (effective mass tensor is therefore not defined).
   See Section IIIB Eqs. (67)-(70) and Appendix E of PRB 93 205147 (2016).
 - Angular average effective mass for Frohlich model is to be averaged over degenerate bands. See later.
 - Associated theta integrals calculated with ntheta=   1000 points.

 K-point ( 0.000, 0.000, 0.000) | band =    29
 Transport equivalent effective mass tensor:
             -0.1077790296              0.0000000000              0.0000000000
              0.0000000000             -0.1077796198              0.0000010585
              0.0000000000              0.0000010585             -0.5825729298
 Transport equivalent effective mass tensor eigenvalues:
             -0.5825729299             -0.1077796198             -0.1077790296
 Angular average effective mass 1/(<1/m>)=  -0.1314299479
 Angular average effective mass for Frohlich model (<m**0.5>)**2=  -0.1489409262
 Effective masses along directions: (cart. coord. / red. coord. -> eff. mass)
    1:   1.000000  0.000000  0.000000 /   0.894427 -0.447214  0.000000 ->  -0.0962322837
    2:   0.000000  1.000000  0.000000 /   0.000000  1.000000  0.000000 ->  -0.0962322837
    3:   0.000000  0.000000  1.000000 /   0.000000  0.000000  1.000000 ->  -0.5695482131
    4:   0.577350  0.577350  0.577350 /   0.491248  0.179809  0.852258 ->  -0.1205929550
    5:   0.000000  0.707107  0.707107 /   0.000000  0.446629  0.894719 ->  -0.1994838473
    6:   0.707107  0.000000  0.707107 /   0.484512 -0.242256  0.840572 ->  -0.1578963728
    7:   0.707107  0.707107  0.000000 /   0.939071  0.343724  0.000000 ->  -0.0962322837

 K-point ( 0.000, 0.000, 0.000) | band =    30
 Transport equivalent effective mass tensor:
             -0.9205194328              0.0000000000              0.0000000001
              0.0000000000             -0.9205155187             -0.0000016193
              0.0000000001             -0.0000016193             -1.9251700960
 Transport equivalent effective mass tensor eigenvalues:
             -1.9251700960             -0.9205194328             -0.9205155187
 Angular average effective mass 1/(<1/m>)=  -0.5037499831
 Angular average effective mass for Frohlich model (<m**0.5>)**2=  -0.5411564235
 Effective masses along directions: (cart. coord. / red. coord. -> eff. mass)
    1:   1.000000  0.000000  0.000000 /   0.894427 -0.447214  0.000000 ->  -0.4457736778
    2:   0.000000  1.000000  0.000000 /   0.000000  1.000000  0.000000 ->  -0.4457736781
    3:   0.000000  0.000000  1.000000 /   0.000000  0.000000  1.000000 ->  -0.5695482131
    4:   0.577350  0.577350  0.577350 /   0.491248  0.179809  0.852258 ->  -0.7684213703
    5:   0.000000  0.707107  0.707107 /   0.000000  0.446629  0.894719 ->  -0.3267709691
    6:   0.707107  0.000000  0.707107 /   0.484512 -0.242256  0.840572 ->  -0.5747401041
    7:   0.707107  0.707107  0.000000 /   0.939071  0.343724  0.000000 ->  -0.4457736781

 Angular average effective mass for Frohlich model, averaged over degenerate bands.
 Value of     (<<m**0.5>>)**2 =     3.144753E-01
 Absolute Value of <<m**0.5>> =     5.607810E-01

 K-point ( 0.500, 0.000, 0.000) | band =    31
 Effective mass tensor:
              0.9010245577              0.4453342927              0.0913366538
              0.4453342927              0.3867966102              0.0527330914
              0.0913366538              0.0527330914              1.2934783674
 Effective mass tensor eigenvalues:
              0.1296827864              1.1004991920              1.3511175569
 Angular average effective mass 1/(<1/m>)=   0.3205152096
 Angular average effective mass for Frohlich model (<m**0.5>)**2=   0.4623242331
 Effective masses along directions: (cart. coord. / red. coord. -> eff. mass)
    1:   1.000000  0.000000  0.000000 /   0.894427 -0.447214  0.000000 ->   0.3875644602
    2:   0.000000  1.000000  0.000000 /   0.000000  1.000000  0.000000 ->   0.1666438458
    3:   0.000000  0.000000  1.000000 /   0.000000  0.000000  1.000000 ->   1.2838740201
    4:   0.577350  0.577350  0.577350 /   0.491248  0.179809  0.852258 ->   0.9255017518
    5:   0.000000  0.707107  0.707107 /   0.000000  0.446629  0.894719 ->   0.2981165589
    6:   0.707107  0.000000  0.707107 /   0.484512 -0.242256  0.840572 ->   0.6179986371
    7:   0.707107  0.707107  0.000000 /   0.939071  0.343724  0.000000 ->   0.7529052497

 END OF EFFECTIVE MASSES SECTION

 ---- first-order wavefunction calculations are completed ----

 Total localisation tensor (bohr^2) in cartesian coordinates
  WARNING : still subject to testing - especially symmetries.
      direction              matrix element
   alpha     beta       real part   imaginary part
     1        1       4.7963459057    0.0000000000
     1        2      -1.8958090095    0.0000000000
     1        3       0.0000000000    0.0000000000
     2        1      -1.8958090095    0.0000000000
     2        2       3.2836375260    0.0000000000
     2        3       0.0000000000    0.0000000000
     3        1       0.0000000000    0.0000000000
     3        2       0.0000000000    0.0000000000
     3        3       2.1945484464    0.0000000000

 respfn : d/dk was computed, but no 2DTE, so no DDB output.

== END DATASET(S) ==============================================================

 -outvars: echo values of variables after computation  --------
            acell      1.0000000000E+00  1.0000000000E+00  1.0000000000E+00 Bohr
              amu      8.76200000E+01  6.53900000E+01  3.09737620E+01
             ecut      4.20000000E+01 Hartree
           etotal     -1.7445024065E+01
            fcart      0.0000000000E+00  0.0000000000E+00  0.0000000000E+00
                       0.0000000000E+00  0.0000000000E+00  0.0000000000E+00
                       0.0000000000E+00  0.0000000000E+00  0.0000000000E+00
                       0.0000000000E+00  0.0000000000E+00  0.0000000000E+00
                       0.0000000000E+00  0.0000000000E+00  0.0000000000E+00
-          fftalg         512
           irdden           1
           irdwfk           1
           istwfk        1    1
              ixc     -116133
              kpt      0.00000000E+00  0.00000000E+00  0.00000000E+00
                       5.00000000E-01  0.00000000E+00  0.00000000E+00
           kptopt           0
P           mkmem           2
P          mkqmem           2
P          mk1mem           2
            natom           5
            nband          39
           nbdbuf           4
            ngfft          48      48      80
             nkpt           2
            nstep        2000
             nsym          12
           ntypat           3
              occ      2.000000  2.000000  2.000000  2.000000  2.000000  2.000000
                       2.000000  2.000000  2.000000  2.000000  2.000000  2.000000
                       2.000000  2.000000  2.000000  2.000000  2.000000  2.000000
                       2.000000  2.000000  2.000000  2.000000  2.000000  2.000000
                       2.000000  2.000000  2.000000  2.000000  2.000000  2.000000
                       0.000000  0.000000  0.000000  0.000000  0.000000  0.000000
                       0.000000  0.000000  0.000000
        optdriver           1
            prtwf          -1
            rfdir           1       1       1
           rfelfd           2
            rprim      7.6398519753E+00  0.0000000000E+00  0.0000000000E+00
                      -3.8199259876E+00  6.6163058918E+00  0.0000000000E+00
                       0.0000000000E+00  0.0000000000E+00  1.3254262647E+01
          spgroup         164
           strten      0.0000000000E+00  0.0000000000E+00  0.0000000000E+00
                       0.0000000000E+00  0.0000000000E+00  0.0000000000E+00
           symrel      1  0  0   0  1  0   0  0  1      -1  0  0   0 -1  0   0  0 -1
                      -1  0  0   1  1  0   0  0  1       1  0  0  -1 -1  0   0  0 -1
                       0  1  0  -1 -1  0   0  0  1       0 -1  0   1  1  0   0  0 -1
                       0 -1  0  -1  0  0   0  0  1       0  1  0   1  0  0   0  0 -1
                      -1 -1  0   1  0  0   0  0  1       1  1  0  -1  0  0   0  0 -1
                       1  1  0   0 -1  0   0  0  1      -1 -1  0   0  1  0   0  0 -1
           tolwfr      1.00000000E-20
            typat      1  2  2  3  3
           useylm           1
              wtk        0.50000    0.50000
           xangst      0.0000000000E+00  0.0000000000E+00  0.0000000000E+00
                       2.0214177712E+00  1.1670660943E+00  4.4175284679E+00
                       1.7639241746E-11  2.3341321887E+00  2.5963252414E+00
                       2.0214177712E+00  1.1670660943E+00  1.9224271632E+00
                       1.7639241746E-11  2.3341321887E+00  5.0914265462E+00
            xcart      0.0000000000E+00  0.0000000000E+00  0.0000000000E+00
                       3.8199259877E+00  2.2054352973E+00  8.3479189886E+00
                       3.3333336091E-11  4.4108705945E+00  4.9063436582E+00
                       3.8199259877E+00  2.2054352973E+00  3.6328608489E+00
                       3.3333336091E-11  4.4108705945E+00  9.6214017979E+00
             xred      0.0000000000E+00  0.0000000000E+00  0.0000000000E+00
                       6.6666666667E-01  3.3333333333E-01  6.2982900000E-01
                       3.3333333333E-01  6.6666666667E-01  3.7017100000E-01
                       6.6666666667E-01  3.3333333333E-01  2.7409000000E-01
                       3.3333333333E-01  6.6666666667E-01  7.2591000000E-01
            znucl       38.00000   30.00000   15.00000

- Timing analysis has been suppressed with timopt=0

 Suggested references for the acknowledgment of ABINIT usage.

 Calculation completed.
.Delivered   2 WARNINGs and   5 COMMENTs to log file.