.Version 9.5.2 of ABINIT

 ABINIT is a project of the Universite Catholique de Louvain,
 Corning Inc. and other collaborators, see ~abinit/doc/developers/contributors.txt .
 acknowledgments of the ABINIT effort.

.Starting date : Mon 31 May 2021.
- ( at 22h13 )

- input  file    -> /scratch/users/j/a/jabreu/flow_simple_11atoms/flow/w346/t1/run.abi
- output file    -> /scratch/users/j/a/jabreu/flow_simple_11atoms/flow/w346/t1/run.abo
- root for input  files -> /scratch/users/j/a/jabreu/flow_simple_11atoms/flow/w346/t1/indata/in
- root for output files -> /scratch/users/j/a/jabreu/flow_simple_11atoms/flow/w346/t1/outdata/out

 Symmetries : space group Cm c m (# 63); Bravais oC (1-face-center ortho.)
     intxc =       0      iscf =       7    lmnmax =      32     lnmax =       8
     mgfft =      80  mpssoang =       4    mqgrid =    3553     natom =      12
  nloc_mem =       1    nspden =       1   nspinor =       1    nsppol =       1
      nsym =       8    n1xccc =    2501    ntypat =       3    occopt =       1
   xclevel =       2
-    mband =          57        mffmem =           1         mkmem =           1
-   mkqmem =           1        mk1mem =           1           mpw =       23698
      nfft =      460800          nkpt =           1
  Rough estimation (10% accuracy) of disk space for files :

------------- Echo of variables that govern the present computation ------------
-
- outvars: echo of selected default values
-   iomode0 =  0 , fftalg0 =512 , wfoptalg0 =  0
-
- outvars: echo of global parameters not present in the input file
-  max_nthreads =    0
-
 -outvars: echo values of preprocessed input variables --------
            acell      1.0000000000E+00  1.0000000000E+00  1.0000000000E+00 Bohr
              amu      1.32905430E+02  9.12240000E+01  1.59994000E+01
             ecut      4.40000000E+01 Hartree
-          fftalg         512
           irdden           1
           irdwfk           1
              ixc     -116133
              kpt     -5.00000000E-01  5.00000000E-01  0.00000000E+00
           kptopt           0
P           mkmem           1
P          mkqmem           1
P          mk1mem           1
            natom          12
            nband          57
           nbdbuf           4
            ngfft          80      80      72
             nkpt           1
            nstep        2000
             nsym           8
           ntypat           3
              occ      2.000000  2.000000  2.000000  2.000000  2.000000  2.000000
                       2.000000  2.000000  2.000000  2.000000  2.000000  2.000000
                       2.000000  2.000000  2.000000  2.000000  2.000000  2.000000
                       2.000000  2.000000  2.000000  2.000000  2.000000  2.000000
                       2.000000  2.000000  2.000000  2.000000  2.000000  2.000000
                       2.000000  2.000000  2.000000  2.000000  2.000000  2.000000
                       2.000000  2.000000  2.000000  2.000000  2.000000  2.000000
                       2.000000  2.000000  2.000000  2.000000  2.000000  2.000000
                       0.000000  0.000000  0.000000  0.000000  0.000000  0.000000
                       0.000000  0.000000  0.000000
        optdriver           1
            prtwf          -1
            rfdir           1       1       1
           rfelfd           2
            rprim      1.2801596744E+01  0.0000000000E+00  0.0000000000E+00
                      -4.7258160063E+00  1.1897375436E+01  0.0000000000E+00
                       0.0000000000E+00  0.0000000000E+00  1.1164827355E+01
          spgroup          63
           symrel      1  0  0   0  1  0   0  0  1      -1  0  0   0 -1  0   0  0 -1
                       0 -1  0  -1  0  0   0  0 -1       0  1  0   1  0  0   0  0  1
                      -1  0  0   0 -1  0   0  0  1       1  0  0   0  1  0   0  0 -1
                       0  1  0   1  0  0   0  0 -1       0 -1  0  -1  0  0   0  0  1
            tnons      0.0000000  0.0000000  0.0000000     0.0000000  0.0000000 -0.0000000
                       0.0000000  0.0000000 -0.0000000     0.0000000 -0.0000000  0.0000000
                       0.0000000  0.0000000  0.5000000     0.0000000  0.0000000  0.5000000
                       0.0000000 -0.0000000  0.5000000     0.0000000  0.0000000  0.5000000
           tolwfr      1.00000000E-20
            typat      1  1  1  1  2  2  3  3  3  3  3  3
           useylm           1
           xangst      3.0273700765E+00  1.2066316631E+00  4.4311291306E+00
                       1.2461490313E+00  5.0891882597E+00  1.4770430435E+00
                       4.2696949018E+00  3.0368454021E+00  1.4770430435E+00
                       3.8242061042E-03  3.2589745206E+00  4.4311291306E+00
                       3.9125648634E+00  5.7640560846E+00  4.4311291306E+00
                       3.6095424441E-01  5.3176383814E-01  1.4770430435E+00
                       1.4353169481E+00  2.1145329667E+00  1.4770430435E+00
                       2.8382021597E+00  4.1812869560E+00  4.4311291306E+00
                      -1.3983919630E+00  5.5475239500E+00  2.9540860871E+00
                      -1.3983919630E+00  5.5475239500E+00  0.0000000000E+00
                       5.6719110708E+00  7.4829597274E-01  2.9540860871E+00
                       5.6719110708E+00  7.4829597274E-01  0.0000000000E+00
            xcart      5.7209003476E+00  2.2802033866E+00  8.3736205163E+00
                       2.3548803899E+00  9.6171720494E+00  2.7912068388E+00
                       8.0685540353E+00  5.7388061179E+00  2.7912068388E+00
                       7.2267022126E-03  6.1585693181E+00  8.3736205163E+00
                       7.3936760691E+00  1.0892487415E+01  8.3736205163E+00
                       6.8210466843E-01  1.0048880215E+00  2.7912068388E+00
                       2.7123559458E+00  3.9958882061E+00  2.7912068388E+00
                       5.3634247917E+00  7.9014872299E+00  8.3736205163E+00
                      -2.6425778365E+00  1.0483300981E+01  5.5824136775E+00
                      -2.6425778365E+00  1.0483300981E+01  0.0000000000E+00
                       1.0718358574E+01  1.4140744548E+00  5.5824136775E+00
                       1.0718358574E+01  1.4140744548E+00  0.0000000000E+00
             xred      5.1764100000E-01  1.9165600000E-01  7.5000000000E-01
                       4.8235900000E-01  8.0834400000E-01  2.5000000000E-01
                       8.0834400000E-01  4.8235900000E-01  2.5000000000E-01
                       1.9165600000E-01  5.1764100000E-01  7.5000000000E-01
                       9.1553700000E-01  9.1553700000E-01  7.5000000000E-01
                       8.4463000000E-02  8.4463000000E-02  2.5000000000E-01
                       3.3586300000E-01  3.3586300000E-01  2.5000000000E-01
                       6.6413700000E-01  6.6413700000E-01  7.5000000000E-01
                       1.1885600000E-01  8.8114400000E-01  5.0000000000E-01
                       1.1885600000E-01  8.8114400000E-01  0.0000000000E+00
                       8.8114400000E-01  1.1885600000E-01  5.0000000000E-01
                       8.8114400000E-01  1.1885600000E-01  0.0000000000E+00
            znucl       55.00000   40.00000    8.00000

 chkinp: Checking input parameters for consistency.

== DATASET  1 ==================================================================
-   mpi_nproc: 1, omp_nthreads: -1 (-1 if OMP is not activated)

--- !DatasetInfo
iteration_state: {dtset: 1, }
dimensions: {natom: 12, nkpt: 1, mband: 57, nsppol: 1, nspinor: 1, nspden: 1, mpw: 23698, }
cutoff_energies: {ecut:  44.0, pawecutdg:  -1.0, }
electrons: {nelect:   9.60000000E+01, charge:   0.00000000E+00, occopt:   1.00000000E+00, tsmear:   1.00000000E-02, }
meta: {optdriver: 1, rfelfd: 2, }
...

 Real(R)+Recip(G) space primitive vectors, cartesian coordinates (Bohr,Bohr^-1):
 R(1)= 12.8015967  0.0000000  0.0000000  G(1)=  0.0781153  0.0310286  0.0000000
 R(2)= -4.7258160 11.8973754  0.0000000  G(2)=  0.0000000  0.0840522  0.0000000
 R(3)=  0.0000000  0.0000000 11.1648274  G(3)=  0.0000000  0.0000000  0.0895670
 Unit cell volume ucvol=  1.7004635E+03 bohr^3
 Angles (23,13,12)=  9.00000000E+01  9.00000000E+01  1.11663718E+02 degrees

 getcut: wavevector=  0.0000  0.0000  0.0000  ngfft=  80  80  72
         ecut(hartree)=     44.000   => boxcut(ratio)=   2.09287

--- Pseudopotential description ------------------------------------------------
- pspini: atom type   1  psp file is /scratch/users/j/a/jabreu/pseudos/PBEsol/Cs.psp8
- pspatm: opening atomic psp file    /scratch/users/j/a/jabreu/pseudos/PBEsol/Cs.psp8
- Cs    ONCVPSP-3.3.0  r_core=   2.27353   1.85623   2.01788   1.90105
- 55.00000   9.00000    180112                znucl, zion, pspdat
    8 -116133    3    4       600   0.00000   pspcod,pspxc,lmax,lloc,mmax,r2well
    5.99000000000000    5.00000000000000    0.00000000000000   rchrg,fchrg,qchrg
     nproj     2     2     2     2
     extension_switch     1
  pspatm : epsatm=   22.12462445
         --- l  ekb(1:nproj) -->
             0    6.214110    0.767882
             1    6.311966    0.793598
             2    3.769790    0.913105
             3   -9.247129   -2.432478
 pspatm: atomic psp has been read  and splines computed

- pspini: atom type   2  psp file is /scratch/users/j/a/jabreu/pseudos/PBEsol/Zr.psp8
- pspatm: opening atomic psp file    /scratch/users/j/a/jabreu/pseudos/PBEsol/Zr.psp8
- Zr    ONCVPSP-3.3.0  r_core=   1.56507   1.56507   1.51006
- 40.00000  12.00000    180112                znucl, zion, pspdat
    8 -116133    2    4       600   0.00000   pspcod,pspxc,lmax,lloc,mmax,r2well
    5.99000000000000    5.00000000000000    0.00000000000000   rchrg,fchrg,qchrg
     nproj     2     2     2
     extension_switch     1
  pspatm : epsatm=   18.88750170
         --- l  ekb(1:nproj) -->
             0   10.584966    0.890424
             1    5.814585    0.741293
             2    1.525459    0.487901
 pspatm: atomic psp has been read  and splines computed

- pspini: atom type   3  psp file is /scratch/users/j/a/jabreu/pseudos/PBEsol/O.psp8
- pspatm: opening atomic psp file    /scratch/users/j/a/jabreu/pseudos/PBEsol/O.psp8
- O     ONCVPSP-3.3.0  r_core=   1.35509   1.45563   1.26150
-  8.00000   6.00000    180112                znucl, zion, pspdat
    8 -116133    2    4       600   0.00000   pspcod,pspxc,lmax,lloc,mmax,r2well
    5.99000000000000    4.00000000000000    0.00000000000000   rchrg,fchrg,qchrg
     nproj     2     2     1
     extension_switch     1
  pspatm : epsatm=    6.22910522
         --- l  ekb(1:nproj) -->
             0    6.050032    0.820363
             1   -4.739617   -1.153841
             2   -1.335834
 pspatm: atomic psp has been read  and splines computed

   1.57102207E+04                                ecore*ucvol(ha*bohr**3)

 ==>  initialize data related to q vector <==

 The list of irreducible perturbations for this q vector is:
    1)    idir= 1    ipert=  13
    2)    idir= 2    ipert=  13
    3)    idir= 3    ipert=  13

 Perturbation wavevector (in red.coord.)   0.000000  0.000000  0.000000
 Perturbation : derivative vs k along direction   1

 dfpt_looppert : COMMENT -
[...]
 Perturbation : derivative vs k along direction   2
 The set of symmetries contains only one element for this perturbation.
 symkpt : not enough symmetry to change the number of k points.

[...]

 Perturbation wavevector (in red.coord.)   0.000000  0.000000  0.000000
 Perturbation : derivative vs k along direction   3
 The set of symmetries contains only one element for this perturbation.
 symkpt : not enough symmetry to change the number of k points.

 Initialisation of the first-order wave-functions :
  ireadwf=   0

--- !BeginCycle
iteration_state: {dtset: 1, }
solver: {iscf: 7, nstep: 2000, nline: 4, wfoptalg: 0, }
tolerances: {tolwfr: 1.00E-20, }
...

     iter   2DEtotal(Ha)        deltaE(Ha) residm    vres2
-ETOT  1  -32.733740370430     -3.273E+01 3.994E-02 0.000E+00
 ETOT  2  -32.815801101294     -8.206E-02 5.703E-03 0.000E+00
 ETOT  3  -32.817214968270     -1.414E-03 2.130E-03 0.000E+00
 ETOT  4  -32.817279506659     -6.454E-05 5.662E-04 0.000E+00
 ETOT  5  -32.817283205188     -3.699E-06 2.619E-04 0.000E+00
 ETOT  6  -32.817283438890     -2.337E-07 1.101E-04 0.000E+00
 ETOT  7  -32.817283454709     -1.582E-08 5.531E-05 0.000E+00
 ETOT  8  -32.817283455825     -1.116E-09 2.344E-05 0.000E+00
 ETOT  9  -32.817283455906     -8.103E-11 1.241E-05 0.000E+00
 ETOT 10  -32.817283455912     -6.054E-12 5.055E-06 0.000E+00
 ETOT 11  -32.817283455912     -4.263E-13 2.794E-06 0.000E+00
 ETOT 12  -32.817283455912     -5.684E-14 1.091E-06 0.000E+00
 ETOT 13  -32.817283455912      6.395E-14 6.218E-07 0.000E+00
 ETOT 14  -32.817283455912      2.132E-14 2.360E-07 0.000E+00
 ETOT 15  -32.817283455912      4.974E-14 1.378E-07 0.000E+00
 ETOT 16  -32.817283455912     -4.974E-14 5.129E-08 0.000E+00
 ETOT 17  -32.817283455912      7.105E-15 3.050E-08 0.000E+00
 ETOT 18  -32.817283455912     -7.105E-15 1.120E-08 0.000E+00
 ETOT 19  -32.817283455912      0.000E+00 6.755E-09 0.000E+00
 ETOT 20  -32.817283455912      1.421E-14 2.458E-09 0.000E+00
 ETOT 21  -32.817283455912     -7.105E-15 1.498E-09 0.000E+00
 ETOT 22  -32.817283455912      7.105E-15 5.424E-10 0.000E+00
 ETOT 23  -32.817283455912     -7.105E-15 3.331E-10 0.000E+00
 ETOT 24  -32.817283455912      7.105E-15 1.203E-10 0.000E+00
 ETOT 25  -32.817283455912      0.000E+00 7.423E-11 0.000E+00
 ETOT 26  -32.817283455912     -7.105E-15 2.681E-11 0.000E+00
 ETOT 27  -32.817283455912      7.105E-15 1.658E-11 0.000E+00
 ETOT 28  -32.817283455912      0.000E+00 5.995E-12 0.000E+00
 ETOT 29  -32.817283455912      0.000E+00 3.710E-12 0.000E+00
 ETOT 30  -32.817283455912     -7.105E-15 1.344E-12 0.000E+00
 ETOT 31  -32.817283455912     -7.105E-15 8.318E-13 0.000E+00
 ETOT 32  -32.817283455912      1.421E-14 3.020E-13 0.000E+00
 ETOT 33  -32.817283455912      0.000E+00 1.867E-13 0.000E+00
 ETOT 34  -32.817283455912     -7.105E-15 6.795E-14 0.000E+00
 ETOT 35  -32.817283455912      7.105E-15 4.197E-14 0.000E+00
 ETOT 36  -32.817283455912      0.000E+00 1.530E-14 0.000E+00
 ETOT 37  -32.817283455912     -7.105E-15 9.443E-15 0.000E+00
 ETOT 38  -32.817283455912      7.105E-15 3.450E-15 0.000E+00
 ETOT 39  -32.817283455912      0.000E+00 2.127E-15 0.000E+00
 ETOT 40  -32.817283455912      0.000E+00 7.781E-16 0.000E+00
 ETOT 41  -32.817283455912     -7.105E-15 4.792E-16 0.000E+00
 ETOT 42  -32.817283455912     -7.105E-15 1.756E-16 0.000E+00
 ETOT 43  -32.817283455912      1.421E-14 1.081E-16 0.000E+00
 ETOT 44  -32.817283455912      0.000E+00 3.965E-17 0.000E+00
 ETOT 45  -32.817283455912      0.000E+00 2.438E-17 0.000E+00
 ETOT 46  -32.817283455912      7.105E-15 8.955E-18 0.000E+00
 ETOT 47  -32.817283455912     -7.105E-15 5.502E-18 0.000E+00
 ETOT 48  -32.817283455912     -7.105E-15 2.023E-18 0.000E+00
 ETOT 49  -32.817283455912     -7.105E-15 1.242E-18 0.000E+00
 ETOT 50  -32.817283455912      0.000E+00 4.572E-19 0.000E+00
 ETOT 51  -32.817283455912      0.000E+00 2.806E-19 0.000E+00
 ETOT 52  -32.817283455912      7.105E-15 1.034E-19 0.000E+00
 ETOT 53  -32.817283455912      0.000E+00 6.341E-20 0.000E+00
 ETOT 54  -32.817283455912      7.105E-15 2.337E-20 0.000E+00
 ETOT 55  -32.817283455912      0.000E+00 1.433E-20 0.000E+00
 ETOT 56  -32.817283455912      7.105E-15 9.909E-21 0.000E+00

 At SCF step   56   max residual=  9.91E-21 < tolwfr=  1.00E-20 =>converged.

 ----iterations are completed or convergence reached----

 dfpt_looppert: DFPT cycle converged with prtwf=-1. Will skip output of the 1st-order WFK file.
 dfpt_looppert : ek2=    6.0807471053E+01
          f-sum rule ratio=    1.0201512916E+00
 prteigrs : about to open file /scratch/users/j/a/jabreu/flow_simple_11atoms/flow/w346/t1/tmpdata/tmp_1WF1_EIG
 Expectation of eigenvalue derivatives (hartree) for nkpt=   1  k points:
  (in case of degenerate eigenvalues, averaged derivative)
 kpt#   1, nband= 57, wtk=  1.00000, kpt= -0.5000  0.5000  0.0000 (reduced coord)
   0.00000    0.00000   -0.00000   -0.00000   -0.00000    0.00000   -0.00000   -0.00000
   0.00000    0.00000    0.00000   -0.00000    0.00000    0.00000   -0.00000   -0.00000
   0.00000   -0.00000   -0.00000   -0.00000   -0.00000   -0.00000   -0.00000    0.00000
  -0.00000    0.00000   -0.00000    0.00000   -0.00000   -0.00000    0.00000    0.00000
  -0.00000   -0.00000   -0.00000    0.00000   -0.00000   -0.00000    0.00000    0.00000
   0.00000    0.00000   -0.00000    0.00000    0.00000   -0.00000   -0.00000   -0.00000
  -0.00000   -0.00000   -0.00000    0.00000   -0.00000   -0.00000    0.00000    0.00000
   0.00004

 Eight components of 2nd-order total energy (hartree) are
 1,2,3: 0th-order hamiltonian combined with 1st-order wavefunctions
     kin0=   5.54863158E+01 eigvalue=   4.88549256E-01  local=  -3.31281082E+01
 4,5,6: 1st-order hamiltonian combined with 1st and 0th-order wfs
     kin1=  -6.20328201E+01  Hartree=   0.00000000E+00     xc=   0.00000000E+00
 7,8,9: eventually, occupation + non-local contributions
    edocc=   5.75953218E+00     enl0=   4.21099444E+00   enl1=  -3.60174678E+00
 1-9 gives the relaxation energy (to be shifted if some occ is /=2.0)
   erelax=  -3.28172835E+01
  No Ewald or frozen-wf contrib.: the relaxation energy is the total one
 2DEtotal=   -0.3281728346E+02 Ha. Also 2DEtotal=   -0.893003697361E+03 eV
    (  non-var. 2DEtotal :   -3.2817283456E+01 Ha)

 CALCULATION OF EFFECTIVE MASSES
 NOTE : Additional infos (eff. mass eigenvalues, eigenvectors and, if degenerate, average mass) are available in stdout.

 K-point (-0.500, 0.500, 0.000) | band =    48
 Effective mass tensor:
             -7.8984881370              3.7324097267              0.0000095772
              3.7324097267             -4.9333498878             -0.0000066243
              0.0000095772             -0.0000066243             -0.7853682757
 Effective mass tensor eigenvalues:
            -10.4319983913             -2.3998396335             -0.7853682757
 Angular average effective mass 1/(<1/m>)=  -1.6798804013
 Angular average effective mass for Frohlich model (<m**0.5>)**2=  -2.1800660104
 Effective masses along directions: (cart. coord. / red. coord. -> eff. mass)
    1:   1.000000  0.000000  0.000000 /   0.938119 -0.346314  0.000000 ->  -5.0746701056
    2:   0.000000  1.000000  0.000000 /   0.000000  1.000000  0.000000 ->  -3.1696095204
    3:   0.000000  0.000000  1.000000 /   0.000000  0.000000  1.000000 ->  -0.7853682757
    4:   0.577350  0.577350  0.577350 /   0.694299  0.388952  0.605528 ->  -1.4395283717
    5:   0.000000  0.707107  0.707107 /   0.000000  0.729200  0.684301 ->  -1.2588254770
    6:   0.707107  0.000000  0.707107 /   0.726067 -0.268034  0.633234 ->  -1.3602227293
    7:   0.707107  0.707107  0.000000 /   0.872429  0.488742  0.000000 ->  -2.4669207945

 K-point (-0.500, 0.500, 0.000) | band =    49
 Effective mass tensor:
              1.0267132912              0.5526525551              0.0000000005
              0.5526525551              1.4657570626             -0.0000000003
              0.0000000005             -0.0000000003              0.6160335086
 Effective mass tensor eigenvalues:
              0.6160335086              0.6515800627              1.8408902911
 Angular average effective mass 1/(<1/m>)=   0.8105403621
 Angular average effective mass for Frohlich model (<m**0.5>)**2=   0.8605455653
 Effective masses along directions: (cart. coord. / red. coord. -> eff. mass)
    1:   1.000000  0.000000  0.000000 /   0.938119 -0.346314  0.000000 ->   0.8183398476
    2:   0.000000  1.000000  0.000000 /   0.000000  1.000000  0.000000 ->   1.1682788384
    3:   0.000000  0.000000  1.000000 /   0.000000  0.000000  1.000000 ->   0.6160335086
    4:   0.577350  0.577350  0.577350 /   0.694299  0.388952  0.605528 ->   1.0792324437
    5:   0.000000  0.707107  0.707107 /   0.000000  0.729200  0.684301 ->   0.8066961063
    6:   0.707107  0.000000  0.707107 /   0.726067 -0.268034  0.633234 ->   0.7029198721
    7:   0.707107  0.707107  0.000000 /   0.872429  0.488742  0.000000 ->   1.7294081101

 END OF EFFECTIVE MASSES SECTION

 ---- first-order wavefunction calculations are completed ----

 Total localisation tensor (bohr^2) in cartesian coordinates
  WARNING : still subject to testing - especially symmetries.
      direction              matrix element
   alpha     beta       real part   imaginary part
     1        1       1.1416510400    0.0000000000
     1        2      -0.3447057432    0.0000000000
     1        3       0.0000000000    0.0000000000
     2        1      -0.3447057432    0.0000000000
     2        2       0.8678064563    0.0000000000
     2        3       0.0000000000    0.0000000000
     3        1       0.0000000000    0.0000000000
     3        2       0.0000000000    0.0000000000
     3        3       0.9130466915    0.0000000000

 respfn : d/dk was computed, but no 2DTE, so no DDB output.

== END DATASET(S) ==============================================================

 -outvars: echo values of variables after computation  --------
            acell      1.0000000000E+00  1.0000000000E+00  1.0000000000E+00 Bohr
              amu      1.32905430E+02  9.12240000E+01  1.59994000E+01
             ecut      4.40000000E+01 Hartree
           etotal     -3.2817283456E+01
            fcart      0.0000000000E+00  0.0000000000E+00  0.0000000000E+00
                       0.0000000000E+00  0.0000000000E+00  0.0000000000E+00
                       0.0000000000E+00  0.0000000000E+00  0.0000000000E+00
                       0.0000000000E+00  0.0000000000E+00  0.0000000000E+00
                       0.0000000000E+00  0.0000000000E+00  0.0000000000E+00
                       0.0000000000E+00  0.0000000000E+00  0.0000000000E+00
                       0.0000000000E+00  0.0000000000E+00  0.0000000000E+00
                       0.0000000000E+00  0.0000000000E+00  0.0000000000E+00
                       0.0000000000E+00  0.0000000000E+00  0.0000000000E+00
                       0.0000000000E+00  0.0000000000E+00  0.0000000000E+00
                       0.0000000000E+00  0.0000000000E+00  0.0000000000E+00
                       0.0000000000E+00  0.0000000000E+00  0.0000000000E+00
-          fftalg         512
           irdden           1
           irdwfk           1
              ixc     -116133
              kpt     -5.00000000E-01  5.00000000E-01  0.00000000E+00
           kptopt           0
P           mkmem           1
P          mkqmem           1
P          mk1mem           1
            natom          12
            nband          57
           nbdbuf           4
            ngfft          80      80      72
             nkpt           1
            nstep        2000
             nsym           8
           ntypat           3
              occ      2.000000  2.000000  2.000000  2.000000  2.000000  2.000000
                       2.000000  2.000000  2.000000  2.000000  2.000000  2.000000
                       2.000000  2.000000  2.000000  2.000000  2.000000  2.000000
                       2.000000  2.000000  2.000000  2.000000  2.000000  2.000000
                       2.000000  2.000000  2.000000  2.000000  2.000000  2.000000
                       2.000000  2.000000  2.000000  2.000000  2.000000  2.000000
                       2.000000  2.000000  2.000000  2.000000  2.000000  2.000000
                       2.000000  2.000000  2.000000  2.000000  2.000000  2.000000
                       0.000000  0.000000  0.000000  0.000000  0.000000  0.000000
                       0.000000  0.000000  0.000000
        optdriver           1
            prtwf          -1
            rfdir           1       1       1
           rfelfd           2
            rprim      1.2801596744E+01  0.0000000000E+00  0.0000000000E+00
                      -4.7258160063E+00  1.1897375436E+01  0.0000000000E+00
                       0.0000000000E+00  0.0000000000E+00  1.1164827355E+01
          spgroup          63
           strten      0.0000000000E+00  0.0000000000E+00  0.0000000000E+00
                       0.0000000000E+00  0.0000000000E+00  0.0000000000E+00
           symrel      1  0  0   0  1  0   0  0  1      -1  0  0   0 -1  0   0  0 -1
                       0 -1  0  -1  0  0   0  0 -1       0  1  0   1  0  0   0  0  1
                      -1  0  0   0 -1  0   0  0  1       1  0  0   0  1  0   0  0 -1
                       0  1  0   1  0  0   0  0 -1       0 -1  0  -1  0  0   0  0  1
            tnons      0.0000000  0.0000000  0.0000000     0.0000000  0.0000000 -0.0000000
                       0.0000000  0.0000000 -0.0000000     0.0000000 -0.0000000  0.0000000
                       0.0000000  0.0000000  0.5000000     0.0000000  0.0000000  0.5000000
                       0.0000000 -0.0000000  0.5000000     0.0000000  0.0000000  0.5000000
           tolwfr      1.00000000E-20
            typat      1  1  1  1  2  2  3  3  3  3  3  3
           useylm           1
           xangst      3.0273700765E+00  1.2066316631E+00  4.4311291306E+00
                       1.2461490313E+00  5.0891882597E+00  1.4770430435E+00
                       4.2696949018E+00  3.0368454021E+00  1.4770430435E+00
                       3.8242061042E-03  3.2589745206E+00  4.4311291306E+00
                       3.9125648634E+00  5.7640560846E+00  4.4311291306E+00
                       3.6095424441E-01  5.3176383814E-01  1.4770430435E+00
                       1.4353169481E+00  2.1145329667E+00  1.4770430435E+00
                       2.8382021597E+00  4.1812869560E+00  4.4311291306E+00
                      -1.3983919630E+00  5.5475239500E+00  2.9540860871E+00
                      -1.3983919630E+00  5.5475239500E+00  0.0000000000E+00
                       5.6719110708E+00  7.4829597274E-01  2.9540860871E+00
                       5.6719110708E+00  7.4829597274E-01  0.0000000000E+00
            xcart      5.7209003476E+00  2.2802033866E+00  8.3736205163E+00
                       2.3548803899E+00  9.6171720494E+00  2.7912068388E+00
                       8.0685540353E+00  5.7388061179E+00  2.7912068388E+00
                       7.2267022126E-03  6.1585693181E+00  8.3736205163E+00
                       7.3936760691E+00  1.0892487415E+01  8.3736205163E+00
                       6.8210466843E-01  1.0048880215E+00  2.7912068388E+00
                       2.7123559458E+00  3.9958882061E+00  2.7912068388E+00
                       5.3634247917E+00  7.9014872299E+00  8.3736205163E+00
                      -2.6425778365E+00  1.0483300981E+01  5.5824136775E+00
                      -2.6425778365E+00  1.0483300981E+01  0.0000000000E+00
                       1.0718358574E+01  1.4140744548E+00  5.5824136775E+00
                       1.0718358574E+01  1.4140744548E+00  0.0000000000E+00
             xred      5.1764100000E-01  1.9165600000E-01  7.5000000000E-01
                       4.8235900000E-01  8.0834400000E-01  2.5000000000E-01
                       8.0834400000E-01  4.8235900000E-01  2.5000000000E-01
                       1.9165600000E-01  5.1764100000E-01  7.5000000000E-01
                       9.1553700000E-01  9.1553700000E-01  7.5000000000E-01
                       8.4463000000E-02  8.4463000000E-02  2.5000000000E-01
                       3.3586300000E-01  3.3586300000E-01  2.5000000000E-01
                       6.6413700000E-01  6.6413700000E-01  7.5000000000E-01
                       1.1885600000E-01  8.8114400000E-01  5.0000000000E-01
                       1.1885600000E-01  8.8114400000E-01  0.0000000000E+00
                       8.8114400000E-01  1.1885600000E-01  5.0000000000E-01
                       8.8114400000E-01  1.1885600000E-01  0.0000000000E+00
            znucl       55.00000   40.00000    8.00000

- Timing analysis has been suppressed with timopt=0

 Suggested references for the acknowledgment of ABINIT usage.

 Calculation completed.
.Delivered   2 WARNINGs and   5 COMMENTs to log file.