.Version 9.5.1 of ABINIT

 ABINIT is a project of the Universite Catholique de Louvain,
 Corning Inc. and other collaborators, see ~abinit/doc/developers/contributors.txt .
 acknowledgments of the ABINIT effort.

.Starting date : Tue 11 May 2021.
- ( at 21h54 )

- input  file    -> /scratch/users/j/a/jabreu/flow_simple_8atoms/flow/w368/t1/run.abi
- output file    -> /scratch/users/j/a/jabreu/flow_simple_8atoms/flow/w368/t1/run.abo
- root for input  files -> /scratch/users/j/a/jabreu/flow_simple_8atoms/flow/w368/t1/indata/in
- root for output files -> /scratch/users/j/a/jabreu/flow_simple_8atoms/flow/w368/t1/outdata/out

 Symmetries : space group I-4 2 m (#121); Bravais tI (body-center tetrag.)
     intxc =       0      iscf =       7    lmnmax =      18     lnmax =       6
     mgfft =      80  mpssoang =       3    mqgrid =    3001     natom =       8
  nloc_mem =       1    nspden =       1   nspinor =       1    nsppol =       1
      nsym =       8    n1xccc =    2501    ntypat =       3    occopt =       1
   xclevel =       2
-    mband =          34        mffmem =           1         mkmem =           2
-   mkqmem =           2        mk1mem =           2           mpw =       15323
      nfft =      512000          nkpt =           2
  Rough estimation (10% accuracy) of disk space for files :

------------- Echo of variables that govern the present computation ------------
-
- outvars: echo of selected default values
-   iomode0 =  0 , fftalg0 =512 , wfoptalg0 =  0
-
- outvars: echo of global parameters not present in the input file
-  max_nthreads =    0
-
 -outvars: echo values of preprocessed input variables --------
            acell      1.0000000000E+00  1.0000000000E+00  1.0000000000E+00 Bohr
              amu      2.80855000E+01  5.86900000E+01  3.09737620E+01
             ecut      4.90000000E+01 Hartree
-          fftalg         512
           irdden           1
           irdwfk           1
           istwfk        1    0
              ixc     -116133
              kpt      0.00000000E+00  0.00000000E+00  0.00000000E+00
                       3.15789474E-01  3.15789474E-01 -3.15789474E-01
           kptopt           0
P           mkmem           2
P          mkqmem           2
P          mk1mem           2
            natom           8
            nband          34
           nbdbuf           4
            ngfft          80      80      80
             nkpt           2
            nstep        2000
             nsym           8
           ntypat           3
              occ      2.000000  2.000000  2.000000  2.000000  2.000000  2.000000
                       2.000000  2.000000  2.000000  2.000000  2.000000  2.000000
                       2.000000  2.000000  2.000000  2.000000  2.000000  2.000000
                       2.000000  2.000000  2.000000  2.000000  2.000000  2.000000
                       2.000000  0.000000  0.000000  0.000000  0.000000  0.000000
                       0.000000  0.000000  0.000000  0.000000
        optdriver           1
            prtwf          -1
            rfdir           1       1       1
           rfelfd           2
            rprim      8.9058296217E+00  0.0000000000E+00 -7.9913688660E+00
                      -1.7735099691E+00  8.7274545912E+00 -7.9913688660E+00
                       0.0000000000E+00  0.0000000000E+00  1.1965608117E+01
          spgroup         121
           symrel      1  0  0   0  1  0   0  0  1       0  0  1  -1 -1 -1   1  0  0
                       0  1  0   1  0  0  -1 -1 -1      -1 -1 -1   0  0  1   0  1  0
                       0  1  0   1  0  0   0  0  1       0  0  1  -1 -1 -1   0  1  0
                       1  0  0   0  1  0  -1 -1 -1      -1 -1 -1   0  0  1   1  0  0
           tolwfr      1.00000000E-20
            typat      1  1  1  2  3  3  3  3
           useylm           1
              wtk        0.50000    0.50000
           xangst      4.7431472371E-01  3.4637775440E+00 -1.0628867182E+00
                       1.8871305023E+00  2.3091850293E+00 -4.2288502693E+00
                       3.2999462808E+00  1.1545925147E+00 -1.0628867182E+00
                       0.0000000000E+00  0.0000000000E+00  0.0000000000E+00
                       1.3545152814E+00  1.6574510380E+00  1.2431038993E-02
                       3.3121093495E+00  4.0528587271E+00 -4.1378924445E+00
                       2.9065175960E+00  5.6551133154E-01 -3.2290062847E+00
                      -2.4620217823E-02  2.9609190207E+00 -3.2290062847E+00
            xcart      8.9632492860E-01  6.5455909434E+00 -2.0085648076E+00
                       3.5661598263E+00  4.3637272956E+00 -7.9913688660E+00
                       6.2359947240E+00  2.1818636478E+00 -2.0085648076E+00
                       0.0000000000E+00  0.0000000000E+00  0.0000000000E+00
                       2.5596629246E+00  3.1321285405E+00  2.3491259243E-02
                       6.2589795927E+00  7.6587930496E+00 -7.8194834874E+00
                       5.4925222569E+00  1.0686615416E+00 -6.1019375595E+00
                      -4.6525469017E-02  5.5953260507E+00 -6.1019375595E+00
             xred      2.5000000000E-01  7.5000000000E-01  5.0000000000E-01
                       5.0000000000E-01  5.0000000000E-01  0.0000000000E+00
                       7.5000000000E-01  2.5000000000E-01  5.0000000000E-01
                       0.0000000000E+00  0.0000000000E+00  0.0000000000E+00
                       3.5888225000E-01  3.5888225000E-01  4.8133050000E-01
                       8.7755175000E-01  8.7755175000E-01  5.1866950000E-01
                       6.4111775000E-01  1.2244825000E-01  0.0000000000E+00
                       1.2244825000E-01  6.4111775000E-01  0.0000000000E+00
            znucl       14.00000   28.00000   15.00000

 chkinp: Checking input parameters for consistency.

== DATASET  1 ==================================================================
-   mpi_nproc: 1, omp_nthreads: -1 (-1 if OMP is not activated)

--- !DatasetInfo
iteration_state: {dtset: 1, }
dimensions: {natom: 8, nkpt: 2, mband: 34, nsppol: 1, nspinor: 1, nspden: 1, mpw: 15323, }
cutoff_energies: {ecut:  49.0, pawecutdg:  -1.0, }
electrons: {nelect:   5.00000000E+01, charge:   0.00000000E+00, occopt:   1.00000000E+00, tsmear:   1.00000000E-02, }
meta: {optdriver: 1, rfelfd: 2, }
...

 Real(R)+Recip(G) space primitive vectors, cartesian coordinates (Bohr,Bohr^-1):
 R(1)=  8.9058296  0.0000000 -7.9913689  G(1)=  0.1122860  0.0228177  0.0000000
 R(2)= -1.7735100  8.7274546 -7.9913689  G(2)=  0.0000000  0.1145809  0.0000000
 R(3)=  0.0000000  0.0000000 11.9656081  G(3)=  0.0749915  0.0917633  0.0835729
 Unit cell volume ucvol=  9.3002957E+02 bohr^3
 Angles (23,13,12)=  1.31902227E+02  1.31902227E+02  7.03834920E+01 degrees

 getcut: wavevector=  0.0000  0.0000  0.0000  ngfft=  80  80  80
         ecut(hartree)=     49.000   => boxcut(ratio)=   2.12198

--- Pseudopotential description ------------------------------------------------
- pspini: atom type   1  psp file is /scratch/users/j/a/jabreu/pseudos/PBEsol/Si.psp8
- pspatm: opening atomic psp file    /scratch/users/j/a/jabreu/pseudos/PBEsol/Si.psp8
- Si    ONCVPSP-3.3.0  r_core=   1.60303   1.72197   1.91712
- 14.00000   4.00000    180112                znucl, zion, pspdat
    8 -116133    2    4       600   0.00000   pspcod,pspxc,lmax,lloc,mmax,r2well
    5.99000000000000    4.00000000000000    0.00000000000000   rchrg,fchrg,qchrg
     nproj     2     2     2
     extension_switch     1
  pspatm : epsatm=    7.86468782
         --- l  ekb(1:nproj) -->
             0    5.384426    0.843824
             1    2.663259    0.615854
             2   -2.267219   -0.458043
 pspatm: atomic psp has been read  and splines computed

- pspini: atom type   2  psp file is /scratch/users/j/a/jabreu/pseudos/PBEsol/Ni.psp8
- pspatm: opening atomic psp file    /scratch/users/j/a/jabreu/pseudos/PBEsol/Ni.psp8
- Ni    ONCVPSP-3.3.0  r_core=   1.26116   1.35474   1.65929
- 28.00000  18.00000    180112                znucl, zion, pspdat
    8 -116133    2    4       600   0.00000   pspcod,pspxc,lmax,lloc,mmax,r2well
    5.99000000000000    3.00000000000000    0.00000000000000   rchrg,fchrg,qchrg
     nproj     2     2     2
     extension_switch     1
  pspatm : epsatm=   19.57179442
         --- l  ekb(1:nproj) -->
             0    6.241516   -0.251675
             1   -2.865987   -0.396303
             2   -7.254374   -2.547636
 pspatm: atomic psp has been read  and splines computed

- pspini: atom type   3  psp file is /scratch/users/j/a/jabreu/pseudos/PBEsol/P.psp8
- pspatm: opening atomic psp file    /scratch/users/j/a/jabreu/pseudos/PBEsol/P.psp8
- P     ONCVPSP-3.3.0  r_core=   1.46089   1.55067   1.70594
- 15.00000   5.00000    180112                znucl, zion, pspdat
    8 -116133    2    4       600   0.00000   pspcod,pspxc,lmax,lloc,mmax,r2well
    5.99000000000000    5.00000000000000    0.00000000000000   rchrg,fchrg,qchrg
     nproj     2     2     2
     extension_switch     1
  pspatm : epsatm=    7.31221086
         --- l  ekb(1:nproj) -->
             0    6.742364    1.063650
             1    3.449117    0.910422
             2   -3.077645   -0.799176
 pspatm: atomic psp has been read  and splines computed

   3.62073507E+03                                ecore*ucvol(ha*bohr**3)

-inwffil : will read wavefunctions from disk file /scratch/users/j/a/jabreu/flow_simple_8atoms/flow/w368/t1/indata/in_WFK

 ==>  initialize data related to q vector <==

 The list of irreducible perturbations for this q vector is:
    1)    idir= 1    ipert=   9
    2)    idir= 2    ipert=   9
    3)    idir= 3    ipert=   9

 Perturbation wavevector (in red.coord.)   0.000000  0.000000  0.000000
 Perturbation : derivative vs k along direction   1

 dfpt_looppert : COMMENT -
  In a d/dk calculation, iscf is set to -3 automatically.
 The set of symmetries contains only one element for this perturbation.
 symkpt : not enough symmetry to change the number of k points.

[...]

 Initialisation of the first-order wave-functions :
  ireadwf=   0

--- !BeginCycle
iteration_state: {dtset: 1, }
solver: {iscf: 7, nstep: 2000, nline: 4, wfoptalg: 0, }
tolerances: {tolwfr: 1.00E-20, }
...

     iter   2DEtotal(Ha)        deltaE(Ha) residm    vres2
-ETOT  1  -30.619608672752     -3.062E+01 8.876E-02 0.000E+00
 ETOT  2  -30.685450465052     -6.584E-02 1.155E-03 0.000E+00
 ETOT  3  -30.687983015511     -2.533E-03 5.738E-05 0.000E+00
 ETOT  4  -30.688149521724     -1.665E-04 3.800E-06 0.000E+00
 ETOT  5  -30.688162666226     -1.314E-05 4.431E-07 0.000E+00
 ETOT  6  -30.688163790011     -1.124E-06 3.083E-08 0.000E+00
 ETOT  7  -30.688163890702     -1.007E-07 3.917E-09 0.000E+00
 ETOT  8  -30.688163899972     -9.270E-09 2.959E-10 0.000E+00
 ETOT  9  -30.688163900841     -8.693E-10 3.502E-11 0.000E+00
 ETOT 10  -30.688163900924     -8.248E-11 2.889E-12 0.000E+00
 ETOT 11  -30.688163900932     -7.887E-12 3.185E-13 0.000E+00
 ETOT 12  -30.688163900932     -7.780E-13 2.851E-14 0.000E+00
 ETOT 13  -30.688163900933     -5.684E-14 3.017E-15 0.000E+00
 ETOT 14  -30.688163900933     -4.263E-14 2.838E-16 0.000E+00
 ETOT 15  -30.688163900933     -3.553E-14 2.987E-17 0.000E+00
 ETOT 16  -30.688163900933     -1.421E-14 2.845E-18 0.000E+00
 ETOT 17  -30.688163900933      6.750E-14 3.047E-19 0.000E+00
 ETOT 18  -30.688163900933     -1.776E-14 2.870E-20 0.000E+00
 ETOT 19  -30.688163900933     -1.776E-14 9.925E-21 0.000E+00

 At SCF step   19   max residual=  9.92E-21 < tolwfr=  1.00E-20 =>converged.

 ----iterations are completed or convergence reached----

 dfpt_looppert: DFPT cycle converged with prtwf=-1. Will skip output of the 1st-order WFK file.
 dfpt_looppert : ek2=    5.1830397671E+01
          f-sum rule ratio=    1.2068045100E+00
 prteigrs : about to open file /scratch/users/j/a/jabreu/flow_simple_8atoms/flow/w368/t1/tmpdata/tmp_1WF1_EIG
 Expectation of eigenvalue derivatives (hartree) for nkpt=   2  k points:
  (in case of degenerate eigenvalues, averaged derivative)
 kpt#   1, nband= 34, wtk=  0.50000, kpt=  0.0000  0.0000  0.0000 (reduced coord)
  -0.00000   -0.00000   -0.00000    0.00000   -0.00000    0.00000    0.00000    0.00000
   0.00000   -0.00000   -0.00000   -0.00000   -0.00000   -0.00000   -0.00000   -0.00000
  -0.00000   -0.00000   -0.00000   -0.00000   -0.00000   -0.00000   -0.00000    0.00000
   0.00000    0.00000    0.00000    0.00000    0.00000   -0.00000    0.00000    0.00000
   0.00000    0.00000
 prteigrs : prtvol=0 or 1, do not print more k-points.

 Eight components of 2nd-order total energy (hartree) are
 1,2,3: 0th-order hamiltonian combined with 1st-order wavefunctions
     kin0=   2.48464621E+01 eigvalue=  -1.37738407E+00  local=  -1.07483531E+01
 4,5,6: 1st-order hamiltonian combined with 1st and 0th-order wfs
     kin1=  -6.25491577E+01  Hartree=   0.00000000E+00     xc=   0.00000000E+00
 7,8,9: eventually, occupation + non-local contributions
    edocc=   1.75896839E+01     enl0=   3.77755145E-01   enl1=   1.17282986E+00
 1-9 gives the relaxation energy (to be shifted if some occ is /=2.0)
   erelax=  -3.06881639E+01
  No Ewald or frozen-wf contrib.: the relaxation energy is the total one
 2DEtotal=   -0.3068816390E+02 Ha. Also 2DEtotal=   -0.835067407867E+03 eV
    (  non-var. 2DEtotal :   -3.0688163901E+01 Ha)

 Perturbation wavevector (in red.coord.)   0.000000  0.000000  0.000000
 Perturbation : derivative vs k along direction   2
 The set of symmetries contains only one element for this perturbation.
 symkpt : not enough symmetry to change the number of k points.

[...]

 Perturbation wavevector (in red.coord.)   0.000000  0.000000  0.000000
 Perturbation : derivative vs k along direction   3
 The set of symmetries contains only one element for this perturbation.
 symkpt : not enough symmetry to change the number of k points.

-inwffil : will read wavefunctions from disk file /scratch/users/j/a/jabreu/flow_simple_8atoms/flow/w368/t1/indata/in_WFK

 Initialisation of the first-order wave-functions :
  ireadwf=   0

--- !BeginCycle
iteration_state: {dtset: 1, }
solver: {iscf: 7, nstep: 2000, nline: 4, wfoptalg: 0, }
tolerances: {tolwfr: 1.00E-20, }
...

     iter   2DEtotal(Ha)        deltaE(Ha) residm    vres2
-ETOT  1  -50.141342138943     -5.014E+01 1.255E-01 0.000E+00
 ETOT  2  -50.248353028400     -1.070E-01 2.283E-03 0.000E+00
 ETOT  3  -50.252546905484     -4.194E-03 8.371E-05 0.000E+00
 ETOT  4  -50.252811616469     -2.647E-04 6.062E-06 0.000E+00
 ETOT  5  -50.252831333731     -1.972E-05 4.348E-07 0.000E+00
 ETOT  6  -50.252832907811     -1.574E-06 3.948E-08 0.000E+00
 ETOT  7  -50.252833039179     -1.314E-07 2.898E-09 0.000E+00
 ETOT  8  -50.252833050487     -1.131E-08 2.944E-10 0.000E+00
 ETOT  9  -50.252833051483     -9.965E-10 2.236E-11 0.000E+00
 ETOT 10  -50.252833051572     -8.895E-11 2.372E-12 0.000E+00
 ETOT 11  -50.252833051580     -8.029E-12 1.862E-13 0.000E+00
 ETOT 12  -50.252833051581     -7.674E-13 1.977E-14 0.000E+00
 ETOT 13  -50.252833051581     -6.395E-14 1.660E-15 0.000E+00
 ETOT 14  -50.252833051581     -7.105E-15 1.672E-16 0.000E+00
 ETOT 15  -50.252833051581      0.000E+00 1.440E-17 0.000E+00
 ETOT 16  -50.252833051581     -4.263E-14 1.426E-18 0.000E+00
 ETOT 17  -50.252833051581      9.237E-14 1.331E-19 0.000E+00
 ETOT 18  -50.252833051581     -4.974E-14 1.223E-20 0.000E+00
 ETOT 19  -50.252833051581     -5.684E-14 9.688E-21 0.000E+00

 At SCF step   19   max residual=  9.69E-21 < tolwfr=  1.00E-20 =>converged.

 ----iterations are completed or convergence reached----

 dfpt_looppert: DFPT cycle converged with prtwf=-1. Will skip output of the 1st-order WFK file.
 dfpt_looppert : ek2=    8.3017748950E+01
          f-sum rule ratio=    1.2365203429E+00
 prteigrs : about to open file /scratch/users/j/a/jabreu/flow_simple_8atoms/flow/w368/t1/tmpdata/tmp_1WF1_EIG
 Expectation of eigenvalue derivatives (hartree) for nkpt=   2  k points:
  (in case of degenerate eigenvalues, averaged derivative)
 kpt#   1, nband= 34, wtk=  0.50000, kpt=  0.0000  0.0000  0.0000 (reduced coord)
   0.00000   -0.00000   -0.00000    0.00000    0.00000    0.00000    0.00000    0.00000
   0.00000   -0.00000   -0.00000    0.00000   -0.00000   -0.00000    0.00000    0.00000
   0.00000    0.00000   -0.00000   -0.00000    0.00000   -0.00000   -0.00000    0.00000
   0.00000    0.00000    0.00000    0.00000    0.00000   -0.00000   -0.00000   -0.00000
  -0.00000    0.00000
 prteigrs : prtvol=0 or 1, do not print more k-points.

 Eight components of 2nd-order total energy (hartree) are
 1,2,3: 0th-order hamiltonian combined with 1st-order wavefunctions
     kin0=   4.05174243E+01 eigvalue=  -2.42141326E+00  local=  -1.76187803E+01
 4,5,6: 1st-order hamiltonian combined with 1st and 0th-order wfs
     kin1=  -1.02653135E+02  Hartree=   0.00000000E+00     xc=   0.00000000E+00
 7,8,9: eventually, occupation + non-local contributions
    edocc=   2.91412067E+01     enl0=   6.34395577E-01   enl1=   2.14746930E+00
 1-9 gives the relaxation energy (to be shifted if some occ is /=2.0)
   erelax=  -5.02528331E+01
  No Ewald or frozen-wf contrib.: the relaxation energy is the total one
 2DEtotal=   -0.5025283305E+02 Ha. Also 2DEtotal=   -0.136744913022E+04 eV
    (  non-var. 2DEtotal :   -5.0252833051E+01 Ha)

 CALCULATION OF EFFECTIVE MASSES
 NOTE : Additional infos (eff. mass eigenvalues, eigenvectors and, if degenerate, average mass) are available in stdout.

 COMMENTS:
 - At k-point ( 0.000, 0.000, 0.000), bands    24 through    25
   are DEGENERATE (effective mass tensor is therefore not defined).
   See Section IIIB Eqs. (67)-(70) and Appendix E of PRB 93 205147 (2016).
 - Angular average effective mass for Frohlich model is to be averaged over degenerate bands. See later.
 - Associated theta integrals calculated with ntheta=   1000 points.

 K-point ( 0.000, 0.000, 0.000) | band =    24
 Transport equivalent effective mass tensor:
             -0.1862862268             -0.0226303308              0.0414433135
             -0.0226303308             -0.1954836561              0.0507120535
              0.0414433135              0.0507120535             -0.2606619422
 Transport equivalent effective mass tensor eigenvalues:
             -0.3068476556             -0.1677920858             -0.1677920838
 Angular average effective mass 1/(<1/m>)=  -0.1732784736
 Angular average effective mass for Frohlich model (<m**0.5>)**2=  -0.1778877784
 Effective masses along directions: (cart. coord. / red. coord. -> eff. mass)
    1:   1.000000  0.000000  0.000000 /   0.980742 -0.195305  0.000000 ->  -0.1799134742
    2:   0.000000  1.000000  0.000000 /   0.000000  1.000000  0.000000 ->  -0.2056086347
    3:   0.000000  0.000000  1.000000 /  -0.485531 -0.485531  0.726993 ->  -0.1907339559
    4:   0.577350  0.577350  0.577350 /   0.075919 -0.086127  0.993387 ->  -0.1277180694
    5:   0.000000  0.707107  0.707107 /  -0.554663  0.051090  0.830505 ->  -0.1605942257
    6:   0.707107  0.000000  0.707107 /   0.059106 -0.631156  0.773401 ->  -0.1823688880
    7:   0.707107  0.707107  0.000000 /   0.788185  0.615439  0.000000 ->  -0.1536238199

 K-point ( 0.000, 0.000, 0.000) | band =    25
 Transport equivalent effective mass tensor:
             -5.2575742785              0.1901163420             -0.3481593441
              0.1901163420             -5.1803066396             -0.4260252048
             -0.3481593441             -0.4260252048             -4.6327509925
 Transport equivalent effective mass tensor eigenvalues:
             -5.4129425093             -5.4129381404             -4.2447512609
 Angular average effective mass 1/(<1/m>)=  -0.4409189430
 Angular average effective mass for Frohlich model (<m**0.5>)**2=  -0.5727881604
 Effective masses along directions: (cart. coord. / red. coord. -> eff. mass)
    1:   1.000000  0.000000  0.000000 /   0.980742 -0.195305  0.000000 ->  -0.3948109410
    2:   0.000000  1.000000  0.000000 /   0.000000  1.000000  0.000000 ->  -0.3114977388
    3:   0.000000  0.000000  1.000000 /  -0.485531 -0.485531  0.726993 ->  -0.3691060827
    4:   0.577350  0.577350  0.577350 /   0.075919 -0.086127  0.993387 ->  -3.3797079738
    5:   0.000000  0.707107  0.707107 /  -0.554663  0.051090  0.830505 ->  -0.5316647646
    6:   0.707107  0.000000  0.707107 /   0.059106 -0.631156  0.773401 ->  -0.3823150626
    7:   0.707107  0.707107  0.000000 /   0.788185  0.615439  0.000000 ->  -0.6532468833

 Angular average effective mass for Frohlich model, averaged over degenerate bands.
 Value of     (<<m**0.5>>)**2 =     3.472716E-01
 Absolute Value of <<m**0.5>> =     5.892976E-01

 K-point ( 0.316, 0.316,-0.316) | band =    26
 Effective mass tensor:
              0.7241849012              0.5576846180             -1.0212378473
              0.5576846180              0.9507683796             -1.2495509260
             -1.0212378473             -1.2495509260              2.5565675894
 Effective mass tensor eigenvalues:
              0.2683929699              0.2684018534              3.6947260469
 Angular average effective mass 1/(<1/m>)=   0.3884856604
 Angular average effective mass for Frohlich model (<m**0.5>)**2=   0.4875421466
 Effective masses along directions: (cart. coord. / red. coord. -> eff. mass)
    1:   1.000000  0.000000  0.000000 /   0.980742 -0.195305  0.000000 ->   0.3061654401
    2:   0.000000  1.000000  0.000000 /   0.000000  1.000000  0.000000 ->   0.3291989017
    3:   0.000000  0.000000  1.000000 /  -0.485531 -0.485531  0.726993 ->   0.7050159732
    4:   0.577350  0.577350  0.577350 /   0.075919 -0.086127  0.993387 ->   0.2683966885
    5:   0.000000  0.707107  0.707107 /  -0.554663  0.051090  0.830505 ->   0.2866879929
    6:   0.707107  0.000000  0.707107 /   0.059106 -0.631156  0.773401 ->   0.2965450693
    7:   0.707107  0.707107  0.000000 /   0.788185  0.615439  0.000000 ->   0.3861588832

 END OF EFFECTIVE MASSES SECTION

 ---- first-order wavefunction calculations are completed ----

 Total localisation tensor (bohr^2) in cartesian coordinates
  WARNING : still subject to testing - especially symmetries.
      direction              matrix element
   alpha     beta       real part   imaginary part
     1        1       3.4013506979    0.0000000000
     1        2      -0.6384686258    0.0000000000
     1        3      -2.3510555491    0.0000000000
     2        1      -0.6384686258    0.0000000000
     2        2       3.1419084394    0.0000000000
     2        3      -2.8769154878    0.0000000000
     3        1      -2.3510555491    0.0000000000
     3        2      -2.8769154878    0.0000000000
     3        3      14.8932784753    0.0000000000

 respfn : d/dk was computed, but no 2DTE, so no DDB output.

== END DATASET(S) ==============================================================

 -outvars: echo values of variables after computation  --------
            acell      1.0000000000E+00  1.0000000000E+00  1.0000000000E+00 Bohr
              amu      2.80855000E+01  5.86900000E+01  3.09737620E+01
             ecut      4.90000000E+01 Hartree
           etotal     -5.0252833052E+01
            fcart      0.0000000000E+00  0.0000000000E+00  0.0000000000E+00
                       0.0000000000E+00  0.0000000000E+00  0.0000000000E+00
                       0.0000000000E+00  0.0000000000E+00  0.0000000000E+00
                       0.0000000000E+00  0.0000000000E+00  0.0000000000E+00
                       0.0000000000E+00  0.0000000000E+00  0.0000000000E+00
                       0.0000000000E+00  0.0000000000E+00  0.0000000000E+00
                       0.0000000000E+00  0.0000000000E+00  0.0000000000E+00
                       0.0000000000E+00  0.0000000000E+00  0.0000000000E+00
-          fftalg         512
           irdden           1
           irdwfk           1
           istwfk        1    0
              ixc     -116133
              kpt      0.00000000E+00  0.00000000E+00  0.00000000E+00
                       3.15789474E-01  3.15789474E-01 -3.15789474E-01
           kptopt           0
P           mkmem           2
P          mkqmem           2
P          mk1mem           2
            natom           8
            nband          34
           nbdbuf           4
            ngfft          80      80      80
             nkpt           2
            nstep        2000
             nsym           8
           ntypat           3
              occ      2.000000  2.000000  2.000000  2.000000  2.000000  2.000000
                       2.000000  2.000000  2.000000  2.000000  2.000000  2.000000
                       2.000000  2.000000  2.000000  2.000000  2.000000  2.000000
                       2.000000  2.000000  2.000000  2.000000  2.000000  2.000000
                       2.000000  0.000000  0.000000  0.000000  0.000000  0.000000
                       0.000000  0.000000  0.000000  0.000000
        optdriver           1
            prtwf          -1
            rfdir           1       1       1
           rfelfd           2
            rprim      8.9058296217E+00  0.0000000000E+00 -7.9913688660E+00
                      -1.7735099691E+00  8.7274545912E+00 -7.9913688660E+00
                       0.0000000000E+00  0.0000000000E+00  1.1965608117E+01
          spgroup         121
           strten      0.0000000000E+00  0.0000000000E+00  0.0000000000E+00
                       0.0000000000E+00  0.0000000000E+00  0.0000000000E+00
           symrel      1  0  0   0  1  0   0  0  1       0  0  1  -1 -1 -1   1  0  0
                       0  1  0   1  0  0  -1 -1 -1      -1 -1 -1   0  0  1   0  1  0
                       0  1  0   1  0  0   0  0  1       0  0  1  -1 -1 -1   0  1  0
                       1  0  0   0  1  0  -1 -1 -1      -1 -1 -1   0  0  1   1  0  0
           tolwfr      1.00000000E-20
            typat      1  1  1  2  3  3  3  3
           useylm           1
              wtk        0.50000    0.50000
           xangst      4.7431472371E-01  3.4637775440E+00 -1.0628867182E+00
                       1.8871305023E+00  2.3091850293E+00 -4.2288502693E+00
                       3.2999462808E+00  1.1545925147E+00 -1.0628867182E+00
                       0.0000000000E+00  0.0000000000E+00  0.0000000000E+00
                       1.3545152814E+00  1.6574510380E+00  1.2431038993E-02
                       3.3121093495E+00  4.0528587271E+00 -4.1378924445E+00
                       2.9065175960E+00  5.6551133154E-01 -3.2290062847E+00
                      -2.4620217823E-02  2.9609190207E+00 -3.2290062847E+00
            xcart      8.9632492860E-01  6.5455909434E+00 -2.0085648076E+00
                       3.5661598263E+00  4.3637272956E+00 -7.9913688660E+00
                       6.2359947240E+00  2.1818636478E+00 -2.0085648076E+00
                       0.0000000000E+00  0.0000000000E+00  0.0000000000E+00
                       2.5596629246E+00  3.1321285405E+00  2.3491259243E-02
                       6.2589795927E+00  7.6587930496E+00 -7.8194834874E+00
                       5.4925222569E+00  1.0686615416E+00 -6.1019375595E+00
                      -4.6525469017E-02  5.5953260507E+00 -6.1019375595E+00
             xred      2.5000000000E-01  7.5000000000E-01  5.0000000000E-01
                       5.0000000000E-01  5.0000000000E-01  0.0000000000E+00
                       7.5000000000E-01  2.5000000000E-01  5.0000000000E-01
                       0.0000000000E+00  0.0000000000E+00  0.0000000000E+00
                       3.5888225000E-01  3.5888225000E-01  4.8133050000E-01
                       8.7755175000E-01  8.7755175000E-01  5.1866950000E-01
                       6.4111775000E-01  1.2244825000E-01  0.0000000000E+00
                       1.2244825000E-01  6.4111775000E-01  0.0000000000E+00
            znucl       14.00000   28.00000   15.00000

- Timing analysis has been suppressed with timopt=0

 Suggested references for the acknowledgment of ABINIT usage.

 Calculation completed.
.Delivered  14 WARNINGs and   9 COMMENTs to log file.