.Version 9.5.2 of ABINIT

 ABINIT is a project of the Universite Catholique de Louvain,
 Corning Inc. and other collaborators, see ~abinit/doc/developers/contributors.txt .
 acknowledgments of the ABINIT effort.

.Starting date : Mon 31 May 2021.
- ( at 22h51 )

- input  file    -> /scratch/users/j/a/jabreu/flow_simple_11atoms/flow/w387/t1/run.abi
- output file    -> /scratch/users/j/a/jabreu/flow_simple_11atoms/flow/w387/t1/run.abo
- root for input  files -> /scratch/users/j/a/jabreu/flow_simple_11atoms/flow/w387/t1/indata/in
- root for output files -> /scratch/users/j/a/jabreu/flow_simple_11atoms/flow/w387/t1/outdata/out

 Symmetries : space group I4_1/a (# 88); Bravais tI (body-center tetrag.)
     intxc =       0      iscf =       7    lmnmax =      18     lnmax =       6
     mgfft =      72  mpssoang =       3    mqgrid =    3001     natom =      12
  nloc_mem =       1    nspden =       1   nspinor =       1    nsppol =       1
      nsym =       8    n1xccc =    2501    ntypat =       3    occopt =       1
   xclevel =       2
-    mband =          59        mffmem =           1         mkmem =           2
-   mkqmem =           2        mk1mem =           2           mpw =       11761
      nfft =      373248          nkpt =           2
  Rough estimation (10% accuracy) of disk space for files :

------------- Echo of variables that govern the present computation ------------
-
- outvars: echo of selected default values
-   iomode0 =  0 , fftalg0 =512 , wfoptalg0 =  0
-
- outvars: echo of global parameters not present in the input file
-  max_nthreads =    0
-
 -outvars: echo values of preprocessed input variables --------
            acell      1.0000000000E+00  1.0000000000E+00  1.0000000000E+00 Bohr
              amu      9.12240000E+01  7.26100000E+01  1.59994000E+01
             ecut      4.40000000E+01 Hartree
-          fftalg         512
           irdden           1
           irdwfk           1
           istwfk        1    0
              ixc     -116133
              kpt      0.00000000E+00  0.00000000E+00  0.00000000E+00
                      -2.41899047E-01  2.41899047E-01  3.64804263E-01
           kptopt           0
P           mkmem           2
P          mkqmem           2
P          mk1mem           2
            natom          12
            nband          59
           nbdbuf           4
            ngfft          72      72      72
             nkpt           2
            nstep        2000
             nsym           8
           ntypat           3
              occ      2.000000  2.000000  2.000000  2.000000  2.000000  2.000000
                       2.000000  2.000000  2.000000  2.000000  2.000000  2.000000
                       2.000000  2.000000  2.000000  2.000000  2.000000  2.000000
                       2.000000  2.000000  2.000000  2.000000  2.000000  2.000000
                       2.000000  2.000000  2.000000  2.000000  2.000000  2.000000
                       2.000000  2.000000  2.000000  2.000000  2.000000  2.000000
                       2.000000  2.000000  2.000000  2.000000  2.000000  2.000000
                       2.000000  2.000000  2.000000  2.000000  2.000000  2.000000
                       2.000000  2.000000  0.000000  0.000000  0.000000  0.000000
                       0.000000  0.000000  0.000000  0.000000  0.000000
        optdriver           1
            prtwf          -1
            rfdir           1       1       1
           rfelfd           2
            rprim      8.4763437694E+00  0.0000000000E+00 -8.3285892150E+00
                      -1.4907680952E+00  8.3442204060E+00 -8.3285892150E+00
                       0.0000000000E+00  0.0000000000E+00  1.1883341365E+01
          spgroup          88
           symrel      1  0  0   0  1  0   0  0  1      -1  0  0   0 -1  0   0  0 -1
                       0  1  0   1  0  0  -1 -1 -1       0 -1  0  -1  0  0   1  1  1
                       0  0  1  -1 -1 -1   0  1  0       0  0 -1   1  1  1   0 -1  0
                      -1 -1 -1   0  0  1   1  0  0       1  1  1   0  0 -1  -1  0  0
            tnons      0.0000000  0.0000000  0.0000000    -0.2500000  0.2500000  0.5000000
                       0.0000000  0.0000000  0.0000000    -0.2500000  0.2500000  0.5000000
                      -0.0000000 -0.0000000  0.0000000    -0.2500000  0.2500000  0.5000000
                      -0.0000000 -0.0000000  0.0000000    -0.2500000  0.2500000  0.5000000
           tolwfr      1.00000000E-20
            typat      1  1  2  2  3  3  3  3  3  3  3  3
           useylm           1
              wtk        0.50000    0.50000
           xangst      1.8483037178E+00  2.2077856312E+00 -4.4072995923E+00
                       5.2971160928E-01  3.3116784467E+00 -1.2631028860E+00
                       0.0000000000E+00  0.0000000000E+00  0.0000000000E+00
                       3.1668958264E+00  1.1038928156E+00 -1.2631028860E+00
                       3.7998407548E+00  1.5446242300E+00 -4.9626078406E+00
                       2.4127849349E+00  7.0059219876E-01 -2.8229133533E+00
                       4.7776782697E-02  2.2385312539E+00  3.2440715544E+00
                       5.0902468059E-01  3.6022848538E+00  9.7646644945E-01
                       1.8689906465E+00  1.9171792241E+00 -3.5847551525E-01
                       2.3302385444E+00  3.2809328240E+00 -2.6260806202E+00
                       7.5411089150E-01  4.0330061681E-01  1.5598104673E+00
                       3.0636625072E+00  3.9748398479E+00 -5.1150942300E+00
            xcart      3.4927878371E+00  4.1721102030E+00 -8.3285892150E+00
                       1.0010098709E+00  6.2581653045E+00 -2.3869185322E+00
                       0.0000000000E+00  0.0000000000E+00  0.0000000000E+00
                       5.9845658032E+00  2.0860551015E+00 -2.3869185322E+00
                       7.1806583752E+00  2.9189167729E+00 -9.3779697237E+00
                       4.5595027445E+00  1.3239273865E+00 -5.3345331346E+00
                       9.0285034808E-02  4.2302110097E+00  6.1304067933E+00
                       9.6191724120E-01  6.8073318263E+00  1.8452541674E+00
                       3.5318804669E+00  3.6229436812E+00 -6.7742054916E-01
                       4.4035126732E+00  6.2000644978E+00 -4.9625731750E+00
                       1.4250630588E+00  7.6212771500E-01  2.9476146024E+00
                       5.7894831023E+00  7.5113587346E+00 -9.6661272385E+00
             xred      5.0000000000E-01  5.0000000000E-01  0.0000000000E+00
                       2.5000000000E-01  7.5000000000E-01  5.0000000000E-01
                       0.0000000000E+00  0.0000000000E+00  0.0000000000E+00
                       7.5000000000E-01  2.5000000000E-01  5.0000000000E-01
                       9.0866400000E-01  3.4981300000E-01  9.2850000000E-02
                       5.6581400000E-01  1.5866400000E-01  5.8851000000E-02
                       9.9813000000E-02  5.0696300000E-01  9.4114900000E-01
                       2.5696300000E-01  8.1581400000E-01  9.0715000000E-01
                       4.9303700000E-01  4.3418600000E-01  5.9285000000E-01
                       6.5018700000E-01  7.4303700000E-01  5.5885100000E-01
                       1.8418600000E-01  9.1336000000E-02  4.4114900000E-01
                       8.4133600000E-01  9.0018700000E-01  4.0715000000E-01
            znucl       40.00000   32.00000    8.00000

 chkinp: Checking input parameters for consistency.

== DATASET  1 ==================================================================
-   mpi_nproc: 1, omp_nthreads: -1 (-1 if OMP is not activated)

--- !DatasetInfo
iteration_state: {dtset: 1, }
dimensions: {natom: 12, nkpt: 2, mband: 59, nsppol: 1, nspinor: 1, nspden: 1, mpw: 11761, }
cutoff_energies: {ecut:  44.0, pawecutdg:  -1.0, }
electrons: {nelect:   1.00000000E+02, charge:   0.00000000E+00, occopt:   1.00000000E+00, tsmear:   1.00000000E-02, }
meta: {optdriver: 1, rfelfd: 2, }
...

 Real(R)+Recip(G) space primitive vectors, cartesian coordinates (Bohr,Bohr^-1):
 R(1)=  8.4763438  0.0000000 -8.3285892  G(1)=  0.1179754  0.0210773  0.0000000
 R(2)= -1.4907681  8.3442204 -8.3285892  G(2)=  0.0000000  0.1198434  0.0000000
 R(3)=  0.0000000  0.0000000 11.8833414  G(3)=  0.0826845  0.0987661  0.0841514
 Unit cell volume ucvol=  8.4049068E+02 bohr^3
 Angles (23,13,12)=  1.34496249E+02  1.34496249E+02  6.63139298E+01 degrees

 getcut: wavevector=  0.0000  0.0000  0.0000  ngfft=  72  72  72
         ecut(hartree)=     44.000   => boxcut(ratio)=   2.02929

--- Pseudopotential description ------------------------------------------------
- pspini: atom type   1  psp file is /scratch/users/j/a/jabreu/pseudos/PBEsol/Zr.psp8
- pspatm: opening atomic psp file    /scratch/users/j/a/jabreu/pseudos/PBEsol/Zr.psp8
- Zr    ONCVPSP-3.3.0  r_core=   1.56507   1.56507   1.51006
- 40.00000  12.00000    180112                znucl, zion, pspdat
    8 -116133    2    4       600   0.00000   pspcod,pspxc,lmax,lloc,mmax,r2well
    5.99000000000000    5.00000000000000    0.00000000000000   rchrg,fchrg,qchrg
     nproj     2     2     2
     extension_switch     1
  pspatm : epsatm=   18.88750170
         --- l  ekb(1:nproj) -->
             0   10.584966    0.890424
             1    5.814585    0.741293
             2    1.525459    0.487901
 pspatm: atomic psp has been read  and splines computed

- pspini: atom type   2  psp file is /scratch/users/j/a/jabreu/pseudos/PBEsol/Ge.psp8
- pspatm: opening atomic psp file    /scratch/users/j/a/jabreu/pseudos/PBEsol/Ge.psp8
- Ge    ONCVPSP-3.3.0  r_core=   1.91022   1.82122   1.91022
- 32.00000  14.00000    180112                znucl, zion, pspdat
    8 -116133    2    4       600   0.00000   pspcod,pspxc,lmax,lloc,mmax,r2well
    5.99000000000000    5.00000000000000    0.00000000000000   rchrg,fchrg,qchrg
     nproj     2     2     2
     extension_switch     1
  pspatm : epsatm=   30.86751540
         --- l  ekb(1:nproj) -->
             0    6.339734    0.583066
             1    3.813259    0.738801
             2   -9.332373   -3.602819
 pspatm: atomic psp has been read  and splines computed

- pspini: atom type   3  psp file is /scratch/users/j/a/jabreu/pseudos/PBEsol/O.psp8
- pspatm: opening atomic psp file    /scratch/users/j/a/jabreu/pseudos/PBEsol/O.psp8
- O     ONCVPSP-3.3.0  r_core=   1.35509   1.45563   1.26150
-  8.00000   6.00000    180112                znucl, zion, pspdat
    8 -116133    2    4       600   0.00000   pspcod,pspxc,lmax,lloc,mmax,r2well
    5.99000000000000    4.00000000000000    0.00000000000000   rchrg,fchrg,qchrg
     nproj     2     2     1
     extension_switch     1
  pspatm : epsatm=    6.22910522
         --- l  ekb(1:nproj) -->
             0    6.050032    0.820363
             1   -4.739617   -1.153841
             2   -1.335834
 pspatm: atomic psp has been read  and splines computed

   1.49342876E+04                                ecore*ucvol(ha*bohr**3)

 ==>  initialize data related to q vector <==

 The list of irreducible perturbations for this q vector is:
    1)    idir= 1    ipert=  13
    2)    idir= 2    ipert=  13
    3)    idir= 3    ipert=  13

[...]
 ETOT 15  -138.75469195046      5.684E-14 1.529E-08 0.000E+00
 ETOT 16  -138.75469195046     -2.842E-14 3.985E-09 0.000E+00
 ETOT 17  -138.75469195046      2.842E-14 2.506E-09 0.000E+00
 ETOT 18  -138.75469195046      0.000E+00 6.589E-10 0.000E+00
 ETOT 19  -138.75469195046      2.842E-14 4.119E-10 0.000E+00
 ETOT 20  -138.75469195046     -2.842E-14 1.092E-10 0.000E+00
 ETOT 21  -138.75469195046      0.000E+00 6.785E-11 0.000E+00
 ETOT 22  -138.75469195046      2.842E-14 1.815E-11 0.000E+00
 ETOT 23  -138.75469195046      0.000E+00 1.120E-11 0.000E+00
 ETOT 24  -138.75469195046     -2.842E-14 3.022E-12 0.000E+00
 ETOT 25  -138.75469195046      2.842E-14 1.854E-12 0.000E+00
 ETOT 26  -138.75469195046     -2.842E-14 5.043E-13 0.000E+00
 ETOT 27  -138.75469195046     -2.842E-14 3.074E-13 0.000E+00
 ETOT 28  -138.75469195046      2.842E-14 8.430E-14 0.000E+00
 ETOT 29  -138.75469195046      0.000E+00 5.108E-14 0.000E+00
 ETOT 30  -138.75469195046      0.000E+00 1.412E-14 0.000E+00
 ETOT 31  -138.75469195046      2.842E-14 8.507E-15 0.000E+00
 ETOT 32  -138.75469195046      5.684E-14 2.369E-15 0.000E+00
 ETOT 33  -138.75469195046     -2.842E-14 1.420E-15 0.000E+00
 ETOT 34  -138.75469195046     -2.842E-14 3.981E-16 0.000E+00
 ETOT 35  -138.75469195046      0.000E+00 2.373E-16 0.000E+00
 ETOT 36  -138.75469195046      2.842E-14 6.701E-17 0.000E+00
 ETOT 37  -138.75469195046      0.000E+00 3.974E-17 0.000E+00
 ETOT 38  -138.75469195046     -2.842E-14 1.129E-17 0.000E+00
 ETOT 39  -138.75469195046      5.684E-14 6.666E-18 0.000E+00
 ETOT 40  -138.75469195046      0.000E+00 1.906E-18 0.000E+00
 ETOT 41  -138.75469195046      0.000E+00 1.120E-18 0.000E+00
 ETOT 42  -138.75469195046     -2.842E-14 3.221E-19 0.000E+00
 ETOT 43  -138.75469195046     -5.684E-14 1.884E-19 0.000E+00
 ETOT 44  -138.75469195046      5.684E-14 5.449E-20 0.000E+00
 ETOT 45  -138.75469195046     -8.527E-14 3.173E-20 0.000E+00
 ETOT 46  -138.75469195046      2.842E-14 9.993E-21 0.000E+00

 At SCF step   46   max residual=  9.99E-21 < tolwfr=  1.00E-20 =>converged.

 ----iterations are completed or convergence reached----

 dfpt_looppert: DFPT cycle converged with prtwf=-1. Will skip output of the 1st-order WFK file.
 dfpt_looppert : ek2=    1.8691400094E+02
          f-sum rule ratio=    1.0253335513E+00
 prteigrs : about to open file /scratch/users/j/a/jabreu/flow_simple_11atoms/flow/w387/t1/tmpdata/tmp_1WF1_EIG
 Expectation of eigenvalue derivatives (hartree) for nkpt=   2  k points:
  (in case of degenerate eigenvalues, averaged derivative)
 kpt#   1, nband= 59, wtk=  0.50000, kpt=  0.0000  0.0000  0.0000 (reduced coord)
   0.00000   -0.00000   -0.00000    0.00000    0.00000   -0.00000   -0.00000   -0.00000
   0.00000    0.00000   -0.00000   -0.00000   -0.00000   -0.00000   -0.00000   -0.00000
   0.00000    0.00000   -0.00000    0.00000    0.00000    0.00000   -0.00000   -0.00000
  -0.00000   -0.00000   -0.00000   -0.00000    0.00000   -0.00000   -0.00000    0.00000
   0.00000    0.00000   -0.00000   -0.00000    0.00000    0.00000   -0.00000    0.00000
  -0.00000   -0.00000   -0.00000   -0.00000    0.00000    0.00000    0.00000    0.00000
   0.00000    0.00000    0.00000   -0.00000   -0.00000   -0.00000    0.00000    0.00000
   0.00000    0.00000   -0.00001
 prteigrs : prtvol=0 or 1, do not print more k-points.

 Eight components of 2nd-order total energy (hartree) are
 1,2,3: 0th-order hamiltonian combined with 1st-order wavefunctions
     kin0=   1.93761800E+02 eigvalue=   2.20835065E+00  local=  -7.95984004E+01
 4,5,6: 1st-order hamiltonian combined with 1st and 0th-order wfs
     kin1=  -1.91649196E+02  Hartree=   0.00000000E+00     xc=   0.00000000E+00
 7,8,9: eventually, occupation + non-local contributions
    edocc=   1.95564466E+01     enl0=   2.82649488E+00   enl1=  -8.58601875E+01
 1-9 gives the relaxation energy (to be shifted if some occ is /=2.0)
   erelax=  -1.38754692E+02
  No Ewald or frozen-wf contrib.: the relaxation energy is the total one
 2DEtotal=   -0.1387546920E+03 Ha. Also 2DEtotal=   -0.377570718504E+04 eV
    (  non-var. 2DEtotal :   -1.3875469195E+02 Ha)

 CALCULATION OF EFFECTIVE MASSES
 NOTE : Additional infos (eff. mass eigenvalues, eigenvectors and, if degenerate, average mass) are available in stdout.

 COMMENTS:
 - At k-point ( 0.000, 0.000, 0.000), bands    49 through    50
   are DEGENERATE (effective mass tensor is therefore not defined).
   See Section IIIB Eqs. (67)-(70) and Appendix E of PRB 93 205147 (2016).
 - Angular average effective mass for Frohlich model is to be averaged over degenerate bands. See later.
 - Associated theta integrals calculated with ntheta=   1000 points.

 K-point ( 0.000, 0.000, 0.000) | band =    49
 Transport equivalent effective mass tensor:
            -22.2645262509            -25.7907141048             51.4859543959
            -25.7907141048            -31.4798590257             61.4994504406
             51.4859543959             61.4994504406           -123.4443843925
 Transport equivalent effective mass tensor eigenvalues:
           -175.8425266639             -0.6731267255             -0.6731162798
 Angular average effective mass 1/(<1/m>)=  -0.9025404943
 Angular average effective mass for Frohlich model (<m**0.5>)**2=  -1.3939936365
 Effective masses along directions: (cart. coord. / red. coord. -> eff. mass)
    1:   1.000000  0.000000  0.000000 /   0.984884 -0.173215  0.000000 ->  -0.6069129623
    2:   0.000000  1.000000  0.000000 /   0.000000  1.000000  0.000000 ->  -0.6243266972
    3:   0.000000  0.000000  1.000000 /  -0.497778 -0.497778  0.710236 ->  -2.5915723815
    4:   0.577350  0.577350  0.577350 /   0.012338 -0.123180  0.992308 ->  -0.7558712413
    5:   0.000000  0.707107  0.707107 /  -0.573936  0.001077  0.818899 ->  -0.6139129315
    6:   0.707107  0.000000  0.707107 /   0.009584 -0.636956  0.770841 ->  -0.5942204334
    7:   0.707107  0.707107  0.000000 /   0.777619  0.628735  0.000000 ->  -1.0421045446

 K-point ( 0.000, 0.000, 0.000) | band =    50
 Transport equivalent effective mass tensor:
           -105.9730991288           -117.8160571358            235.1882077686
           -117.8160571358           -148.0711479750            280.9309647090
            235.1882077686            280.9309647090           -568.1440253563
 Transport equivalent effective mass tensor eigenvalues:
           -807.5071986272             -7.3405532394             -7.3405205934
 Angular average effective mass 1/(<1/m>)=  -3.3984173979
 Angular average effective mass for Frohlich model (<m**0.5>)**2=  -5.9601498631
 Effective masses along directions: (cart. coord. / red. coord. -> eff. mass)
    1:   1.000000  0.000000  0.000000 /   0.984884 -0.173215  0.000000 ->  -5.2051068347
    2:   0.000000  1.000000  0.000000 /   0.000000  1.000000  0.000000 ->  -7.7826107238
    3:   0.000000  0.000000  1.000000 /  -0.497778 -0.497778  0.710236 ->  -3.9867725311
    4:   0.577350  0.577350  0.577350 /   0.012338 -0.123180  0.992308 ->  -1.2978825527
    5:   0.000000  0.707107  0.707107 /  -0.573936  0.001077  0.818899 ->  -3.4982250524
    6:   0.707107  0.000000  0.707107 /   0.009584 -0.636956  0.770841 ->  -5.9667121528
    7:   0.707107  0.707107  0.000000 /   0.777619  0.628735  0.000000 ->  -1.9278008456

 Angular average effective mass for Frohlich model, averaged over degenerate bands.
 Value of     (<<m**0.5>>)**2 =     3.279752E+00
 Absolute Value of <<m**0.5>> =     1.811008E+00

 K-point (-0.242, 0.242, 0.365) | band =    51
 Effective mass tensor:
              1.1782707414              0.1941245136             -0.4313067095
              0.1941245136              0.9035195216             -0.6875702271
             -0.4313067095             -0.6875702271              1.9132911147
 Effective mass tensor eigenvalues:
              0.5544235822              1.0020569932              2.4386008022
 Angular average effective mass 1/(<1/m>)=   0.9340866348
 Angular average effective mass for Frohlich model (<m**0.5>)**2=   1.0290662833
 Effective masses along directions: (cart. coord. / red. coord. -> eff. mass)
    1:   1.000000  0.000000  0.000000 /   0.984884 -0.173215  0.000000 ->   1.0787104384
    2:   0.000000  1.000000  0.000000 /   0.000000  1.000000  0.000000 ->   0.6550144975
    3:   0.000000  0.000000  1.000000 /  -0.497778 -0.497778  0.710236 ->   1.3193013787
    4:   0.577350  0.577350  0.577350 /   0.012338 -0.123180  0.992308 ->   0.6590829081
    5:   0.000000  0.707107  0.707107 /  -0.573936  0.001077  0.818899 ->   0.5957662010
    6:   0.707107  0.000000  0.707107 /   0.009584 -0.636956  0.770841 ->   0.9693444323
    7:   0.707107  0.707107  0.000000 /   0.777619  0.628735  0.000000 ->   0.8535331819

 END OF EFFECTIVE MASSES SECTION

 ---- first-order wavefunction calculations are completed ----

 Total localisation tensor (bohr^2) in cartesian coordinates
  WARNING : still subject to testing - especially symmetries.
      direction              matrix element
   alpha     beta       real part   imaginary part
     1        1       0.7208169563    0.0000000000
     1        2      -0.1224994322    0.0000000000
     1        3      -0.5644780513    0.0000000000
     2        1      -0.1224994322    0.0000000000
     2        2       0.6856614822    0.0000000000
     2        3      -0.6843770356    0.0000000000
     3        1      -0.5644780513    0.0000000000
     3        2      -0.6843770356    0.0000000000
     3        3       3.6532160293    0.0000000000

 respfn : d/dk was computed, but no 2DTE, so no DDB output.

== END DATASET(S) ==============================================================

 -outvars: echo values of variables after computation  --------
            acell      1.0000000000E+00  1.0000000000E+00  1.0000000000E+00 Bohr
              amu      9.12240000E+01  7.26100000E+01  1.59994000E+01
             ecut      4.40000000E+01 Hartree
           etotal     -1.3875469195E+02
            fcart      0.0000000000E+00  0.0000000000E+00  0.0000000000E+00
                       0.0000000000E+00  0.0000000000E+00  0.0000000000E+00
                       0.0000000000E+00  0.0000000000E+00  0.0000000000E+00
                       0.0000000000E+00  0.0000000000E+00  0.0000000000E+00
                       0.0000000000E+00  0.0000000000E+00  0.0000000000E+00
                       0.0000000000E+00  0.0000000000E+00  0.0000000000E+00
                       0.0000000000E+00  0.0000000000E+00  0.0000000000E+00
                       0.0000000000E+00  0.0000000000E+00  0.0000000000E+00
                       0.0000000000E+00  0.0000000000E+00  0.0000000000E+00
                       0.0000000000E+00  0.0000000000E+00  0.0000000000E+00
                       0.0000000000E+00  0.0000000000E+00  0.0000000000E+00
                       0.0000000000E+00  0.0000000000E+00  0.0000000000E+00
-          fftalg         512
           irdden           1
           irdwfk           1
           istwfk        1    0
              ixc     -116133
              kpt      0.00000000E+00  0.00000000E+00  0.00000000E+00
                      -2.41899047E-01  2.41899047E-01  3.64804263E-01
           kptopt           0
P           mkmem           2
P          mkqmem           2
P          mk1mem           2
            natom          12
            nband          59
           nbdbuf           4
            ngfft          72      72      72
             nkpt           2
            nstep        2000
             nsym           8
           ntypat           3
              occ      2.000000  2.000000  2.000000  2.000000  2.000000  2.000000
                       2.000000  2.000000  2.000000  2.000000  2.000000  2.000000
                       2.000000  2.000000  2.000000  2.000000  2.000000  2.000000
                       2.000000  2.000000  2.000000  2.000000  2.000000  2.000000
                       2.000000  2.000000  2.000000  2.000000  2.000000  2.000000
                       2.000000  2.000000  2.000000  2.000000  2.000000  2.000000
                       2.000000  2.000000  2.000000  2.000000  2.000000  2.000000
                       2.000000  2.000000  2.000000  2.000000  2.000000  2.000000
                       2.000000  2.000000  0.000000  0.000000  0.000000  0.000000
                       0.000000  0.000000  0.000000  0.000000  0.000000
        optdriver           1
            prtwf          -1
            rfdir           1       1       1
           rfelfd           2
            rprim      8.4763437694E+00  0.0000000000E+00 -8.3285892150E+00
                      -1.4907680952E+00  8.3442204060E+00 -8.3285892150E+00
                       0.0000000000E+00  0.0000000000E+00  1.1883341365E+01
          spgroup          88
           strten      0.0000000000E+00  0.0000000000E+00  0.0000000000E+00
                       0.0000000000E+00  0.0000000000E+00  0.0000000000E+00
           symrel      1  0  0   0  1  0   0  0  1      -1  0  0   0 -1  0   0  0 -1
                       0  1  0   1  0  0  -1 -1 -1       0 -1  0  -1  0  0   1  1  1
                       0  0  1  -1 -1 -1   0  1  0       0  0 -1   1  1  1   0 -1  0
                      -1 -1 -1   0  0  1   1  0  0       1  1  1   0  0 -1  -1  0  0
            tnons      0.0000000  0.0000000  0.0000000    -0.2500000  0.2500000  0.5000000
                       0.0000000  0.0000000  0.0000000    -0.2500000  0.2500000  0.5000000
                      -0.0000000 -0.0000000  0.0000000    -0.2500000  0.2500000  0.5000000
                      -0.0000000 -0.0000000  0.0000000    -0.2500000  0.2500000  0.5000000
           tolwfr      1.00000000E-20
            typat      1  1  2  2  3  3  3  3  3  3  3  3
           useylm           1
              wtk        0.50000    0.50000
           xangst      1.8483037178E+00  2.2077856312E+00 -4.4072995923E+00
                       5.2971160928E-01  3.3116784467E+00 -1.2631028860E+00
                       0.0000000000E+00  0.0000000000E+00  0.0000000000E+00
                       3.1668958264E+00  1.1038928156E+00 -1.2631028860E+00
                       3.7998407548E+00  1.5446242300E+00 -4.9626078406E+00
                       2.4127849349E+00  7.0059219876E-01 -2.8229133533E+00
                       4.7776782697E-02  2.2385312539E+00  3.2440715544E+00
                       5.0902468059E-01  3.6022848538E+00  9.7646644945E-01
                       1.8689906465E+00  1.9171792241E+00 -3.5847551525E-01
                       2.3302385444E+00  3.2809328240E+00 -2.6260806202E+00
                       7.5411089150E-01  4.0330061681E-01  1.5598104673E+00
                       3.0636625072E+00  3.9748398479E+00 -5.1150942300E+00
            xcart      3.4927878371E+00  4.1721102030E+00 -8.3285892150E+00
                       1.0010098709E+00  6.2581653045E+00 -2.3869185322E+00
                       0.0000000000E+00  0.0000000000E+00  0.0000000000E+00
                       5.9845658032E+00  2.0860551015E+00 -2.3869185322E+00
                       7.1806583752E+00  2.9189167729E+00 -9.3779697237E+00
                       4.5595027445E+00  1.3239273865E+00 -5.3345331346E+00
                       9.0285034808E-02  4.2302110097E+00  6.1304067933E+00
                       9.6191724120E-01  6.8073318263E+00  1.8452541674E+00
                       3.5318804669E+00  3.6229436812E+00 -6.7742054916E-01
                       4.4035126732E+00  6.2000644978E+00 -4.9625731750E+00
                       1.4250630588E+00  7.6212771500E-01  2.9476146024E+00
                       5.7894831023E+00  7.5113587346E+00 -9.6661272385E+00
             xred      5.0000000000E-01  5.0000000000E-01  0.0000000000E+00
                       2.5000000000E-01  7.5000000000E-01  5.0000000000E-01
                       0.0000000000E+00  0.0000000000E+00  0.0000000000E+00
                       7.5000000000E-01  2.5000000000E-01  5.0000000000E-01
                       9.0866400000E-01  3.4981300000E-01  9.2850000000E-02
                       5.6581400000E-01  1.5866400000E-01  5.8851000000E-02
                       9.9813000000E-02  5.0696300000E-01  9.4114900000E-01
                       2.5696300000E-01  8.1581400000E-01  9.0715000000E-01
                       4.9303700000E-01  4.3418600000E-01  5.9285000000E-01
                       6.5018700000E-01  7.4303700000E-01  5.5885100000E-01
                       1.8418600000E-01  9.1336000000E-02  4.4114900000E-01
                       8.4133600000E-01  9.0018700000E-01  4.0715000000E-01
            znucl       40.00000   32.00000    8.00000

- Timing analysis has been suppressed with timopt=0

 Suggested references for the acknowledgment of ABINIT usage.

 Calculation completed.
.Delivered   2 WARNINGs and   5 COMMENTs to log file.