.Version 9.5.1 of ABINIT

 ABINIT is a project of the Universite Catholique de Louvain,
 Corning Inc. and other collaborators, see ~abinit/doc/developers/contributors.txt .
 acknowledgments of the ABINIT effort.

.Starting date : Wed 19 May 2021.
- ( at 12h05 )

- input  file    -> /scratch/users/j/a/jabreu/flow_simple_9atoms/flow/w145/t1/run.abi
- output file    -> /scratch/users/j/a/jabreu/flow_simple_9atoms/flow/w145/t1/run.abo
- root for input  files -> /scratch/users/j/a/jabreu/flow_simple_9atoms/flow/w145/t1/indata/in
- root for output files -> /scratch/users/j/a/jabreu/flow_simple_9atoms/flow/w145/t1/outdata/out

 Symmetries : space group P4/m m m (#123); Bravais tP (primitive tetrag.)
     intxc =       0      iscf =       7    lmnmax =      32     lnmax =       8
     mgfft =     108  mpssoang =       4    mqgrid =    5055     natom =       9
  nloc_mem =       1    nspden =       1   nspinor =       1    nsppol =       1
      nsym =      16    n1xccc =    2501    ntypat =       3    occopt =       1
   xclevel =       2
-    mband =          45        mffmem =           1         mkmem =           1
-   mkqmem =           1        mk1mem =           1           mpw =       13560
      nfft =      248832          nkpt =           1
  Rough estimation (10% accuracy) of disk space for files :

------------- Echo of variables that govern the present computation ------------
-
- outvars: echo of selected default values
-   iomode0 =  0 , fftalg0 =512 , wfoptalg0 =  0
-
- outvars: echo of global parameters not present in the input file
-  max_nthreads =    0
-
 -outvars: echo values of preprocessed input variables --------
            acell      1.0000000000E+00  1.0000000000E+00  1.0000000000E+00 Bohr
              amu      8.54678000E+01  1.78490000E+02  1.59994000E+01
             ecut      4.40000000E+01 Hartree
-          fftalg         512
           irdden           1
           irdwfk           1
           istwfk        1
              ixc     -116133
              kpt      5.00000000E-01  5.00000000E-01  0.00000000E+00
           kptopt           0
P           mkmem           1
P          mkqmem           1
P          mk1mem           1
            natom           9
            nband          45
           nbdbuf           4
            ngfft          48      48     108
             nkpt           1
            nstep        2000
             nsym          16
           ntypat           3
              occ      2.000000  2.000000  2.000000  2.000000  2.000000  2.000000
                       2.000000  2.000000  2.000000  2.000000  2.000000  2.000000
                       2.000000  2.000000  2.000000  2.000000  2.000000  2.000000
                       2.000000  2.000000  2.000000  2.000000  2.000000  2.000000
                       2.000000  2.000000  2.000000  2.000000  2.000000  2.000000
                       2.000000  2.000000  2.000000  2.000000  2.000000  2.000000
                       0.000000  0.000000  0.000000  0.000000  0.000000  0.000000
                       0.000000  0.000000  0.000000
        optdriver           1
            prtwf          -1
            rfdir           1       1       1
           rfelfd           2
            rprim      7.5981402962E+00  0.0000000000E+00  0.0000000000E+00
                       0.0000000000E+00  7.5981402962E+00  0.0000000000E+00
                       0.0000000000E+00  0.0000000000E+00  1.6926544124E+01
          spgroup         123
           symrel      1  0  0   0  1  0   0  0  1      -1  0  0   0 -1  0   0  0 -1
                      -1  0  0   0  1  0   0  0 -1       1  0  0   0 -1  0   0  0  1
                      -1  0  0   0 -1  0   0  0  1       1  0  0   0  1  0   0  0 -1
                       1  0  0   0 -1  0   0  0 -1      -1  0  0   0  1  0   0  0  1
                       0  1  0   1  0  0   0  0  1       0 -1  0  -1  0  0   0  0 -1
                       0 -1  0   1  0  0   0  0 -1       0  1  0  -1  0  0   0  0  1
                       0 -1  0  -1  0  0   0  0  1       0  1  0   1  0  0   0  0 -1
                       0  1  0  -1  0  0   0  0 -1       0 -1  0   1  0  0   0  0  1
           tolwfr      1.00000000E-20
            typat      1  1  2  2  3  3  3  3  3
           useylm           1
           xangst      0.0000000000E+00  0.0000000000E+00  0.0000000000E+00
                       0.0000000000E+00  0.0000000000E+00  4.4785706854E+00
                       2.0103813362E+00  2.0103813362E+00  2.4990872282E+00
                       2.0103813362E+00  2.0103813362E+00  6.4580541427E+00
                       2.0103813362E+00  0.0000000000E+00  2.0972877806E+00
                       2.0103813362E+00  0.0000000000E+00  6.8598535903E+00
                       2.0103813362E+00  2.0103813362E+00  4.4785706854E+00
                       0.0000000000E+00  2.0103813362E+00  2.0972877806E+00
                       0.0000000000E+00  2.0103813362E+00  6.8598535903E+00
            xcart      0.0000000000E+00  0.0000000000E+00  0.0000000000E+00
                       0.0000000000E+00  0.0000000000E+00  8.4632720622E+00
                       3.7990701481E+00  3.7990701481E+00  4.7225904434E+00
                       3.7990701481E+00  3.7990701481E+00  1.2203953681E+01
                       3.7990701481E+00  0.0000000000E+00  3.9632995271E+00
                       3.7990701481E+00  0.0000000000E+00  1.2963244597E+01
                       3.7990701481E+00  3.7990701481E+00  8.4632720622E+00
                       0.0000000000E+00  3.7990701481E+00  3.9632995271E+00
                       0.0000000000E+00  3.7990701481E+00  1.2963244597E+01
             xred      0.0000000000E+00  0.0000000000E+00  0.0000000000E+00
                       0.0000000000E+00  0.0000000000E+00  5.0000000000E-01
                       5.0000000000E-01  5.0000000000E-01  2.7900500000E-01
                       5.0000000000E-01  5.0000000000E-01  7.2099500000E-01
                       5.0000000000E-01  0.0000000000E+00  2.3414700000E-01
                       5.0000000000E-01  0.0000000000E+00  7.6585300000E-01
                       5.0000000000E-01  5.0000000000E-01  5.0000000000E-01
                       0.0000000000E+00  5.0000000000E-01  2.3414700000E-01
                       0.0000000000E+00  5.0000000000E-01  7.6585300000E-01
            znucl       37.00000   72.00000    8.00000

 chkinp: Checking input parameters for consistency.

== DATASET  1 ==================================================================
-   mpi_nproc: 1, omp_nthreads: -1 (-1 if OMP is not activated)

--- !DatasetInfo
iteration_state: {dtset: 1, }
dimensions: {natom: 9, nkpt: 1, mband: 45, nsppol: 1, nspinor: 1, nspden: 1, mpw: 13560, }
cutoff_energies: {ecut:  44.0, pawecutdg:  -1.0, }
electrons: {nelect:   7.20000000E+01, charge:   0.00000000E+00, occopt:   1.00000000E+00, tsmear:   1.00000000E-02, }
meta: {optdriver: 1, rfelfd: 2, }
...

 Real(R)+Recip(G) space primitive vectors, cartesian coordinates (Bohr,Bohr^-1):
 R(1)=  7.5981403  0.0000000  0.0000000  G(1)=  0.1316112  0.0000000  0.0000000
 R(2)=  0.0000000  7.5981403  0.0000000  G(2)=  0.0000000  0.1316112  0.0000000
 R(3)=  0.0000000  0.0000000 16.9265441  G(3)=  0.0000000  0.0000000  0.0590788
 Unit cell volume ucvol=  9.7719878E+02 bohr^3
 Angles (23,13,12)=  9.00000000E+01  9.00000000E+01  9.00000000E+01 degrees

 getcut: wavevector=  0.0000  0.0000  0.0000  ngfft=  48  48 108
         ecut(hartree)=     44.000   => boxcut(ratio)=   2.11564

--- Pseudopotential description ------------------------------------------------
- pspini: atom type   1  psp file is /scratch/users/j/a/jabreu/pseudos/PBEsol/Rb.psp8
- pspatm: opening atomic psp file    /scratch/users/j/a/jabreu/pseudos/PBEsol/Rb.psp8
- Rb    ONCVPSP-3.3.0  r_core=   1.71227   1.75361   1.90633
- 37.00000   9.00000    180112                znucl, zion, pspdat
    8 -116133    2    4       600   0.00000   pspcod,pspxc,lmax,lloc,mmax,r2well
    5.99000000000000    7.00000000000000    0.00000000000000   rchrg,fchrg,qchrg
     nproj     2     2     2
     extension_switch     1
  pspatm : epsatm=   34.48400912
         --- l  ekb(1:nproj) -->
             0    8.196957   -0.477221
             1    3.231347   -0.378736
             2   -1.047201    0.996637
 pspatm: atomic psp has been read  and splines computed

- pspini: atom type   2  psp file is /scratch/users/j/a/jabreu/pseudos/PBEsol/Hf.psp8
- pspatm: opening atomic psp file    /scratch/users/j/a/jabreu/pseudos/PBEsol/Hf.psp8
- Hf    ONCVPSP-3.3.0  r_core=   1.71613   1.71613   1.71613   2.42541
- 72.00000  12.00000    180112                znucl, zion, pspdat
    8 -116133    3    4       600   0.00000   pspcod,pspxc,lmax,lloc,mmax,r2well
    5.99000000000000    5.40000000000000    0.00000000000000   rchrg,fchrg,qchrg
     nproj     2     2     2     2
     extension_switch     1
  pspatm : epsatm=   21.99082902
         --- l  ekb(1:nproj) -->
             0    5.882750   -0.519107
             1    2.555685   -1.768609
             2    1.383259    0.138001
             3    9.464546    0.347497
 pspatm: atomic psp has been read  and splines computed

- pspini: atom type   3  psp file is /scratch/users/j/a/jabreu/pseudos/PBEsol/O.psp8
- pspatm: opening atomic psp file    /scratch/users/j/a/jabreu/pseudos/PBEsol/O.psp8
- O     ONCVPSP-3.3.0  r_core=   1.35509   1.45563   1.26150
-  8.00000   6.00000    180112                znucl, zion, pspdat
    8 -116133    2    4       600   0.00000   pspcod,pspxc,lmax,lloc,mmax,r2well
    5.99000000000000    4.00000000000000    0.00000000000000   rchrg,fchrg,qchrg
     nproj     2     2     1
     extension_switch     1
  pspatm : epsatm=    6.22910522
         --- l  ekb(1:nproj) -->
             0    6.050032    0.820363
             1   -4.739617   -1.153841
             2   -1.335834
 pspatm: atomic psp has been read  and splines computed

   1.03748546E+04                                ecore*ucvol(ha*bohr**3)

-inwffil : will read wavefunctions from disk file /scratch/users/j/a/jabreu/flow_simple_9atoms/flow/w145/t1/indata/in_WFK

 ==>  initialize data related to q vector <==

 The list of irreducible perturbations for this q vector is:
    1)    idir= 1    ipert=  10
    2)    idir= 2    ipert=  10
    3)    idir= 3    ipert=  10

 Perturbation wavevector (in red.coord.)   0.000000  0.000000  0.000000
 Perturbation : derivative vs k along direction   1

 dfpt_looppert : COMMENT -
  In a d/dk calculation, iscf is set to -3 automatically.
 The set of symmetries contains only one element for this perturbation.
 symkpt : not enough symmetry to change the number of k points.

[...]

 Initialisation of the first-order wave-functions :
  ireadwf=   0

--- !BeginCycle
iteration_state: {dtset: 1, }
solver: {iscf: 7, nstep: 2000, nline: 4, wfoptalg: 0, }
tolerances: {tolwfr: 1.00E-20, }
...

     iter   2DEtotal(Ha)        deltaE(Ha) residm    vres2
-ETOT  1  -46.980545385258     -4.698E+01 6.359E-02 0.000E+00
 ETOT  2  -47.021021848394     -4.048E-02 2.102E-02 0.000E+00
 ETOT  3  -47.021194506846     -1.727E-04 6.890E-04 0.000E+00
 ETOT  4  -47.021195943809     -1.437E-06 2.179E-04 0.000E+00
[...]
 ETOT 20  -47.021195959544      1.421E-14 4.185E-17 0.000E+00
 ETOT 21  -47.021195959544     -1.421E-14 3.939E-18 0.000E+00
 ETOT 22  -47.021195959544      7.105E-15 1.135E-18 0.000E+00
 ETOT 23  -47.021195959544     -1.421E-14 1.084E-19 0.000E+00
 ETOT 24  -47.021195959544     -7.105E-15 3.103E-20 0.000E+00
 ETOT 25  -47.021195959544      0.000E+00 9.987E-21 0.000E+00

 At SCF step   25   max residual=  9.99E-21 < tolwfr=  1.00E-20 =>converged.

 ----iterations are completed or convergence reached----

 dfpt_looppert: DFPT cycle converged with prtwf=-1. Will skip output of the 1st-order WFK file.
 dfpt_looppert : ek2=    9.8470833077E+01
          f-sum rule ratio=    9.1337438413E-01
 prteigrs : about to open file /scratch/users/j/a/jabreu/flow_simple_9atoms/flow/w145/t1/tmpdata/tmp_1WF1_EIG
 Expectation of eigenvalue derivatives (hartree) for nkpt=   1  k points:
  (in case of degenerate eigenvalues, averaged derivative)
 kpt#   1, nband= 45, wtk=  1.00000, kpt=  0.5000  0.5000  0.0000 (reduced coord)
   0.00000   -0.00000    0.00000   -0.00000    0.00000    0.00000    0.00000    0.00000
  -0.00000    0.00000   -0.00000    0.00000    0.00000   -0.00000   -0.00000    0.00000
   0.00000   -0.00000   -0.00000   -0.00000   -0.00000    0.00000   -0.00000    0.00000
  -0.00000    0.00000   -0.00000    0.00000    0.00000    0.00000    0.00000    0.00000
   0.00000    0.00000   -0.00000   -0.00000   -0.00000    0.00000    0.00000    0.00000
   0.00000    0.00000    0.00000   -0.00000    0.00000

 Eight components of 2nd-order total energy (hartree) are
 1,2,3: 0th-order hamiltonian combined with 1st-order wavefunctions
     kin0=   6.85960238E+01 eigvalue=   2.63445816E+00  local=  -3.18124051E+01
 4,5,6: 1st-order hamiltonian combined with 1st and 0th-order wfs
     kin1=  -8.99407365E+01  Hartree=   0.00000000E+00     xc=   0.00000000E+00
 7,8,9: eventually, occupation + non-local contributions
    edocc=   9.03221300E+00     enl0=  -1.42909393E+00   enl1=  -4.10165540E+00
 1-9 gives the relaxation energy (to be shifted if some occ is /=2.0)
   erelax=  -4.70211960E+01
  No Ewald or frozen-wf contrib.: the relaxation energy is the total one
 2DEtotal=   -0.4702119596E+02 Ha. Also 2DEtotal=   -0.127951181281E+04 eV
    (  non-var. 2DEtotal :   -4.7021195959E+01 Ha)

 Perturbation wavevector (in red.coord.)   0.000000  0.000000  0.000000
 Perturbation : derivative vs k along direction   2
 The set of symmetries contains only one element for this perturbation.
 symkpt : not enough symmetry to change the number of k points.

[...]

 Perturbation wavevector (in red.coord.)   0.000000  0.000000  0.000000
 Perturbation : derivative vs k along direction   3
 The set of symmetries contains only one element for this perturbation.
 symkpt : not enough symmetry to change the number of k points.

-inwffil : will read wavefunctions from disk file /scratch/users/j/a/jabreu/flow_simple_9atoms/flow/w145/t1/indata/in_WFK

 Initialisation of the first-order wave-functions :
  ireadwf=   0

--- !BeginCycle
iteration_state: {dtset: 1, }
solver: {iscf: 7, nstep: 2000, nline: 4, wfoptalg: 0, }
tolerances: {tolwfr: 1.00E-20, }
...

     iter   2DEtotal(Ha)        deltaE(Ha) residm    vres2
-ETOT  1  -10.421408588961     -1.042E+01 2.044E-01 0.000E+00
 ETOT  2  -10.426655449709     -5.247E-03 1.310E-02 0.000E+00
 ETOT  3  -10.426664596746     -9.147E-06 4.349E-04 0.000E+00
 ETOT  4  -10.426664620871     -2.413E-08 1.813E-04 0.000E+00
 ETOT  5  -10.426664620952     -8.075E-11 7.893E-06 0.000E+00
 ETOT  6  -10.426664620952     -5.205E-13 9.408E-06 0.000E+00
 ETOT  7  -10.426664620952     -2.487E-14 1.201E-06 0.000E+00
 ETOT  8  -10.426664620952      1.776E-14 6.145E-07 0.000E+00
 ETOT  9  -10.426664620952     -1.599E-14 9.007E-08 0.000E+00
 ETOT 10  -10.426664620952     -1.776E-15 4.535E-08 0.000E+00
 ETOT 11  -10.426664620952      3.553E-15 6.858E-09 0.000E+00
 ETOT 12  -10.426664620952     -1.776E-15 3.639E-09 0.000E+00
 ETOT 13  -10.426664620952      1.776E-15 5.578E-10 0.000E+00
 ETOT 14  -10.426664620952      0.000E+00 3.154E-10 0.000E+00
 ETOT 15  -10.426664620952      0.000E+00 4.795E-11 0.000E+00
 ETOT 16  -10.426664620952      1.776E-15 2.844E-11 0.000E+00
 ETOT 17  -10.426664620952     -3.553E-15 4.223E-12 0.000E+00
 ETOT 18  -10.426664620952      1.776E-15 2.619E-12 0.000E+00
 ETOT 19  -10.426664620952     -1.776E-15 3.777E-13 0.000E+00
 ETOT 20  -10.426664620952     -1.776E-15 2.448E-13 0.000E+00
 ETOT 21  -10.426664620952      3.553E-15 3.431E-14 0.000E+00
 ETOT 22  -10.426664620952      1.776E-15 2.312E-14 0.000E+00
 ETOT 23  -10.426664620952     -3.553E-15 3.166E-15 0.000E+00
 ETOT 24  -10.426664620952      0.000E+00 2.201E-15 0.000E+00
 ETOT 25  -10.426664620952      0.000E+00 2.961E-16 0.000E+00
 ETOT 26  -10.426664620952      3.553E-15 2.106E-16 0.000E+00
 ETOT 27  -10.426664620952      1.776E-15 2.800E-17 0.000E+00
 ETOT 28  -10.426664620952     -1.776E-15 2.021E-17 0.000E+00
 ETOT 29  -10.426664620952     -3.553E-15 2.669E-18 0.000E+00
 ETOT 30  -10.426664620952      0.000E+00 1.944E-18 0.000E+00
 ETOT 31  -10.426664620952      0.000E+00 2.557E-19 0.000E+00
 ETOT 32  -10.426664620952      0.000E+00 1.873E-19 0.000E+00
 ETOT 33  -10.426664620952      0.000E+00 2.459E-20 0.000E+00
 ETOT 34  -10.426664620952      0.000E+00 1.806E-20 0.000E+00
 ETOT 35  -10.426664620952      0.000E+00 9.914E-21 0.000E+00

 At SCF step   35   max residual=  9.91E-21 < tolwfr=  1.00E-20 =>converged.

 ----iterations are completed or convergence reached----

 dfpt_looppert: DFPT cycle converged with prtwf=-1. Will skip output of the 1st-order WFK file.
 dfpt_looppert : ek2=    1.9842008596E+01
          f-sum rule ratio=    1.0124768945E+00
 prteigrs : about to open file /scratch/users/j/a/jabreu/flow_simple_9atoms/flow/w145/t1/tmpdata/tmp_1WF1_EIG
 Expectation of eigenvalue derivatives (hartree) for nkpt=   1  k points:
  (in case of degenerate eigenvalues, averaged derivative)
 kpt#   1, nband= 45, wtk=  1.00000, kpt=  0.5000  0.5000  0.0000 (reduced coord)
   0.00000    0.00000    0.00000    0.00000   -0.00000   -0.00000    0.00000    0.00000
   0.00000    0.00000   -0.00000   -0.00000   -0.00000    0.00000    0.00000   -0.00000
  -0.00000   -0.00000    0.00000    0.00000   -0.00000   -0.00000    0.00000   -0.00000
   0.00000   -0.00000   -0.00000   -0.00000   -0.00000   -0.00000    0.00000    0.00000
   0.00000    0.00000   -0.00000   -0.00000    0.00000    0.00000    0.00000   -0.00000
  -0.00000   -0.00000    0.00000   -0.00000    0.00000

 Eight components of 2nd-order total energy (hartree) are
 1,2,3: 0th-order hamiltonian combined with 1st-order wavefunctions
     kin0=   1.47597396E+01 eigvalue=   6.93786231E-01  local=  -7.24960227E+00
 4,5,6: 1st-order hamiltonian combined with 1st and 0th-order wfs
     kin1=  -2.00895752E+01  Hartree=   0.00000000E+00     xc=   0.00000000E+00
 7,8,9: eventually, occupation + non-local contributions
    edocc=   2.48189044E+00     enl0=  -2.59149365E-01   enl1=  -7.63753998E-01
 1-9 gives the relaxation energy (to be shifted if some occ is /=2.0)
   erelax=  -1.04266646E+01
  No Ewald or frozen-wf contrib.: the relaxation energy is the total one
 2DEtotal=   -0.1042666462E+02 Ha. Also 2DEtotal=   -0.283723973380E+03 eV
    (  non-var. 2DEtotal :   -1.0426664621E+01 Ha)

 CALCULATION OF EFFECTIVE MASSES
 NOTE : Additional infos (eff. mass eigenvalues, eigenvectors and, if degenerate, average mass) are available in stdout.

 K-point ( 0.500, 0.500, 0.000) | band =    36
 Effective mass tensor:
             -1.0231426205             -0.0000000000              0.0000000000
             -0.0000000000             -1.0231426206              0.0000000016
              0.0000000000              0.0000000016            -41.5952506619
 Effective mass tensor eigenvalues:
            -41.5952506619             -1.0231426206             -1.0231426205
 Angular average effective mass 1/(<1/m>)=  -1.5160681253
 Angular average effective mass for Frohlich model (<m**0.5>)**2=  -2.0952082531
 Effective masses along directions: (cart. coord. / red. coord. -> eff. mass)
    1:   1.000000  0.000000  0.000000 /   1.000000  0.000000  0.000000 ->  -1.0231426205
    2:   0.000000  1.000000  0.000000 /   0.000000  1.000000  0.000000 ->  -1.0231426206
    3:   0.000000  0.000000  1.000000 /   0.000000  0.000000  1.000000 -> -41.5952506619
    4:   0.577350  0.577350  0.577350 /   0.378974  0.378974  0.844249 ->  -1.5160681252
    5:   0.000000  0.707107  0.707107 /   0.000000  0.409522  0.912300 ->  -1.9971599343
    6:   0.707107  0.000000  0.707107 /   0.409522  0.000000  0.912300 ->  -1.9971599343
    7:   0.707107  0.707107  0.000000 /   0.707107  0.707107  0.000000 ->  -1.0231426206

 K-point ( 0.500, 0.500, 0.000) | band =    37
 Effective mass tensor:
              0.8368550508             -0.0000000000             -0.0000000000
             -0.0000000000              0.8368550508              0.0000000000
             -0.0000000000              0.0000000000              0.4645141489
 Effective mass tensor eigenvalues:
              0.4645141489              0.8368550508              0.8368550508
 Angular average effective mass 1/(<1/m>)=   0.6604020792
 Angular average effective mass for Frohlich model (<m**0.5>)**2=   0.6771774576
 Effective masses along directions: (cart. coord. / red. coord. -> eff. mass)
    1:   1.000000  0.000000  0.000000 /   1.000000  0.000000  0.000000 ->   0.8368550508
    2:   0.000000  1.000000  0.000000 /   0.000000  1.000000  0.000000 ->   0.8368550508
    3:   0.000000  0.000000  1.000000 /   0.000000  0.000000  1.000000 ->   0.4645141489
    4:   0.577350  0.577350  0.577350 /   0.378974  0.378974  0.844249 ->   0.6604020792
    5:   0.000000  0.707107  0.707107 /   0.000000  0.409522  0.912300 ->   0.5974184909
    6:   0.707107  0.000000  0.707107 /   0.409522  0.000000  0.912300 ->   0.5974184909
    7:   0.707107  0.707107  0.000000 /   0.707107  0.707107  0.000000 ->   0.8368550508

 END OF EFFECTIVE MASSES SECTION

 ---- first-order wavefunction calculations are completed ----

 Total localisation tensor (bohr^2) in cartesian coordinates
  WARNING : still subject to testing - especially symmetries.
      direction              matrix element
   alpha     beta       real part   imaginary part
     1        1       0.5948808276    0.0000000000
     1        2       0.0000000000    0.0000000000
     1        3       0.0000000000    0.0000000000
     2        1       0.0000000000    0.0000000000
     2        2       0.5948808276    0.0000000000
     2        3       0.0000000000    0.0000000000
     3        1       0.0000000000    0.0000000000
     3        2       0.0000000000    0.0000000000
     3        3       0.7389679432    0.0000000000

 respfn : d/dk was computed, but no 2DTE, so no DDB output.

== END DATASET(S) ==============================================================

 -outvars: echo values of variables after computation  --------
            acell      1.0000000000E+00  1.0000000000E+00  1.0000000000E+00 Bohr
              amu      8.54678000E+01  1.78490000E+02  1.59994000E+01
             ecut      4.40000000E+01 Hartree
           etotal     -1.0426664621E+01
            fcart      0.0000000000E+00  0.0000000000E+00  0.0000000000E+00
                       0.0000000000E+00  0.0000000000E+00  0.0000000000E+00
                       0.0000000000E+00  0.0000000000E+00  0.0000000000E+00
                       0.0000000000E+00  0.0000000000E+00  0.0000000000E+00
                       0.0000000000E+00  0.0000000000E+00  0.0000000000E+00
                       0.0000000000E+00  0.0000000000E+00  0.0000000000E+00
                       0.0000000000E+00  0.0000000000E+00  0.0000000000E+00
                       0.0000000000E+00  0.0000000000E+00  0.0000000000E+00
                       0.0000000000E+00  0.0000000000E+00  0.0000000000E+00
-          fftalg         512
           irdden           1
           irdwfk           1
           istwfk        1
              ixc     -116133
              kpt      5.00000000E-01  5.00000000E-01  0.00000000E+00
           kptopt           0
P           mkmem           1
P          mkqmem           1
P          mk1mem           1
            natom           9
            nband          45
           nbdbuf           4
            ngfft          48      48     108
             nkpt           1
            nstep        2000
             nsym          16
           ntypat           3
              occ      2.000000  2.000000  2.000000  2.000000  2.000000  2.000000
                       2.000000  2.000000  2.000000  2.000000  2.000000  2.000000
                       2.000000  2.000000  2.000000  2.000000  2.000000  2.000000
                       2.000000  2.000000  2.000000  2.000000  2.000000  2.000000
                       2.000000  2.000000  2.000000  2.000000  2.000000  2.000000
                       2.000000  2.000000  2.000000  2.000000  2.000000  2.000000
                       0.000000  0.000000  0.000000  0.000000  0.000000  0.000000
                       0.000000  0.000000  0.000000
        optdriver           1
            prtwf          -1
            rfdir           1       1       1
           rfelfd           2
            rprim      7.5981402962E+00  0.0000000000E+00  0.0000000000E+00
                       0.0000000000E+00  7.5981402962E+00  0.0000000000E+00
                       0.0000000000E+00  0.0000000000E+00  1.6926544124E+01
          spgroup         123
           strten      0.0000000000E+00  0.0000000000E+00  0.0000000000E+00
                       0.0000000000E+00  0.0000000000E+00  0.0000000000E+00
           symrel      1  0  0   0  1  0   0  0  1      -1  0  0   0 -1  0   0  0 -1
                      -1  0  0   0  1  0   0  0 -1       1  0  0   0 -1  0   0  0  1
                      -1  0  0   0 -1  0   0  0  1       1  0  0   0  1  0   0  0 -1
                       1  0  0   0 -1  0   0  0 -1      -1  0  0   0  1  0   0  0  1
                       0  1  0   1  0  0   0  0  1       0 -1  0  -1  0  0   0  0 -1
                       0 -1  0   1  0  0   0  0 -1       0  1  0  -1  0  0   0  0  1
                       0 -1  0  -1  0  0   0  0  1       0  1  0   1  0  0   0  0 -1
                       0  1  0  -1  0  0   0  0 -1       0 -1  0   1  0  0   0  0  1
           tolwfr      1.00000000E-20
            typat      1  1  2  2  3  3  3  3  3
           useylm           1
           xangst      0.0000000000E+00  0.0000000000E+00  0.0000000000E+00
                       0.0000000000E+00  0.0000000000E+00  4.4785706854E+00
                       2.0103813362E+00  2.0103813362E+00  2.4990872282E+00
                       2.0103813362E+00  2.0103813362E+00  6.4580541427E+00
                       2.0103813362E+00  0.0000000000E+00  2.0972877806E+00
                       2.0103813362E+00  0.0000000000E+00  6.8598535903E+00
                       2.0103813362E+00  2.0103813362E+00  4.4785706854E+00
                       0.0000000000E+00  2.0103813362E+00  2.0972877806E+00
                       0.0000000000E+00  2.0103813362E+00  6.8598535903E+00
            xcart      0.0000000000E+00  0.0000000000E+00  0.0000000000E+00
                       0.0000000000E+00  0.0000000000E+00  8.4632720622E+00
                       3.7990701481E+00  3.7990701481E+00  4.7225904434E+00
                       3.7990701481E+00  3.7990701481E+00  1.2203953681E+01
                       3.7990701481E+00  0.0000000000E+00  3.9632995271E+00
                       3.7990701481E+00  0.0000000000E+00  1.2963244597E+01
                       3.7990701481E+00  3.7990701481E+00  8.4632720622E+00
                       0.0000000000E+00  3.7990701481E+00  3.9632995271E+00
                       0.0000000000E+00  3.7990701481E+00  1.2963244597E+01
             xred      0.0000000000E+00  0.0000000000E+00  0.0000000000E+00
                       0.0000000000E+00  0.0000000000E+00  5.0000000000E-01
                       5.0000000000E-01  5.0000000000E-01  2.7900500000E-01
                       5.0000000000E-01  5.0000000000E-01  7.2099500000E-01
                       5.0000000000E-01  0.0000000000E+00  2.3414700000E-01
                       5.0000000000E-01  0.0000000000E+00  7.6585300000E-01
                       5.0000000000E-01  5.0000000000E-01  5.0000000000E-01
                       0.0000000000E+00  5.0000000000E-01  2.3414700000E-01
                       0.0000000000E+00  5.0000000000E-01  7.6585300000E-01
            znucl       37.00000   72.00000    8.00000

- Timing analysis has been suppressed with timopt=0

 Suggested references for the acknowledgment of ABINIT usage.

 Calculation completed.
.Delivered   6 WARNINGs and   5 COMMENTs to log file.