.Version 9.5.2 of ABINIT

 ABINIT is a project of the Universite Catholique de Louvain,
 Corning Inc. and other collaborators, see ~abinit/doc/developers/contributors.txt .
 acknowledgments of the ABINIT effort.

.Starting date : Mon 24 May 2021.
- ( at 20h55 )

- input  file    -> /scratch/users/j/a/jabreu/flow_simple_10atoms/flow/w405/t1/run.abi
- output file    -> /scratch/users/j/a/jabreu/flow_simple_10atoms/flow/w405/t1/run.abo
- root for input  files -> /scratch/users/j/a/jabreu/flow_simple_10atoms/flow/w405/t1/indata/in
- root for output files -> /scratch/users/j/a/jabreu/flow_simple_10atoms/flow/w405/t1/outdata/out

 Symmetries : space group Cm c 2_1 (# 36); Bravais oC (1-face-center ortho.)
     intxc =       0      iscf =       7    lmnmax =      18     lnmax =       6
     mgfft =     108  mpssoang =       3    mqgrid =    4592     natom =      10
  nloc_mem =       1    nspden =       1   nspinor =       1    nsppol =       1
      nsym =       4    n1xccc =    2501    ntypat =       3    occopt =       1
   xclevel =       2
-    mband =          79        mffmem =           1         mkmem =           1
-   mkqmem =           1        mk1mem =           1           mpw =       32863
      nfft =     1119744          nkpt =           1
  Rough estimation (10% accuracy) of disk space for files :

------------- Echo of variables that govern the present computation ------------
-
- outvars: echo of selected default values
-   iomode0 =  0 , fftalg0 =512 , wfoptalg0 =  0
-
- outvars: echo of global parameters not present in the input file
-  max_nthreads =    0
-
 -outvars: echo values of preprocessed input variables --------
            acell      1.0000000000E+00  1.0000000000E+00  1.0000000000E+00 Bohr
              amu      8.76200000E+01  1.12411000E+02  7.49215900E+01
             ecut      5.10000000E+01 Hartree
-          fftalg         512
           irdden           1
           irdwfk           1
           istwfk        1
              ixc     -116133
           kptopt           0
P           mkmem           1
P          mkqmem           1
P          mk1mem           1
            natom          10
            nband          79
           nbdbuf           4
            ngfft         108     108      96
             nkpt           1
            nstep        2000
             nsym           4
           ntypat           3
              occ      2.000000  2.000000  2.000000  2.000000  2.000000  2.000000
                       2.000000  2.000000  2.000000  2.000000  2.000000  2.000000
                       2.000000  2.000000  2.000000  2.000000  2.000000  2.000000
                       2.000000  2.000000  2.000000  2.000000  2.000000  2.000000
                       2.000000  2.000000  2.000000  2.000000  2.000000  2.000000
                       2.000000  2.000000  2.000000  2.000000  2.000000  2.000000
                       2.000000  2.000000  2.000000  2.000000  2.000000  2.000000
                       2.000000  2.000000  2.000000  2.000000  2.000000  2.000000
                       2.000000  2.000000  2.000000  2.000000  2.000000  2.000000
                       2.000000  2.000000  2.000000  2.000000  2.000000  2.000000
                       2.000000  2.000000  2.000000  2.000000  2.000000  2.000000
                       2.000000  2.000000  2.000000  2.000000  0.000000  0.000000
                       0.000000  0.000000  0.000000  0.000000  0.000000  0.000000
                       0.000000
        optdriver           1
            prtwf          -1
            rfdir           1       1       1
           rfelfd           2
            rprim      1.6345144957E+01  0.0000000000E+00  0.0000000000E+00
                      -1.4206947003E+01  8.0824761363E+00  0.0000000000E+00
                       0.0000000000E+00  0.0000000000E+00  1.4282346753E+01
          spgroup          36
           symrel      1  0  0   0  1  0   0  0  1       0 -1  0  -1  0  0   0  0  1
                      -1  0  0   0 -1  0   0  0  1       0  1  0   1  0  0   0  0  1
            tnons      0.0000000  0.0000000  0.0000000     0.0000000  0.0000000  0.0000000
                       0.0000000  0.0000000  0.5000000     0.0000000  0.0000000  0.5000000
           tolwfr      1.00000000E-20
            typat      1  1  1  1  2  2  3  3  3  3
           useylm           1
           xangst      8.1590812596E-03  2.2860383999E+00  5.5586938086E+00
                      -2.7229794159E+00  3.0085539566E+00  2.9618171002E+00
                       3.8544650402E+00  1.2685082038E+00  6.7407632937E+00
                       1.1233265430E+00  1.9910237604E+00  1.7797476151E+00
                       7.1068427940E+00  4.0810016309E-01  5.9333234184E-01
                      -5.9753571698E+00  3.8689619972E+00  4.3722785353E+00
                       7.6250425662E+00  2.7101176673E-01  3.3382379305E+00
                      -2.2750919740E+00  2.8900665035E+00  7.4581206496E+00
                       3.4065775983E+00  1.3869956568E+00  3.6791744561E+00
                      -6.4935569419E+00  4.0060503936E+00  7.1171841240E+00
            xcart      1.5418429077E-02  4.3199865051E+00  1.0504408955E+01
                      -5.1456853616E+00  5.6853430339E+00  5.5970231750E+00
                       7.2838833148E+00  2.3971331024E+00  1.2738196552E+01
                       2.1227795241E+00  3.7624896312E+00  3.3632355781E+00
                       1.3429986550E+01  7.7119754302E-01  1.1212356319E+00
                      -1.1291788597E+01  7.3112785933E+00  8.2624090085E+00
                       1.4409242202E+01  5.1213801790E-01  6.3083554551E+00
                      -4.2993007580E+00  5.4614341975E+00  1.4093805494E+01
                       6.4374987112E+00  2.6210419388E+00  6.9526321171E+00
                      -1.2271044249E+01  7.5703381184E+00  1.3449528832E+01
             xred      4.6551200000E-01  5.3448800000E-01  7.3548200000E-01
                       2.9658400000E-01  7.0341600000E-01  3.9188400000E-01
                       7.0341600000E-01  2.9658400000E-01  8.9188400000E-01
                       5.3448800000E-01  4.6551200000E-01  2.3548200000E-01
                       9.0458400000E-01  9.5416000000E-02  7.8505000000E-02
                       9.5416000000E-02  9.0458400000E-01  5.7850500000E-01
                       9.3663600000E-01  6.3364000000E-02  4.4168900000E-01
                       3.2428700000E-01  6.7571300000E-01  9.8679900000E-01
                       6.7571300000E-01  3.2428700000E-01  4.8679900000E-01
                       6.3364000000E-02  9.3663600000E-01  9.4168900000E-01
            znucl       38.00000   48.00000   33.00000

 chkinp: Checking input parameters for consistency.

== DATASET  1 ==================================================================
-   mpi_nproc: 1, omp_nthreads: -1 (-1 if OMP is not activated)

--- !DatasetInfo
iteration_state: {dtset: 1, }
dimensions: {natom: 10, nkpt: 1, mband: 79, nsppol: 1, nspinor: 1, nspden: 1, mpw: 32863, }
cutoff_energies: {ecut:  51.0, pawecutdg:  -1.0, }
electrons: {nelect:   1.40000000E+02, charge:   0.00000000E+00, occopt:   1.00000000E+00, tsmear:   1.00000000E-02, }
meta: {optdriver: 1, rfelfd: 2, }
...

 Real(R)+Recip(G) space primitive vectors, cartesian coordinates (Bohr,Bohr^-1):
 R(1)= 16.3451450  0.0000000  0.0000000  G(1)=  0.0611802  0.1075394  0.0000000
 R(2)=-14.2069470  8.0824761  0.0000000  G(2)=  0.0000000  0.1237245  0.0000000
 R(3)=  0.0000000  0.0000000 14.2823468  G(3)=  0.0000000  0.0000000  0.0700165
 Unit cell volume ucvol=  1.8868300E+03 bohr^3
 Angles (23,13,12)=  9.00000000E+01  9.00000000E+01  1.50364014E+02 degrees

 getcut: wavevector=  0.0000  0.0000  0.0000  ngfft= 108 108  96
         ecut(hartree)=     51.000   => boxcut(ratio)=   2.05535

--- Pseudopotential description ------------------------------------------------
- pspini: atom type   1  psp file is /scratch/users/j/a/jabreu/pseudos/PBEsol/Sr.psp8
- pspatm: opening atomic psp file    /scratch/users/j/a/jabreu/pseudos/PBEsol/Sr.psp8
- Sr    ONCVPSP-3.3.0  r_core=   1.66721   1.31335   1.51547
- 38.00000  10.00000    180112                znucl, zion, pspdat
    8 -116133    2    4       600   0.00000   pspcod,pspxc,lmax,lloc,mmax,r2well
    5.99000000000000    6.00000000000000    0.00000000000000   rchrg,fchrg,qchrg
     nproj     2     2     2
     extension_switch     1
  pspatm : epsatm=   12.46450977
         --- l  ekb(1:nproj) -->
             0   10.029206    1.044171
             1    7.472414    1.670829
             2    4.142950    0.968140
 pspatm: atomic psp has been read  and splines computed

- pspini: atom type   2  psp file is /scratch/users/j/a/jabreu/pseudos/PBEsol/Cd.psp8
- pspatm: opening atomic psp file    /scratch/users/j/a/jabreu/pseudos/PBEsol/Cd.psp8
- Cd    ONCVPSP-3.3.0  r_core=   1.25838   1.30423   1.35174
- 48.00000  20.00000    180112                znucl, zion, pspdat
    8 -116133    2    4       600   0.00000   pspcod,pspxc,lmax,lloc,mmax,r2well
    5.99000000000000    6.00000000000000    0.00000000000000   rchrg,fchrg,qchrg
     nproj     2     2     2
     extension_switch     1
  pspatm : epsatm=   23.26728021
         --- l  ekb(1:nproj) -->
             0   63.701523    3.700425
             1    8.703569    1.290373
             2    0.983656   -0.721725
 pspatm: atomic psp has been read  and splines computed

- pspini: atom type   3  psp file is /scratch/users/j/a/jabreu/pseudos/PBEsol/As.psp8
- pspatm: opening atomic psp file    /scratch/users/j/a/jabreu/pseudos/PBEsol/As.psp8
- As    ONCVPSP-3.3.0  r_core=   1.76603   1.70395   1.80867
- 33.00000  15.00000    180112                znucl, zion, pspdat
    8 -116133    2    4       600   0.00000   pspcod,pspxc,lmax,lloc,mmax,r2well
    5.99000000000000    5.00000000000000    0.00000000000000   rchrg,fchrg,qchrg
     nproj     2     2     2
     extension_switch     1
  pspatm : epsatm=   28.79155382
         --- l  ekb(1:nproj) -->
             0    8.270760    0.868950
             1    4.919053    0.756587
             2  -10.048665   -4.076802
 pspatm: atomic psp has been read  and splines computed

   2.96182341E+04                                ecore*ucvol(ha*bohr**3)

 ==>  initialize data related to q vector <==

 The list of irreducible perturbations for this q vector is:
    1)    idir= 1    ipert=  11
    2)    idir= 2    ipert=  11
    3)    idir= 3    ipert=  11

 Perturbation wavevector (in red.coord.)   0.000000  0.000000  0.000000
 Perturbation : derivative vs k along direction   1

 dfpt_looppert : COMMENT -
  In a d/dk calculation, iscf is set to -3 automatically.
 The set of symmetries contains only one element for this perturbation.
 symkpt : not enough symmetry to change the number of k points.

 Initialisation of the first-order wave-functions :
  ireadwf=   0

--- !BeginCycle
iteration_state: {dtset: 1, }
solver: {iscf: 7, nstep: 2000, nline: 4, wfoptalg: 0, }
tolerances: {tolwfr: 1.00E-20, }
...

     iter   2DEtotal(Ha)        deltaE(Ha) residm    vres2
-ETOT  1  -168.44781082451     -1.684E+02 4.728E-01 0.000E+00
 ETOT  2  -169.19052656420     -7.427E-01 1.711E-02 0.000E+00
[...]
   0.00000   -0.00000   -0.00000    0.00000   -0.00000    0.00000    0.00000    0.00000
  -0.00000   -0.00000   -0.00000    0.00000    0.00000   -0.00000   -0.00000    0.00000
   0.00000   -0.00000    0.00000   -0.00000   -0.00000    0.00000   -0.00000   -0.00000
   0.00000    0.00000    0.00000    0.00000    0.00000    0.00000   -0.00000   -0.00000
  -0.00000    0.00000   -0.00000    0.00000    0.00000   -0.00000   -0.00000    0.00000
  -0.00000   -0.00000    0.00000    0.00000    0.00000   -0.00000   -0.00000

 Eight components of 2nd-order total energy (hartree) are
 1,2,3: 0th-order hamiltonian combined with 1st-order wavefunctions
     kin0=   2.13714571E+02 eigvalue=   8.57365343E+00  local=  -1.10710932E+02
 4,5,6: 1st-order hamiltonian combined with 1st and 0th-order wfs
     kin1=  -2.22358750E+02  Hartree=   0.00000000E+00     xc=   0.00000000E+00
 7,8,9: eventually, occupation + non-local contributions
    edocc=   3.74514231E+01     enl0=   2.01932733E+01   enl1=  -1.16085227E+02
 1-9 gives the relaxation energy (to be shifted if some occ is /=2.0)
   erelax=  -1.69221989E+02
  No Ewald or frozen-wf contrib.: the relaxation energy is the total one
 2DEtotal=   -0.1692219887E+03 Ha. Also 2DEtotal=   -0.460476449174E+04 eV
    (  non-var. 2DEtotal :   -1.6922198869E+02 Ha)

 Perturbation wavevector (in red.coord.)   0.000000  0.000000  0.000000
 Perturbation : derivative vs k along direction   2
 The set of symmetries contains only one element for this perturbation.
 symkpt : not enough symmetry to change the number of k points.

[...]

 Perturbation wavevector (in red.coord.)   0.000000  0.000000  0.000000
 Perturbation : derivative vs k along direction   3
 The set of symmetries contains only one element for this perturbation.
 symkpt : not enough symmetry to change the number of k points.

 Initialisation of the first-order wave-functions :
  ireadwf=   0

--- !BeginCycle
iteration_state: {dtset: 1, }
solver: {iscf: 7, nstep: 2000, nline: 4, wfoptalg: 0, }
tolerances: {tolwfr: 1.00E-20, }
...

     iter   2DEtotal(Ha)        deltaE(Ha) residm    vres2
-ETOT  1  -48.578807293174     -4.858E+01 1.738E-01 0.000E+00
 ETOT  2  -48.742803801677     -1.640E-01 1.237E-02 0.000E+00
 ETOT  3  -48.747826910455     -5.023E-03 3.097E-03 0.000E+00
 ETOT  4  -48.748125150712     -2.982E-04 4.171E-04 0.000E+00
 ETOT  5  -48.748146754603     -2.160E-05 1.100E-04 0.000E+00
 ETOT  6  -48.748148514831     -1.760E-06 2.152E-05 0.000E+00
 ETOT  7  -48.748148671257     -1.564E-07 6.062E-06 0.000E+00
 ETOT  8  -48.748148686258     -1.500E-08 1.527E-06 0.000E+00
 ETOT  9  -48.748148687792     -1.533E-09 7.505E-07 0.000E+00
 ETOT 10  -48.748148687958     -1.666E-10 1.911E-07 0.000E+00
 ETOT 11  -48.748148687977     -1.886E-11 9.393E-08 0.000E+00
 ETOT 12  -48.748148687979     -2.188E-12 2.402E-08 0.000E+00
 ETOT 13  -48.748148687980     -2.629E-13 1.181E-08 0.000E+00
 ETOT 14  -48.748148687980     -2.132E-14 3.026E-09 0.000E+00
 ETOT 15  -48.748148687980     -7.816E-14 1.488E-09 0.000E+00
 ETOT 16  -48.748148687980      2.842E-14 3.820E-10 0.000E+00
 ETOT 17  -48.748148687980      0.000E+00 1.877E-10 0.000E+00
 ETOT 18  -48.748148687980     -1.421E-14 4.827E-11 0.000E+00
 ETOT 19  -48.748148687980     -1.421E-14 2.371E-11 0.000E+00
 ETOT 20  -48.748148687980     -2.842E-14 6.106E-12 0.000E+00
 ETOT 21  -48.748148687980      2.842E-14 2.996E-12 0.000E+00
 ETOT 22  -48.748148687980      0.000E+00 7.728E-13 0.000E+00
 ETOT 23  -48.748148687980      0.000E+00 3.789E-13 0.000E+00
 ETOT 24  -48.748148687980      1.421E-14 9.785E-14 0.000E+00
 ETOT 25  -48.748148687980     -1.421E-14 4.792E-14 0.000E+00
 ETOT 26  -48.748148687980      0.000E+00 1.239E-14 0.000E+00
 ETOT 27  -48.748148687980      0.000E+00 6.063E-15 0.000E+00
 ETOT 28  -48.748148687980     -2.842E-14 1.570E-15 0.000E+00
 ETOT 29  -48.748148687980     -1.421E-14 7.672E-16 0.000E+00
 ETOT 30  -48.748148687980      1.421E-14 1.989E-16 0.000E+00
 ETOT 31  -48.748148687980      0.000E+00 9.709E-17 0.000E+00
 ETOT 32  -48.748148687980      2.842E-14 2.520E-17 0.000E+00
 ETOT 33  -48.748148687980     -1.421E-14 1.229E-17 0.000E+00
 ETOT 34  -48.748148687980      0.000E+00 3.193E-18 0.000E+00
 ETOT 35  -48.748148687980      0.000E+00 1.555E-18 0.000E+00
 ETOT 36  -48.748148687980      0.000E+00 4.045E-19 0.000E+00
 ETOT 37  -48.748148687980      0.000E+00 1.968E-19 0.000E+00
 ETOT 38  -48.748148687980      0.000E+00 5.124E-20 0.000E+00
 ETOT 39  -48.748148687980      0.000E+00 2.491E-20 0.000E+00
 ETOT 40  -48.748148687980      0.000E+00 9.919E-21 0.000E+00

 At SCF step   40   max residual=  9.92E-21 < tolwfr=  1.00E-20 =>converged.

 ----iterations are completed or convergence reached----

 dfpt_looppert: DFPT cycle converged with prtwf=-1. Will skip output of the 1st-order WFK file.
 dfpt_looppert : ek2=    5.4189934033E+01
          f-sum rule ratio=    1.1154475615E+00
 prteigrs : about to open file /scratch/users/j/a/jabreu/flow_simple_10atoms/flow/w405/t1/tmpdata/tmp_1WF1_EIG
 Expectation of eigenvalue derivatives (hartree) for nkpt=   1  k points:
  (in case of degenerate eigenvalues, averaged derivative)
 kpt#   1, nband= 79, wtk=  1.00000, kpt=  0.0000  0.0000  0.0000 (reduced coord)
   0.00000   -0.00000    0.00000   -0.00000    0.00000   -0.00000   -0.00000   -0.00000
  -0.00000    0.00000    0.00000   -0.00000    0.00000    0.00000   -0.00000    0.00000
  -0.00000    0.00000    0.00000    0.00000    0.00000   -0.00000   -0.00000   -0.00000
   0.00000    0.00000   -0.00000    0.00000    0.00000    0.00000   -0.00000    0.00000
   0.00000    0.00000    0.00000   -0.00000    0.00000   -0.00000   -0.00000    0.00000
  -0.00000   -0.00000   -0.00000    0.00000    0.00000    0.00000   -0.00000    0.00000
  -0.00000    0.00000    0.00000   -0.00000    0.00000   -0.00000   -0.00000   -0.00000
   0.00000   -0.00000    0.00000    0.00000   -0.00000   -0.00000    0.00000   -0.00000
  -0.00000    0.00000   -0.00000    0.00000    0.00000   -0.00000    0.00000   -0.00000
  -0.00000   -0.00000    0.00000    0.00000   -0.00000   -0.00000   -0.00000

 Eight components of 2nd-order total energy (hartree) are
 1,2,3: 0th-order hamiltonian combined with 1st-order wavefunctions
     kin0=   6.52389345E+01 eigvalue=   3.50676699E+00  local=  -3.26980916E+01
 4,5,6: 1st-order hamiltonian combined with 1st and 0th-order wfs
     kin1=  -6.04460298E+01  Hartree=   0.00000000E+00     xc=   0.00000000E+00
 7,8,9: eventually, occupation + non-local contributions
    edocc=   6.98072012E+00     enl0=   5.71981865E+00   enl1=  -3.70502676E+01
 1-9 gives the relaxation energy (to be shifted if some occ is /=2.0)
   erelax=  -4.87481487E+01
  No Ewald or frozen-wf contrib.: the relaxation energy is the total one
 2DEtotal=   -0.4874814869E+02 Ha. Also 2DEtotal=   -0.132650458641E+04 eV
    (  non-var. 2DEtotal :   -4.8748148688E+01 Ha)

 CALCULATION OF EFFECTIVE MASSES
 NOTE : Additional infos (eff. mass eigenvalues, eigenvectors and, if degenerate, average mass) are available in stdout.

 K-point ( 0.000, 0.000, 0.000) | band =    70
 Effective mass tensor:
             -0.5758539395              0.1296954425             -0.0000010911
              0.1296954425             -0.1199104535             -0.0000020785
             -0.0000010911             -0.0000020785             -1.1264586875
 Effective mass tensor eigenvalues:
             -1.1264586875             -0.6101645318             -0.0855998612
 Angular average effective mass 1/(<1/m>)=  -0.2111352450
 Angular average effective mass for Frohlich model (<m**0.5>)**2=  -0.3066580955
 Effective masses along directions: (cart. coord. / red. coord. -> eff. mass)
    1:   1.000000  0.000000  0.000000 /   0.754748 -0.656015  0.000000 ->  -0.4355750288
    2:   0.000000  1.000000  0.000000 /   0.000000  1.000000  0.000000 ->  -0.0907000815
    3:   0.000000  0.000000  1.000000 /   0.000000  0.000000  1.000000 ->  -1.1264586875
    4:   0.577350  0.577350  0.577350 /   0.724729 -0.271554  0.633266 ->  -0.1564523876
    5:   0.000000  0.707107  0.707107 /   0.000000  0.492512  0.870306 ->  -0.1678832500
    6:   0.707107  0.000000  0.707107 /   0.630065 -0.547643  0.550550 ->  -0.6282314753
    7:   0.707107  0.707107  0.000000 /   0.936423 -0.350874  0.000000 ->  -0.1093644153

 K-point ( 0.000, 0.000, 0.000) | band =    71
 Effective mass tensor:
              0.0827606841              0.0053381315              0.0000000164
              0.0053381315              0.1015259625             -0.0000000018
              0.0000000164             -0.0000000018              0.0938009975
 Effective mass tensor eigenvalues:
              0.0813484372              0.0938009975              0.1029382094
 Angular average effective mass 1/(<1/m>)=   0.0918323334
 Angular average effective mass for Frohlich model (<m**0.5>)**2=   0.0920936892
 Effective masses along directions: (cart. coord. / red. coord. -> eff. mass)
    1:   1.000000  0.000000  0.000000 /   0.754748 -0.656015  0.000000 ->   0.0824800106
    2:   0.000000  1.000000  0.000000 /   0.000000  1.000000  0.000000 ->   0.1011816486
    3:   0.000000  0.000000  1.000000 /   0.000000  0.000000  1.000000 ->   0.0938009975
    4:   0.577350  0.577350  0.577350 /   0.724729 -0.271554  0.633266 ->   0.0955618594
    5:   0.000000  0.707107  0.707107 /   0.000000  0.492512  0.870306 ->   0.0973516308
    6:   0.707107  0.000000  0.707107 /   0.630065 -0.547643  0.550550 ->   0.0877769966
    7:   0.707107  0.707107  0.000000 /   0.936423 -0.350874  0.000000 ->   0.0964672998

 END OF EFFECTIVE MASSES SECTION

 ---- first-order wavefunction calculations are completed ----

 Total localisation tensor (bohr^2) in cartesian coordinates
  WARNING : still subject to testing - especially symmetries.
      direction              matrix element
   alpha     beta       real part   imaginary part
     1        1      34.1304028990    0.0000000000
     1        2      -8.3562620173    0.0000000000
     1        3       0.0000000000    0.0000000000
     2        1      -8.3562620173    0.0000000000
     2        2       4.7539621516    0.0000000000
     2        3       0.0000000000    0.0000000000
     3        1       0.0000000000    0.0000000000
     3        2       0.0000000000    0.0000000000
     3        3       3.3241471002    0.0000000000

 respfn : d/dk was computed, but no 2DTE, so no DDB output.

== END DATASET(S) ==============================================================

 -outvars: echo values of variables after computation  --------
            acell      1.0000000000E+00  1.0000000000E+00  1.0000000000E+00 Bohr
              amu      8.76200000E+01  1.12411000E+02  7.49215900E+01
             ecut      5.10000000E+01 Hartree
           etotal     -4.8748148688E+01
            fcart      0.0000000000E+00  0.0000000000E+00  0.0000000000E+00
                       0.0000000000E+00  0.0000000000E+00  0.0000000000E+00
                       0.0000000000E+00  0.0000000000E+00  0.0000000000E+00
                       0.0000000000E+00  0.0000000000E+00  0.0000000000E+00
                       0.0000000000E+00  0.0000000000E+00  0.0000000000E+00
                       0.0000000000E+00  0.0000000000E+00  0.0000000000E+00
                       0.0000000000E+00  0.0000000000E+00  0.0000000000E+00
                       0.0000000000E+00  0.0000000000E+00  0.0000000000E+00
                       0.0000000000E+00  0.0000000000E+00  0.0000000000E+00
                       0.0000000000E+00  0.0000000000E+00  0.0000000000E+00
-          fftalg         512
           irdden           1
           irdwfk           1
           istwfk        1
              ixc     -116133
           kptopt           0
P           mkmem           1
P          mkqmem           1
P          mk1mem           1
            natom          10
            nband          79
           nbdbuf           4
            ngfft         108     108      96
             nkpt           1
            nstep        2000
             nsym           4
           ntypat           3
              occ      2.000000  2.000000  2.000000  2.000000  2.000000  2.000000
                       2.000000  2.000000  2.000000  2.000000  2.000000  2.000000
                       2.000000  2.000000  2.000000  2.000000  2.000000  2.000000
                       2.000000  2.000000  2.000000  2.000000  2.000000  2.000000
                       2.000000  2.000000  2.000000  2.000000  2.000000  2.000000
                       2.000000  2.000000  2.000000  2.000000  2.000000  2.000000
                       2.000000  2.000000  2.000000  2.000000  2.000000  2.000000
                       2.000000  2.000000  2.000000  2.000000  2.000000  2.000000
                       2.000000  2.000000  2.000000  2.000000  2.000000  2.000000
                       2.000000  2.000000  2.000000  2.000000  2.000000  2.000000
                       2.000000  2.000000  2.000000  2.000000  2.000000  2.000000
                       2.000000  2.000000  2.000000  2.000000  0.000000  0.000000
                       0.000000  0.000000  0.000000  0.000000  0.000000  0.000000
                       0.000000
        optdriver           1
            prtwf          -1
            rfdir           1       1       1
           rfelfd           2
            rprim      1.6345144957E+01  0.0000000000E+00  0.0000000000E+00
                      -1.4206947003E+01  8.0824761363E+00  0.0000000000E+00
                       0.0000000000E+00  0.0000000000E+00  1.4282346753E+01
          spgroup          36
           strten      0.0000000000E+00  0.0000000000E+00  0.0000000000E+00
                       0.0000000000E+00  0.0000000000E+00  0.0000000000E+00
           symrel      1  0  0   0  1  0   0  0  1       0 -1  0  -1  0  0   0  0  1
                      -1  0  0   0 -1  0   0  0  1       0  1  0   1  0  0   0  0  1
            tnons      0.0000000  0.0000000  0.0000000     0.0000000  0.0000000  0.0000000
                       0.0000000  0.0000000  0.5000000     0.0000000  0.0000000  0.5000000
           tolwfr      1.00000000E-20
            typat      1  1  1  1  2  2  3  3  3  3
           useylm           1
           xangst      8.1590812596E-03  2.2860383999E+00  5.5586938086E+00
                      -2.7229794159E+00  3.0085539566E+00  2.9618171002E+00
                       3.8544650402E+00  1.2685082038E+00  6.7407632937E+00
                       1.1233265430E+00  1.9910237604E+00  1.7797476151E+00
                       7.1068427940E+00  4.0810016309E-01  5.9333234184E-01
                      -5.9753571698E+00  3.8689619972E+00  4.3722785353E+00
                       7.6250425662E+00  2.7101176673E-01  3.3382379305E+00
                      -2.2750919740E+00  2.8900665035E+00  7.4581206496E+00
                       3.4065775983E+00  1.3869956568E+00  3.6791744561E+00
                      -6.4935569419E+00  4.0060503936E+00  7.1171841240E+00
            xcart      1.5418429077E-02  4.3199865051E+00  1.0504408955E+01
                      -5.1456853616E+00  5.6853430339E+00  5.5970231750E+00
                       7.2838833148E+00  2.3971331024E+00  1.2738196552E+01
                       2.1227795241E+00  3.7624896312E+00  3.3632355781E+00
                       1.3429986550E+01  7.7119754302E-01  1.1212356319E+00
                      -1.1291788597E+01  7.3112785933E+00  8.2624090085E+00
                       1.4409242202E+01  5.1213801790E-01  6.3083554551E+00
                      -4.2993007580E+00  5.4614341975E+00  1.4093805494E+01
                       6.4374987112E+00  2.6210419388E+00  6.9526321171E+00
                      -1.2271044249E+01  7.5703381184E+00  1.3449528832E+01
             xred      4.6551200000E-01  5.3448800000E-01  7.3548200000E-01
                       2.9658400000E-01  7.0341600000E-01  3.9188400000E-01
                       7.0341600000E-01  2.9658400000E-01  8.9188400000E-01
                       5.3448800000E-01  4.6551200000E-01  2.3548200000E-01
                       9.0458400000E-01  9.5416000000E-02  7.8505000000E-02
                       9.5416000000E-02  9.0458400000E-01  5.7850500000E-01
                       9.3663600000E-01  6.3364000000E-02  4.4168900000E-01
                       3.2428700000E-01  6.7571300000E-01  9.8679900000E-01
                       6.7571300000E-01  3.2428700000E-01  4.8679900000E-01
                       6.3364000000E-02  9.3663600000E-01  9.4168900000E-01
            znucl       38.00000   48.00000   33.00000

- Timing analysis has been suppressed with timopt=0

 Suggested references for the acknowledgment of ABINIT usage.

 Calculation completed.
.Delivered   2 WARNINGs and   7 COMMENTs to log file.