.Version 9.5.2 of ABINIT

 ABINIT is a project of the Universite Catholique de Louvain,
 Corning Inc. and other collaborators, see ~abinit/doc/developers/contributors.txt .
 acknowledgments of the ABINIT effort.

.Starting date : Mon 24 May 2021.
- ( at 11h06 )

- input  file    -> /scratch/users/j/a/jabreu/flow_simple_10atoms/flow/w291/t1/run.abi
- output file    -> /scratch/users/j/a/jabreu/flow_simple_10atoms/flow/w291/t1/run.abo
- root for input  files -> /scratch/users/j/a/jabreu/flow_simple_10atoms/flow/w291/t1/indata/in
- root for output files -> /scratch/users/j/a/jabreu/flow_simple_10atoms/flow/w291/t1/outdata/out

 Symmetries : space group Fm m m (# 69); Bravais oF (face-center ortho.)
     intxc =       0      iscf =       7    lmnmax =      18     lnmax =       6
     mgfft =      90  mpssoang =       3    mqgrid =    3001     natom =      10
  nloc_mem =       1    nspden =       1   nspinor =       1    nsppol =       1
      nsym =       8    n1xccc =    2501    ntypat =       2    occopt =       1
   xclevel =       2
-    mband =          42        mffmem =           1         mkmem =           1
-   mkqmem =           1        mk1mem =           1           mpw =       19408
      nfft =      729000          nkpt =           1
  Rough estimation (10% accuracy) of disk space for files :

------------- Echo of variables that govern the present computation ------------
-
- outvars: echo of selected default values
-   iomode0 =  0 , fftalg0 =512 , wfoptalg0 =  0
-
- outvars: echo of global parameters not present in the input file
-  max_nthreads =    0
-
 -outvars: echo values of preprocessed input variables --------
            acell      1.0000000000E+00  1.0000000000E+00  1.0000000000E+00 Bohr
              amu      3.90983000E+01  3.09737620E+01
             ecut      3.60000000E+01 Hartree
-          fftalg         512
           irdden           1
           irdwfk           1
           istwfk        1
              ixc     -116133
              kpt      5.00000000E-01  0.00000000E+00  5.00000000E-01
           kptopt           0
P           mkmem           1
P          mkqmem           1
P          mk1mem           1
            natom          10
            nband          42
           nbdbuf           4
            ngfft          90      90      90
             nkpt           1
            nstep        2000
             nsym           8
           ntypat           2
              occ      2.000000  2.000000  2.000000  2.000000  2.000000  2.000000
                       2.000000  2.000000  2.000000  2.000000  2.000000  2.000000
                       2.000000  2.000000  2.000000  2.000000  2.000000  2.000000
                       2.000000  2.000000  2.000000  2.000000  2.000000  2.000000
                       2.000000  2.000000  2.000000  2.000000  2.000000  2.000000
                       2.000000  2.000000  2.000000  0.000000  0.000000  0.000000
                       0.000000  0.000000  0.000000  0.000000  0.000000  0.000000
        optdriver           1
            prtwf          -1
            rfdir           1       1       1
           rfelfd           2
            rprim      1.4618923000E+01  0.0000000000E+00  6.4387256739E+00
                       9.8174879126E+00  1.0831889994E+01  5.4507532563E+00
                       0.0000000000E+00  0.0000000000E+00  1.1889478931E+01
          spgroup          69
           symrel      1  0  0   0  1  0   0  0  1      -1  0  0   0 -1  0   0  0 -1
                      -1  0  0  -1  0  1  -1  1  0       1  0  0   1  0 -1   1 -1  0
                       0 -1  1   0 -1  0   1 -1  0       0  1 -1   0  1  0  -1  1  0
                       0  1 -1   1  0 -1   0  0 -1       0 -1  1  -1  0  1   0  0  1
           tolwfr      1.00000000E-20
            typat      1  1  1  1  2  2  2  2  2  2
           useylm           1
           xangst      9.6983937858E+00  4.2989919830E+00  9.4374619083E+00
                       3.2327979286E+00  1.4329973277E+00  3.1458206361E+00
                       5.8800255359E+00  4.1870233038E+00  4.7211413723E+00
                       7.0511661785E+00  1.5449660069E+00  7.8621411721E+00
                       8.1660375872E+00  1.6933672101E+00  4.6712637985E+00
                       6.1925049702E+00  8.1856246551E-01  4.6712637986E+00
                       4.7651541272E+00  4.0386221006E+00  7.9120187459E+00
                       6.7386867443E+00  4.9134268452E+00  7.9120187458E+00
                       1.9831663549E+00  8.7907507666E-01  6.2916412724E+00
                       1.0948025360E+01  4.8529142341E+00  6.2916412720E+00
            xcart      1.8327308184E+01  8.1239174954E+00  1.7834218396E+01
                       6.1091027280E+00  2.7079724985E+00  5.9447394654E+00
                       1.1111637917E+01  7.9123273563E+00  8.9216642282E+00
                       1.3324772995E+01  2.9195626376E+00  1.4857293633E+01
                       1.5431574631E+01  3.2000002696E+00  8.8274092736E+00
                       1.1702138470E+01  1.5468588825E+00  8.8274092738E+00
                       9.0048362814E+00  7.6318897243E+00  1.4951548588E+01
                       1.2734272442E+01  9.2850311114E+00  1.4951548588E+01
                       3.7476412867E+00  1.6612111451E+00  1.1889478931E+01
                       2.0688769625E+01  9.1706788488E+00  1.1889478930E+01
             xred      7.5000000000E-01  7.5000000000E-01  7.5000000000E-01
                       2.5000000000E-01  2.5000000000E-01  2.5000000000E-01
                       2.6953400000E-01  7.3046600000E-01  2.6953400000E-01
                       7.3046600000E-01  2.6953400000E-01  7.3046600000E-01
                       8.5719400000E-01  2.9542400000E-01  1.4280600000E-01
                       7.0457600000E-01  1.4280600000E-01  2.9542400000E-01
                       1.4280600000E-01  7.0457600000E-01  8.5719400000E-01
                       2.9542400000E-01  8.5719400000E-01  7.0457600000E-01
                       1.5336300000E-01  1.5336300000E-01  8.4663700000E-01
                       8.4663700000E-01  8.4663700000E-01  1.5336300000E-01
            znucl       19.00000   15.00000

 chkinp: Checking input parameters for consistency.

== DATASET  1 ==================================================================
-   mpi_nproc: 1, omp_nthreads: -1 (-1 if OMP is not activated)

--- !DatasetInfo
iteration_state: {dtset: 1, }
dimensions: {natom: 10, nkpt: 1, mband: 42, nsppol: 1, nspinor: 1, nspden: 1, mpw: 19408, }
cutoff_energies: {ecut:  36.0, pawecutdg:  -1.0, }
electrons: {nelect:   6.60000000E+01, charge:   0.00000000E+00, occopt:   1.00000000E+00, tsmear:   1.00000000E-02, }
meta: {optdriver: 1, rfelfd: 2, }
...

 Real(R)+Recip(G) space primitive vectors, cartesian coordinates (Bohr,Bohr^-1):
 R(1)= 14.6189230  0.0000000  6.4387257  G(1)=  0.0684045 -0.0619984  0.0000000
 R(2)=  9.8174879 10.8318900  5.4507533  G(2)=  0.0000000  0.0923200  0.0000000
 R(3)=  0.0000000  0.0000000 11.8894789  G(3)= -0.0370443 -0.0087491  0.0841080
 Unit cell volume ucvol=  1.8827057E+03 bohr^3
 Angles (23,13,12)=  6.95517275E+01  6.62294954E+01  4.42187771E+01 degrees

 getcut: wavevector=  0.0000  0.0000  0.0000  ngfft=  90  90  90
         ecut(hartree)=     36.000   => boxcut(ratio)=   2.08649

--- Pseudopotential description ------------------------------------------------
- pspini: atom type   1  psp file is /scratch/users/j/a/jabreu/pseudos/PBEsol/K.psp8
- pspatm: opening atomic psp file    /scratch/users/j/a/jabreu/pseudos/PBEsol/K.psp8
- K     ONCVPSP-3.3.0  r_core=   1.36296   1.46408   1.61068
- 19.00000   9.00000    180112                znucl, zion, pspdat
    8 -116133    2    4       400   0.00000   pspcod,pspxc,lmax,lloc,mmax,r2well
    3.99000000000000    5.00000000000000    0.00000000000000   rchrg,fchrg,qchrg
     nproj     2     2     2
     extension_switch     1
  pspatm : epsatm=    8.32487830
         --- l  ekb(1:nproj) -->
             0   10.921326    0.816676
             1    4.431000    0.560368
             2   -3.384038   -1.043186
 pspatm: atomic psp has been read  and splines computed

- pspini: atom type   2  psp file is /scratch/users/j/a/jabreu/pseudos/PBEsol/P.psp8
- pspatm: opening atomic psp file    /scratch/users/j/a/jabreu/pseudos/PBEsol/P.psp8
- P     ONCVPSP-3.3.0  r_core=   1.46089   1.55067   1.70594
- 15.00000   5.00000    180112                znucl, zion, pspdat
    8 -116133    2    4       600   0.00000   pspcod,pspxc,lmax,lloc,mmax,r2well
    5.99000000000000    5.00000000000000    0.00000000000000   rchrg,fchrg,qchrg
     nproj     2     2     2
     extension_switch     1
  pspatm : epsatm=    7.31221086
         --- l  ekb(1:nproj) -->
             0    6.742364    1.063650
             1    3.449117    0.910422
             2   -3.077645   -0.799176
 pspatm: atomic psp has been read  and splines computed

   5.09340337E+03                                ecore*ucvol(ha*bohr**3)

 ==>  initialize data related to q vector <==

 The list of irreducible perturbations for this q vector is:
    1)    idir= 1    ipert=  11
    2)    idir= 2    ipert=  11
    3)    idir= 3    ipert=  11

 Perturbation wavevector (in red.coord.)   0.000000  0.000000  0.000000
 Perturbation : derivative vs k along direction   1

 dfpt_looppert : COMMENT -
  In a d/dk calculation, iscf is set to -3 automatically.
 The set of symmetries contains only one element for this perturbation.
 symkpt : not enough symmetry to change the number of k points.

 Initialisation of the first-order wave-functions :
  ireadwf=   0

--- !BeginCycle
iteration_state: {dtset: 1, }
solver: {iscf: 7, nstep: 2000, nline: 4, wfoptalg: 0, }
tolerances: {tolwfr: 1.00E-20, }
...

     iter   2DEtotal(Ha)        deltaE(Ha) residm    vres2
-ETOT  1  -22.217076116866     -2.222E+01 2.908E-02 0.000E+00
 ETOT  2  -22.303667084344     -8.659E-02 1.911E-03 0.000E+00
 ETOT  3  -22.305201823235     -1.535E-03 6.882E-05 0.000E+00
 ETOT  4  -22.305244020109     -4.220E-05 3.716E-06 0.000E+00
 ETOT  5  -22.305245500320     -1.480E-06 3.269E-07 0.000E+00
 ETOT  6  -22.305245559011     -5.869E-08 3.061E-08 0.000E+00
 ETOT  7  -22.305245561550     -2.539E-09 3.614E-09 0.000E+00
 ETOT  8  -22.305245561665     -1.152E-10 3.660E-10 0.000E+00
 ETOT  9  -22.305245561670     -5.500E-12 4.284E-11 0.000E+00
 ETOT 10  -22.305245561671     -2.345E-13 4.534E-12 0.000E+00
 ETOT 11  -22.305245561671     -7.105E-14 5.290E-13 0.000E+00
 ETOT 12  -22.305245561671      1.066E-14 5.760E-14 0.000E+00
 ETOT 13  -22.305245561671      1.776E-14 6.690E-15 0.000E+00
 ETOT 14  -22.305245561671     -1.776E-14 7.449E-16 0.000E+00
 ETOT 15  -22.305245561671     -7.105E-15 8.589E-17 0.000E+00
 ETOT 16  -22.305245561671      3.553E-15 9.752E-18 0.000E+00
 ETOT 17  -22.305245561671     -3.553E-15 1.114E-18 0.000E+00
 ETOT 18  -22.305245561671      0.000E+00 1.287E-19 0.000E+00
 ETOT 19  -22.305245561671      7.105E-15 1.454E-20 0.000E+00
 ETOT 20  -22.305245561671      0.000E+00 9.908E-21 0.000E+00

 At SCF step   20   max residual=  9.91E-21 < tolwfr=  1.00E-20 =>converged.

 ----iterations are completed or convergence reached----

 dfpt_looppert: DFPT cycle converged with prtwf=-1. Will skip output of the 1st-order WFK file.
 dfpt_looppert : ek2=    4.4414541847E+01
          f-sum rule ratio=    1.0895504491E+00
 prteigrs : about to open file /scratch/users/j/a/jabreu/flow_simple_10atoms/flow/w291/t1/tmpdata/tmp_1WF1_EIG
 Expectation of eigenvalue derivatives (hartree) for nkpt=   1  k points:
  (in case of degenerate eigenvalues, averaged derivative)
 kpt#   1, nband= 42, wtk=  1.00000, kpt=  0.5000  0.0000  0.5000 (reduced coord)
  -0.00000    0.00000    0.00000   -0.00000    0.00000    0.00000   -0.00000    0.00000
  -0.00000    0.00000    0.00000    0.00000   -0.00000    0.00000   -0.00000   -0.00000
   0.00000    0.00000   -0.00000    0.00000   -0.00000    0.00000    0.00000   -0.00000
   0.00000    0.00000   -0.00000   -0.00000    0.00000   -0.00000   -0.00000   -0.00000
  -0.00000   -0.00000    0.00000   -0.00000    0.00000    0.00000   -0.00000    0.00000
   0.00000   -0.00061

 Eight components of 2nd-order total energy (hartree) are
 1,2,3: 0th-order hamiltonian combined with 1st-order wavefunctions
     kin0=   2.86344953E+01 eigvalue=   2.29651693E+00  local=  -1.82122099E+01
 4,5,6: 1st-order hamiltonian combined with 1st and 0th-order wfs
     kin1=  -4.83918840E+01  Hartree=   0.00000000E+00     xc=   0.00000000E+00
 7,8,9: eventually, occupation + non-local contributions
    edocc=   8.01584999E+00     enl0=   1.57059322E+00   enl1=   3.78139290E+00
 1-9 gives the relaxation energy (to be shifted if some occ is /=2.0)
   erelax=  -2.23052456E+01
  No Ewald or frozen-wf contrib.: the relaxation energy is the total one
 2DEtotal=   -0.2230524556E+02 Ha. Also 2DEtotal=   -0.606956599070E+03 eV
    (  non-var. 2DEtotal :   -2.2305245561E+01 Ha)

 Perturbation wavevector (in red.coord.)   0.000000  0.000000  0.000000
 Perturbation : derivative vs k along direction   2
 The set of symmetries contains only one element for this perturbation.
 symkpt : not enough symmetry to change the number of k points.

[...]

 Perturbation wavevector (in red.coord.)   0.000000  0.000000  0.000000
 Perturbation : derivative vs k along direction   3
 The set of symmetries contains only one element for this perturbation.
 symkpt : not enough symmetry to change the number of k points.

 Initialisation of the first-order wave-functions :
  ireadwf=   0

--- !BeginCycle
iteration_state: {dtset: 1, }
solver: {iscf: 7, nstep: 2000, nline: 4, wfoptalg: 0, }
tolerances: {tolwfr: 1.00E-20, }
...

     iter   2DEtotal(Ha)        deltaE(Ha) residm    vres2
-ETOT  1  -22.217086237089     -2.222E+01 2.908E-02 0.000E+00
 ETOT  2  -22.303677267032     -8.659E-02 1.911E-03 0.000E+00
 ETOT  3  -22.305212006671     -1.535E-03 6.882E-05 0.000E+00
 ETOT  4  -22.305254203265     -4.220E-05 3.716E-06 0.000E+00
 ETOT  5  -22.305255683470     -1.480E-06 3.269E-07 0.000E+00
 ETOT  6  -22.305255742161     -5.869E-08 3.061E-08 0.000E+00
 ETOT  7  -22.305255744700     -2.539E-09 3.614E-09 0.000E+00
 ETOT  8  -22.305255744815     -1.152E-10 3.660E-10 0.000E+00
 ETOT  9  -22.305255744821     -5.471E-12 4.284E-11 0.000E+00
 ETOT 10  -22.305255744821     -3.233E-13 4.534E-12 0.000E+00
 ETOT 11  -22.305255744821      1.066E-14 5.290E-13 0.000E+00
 ETOT 12  -22.305255744821      3.553E-15 5.760E-14 0.000E+00
 ETOT 13  -22.305255744821     -1.776E-14 6.690E-15 0.000E+00
 ETOT 14  -22.305255744821     -2.132E-14 7.449E-16 0.000E+00
 ETOT 15  -22.305255744821      1.421E-14 8.589E-17 0.000E+00
 ETOT 16  -22.305255744821     -1.066E-14 9.752E-18 0.000E+00
 ETOT 17  -22.305255744821     -3.553E-15 1.114E-18 0.000E+00
 ETOT 18  -22.305255744821     -3.553E-15 1.287E-19 0.000E+00
 ETOT 19  -22.305255744821      3.553E-15 1.454E-20 0.000E+00
 ETOT 20  -22.305255744821      0.000E+00 9.906E-21 0.000E+00

 At SCF step   20   max residual=  9.91E-21 < tolwfr=  1.00E-20 =>converged.

 ----iterations are completed or convergence reached----

 dfpt_looppert: DFPT cycle converged with prtwf=-1. Will skip output of the 1st-order WFK file.
 dfpt_looppert : ek2=    4.4414541830E+01
          f-sum rule ratio=    1.0895524876E+00
 prteigrs : about to open file /scratch/users/j/a/jabreu/flow_simple_10atoms/flow/w291/t1/tmpdata/tmp_1WF1_EIG
 Expectation of eigenvalue derivatives (hartree) for nkpt=   1  k points:
  (in case of degenerate eigenvalues, averaged derivative)
 kpt#   1, nband= 42, wtk=  1.00000, kpt=  0.5000  0.0000  0.5000 (reduced coord)
  -0.00000    0.00000    0.00000   -0.00000   -0.00000    0.00000    0.00000    0.00000
   0.00000   -0.00000   -0.00000   -0.00000    0.00000   -0.00000    0.00000   -0.00000
   0.00000   -0.00000    0.00000   -0.00000   -0.00000   -0.00000    0.00000   -0.00000
  -0.00000    0.00000   -0.00000   -0.00000   -0.00000    0.00000   -0.00000   -0.00000
   0.00000    0.00000    0.00000    0.00000    0.00000    0.00000    0.00000   -0.00000
   0.00000    0.00061

 Eight components of 2nd-order total energy (hartree) are
 1,2,3: 0th-order hamiltonian combined with 1st-order wavefunctions
     kin0=   2.86344995E+01 eigvalue=   2.29651279E+00  local=  -1.82122167E+01
 4,5,6: 1st-order hamiltonian combined with 1st and 0th-order wfs
     kin1=  -4.83919745E+01  Hartree=   0.00000000E+00     xc=   0.00000000E+00
 7,8,9: eventually, occupation + non-local contributions
    edocc=   8.01586692E+00     enl0=   1.57059322E+00   enl1=   3.78146305E+00
 1-9 gives the relaxation energy (to be shifted if some occ is /=2.0)
   erelax=  -2.23052557E+01
  No Ewald or frozen-wf contrib.: the relaxation energy is the total one
 2DEtotal=   -0.2230525574E+02 Ha. Also 2DEtotal=   -0.606956876168E+03 eV
    (  non-var. 2DEtotal :   -2.2305255744E+01 Ha)

 CALCULATION OF EFFECTIVE MASSES
 NOTE : Additional infos (eff. mass eigenvalues, eigenvectors and, if degenerate, average mass) are available in stdout.

 K-point ( 0.500, 0.000, 0.500) | band =    33
 Effective mass tensor:
             -1.4716695780             -0.4300433010              0.0398234561
             -0.4300433010             -0.6921278900             -0.0898423237
              0.0398234561             -0.0898423237             -0.4851107924
 Effective mass tensor eigenvalues:
             -1.6622939024             -0.5919212324             -0.3946931255
 Angular average effective mass 1/(<1/m>)=  -0.6218124037
 Angular average effective mass for Frohlich model (<m**0.5>)**2=  -0.6793992879
 Effective masses along directions: (cart. coord. / red. coord. -> eff. mass)
    1:   1.000000  0.000000  0.000000 /   0.830171  0.557510  0.000000 ->  -1.1851463756
    2:   0.000000  1.000000  0.000000 /   0.000000  1.000000  0.000000 ->  -0.5451874605
    3:   0.000000  0.000000  1.000000 /   0.441664  0.373894  0.815559 ->  -0.4658535997
    4:   0.577350  0.577350  0.577350 /   0.591824  0.733543  0.334153 ->  -0.9080927157
    5:   0.000000  0.707107  0.707107 /   0.304221  0.769333  0.561762 ->  -0.6227189077
    6:   0.707107  0.000000  0.707107 /   0.736307  0.533873  0.415730 ->  -0.6003674868
    7:   0.707107  0.707107  0.000000 /   0.577814  0.816168  0.000000 ->  -1.2616555718

 K-point ( 0.500, 0.000, 0.500) | band =    34
 Effective mass tensor:
              0.4164076396             -0.3402651235             -0.0504708172
             -0.3402651235              1.0332065570              0.1138606135
             -0.0504708172              0.1138606135              1.1632649591
 Effective mass tensor eigenvalues:
              0.2655788539              1.0486725733              1.2986277285
 Angular average effective mass 1/(<1/m>)=   0.5465486226
 Angular average effective mass for Frohlich model (<m**0.5>)**2=   0.6452044694
 Effective masses along directions: (cart. coord. / red. coord. -> eff. mass)
    1:   1.000000  0.000000  0.000000 /   0.830171  0.557510  0.000000 ->   0.3042021275
    2:   0.000000  1.000000  0.000000 /   0.000000  1.000000  0.000000 ->   0.7506035529
    3:   0.000000  0.000000  1.000000 /   0.441664  0.373894  0.815559 ->   1.1501643850
    4:   0.577350  0.577350  0.577350 /   0.591824  0.733543  0.334153 ->   0.3971969940
    5:   0.000000  0.707107  0.707107 /   0.304221  0.769333  0.561762 ->   0.9830494121
    6:   0.707107  0.000000  0.707107 /   0.736307  0.533873  0.415730 ->   0.4727181699
    7:   0.707107  0.707107  0.000000 /   0.577814  0.816168  0.000000 ->   0.2951340818

 END OF EFFECTIVE MASSES SECTION

 ---- first-order wavefunction calculations are completed ----

 Total localisation tensor (bohr^2) in cartesian coordinates
  WARNING : still subject to testing - especially symmetries.
      direction              matrix element
   alpha     beta       real part   imaginary part
     1        1       5.1349936810    0.0000000000
     1        2       1.7609554869    0.0000000000
     1        3       2.4448241970    0.0000000000
     2        1       1.7609554869    0.0000000000
     2        2       1.9429080318    0.0000000000
     2        3       0.9776975474    0.0000000000
     3        1       2.4448241970    0.0000000000
     3        2       0.9776975474    0.0000000000
     3        3       3.5193266192    0.0000000000

 respfn : d/dk was computed, but no 2DTE, so no DDB output.

== END DATASET(S) ==============================================================

 -outvars: echo values of variables after computation  --------
            acell      1.0000000000E+00  1.0000000000E+00  1.0000000000E+00 Bohr
              amu      3.90983000E+01  3.09737620E+01
             ecut      3.60000000E+01 Hartree
           etotal     -2.2305255745E+01
            fcart      0.0000000000E+00  0.0000000000E+00  0.0000000000E+00
                       0.0000000000E+00  0.0000000000E+00  0.0000000000E+00
                       0.0000000000E+00  0.0000000000E+00  0.0000000000E+00
                       0.0000000000E+00  0.0000000000E+00  0.0000000000E+00
                       0.0000000000E+00  0.0000000000E+00  0.0000000000E+00
                       0.0000000000E+00  0.0000000000E+00  0.0000000000E+00
                       0.0000000000E+00  0.0000000000E+00  0.0000000000E+00
                       0.0000000000E+00  0.0000000000E+00  0.0000000000E+00
                       0.0000000000E+00  0.0000000000E+00  0.0000000000E+00
                       0.0000000000E+00  0.0000000000E+00  0.0000000000E+00
-          fftalg         512
           irdden           1
           irdwfk           1
           istwfk        1
              ixc     -116133
              kpt      5.00000000E-01  0.00000000E+00  5.00000000E-01
           kptopt           0
P           mkmem           1
P          mkqmem           1
P          mk1mem           1
            natom          10
            nband          42
           nbdbuf           4
            ngfft          90      90      90
             nkpt           1
            nstep        2000
             nsym           8
           ntypat           2
              occ      2.000000  2.000000  2.000000  2.000000  2.000000  2.000000
                       2.000000  2.000000  2.000000  2.000000  2.000000  2.000000
                       2.000000  2.000000  2.000000  2.000000  2.000000  2.000000
                       2.000000  2.000000  2.000000  2.000000  2.000000  2.000000
                       2.000000  2.000000  2.000000  2.000000  2.000000  2.000000
                       2.000000  2.000000  2.000000  0.000000  0.000000  0.000000
                       0.000000  0.000000  0.000000  0.000000  0.000000  0.000000
        optdriver           1
            prtwf          -1
            rfdir           1       1       1
           rfelfd           2
            rprim      1.4618923000E+01  0.0000000000E+00  6.4387256739E+00
                       9.8174879126E+00  1.0831889994E+01  5.4507532563E+00
                       0.0000000000E+00  0.0000000000E+00  1.1889478931E+01
          spgroup          69
           strten      0.0000000000E+00  0.0000000000E+00  0.0000000000E+00
                       0.0000000000E+00  0.0000000000E+00  0.0000000000E+00
           symrel      1  0  0   0  1  0   0  0  1      -1  0  0   0 -1  0   0  0 -1
                      -1  0  0  -1  0  1  -1  1  0       1  0  0   1  0 -1   1 -1  0
                       0 -1  1   0 -1  0   1 -1  0       0  1 -1   0  1  0  -1  1  0
                       0  1 -1   1  0 -1   0  0 -1       0 -1  1  -1  0  1   0  0  1
           tolwfr      1.00000000E-20
            typat      1  1  1  1  2  2  2  2  2  2
           useylm           1
           xangst      9.6983937858E+00  4.2989919830E+00  9.4374619083E+00
                       3.2327979286E+00  1.4329973277E+00  3.1458206361E+00
                       5.8800255359E+00  4.1870233038E+00  4.7211413723E+00
                       7.0511661785E+00  1.5449660069E+00  7.8621411721E+00
                       8.1660375872E+00  1.6933672101E+00  4.6712637985E+00
                       6.1925049702E+00  8.1856246551E-01  4.6712637986E+00
                       4.7651541272E+00  4.0386221006E+00  7.9120187459E+00
                       6.7386867443E+00  4.9134268452E+00  7.9120187458E+00
                       1.9831663549E+00  8.7907507666E-01  6.2916412724E+00
                       1.0948025360E+01  4.8529142341E+00  6.2916412720E+00
            xcart      1.8327308184E+01  8.1239174954E+00  1.7834218396E+01
                       6.1091027280E+00  2.7079724985E+00  5.9447394654E+00
                       1.1111637917E+01  7.9123273563E+00  8.9216642282E+00
                       1.3324772995E+01  2.9195626376E+00  1.4857293633E+01
                       1.5431574631E+01  3.2000002696E+00  8.8274092736E+00
                       1.1702138470E+01  1.5468588825E+00  8.8274092738E+00
                       9.0048362814E+00  7.6318897243E+00  1.4951548588E+01
                       1.2734272442E+01  9.2850311114E+00  1.4951548588E+01
                       3.7476412867E+00  1.6612111451E+00  1.1889478931E+01
                       2.0688769625E+01  9.1706788488E+00  1.1889478930E+01
             xred      7.5000000000E-01  7.5000000000E-01  7.5000000000E-01
                       2.5000000000E-01  2.5000000000E-01  2.5000000000E-01
                       2.6953400000E-01  7.3046600000E-01  2.6953400000E-01
                       7.3046600000E-01  2.6953400000E-01  7.3046600000E-01
                       8.5719400000E-01  2.9542400000E-01  1.4280600000E-01
                       7.0457600000E-01  1.4280600000E-01  2.9542400000E-01
                       1.4280600000E-01  7.0457600000E-01  8.5719400000E-01
                       2.9542400000E-01  8.5719400000E-01  7.0457600000E-01
                       1.5336300000E-01  1.5336300000E-01  8.4663700000E-01
                       8.4663700000E-01  8.4663700000E-01  1.5336300000E-01
            znucl       19.00000   15.00000

- Timing analysis has been suppressed with timopt=0

 Suggested references for the acknowledgment of ABINIT usage.

 Calculation completed.
.Delivered   2 WARNINGs and   5 COMMENTs to log file.