.Version 9.5.1 of ABINIT

 ABINIT is a project of the Universite Catholique de Louvain,
 Corning Inc. and other collaborators, see ~abinit/doc/developers/contributors.txt .
 acknowledgments of the ABINIT effort.

.Starting date : Wed 19 May 2021.
- ( at 07h46 )

- input  file    -> /scratch/users/j/a/jabreu/flow_simple_9atoms/flow/w111/t1/run.abi
- output file    -> /scratch/users/j/a/jabreu/flow_simple_9atoms/flow/w111/t1/run.abo
- root for input  files -> /scratch/users/j/a/jabreu/flow_simple_9atoms/flow/w111/t1/indata/in
- root for output files -> /scratch/users/j/a/jabreu/flow_simple_9atoms/flow/w111/t1/outdata/out

 Symmetries : space group P-3 1 m (#162); Bravais hP (primitive hexag.)
     intxc =       0      iscf =       7    lmnmax =      18     lnmax =       6
     mgfft =      72  mpssoang =       3    mqgrid =    3001     natom =       9
  nloc_mem =       1    nspden =       1   nspinor =       1    nsppol =       1
      nsym =      12    n1xccc =    2501    ntypat =       3    occopt =       1
   xclevel =       2
-    mband =          52        mffmem =           1         mkmem =           2
-   mkqmem =           2        mk1mem =           2           mpw =       13656
      nfft =      311040          nkpt =           2
  Rough estimation (10% accuracy) of disk space for files :

------------- Echo of variables that govern the present computation ------------
-
- outvars: echo of selected default values
-   iomode0 =  0 , fftalg0 =512 , wfoptalg0 =  0
-
- outvars: echo of global parameters not present in the input file
-  max_nthreads =    0
-
 -outvars: echo values of preprocessed input variables --------
            acell      1.0000000000E+00  1.0000000000E+00  1.0000000000E+00 Bohr
              amu      1.12411000E+02  1.21753000E+02  1.59994000E+01
             ecut      5.10000000E+01 Hartree
-          fftalg         512
           irdden           1
           irdwfk           1
           istwfk        0    1
              ixc     -116133
              kpt      3.33333333E-01  3.33333333E-01  3.25000000E-01
                       0.00000000E+00  0.00000000E+00  0.00000000E+00
           kptopt           0
P           mkmem           2
P          mkqmem           2
P          mk1mem           2
            natom           9
            nband          52
           nbdbuf           4
            ngfft          72      72      60
             nkpt           2
            nstep        2000
             nsym          12
           ntypat           3
              occ      2.000000  2.000000  2.000000  2.000000  2.000000  2.000000
                       2.000000  2.000000  2.000000  2.000000  2.000000  2.000000
                       2.000000  2.000000  2.000000  2.000000  2.000000  2.000000
                       2.000000  2.000000  2.000000  2.000000  2.000000  2.000000
                       2.000000  2.000000  2.000000  2.000000  2.000000  2.000000
                       2.000000  2.000000  2.000000  2.000000  2.000000  2.000000
                       2.000000  2.000000  2.000000  2.000000  2.000000  2.000000
                       2.000000  0.000000  0.000000  0.000000  0.000000  0.000000
                       0.000000  0.000000  0.000000  0.000000
        optdriver           1
            prtwf          -1
            rfdir           1       1       1
           rfelfd           2
            rprim      9.9864092994E+00  0.0000000000E+00  0.0000000000E+00
                      -4.9932046497E+00  8.6484841459E+00  0.0000000000E+00
                       0.0000000000E+00  0.0000000000E+00  9.0786199992E+00
          spgroup         162
           symrel      1  0  0   0  1  0   0  0  1      -1  0  0   0 -1  0   0  0 -1
                       0  1  0   1  0  0   0  0  1       0 -1  0  -1  0  0   0  0 -1
                       0  1  0  -1 -1  0   0  0  1       0 -1  0   1  1  0   0  0 -1
                      -1 -1  0   0  1  0   0  0  1       1  1  0   0 -1  0   0  0 -1
                      -1 -1  0   1  0  0   0  0  1       1  1  0  -1  0  0   0  0 -1
                       1  0  0  -1 -1  0   0  0  1      -1  0  0   1  1  0   0  0 -1
           tolwfr      1.00000000E-20
            typat      1  2  2  3  3  3  3  3  3
           useylm           1
              wtk        0.50000    0.50000
           xangst      0.0000000000E+00  0.0000000000E+00  0.0000000000E+00
                       0.0000000000E+00  3.0510537992E+00  2.4020993945E+00
                       2.6422900984E+00  1.5255268996E+00  2.4020993945E+00
                       1.6784117357E+00  2.9070944023E+00  1.3104893457E+00
                      -9.6387836272E-01  1.6694862966E+00  1.3104893457E+00
                       1.9277567254E+00  0.0000000000E+00  1.3104893457E+00
                      -1.6784117357E+00  2.9070944023E+00  3.4937094434E+00
                       3.3568234714E+00  0.0000000000E+00  3.4937094434E+00
                       9.6387836272E-01  1.6694862966E+00  3.4937094434E+00
            xcart      0.0000000000E+00  0.0000000000E+00  0.0000000000E+00
                       0.0000000000E+00  5.7656560973E+00  4.5393099996E+00
                       4.9932046497E+00  2.8828280486E+00  4.5393099996E+00
                       3.1717385187E+00  5.4936122628E+00  2.4764659634E+00
                      -1.8214661310E+00  3.1548718831E+00  2.4764659634E+00
                       3.6429322619E+00  0.0000000000E+00  2.4764659634E+00
                      -3.1717385187E+00  5.4936122628E+00  6.6021540358E+00
                       6.3434770375E+00  0.0000000000E+00  6.6021540358E+00
                       1.8214661310E+00  3.1548718831E+00  6.6021540358E+00
             xred      0.0000000000E+00  0.0000000000E+00  0.0000000000E+00
                       3.3333333333E-01  6.6666666667E-01  5.0000000000E-01
                       6.6666666667E-01  3.3333333333E-01  5.0000000000E-01
                       6.3521100000E-01  6.3521100000E-01  2.7278000000E-01
                       0.0000000000E+00  3.6478900000E-01  2.7278000000E-01
                       3.6478900000E-01  0.0000000000E+00  2.7278000000E-01
                       0.0000000000E+00  6.3521100000E-01  7.2722000000E-01
                       6.3521100000E-01  0.0000000000E+00  7.2722000000E-01
                       3.6478900000E-01  3.6478900000E-01  7.2722000000E-01
            znucl       48.00000   51.00000    8.00000

 chkinp: Checking input parameters for consistency.

== DATASET  1 ==================================================================
-   mpi_nproc: 1, omp_nthreads: -1 (-1 if OMP is not activated)

--- !DatasetInfo
iteration_state: {dtset: 1, }
dimensions: {natom: 9, nkpt: 2, mband: 52, nsppol: 1, nspinor: 1, nspden: 1, mpw: 13656, }
cutoff_energies: {ecut:  51.0, pawecutdg:  -1.0, }
electrons: {nelect:   8.60000000E+01, charge:   0.00000000E+00, occopt:   1.00000000E+00, tsmear:   1.00000000E-02, }
meta: {optdriver: 1, rfelfd: 2, }
...

 Real(R)+Recip(G) space primitive vectors, cartesian coordinates (Bohr,Bohr^-1):
 R(1)=  9.9864093  0.0000000  0.0000000  G(1)=  0.1001361  0.0578136  0.0000000
 R(2)= -4.9932046  8.6484841  0.0000000  G(2)=  0.0000000  0.1156272  0.0000000
 R(3)=  0.0000000  0.0000000  9.0786200  G(3)=  0.0000000  0.0000000  0.1101489
 Unit cell volume ucvol=  7.8409592E+02 bohr^3
 Angles (23,13,12)=  9.00000000E+01  9.00000000E+01  1.20000000E+02 degrees

 getcut: wavevector=  0.0000  0.0000  0.0000  ngfft=  72  72  60
         ecut(hartree)=     51.000   => boxcut(ratio)=   2.05580

--- Pseudopotential description ------------------------------------------------
- pspini: atom type   1  psp file is /scratch/users/j/a/jabreu/pseudos/PBEsol/Cd.psp8
- pspatm: opening atomic psp file    /scratch/users/j/a/jabreu/pseudos/PBEsol/Cd.psp8
- Cd    ONCVPSP-3.3.0  r_core=   1.25838   1.30423   1.35174
- 48.00000  20.00000    180112                znucl, zion, pspdat
    8 -116133    2    4       600   0.00000   pspcod,pspxc,lmax,lloc,mmax,r2well
    5.99000000000000    6.00000000000000    0.00000000000000   rchrg,fchrg,qchrg
     nproj     2     2     2
     extension_switch     1
  pspatm : epsatm=   23.26728021
         --- l  ekb(1:nproj) -->
             0   63.701523    3.700425
             1    8.703569    1.290373
             2    0.983656   -0.721725
 pspatm: atomic psp has been read  and splines computed

- pspini: atom type   2  psp file is /scratch/users/j/a/jabreu/pseudos/PBEsol/Sb.psp8
- pspatm: opening atomic psp file    /scratch/users/j/a/jabreu/pseudos/PBEsol/Sb.psp8
- Sb    ONCVPSP-3.3.0  r_core=   1.81962   2.12485   1.81962
- 51.00000  15.00000    180112                znucl, zion, pspdat
    8 -116133    2    4       600   0.00000   pspcod,pspxc,lmax,lloc,mmax,r2well
    5.99000000000000    5.00000000000000    0.00000000000000   rchrg,fchrg,qchrg
     nproj     2     2     2
     extension_switch     1
  pspatm : epsatm=   26.35641246
         --- l  ekb(1:nproj) -->
             0    9.727814    1.485032
             1    5.505335    0.704623
             2   -4.710637   -1.436443
 pspatm: atomic psp has been read  and splines computed

- pspini: atom type   3  psp file is /scratch/users/j/a/jabreu/pseudos/PBEsol/O.psp8
- pspatm: opening atomic psp file    /scratch/users/j/a/jabreu/pseudos/PBEsol/O.psp8
- O     ONCVPSP-3.3.0  r_core=   1.35509   1.45563   1.26150
-  8.00000   6.00000    180112                znucl, zion, pspdat
    8 -116133    2    4       600   0.00000   pspcod,pspxc,lmax,lloc,mmax,r2well
    5.99000000000000    4.00000000000000    0.00000000000000   rchrg,fchrg,qchrg
     nproj     2     2     1
     extension_switch     1
  pspatm : epsatm=    6.22910522
         --- l  ekb(1:nproj) -->
             0    6.050032    0.820363
             1   -4.739617   -1.153841
             2   -1.335834
 pspatm: atomic psp has been read  and splines computed

   9.74850733E+03                                ecore*ucvol(ha*bohr**3)

-inwffil : will read wavefunctions from disk file /scratch/users/j/a/jabreu/flow_simple_9atoms/flow/w111/t1/indata/in_WFK

 ==>  initialize data related to q vector <==

 The list of irreducible perturbations for this q vector is:
    1)    idir= 1    ipert=  10
    2)    idir= 2    ipert=  10
    3)    idir= 3    ipert=  10

 Perturbation wavevector (in red.coord.)   0.000000  0.000000  0.000000
 Perturbation : derivative vs k along direction   1

 dfpt_looppert : COMMENT -
  In a d/dk calculation, iscf is set to -3 automatically.
 The set of symmetries contains only one element for this perturbation.
 symkpt : not enough symmetry to change the number of k points.

[...]

 Initialisation of the first-order wave-functions :
  ireadwf=   0

--- !BeginCycle
iteration_state: {dtset: 1, }
solver: {iscf: 7, nstep: 2000, nline: 4, wfoptalg: 0, }
tolerances: {tolwfr: 1.00E-20, }
...

     iter   2DEtotal(Ha)        deltaE(Ha) residm    vres2
-ETOT  1  -66.558871614092     -6.656E+01 3.154E-01 0.000E+00
 ETOT  2  -66.733427131527     -1.746E-01 4.163E-02 0.000E+00
 ETOT  3  -66.736474333964     -3.047E-03 1.197E-02 0.000E+00
 ETOT  4  -66.736590213224     -1.159E-04 1.061E-02 0.000E+00
[...]

 Eight components of 2nd-order total energy (hartree) are
 1,2,3: 0th-order hamiltonian combined with 1st-order wavefunctions
     kin0=   8.99399282E+01 eigvalue=   5.37525107E+00  local=  -4.44027742E+01
 4,5,6: 1st-order hamiltonian combined with 1st and 0th-order wfs
     kin1=  -9.55356485E+01  Hartree=   0.00000000E+00     xc=   0.00000000E+00
 7,8,9: eventually, occupation + non-local contributions
    edocc=   1.06057066E+01     enl0=   5.21848455E+00   enl1=  -3.79375438E+01
 1-9 gives the relaxation energy (to be shifted if some occ is /=2.0)
   erelax=  -6.67365961E+01
  No Ewald or frozen-wf contrib.: the relaxation energy is the total one
 2DEtotal=   -0.6673659612E+02 Ha. Also 2DEtotal=   -0.181599513445E+04 eV
    (  non-var. 2DEtotal :   -6.6736596117E+01 Ha)

 Perturbation wavevector (in red.coord.)   0.000000  0.000000  0.000000
 Perturbation : derivative vs k along direction   2
 The set of symmetries contains only one element for this perturbation.
 symkpt : not enough symmetry to change the number of k points.

[...]

 Perturbation wavevector (in red.coord.)   0.000000  0.000000  0.000000
 Perturbation : derivative vs k along direction   3
 The set of symmetries contains only one element for this perturbation.
 symkpt : not enough symmetry to change the number of k points.

-inwffil : will read wavefunctions from disk file /scratch/users/j/a/jabreu/flow_simple_9atoms/flow/w111/t1/indata/in_WFK

 Initialisation of the first-order wave-functions :
  ireadwf=   0

--- !BeginCycle
iteration_state: {dtset: 1, }
solver: {iscf: 7, nstep: 2000, nline: 4, wfoptalg: 0, }
tolerances: {tolwfr: 1.00E-20, }
...

     iter   2DEtotal(Ha)        deltaE(Ha) residm    vres2
-ETOT  1  -59.775465213522     -5.978E+01 2.752E-01 0.000E+00
 ETOT  2  -59.879102152260     -1.036E-01 2.907E-02 0.000E+00
 ETOT  3  -59.880384647864     -1.282E-03 6.908E-03 0.000E+00
 ETOT  4  -59.880427405783     -4.276E-05 5.632E-03 0.000E+00
 ETOT  5  -59.880429377304     -1.972E-06 5.518E-04 0.000E+00
 ETOT  6  -59.880429483077     -1.058E-07 8.481E-04 0.000E+00
 ETOT  7  -59.880429489413     -6.337E-09 9.307E-05 0.000E+00
 ETOT  8  -59.880429489822     -4.087E-10 1.579E-04 0.000E+00
 ETOT  9  -59.880429489850     -2.800E-11 2.244E-05 0.000E+00
 ETOT 10  -59.880429489852     -2.011E-12 3.218E-05 0.000E+00
 ETOT 11  -59.880429489852     -1.563E-13 4.837E-06 0.000E+00
 ETOT 12  -59.880429489852      2.842E-14 6.703E-06 0.000E+00
 ETOT 13  -59.880429489852     -7.105E-15 1.058E-06 0.000E+00
 ETOT 14  -59.880429489852     -7.105E-14 1.425E-06 0.000E+00
 ETOT 15  -59.880429489852      1.421E-14 2.340E-07 0.000E+00
 ETOT 16  -59.880429489852     -1.421E-14 3.084E-07 0.000E+00
 ETOT 17  -59.880429489852      2.842E-14 5.221E-08 0.000E+00
 ETOT 18  -59.880429489852      0.000E+00 6.784E-08 0.000E+00
 ETOT 19  -59.880429489852     -2.842E-14 1.173E-08 0.000E+00
 ETOT 20  -59.880429489852      1.421E-14 1.513E-08 0.000E+00
 ETOT 21  -59.880429489852      1.421E-14 2.652E-09 0.000E+00
 ETOT 22  -59.880429489852      0.000E+00 3.410E-09 0.000E+00
 ETOT 23  -59.880429489852      0.000E+00 6.015E-10 0.000E+00
 ETOT 24  -59.880429489852      0.000E+00 7.746E-10 0.000E+00
 ETOT 25  -59.880429489852      0.000E+00 1.367E-10 0.000E+00
 ETOT 26  -59.880429489852      0.000E+00 1.768E-10 0.000E+00
 ETOT 27  -59.880429489852      1.421E-14 3.106E-11 0.000E+00
 ETOT 28  -59.880429489852     -2.842E-14 4.043E-11 0.000E+00
 ETOT 29  -59.880429489852      2.842E-14 7.051E-12 0.000E+00
 ETOT 30  -59.880429489852     -2.842E-14 9.246E-12 0.000E+00
 ETOT 31  -59.880429489852      1.421E-14 1.599E-12 0.000E+00
 ETOT 32  -59.880429489852     -7.105E-15 2.113E-12 0.000E+00
 ETOT 33  -59.880429489852      2.132E-14 3.621E-13 0.000E+00
 ETOT 34  -59.880429489852      0.000E+00 4.829E-13 0.000E+00
 ETOT 35  -59.880429489852      0.000E+00 8.205E-14 0.000E+00
 ETOT 36  -59.880429489852      0.000E+00 1.104E-13 0.000E+00
 ETOT 37  -59.880429489852     -1.421E-14 1.862E-14 0.000E+00
 ETOT 38  -59.880429489852     -1.421E-14 2.530E-14 0.000E+00
 ETOT 39  -59.880429489852      1.421E-14 4.238E-15 0.000E+00
 ETOT 40  -59.880429489852      7.105E-15 5.810E-15 0.000E+00
 ETOT 41  -59.880429489852      0.000E+00 9.679E-16 0.000E+00
 ETOT 42  -59.880429489852     -1.421E-14 1.338E-15 0.000E+00
 ETOT 43  -59.880429489852      4.263E-14 2.218E-16 0.000E+00
 ETOT 44  -59.880429489852     -4.263E-14 3.087E-16 0.000E+00
 ETOT 45  -59.880429489852      7.105E-15 5.095E-17 0.000E+00
 ETOT 46  -59.880429489852     -2.132E-14 7.136E-17 0.000E+00
 ETOT 47  -59.880429489852      1.421E-14 1.173E-17 0.000E+00
 ETOT 48  -59.880429489852      1.421E-14 1.652E-17 0.000E+00
 ETOT 49  -59.880429489852      7.105E-15 2.704E-18 0.000E+00
 ETOT 50  -59.880429489852      0.000E+00 3.825E-18 0.000E+00
 ETOT 51  -59.880429489852     -7.105E-15 6.238E-19 0.000E+00
 ETOT 52  -59.880429489852     -1.421E-14 8.856E-19 0.000E+00
 ETOT 53  -59.880429489852      3.553E-14 1.439E-19 0.000E+00
 ETOT 54  -59.880429489852     -1.421E-14 2.052E-19 0.000E+00
 ETOT 55  -59.880429489852     -1.421E-14 3.322E-20 0.000E+00
 ETOT 56  -59.880429489852      2.842E-14 4.759E-20 0.000E+00
 ETOT 57  -59.880429489852     -1.421E-14 9.849E-21 0.000E+00

 At SCF step   57   max residual=  9.85E-21 < tolwfr=  1.00E-20 =>converged.

 ----iterations are completed or convergence reached----

 dfpt_looppert: DFPT cycle converged with prtwf=-1. Will skip output of the 1st-order WFK file.
 dfpt_looppert : ek2=    8.2385068456E+01
          f-sum rule ratio=    1.0319273218E+00
 prteigrs : about to open file /scratch/users/j/a/jabreu/flow_simple_9atoms/flow/w111/t1/tmpdata/tmp_1WF1_EIG
 Expectation of eigenvalue derivatives (hartree) for nkpt=   2  k points:
  (in case of degenerate eigenvalues, averaged derivative)
 kpt#   1, nband= 52, wtk=  0.50000, kpt=  0.3333  0.3333  0.3250 (reduced coord)
  -0.00000    0.00000    0.00000   -0.00000   -0.00007   -0.00004   -0.00004   -0.00003
  -0.00002    0.00001    0.00001    0.00005    0.00005   -0.00000    0.00943    0.00943
   0.00992   -0.01238   -0.01238   -0.01094   -0.01786   -0.01786    0.01630    0.01630
   0.01248   -0.03529   -0.03529   -0.10756    0.01703    0.01703    0.00951    0.11602
   0.11602    0.06661    0.07142   -0.01330   -0.12155   -0.12155    0.07629    0.07629
  -0.06545   -0.06545    0.00399    0.01252    0.01252   -0.12400   -0.02476   -0.02476
   0.05850    0.07993    0.07993   -0.03063
 prteigrs : prtvol=0 or 1, do not print more k-points.

 Eight components of 2nd-order total energy (hartree) are
 1,2,3: 0th-order hamiltonian combined with 1st-order wavefunctions
     kin0=   8.28332879E+01 eigvalue=   4.90305615E+00  local=  -4.04986666E+01
 4,5,6: 1st-order hamiltonian combined with 1st and 0th-order wfs
     kin1=  -8.50154031E+01  Hartree=   0.00000000E+00     xc=   0.00000000E+00
 7,8,9: eventually, occupation + non-local contributions
    edocc=   7.66871706E+00     enl0=   4.97403491E+00   enl1=  -3.47454559E+01
 1-9 gives the relaxation energy (to be shifted if some occ is /=2.0)
   erelax=  -5.98804295E+01
  No Ewald or frozen-wf contrib.: the relaxation energy is the total one
 2DEtotal=   -0.5988042949E+02 Ha. Also 2DEtotal=   -0.162942935255E+04 eV
    (  non-var. 2DEtotal :   -5.9880429490E+01 Ha)

 CALCULATION OF EFFECTIVE MASSES
 NOTE : Additional infos (eff. mass eigenvalues, eigenvectors and, if degenerate, average mass) are available in stdout.

 K-point ( 0.333, 0.333, 0.325) | band =    43
 Effective mass tensor:
            -25.7122249536              0.0033547972             -0.0019453359
              0.0033547972            -25.7140140259             -0.0032881632
             -0.0019453359             -0.0032881632             -1.2906214406
 Effective mass tensor eigenvalues:
            -25.7165915834            -25.7096479938             -1.2906208429
 Angular average effective mass 1/(<1/m>)=  -3.5186397449
 Angular average effective mass for Frohlich model (<m**0.5>)**2=  -6.4357450959
 Effective masses along directions: (cart. coord. / red. coord. -> eff. mass)
    1:   1.000000  0.000000  0.000000 /   0.894427 -0.447214  0.000000 -> -25.7122215824
    2:   0.000000  1.000000  0.000000 /   0.000000  1.000000  0.000000 -> -25.7140052095
    3:   0.000000  0.000000  1.000000 /   0.000000  0.000000  1.000000 ->  -1.2906208729
    4:   0.577350  0.577350  0.577350 /   0.714207  0.261418  0.649284 ->  -3.5199000701
    5:   0.000000  0.707107  0.707107 /   0.000000  0.689746  0.724051 ->  -2.4584762804
    6:   0.707107  0.000000  0.707107 /   0.693966 -0.346983  0.630883 ->  -2.4582236513
    7:   0.707107  0.707107  0.000000 /   0.939071  0.343724  0.000000 -> -25.7097540506

 K-point ( 0.000, 0.000, 0.000) | band =    44
 Effective mass tensor:
              0.2169849121              0.0000000008             -0.0000000005
              0.0000000008              0.2169849098             -0.0000000003
             -0.0000000005             -0.0000000003              0.2472440550
 Effective mass tensor eigenvalues:
              0.2169849096              0.2169849124              0.2472440550
 Angular average effective mass 1/(<1/m>)=   0.2262133391
 Angular average effective mass for Frohlich model (<m**0.5>)**2=   0.2264644721
 Effective masses along directions: (cart. coord. / red. coord. -> eff. mass)
    1:   1.000000  0.000000  0.000000 /   0.894427 -0.447214  0.000000 ->   0.2169849121
    2:   0.000000  1.000000  0.000000 /   0.000000  1.000000  0.000000 ->   0.2169849098
    3:   0.000000  0.000000  1.000000 /   0.000000  0.000000  1.000000 ->   0.2472440550
    4:   0.577350  0.577350  0.577350 /   0.714207  0.261418  0.649284 ->   0.2262133393
    5:   0.000000  0.707107  0.707107 /   0.000000  0.689746  0.724051 ->   0.2311283137
    6:   0.707107  0.000000  0.707107 /   0.693966 -0.346983  0.630883 ->   0.2311283148
    7:   0.707107  0.707107  0.000000 /   0.939071  0.343724  0.000000 ->   0.2169849118

 END OF EFFECTIVE MASSES SECTION

 ---- first-order wavefunction calculations are completed ----

 Total localisation tensor (bohr^2) in cartesian coordinates
  WARNING : still subject to testing - especially symmetries.
      direction              matrix element
   alpha     beta       real part   imaginary part
     1        1       1.3672916402    0.0000000000
     1        2      -0.4736462743    0.0000000000
     1        3       0.0000000000    0.0000000000
     2        1      -0.4736462743    0.0000000000
     2        2       0.8203794119    0.0000000000
     2        3       0.0000000000    0.0000000000
     3        1       0.0000000000    0.0000000000
     3        2       0.0000000000    0.0000000000
     3        3       0.7962120112    0.0000000000

 respfn : d/dk was computed, but no 2DTE, so no DDB output.

== END DATASET(S) ==============================================================

 -outvars: echo values of variables after computation  --------
            acell      1.0000000000E+00  1.0000000000E+00  1.0000000000E+00 Bohr
              amu      1.12411000E+02  1.21753000E+02  1.59994000E+01
             ecut      5.10000000E+01 Hartree
           etotal     -5.9880429490E+01
            fcart      0.0000000000E+00  0.0000000000E+00  0.0000000000E+00
                       0.0000000000E+00  0.0000000000E+00  0.0000000000E+00
                       0.0000000000E+00  0.0000000000E+00  0.0000000000E+00
                       0.0000000000E+00  0.0000000000E+00  0.0000000000E+00
                       0.0000000000E+00  0.0000000000E+00  0.0000000000E+00
                       0.0000000000E+00  0.0000000000E+00  0.0000000000E+00
                       0.0000000000E+00  0.0000000000E+00  0.0000000000E+00
                       0.0000000000E+00  0.0000000000E+00  0.0000000000E+00
                       0.0000000000E+00  0.0000000000E+00  0.0000000000E+00
-          fftalg         512
           irdden           1
           irdwfk           1
           istwfk        0    1
              ixc     -116133
              kpt      3.33333333E-01  3.33333333E-01  3.25000000E-01
                       0.00000000E+00  0.00000000E+00  0.00000000E+00
           kptopt           0
P           mkmem           2
P          mkqmem           2
P          mk1mem           2
            natom           9
            nband          52
           nbdbuf           4
            ngfft          72      72      60
             nkpt           2
            nstep        2000
             nsym          12
           ntypat           3
              occ      2.000000  2.000000  2.000000  2.000000  2.000000  2.000000
                       2.000000  2.000000  2.000000  2.000000  2.000000  2.000000
                       2.000000  2.000000  2.000000  2.000000  2.000000  2.000000
                       2.000000  2.000000  2.000000  2.000000  2.000000  2.000000
                       2.000000  2.000000  2.000000  2.000000  2.000000  2.000000
                       2.000000  2.000000  2.000000  2.000000  2.000000  2.000000
                       2.000000  2.000000  2.000000  2.000000  2.000000  2.000000
                       2.000000  0.000000  0.000000  0.000000  0.000000  0.000000
                       0.000000  0.000000  0.000000  0.000000
        optdriver           1
            prtwf          -1
            rfdir           1       1       1
           rfelfd           2
            rprim      9.9864092994E+00  0.0000000000E+00  0.0000000000E+00
                      -4.9932046497E+00  8.6484841459E+00  0.0000000000E+00
                       0.0000000000E+00  0.0000000000E+00  9.0786199992E+00
          spgroup         162
           strten      0.0000000000E+00  0.0000000000E+00  0.0000000000E+00
                       0.0000000000E+00  0.0000000000E+00  0.0000000000E+00
           symrel      1  0  0   0  1  0   0  0  1      -1  0  0   0 -1  0   0  0 -1
                       0  1  0   1  0  0   0  0  1       0 -1  0  -1  0  0   0  0 -1
                       0  1  0  -1 -1  0   0  0  1       0 -1  0   1  1  0   0  0 -1
                      -1 -1  0   0  1  0   0  0  1       1  1  0   0 -1  0   0  0 -1
                      -1 -1  0   1  0  0   0  0  1       1  1  0  -1  0  0   0  0 -1
                       1  0  0  -1 -1  0   0  0  1      -1  0  0   1  1  0   0  0 -1
           tolwfr      1.00000000E-20
            typat      1  2  2  3  3  3  3  3  3
           useylm           1
              wtk        0.50000    0.50000
           xangst      0.0000000000E+00  0.0000000000E+00  0.0000000000E+00
                       0.0000000000E+00  3.0510537992E+00  2.4020993945E+00
                       2.6422900984E+00  1.5255268996E+00  2.4020993945E+00
                       1.6784117357E+00  2.9070944023E+00  1.3104893457E+00
                      -9.6387836272E-01  1.6694862966E+00  1.3104893457E+00
                       1.9277567254E+00  0.0000000000E+00  1.3104893457E+00
                      -1.6784117357E+00  2.9070944023E+00  3.4937094434E+00
                       3.3568234714E+00  0.0000000000E+00  3.4937094434E+00
                       9.6387836272E-01  1.6694862966E+00  3.4937094434E+00
            xcart      0.0000000000E+00  0.0000000000E+00  0.0000000000E+00
                       0.0000000000E+00  5.7656560973E+00  4.5393099996E+00
                       4.9932046497E+00  2.8828280486E+00  4.5393099996E+00
                       3.1717385187E+00  5.4936122628E+00  2.4764659634E+00
                      -1.8214661310E+00  3.1548718831E+00  2.4764659634E+00
                       3.6429322619E+00  0.0000000000E+00  2.4764659634E+00
                      -3.1717385187E+00  5.4936122628E+00  6.6021540358E+00
                       6.3434770375E+00  0.0000000000E+00  6.6021540358E+00
                       1.8214661310E+00  3.1548718831E+00  6.6021540358E+00
             xred      0.0000000000E+00  0.0000000000E+00  0.0000000000E+00
                       3.3333333333E-01  6.6666666667E-01  5.0000000000E-01
                       6.6666666667E-01  3.3333333333E-01  5.0000000000E-01
                       6.3521100000E-01  6.3521100000E-01  2.7278000000E-01
                       0.0000000000E+00  3.6478900000E-01  2.7278000000E-01
                       3.6478900000E-01  0.0000000000E+00  2.7278000000E-01
                       0.0000000000E+00  6.3521100000E-01  7.2722000000E-01
                       6.3521100000E-01  0.0000000000E+00  7.2722000000E-01
                       3.6478900000E-01  3.6478900000E-01  7.2722000000E-01
            znucl       48.00000   51.00000    8.00000

- Timing analysis has been suppressed with timopt=0

 Suggested references for the acknowledgment of ABINIT usage.

 Calculation completed.
.Delivered  14 WARNINGs and   9 COMMENTs to log file.