.Version 9.5.2 of ABINIT

 ABINIT is a project of the Universite Catholique de Louvain,
 Corning Inc. and other collaborators, see ~abinit/doc/developers/contributors.txt .
 acknowledgments of the ABINIT effort.

.Starting date : Mon 24 May 2021.
- ( at 18h33 )

- input  file    -> /scratch/users/j/a/jabreu/flow_simple_10atoms/flow/w421/t1/run.abi
- output file    -> /scratch/users/j/a/jabreu/flow_simple_10atoms/flow/w421/t1/run.abo
- root for input  files -> /scratch/users/j/a/jabreu/flow_simple_10atoms/flow/w421/t1/indata/in
- root for output files -> /scratch/users/j/a/jabreu/flow_simple_10atoms/flow/w421/t1/outdata/out

 Symmetries : space group C2/m (# 12); Bravais mC (1-face-center monocl.)
     intxc =       0      iscf =       7    lmnmax =      18     lnmax =       6
     mgfft =      72  mpssoang =       3    mqgrid =    3185     natom =      10
  nloc_mem =       1    nspden =       1   nspinor =       1    nsppol =       1
      nsym =       4    n1xccc =    2501    ntypat =       2    occopt =       1
   xclevel =       2
-    mband =          53        mffmem =           1         mkmem =           2
-   mkqmem =           2        mk1mem =           2           mpw =        9945
      nfft =      373248          nkpt =           2
  Rough estimation (10% accuracy) of disk space for files :

------------- Echo of variables that govern the present computation ------------
-
- outvars: echo of selected default values
-   iomode0 =  0 , fftalg0 =512 , wfoptalg0 =  0
-
- outvars: echo of global parameters not present in the input file
-  max_nthreads =    0
-
 -outvars: echo values of preprocessed input variables --------
            acell      1.0000000000E+00  1.0000000000E+00  1.0000000000E+00 Bohr
              amu      6.97230000E+01  1.59994000E+01
             ecut      4.40000000E+01 Hartree
-          fftalg         512
           irdden           1
           irdwfk           1
           istwfk        0    1
              ixc     -116133
              kpt      5.48370592E-01  4.51629408E-01  5.00000000E-01
                       0.00000000E+00  0.00000000E+00  0.00000000E+00
           kptopt           0
P           mkmem           2
P          mkqmem           2
P          mk1mem           2
            natom          10
            nband          53
           nbdbuf           4
            ngfft          72      72      72
             nkpt           2
            nstep        2000
             nsym           4
           ntypat           2
              occ      2.000000  2.000000  2.000000  2.000000  2.000000  2.000000
                       2.000000  2.000000  2.000000  2.000000  2.000000  2.000000
                       2.000000  2.000000  2.000000  2.000000  2.000000  2.000000
                       2.000000  2.000000  2.000000  2.000000  2.000000  2.000000
                       2.000000  2.000000  2.000000  2.000000  2.000000  2.000000
                       2.000000  2.000000  2.000000  2.000000  2.000000  2.000000
                       2.000000  2.000000  2.000000  2.000000  2.000000  2.000000
                       2.000000  2.000000  0.000000  0.000000  0.000000  0.000000
                       0.000000  0.000000  0.000000  0.000000  0.000000
        optdriver           1
            prtwf          -1
            rfdir           1       1       1
           rfelfd           2
            rprim      1.1620835495E+01  0.0000000000E+00  2.7533411292E+00
                       1.0194403887E+01  5.5783462586E+00  2.7533411292E+00
                       0.0000000000E+00  0.0000000000E+00  1.0978002908E+01
          spgroup          12
           symrel      1  0  0   0  1  0   0  0  1      -1  0  0   0 -1  0   0  0 -1
                       0 -1  0  -1  0  0   0  0 -1       0  1  0   1  0  0   0  0  1
           tolwfr      1.00000000E-20
            typat      1  1  1  1  2  2  2  2  2  2
           useylm           1
              wtk        0.50000    0.50000
           xangst      7.6046939779E+00  1.9445863260E+00  5.9017290023E+00
                       3.9394335028E+00  1.0073473757E+00  2.8215906784E+00
                       1.0454592729E+00  2.6733301989E-01  1.4531687477E+00
                       1.0498668208E+01  2.6846006818E+00  7.2701509330E+00
                       5.7280806147E+00  1.4647199834E+00  5.7692778409E+00
                       5.8160468661E+00  1.4872137182E+00  2.9540418398E+00
                       1.9997430270E+00  5.1135166741E-01  3.0450189433E+00
                       9.5443844538E+00  2.4405820343E+00  5.6783007374E+00
                       9.6371646063E+00  2.4643067254E+00  3.0694530517E+00
                       1.9069628744E+00  4.8762697625E-01  5.6538666289E+00
            xcart      1.4370788943E+01  3.6747355979E+00  1.1152651525E+01
                       7.4444504390E+00  1.9036106607E+00  5.3320336412E+00
                       1.9756317089E+00  5.0518619387E-01  2.7460909579E+00
                       1.9839607673E+01  5.0731600647E+00  1.3738594208E+01
                       1.0824503629E+01  2.7679196301E+00  1.0902355104E+01
                       1.0990735753E+01  2.8104266285E+00  5.5823300624E+00
                       3.7789666571E+00  9.6631460899E-01  5.7542518723E+00
                       1.8036272725E+01  4.6120316496E+00  1.0730433294E+01
                       1.8211601803E+01  4.6568648185E+00  5.8004256456E+00
                       3.6036375782E+00  9.2148144011E-01  1.0684259521E+01
             xred      6.5875000000E-01  6.5875000000E-01  6.8547300000E-01
                       3.4125000000E-01  3.4125000000E-01  3.1452700000E-01
                       9.0562000000E-02  9.0562000000E-02  2.0471800000E-01
                       9.0943800000E-01  9.0943800000E-01  7.9528200000E-01
                       4.9619000000E-01  4.9619000000E-01  7.4421500000E-01
                       5.0381000000E-01  5.0381000000E-01  2.5578500000E-01
                       1.7322600000E-01  1.7322600000E-01  4.3727000000E-01
                       8.2677400000E-01  8.2677400000E-01  5.6273000000E-01
                       8.3481100000E-01  8.3481100000E-01  1.0961800000E-01
                       1.6518900000E-01  1.6518900000E-01  8.9038200000E-01
            znucl       31.00000    8.00000

 chkinp: Checking input parameters for consistency.

== DATASET  1 ==================================================================
-   mpi_nproc: 1, omp_nthreads: -1 (-1 if OMP is not activated)

--- !DatasetInfo
iteration_state: {dtset: 1, }
dimensions: {natom: 10, nkpt: 2, mband: 53, nsppol: 1, nspinor: 1, nspden: 1, mpw: 9945, }
cutoff_energies: {ecut:  44.0, pawecutdg:  -1.0, }
electrons: {nelect:   8.80000000E+01, charge:   0.00000000E+00, occopt:   1.00000000E+00, tsmear:   1.00000000E-02, }
meta: {optdriver: 1, rfelfd: 2, }
...

 Real(R)+Recip(G) space primitive vectors, cartesian coordinates (Bohr,Bohr^-1):
 R(1)= 11.6208355  0.0000000  2.7533411  G(1)=  0.0860523 -0.1572603  0.0000000
 R(2)= 10.1944039  5.5783463  2.7533411  G(2)=  0.0000000  0.1792646  0.0000000
 R(3)=  0.0000000  0.0000000 10.9780029  G(3)= -0.0215824 -0.0055188  0.0910912
 Unit cell volume ucvol=  7.1164952E+02 bohr^3
 Angles (23,13,12)=  7.66706229E+01  7.66706229E+01  2.78986558E+01 degrees

 getcut: wavevector=  0.0000  0.0000  0.0000  ngfft=  72  72  72
         ecut(hartree)=     44.000   => boxcut(ratio)=   2.01927

--- Pseudopotential description ------------------------------------------------
- pspini: atom type   1  psp file is /scratch/users/j/a/jabreu/pseudos/PBEsol/Ga.psp8
- pspatm: opening atomic psp file    /scratch/users/j/a/jabreu/pseudos/PBEsol/Ga.psp8
- Ga    ONCVPSP-3.3.0  r_core=   1.66857   1.75011   1.90252
- 31.00000  13.00000    180112                znucl, zion, pspdat
    8 -116133    2    4       600   0.00000   pspcod,pspxc,lmax,lloc,mmax,r2well
    5.99000000000000    5.00000000000000    0.00000000000000   rchrg,fchrg,qchrg
     nproj     2     2     2
     extension_switch     1
  pspatm : epsatm=   24.50969055
         --- l  ekb(1:nproj) -->
             0    7.053021    1.156713
             1    6.846070    1.293139
             2   -8.368667   -2.819170
 pspatm: atomic psp has been read  and splines computed

- pspini: atom type   2  psp file is /scratch/users/j/a/jabreu/pseudos/PBEsol/O.psp8
- pspatm: opening atomic psp file    /scratch/users/j/a/jabreu/pseudos/PBEsol/O.psp8
- O     ONCVPSP-3.3.0  r_core=   1.35509   1.45563   1.26150
-  8.00000   6.00000    180112                znucl, zion, pspdat
    8 -116133    2    4       600   0.00000   pspcod,pspxc,lmax,lloc,mmax,r2well
    5.99000000000000    4.00000000000000    0.00000000000000   rchrg,fchrg,qchrg
     nproj     2     2     1
     extension_switch     1
  pspatm : epsatm=    6.22910522
         --- l  ekb(1:nproj) -->
             0    6.050032    0.820363
             1   -4.739617   -1.153841
             2   -1.335834
 pspatm: atomic psp has been read  and splines computed

   1.19163786E+04                                ecore*ucvol(ha*bohr**3)

 ==>  initialize data related to q vector <==

 The list of irreducible perturbations for this q vector is:
    1)    idir= 1    ipert=  11
    2)    idir= 2    ipert=  11
    3)    idir= 3    ipert=  11

 Perturbation wavevector (in red.coord.)   0.000000  0.000000  0.000000
 Perturbation : derivative vs k along direction   1

 dfpt_looppert : COMMENT -
  In a d/dk calculation, iscf is set to -3 automatically.
 The set of symmetries contains only one element for this perturbation.
 symkpt : not enough symmetry to change the number of k points.

 Initialisation of the first-order wave-functions :
  ireadwf=   0

--- !BeginCycle
iteration_state: {dtset: 1, }
solver: {iscf: 7, nstep: 2000, nline: 4, wfoptalg: 0, }
tolerances: {tolwfr: 1.00E-20, }
...

     iter   2DEtotal(Ha)        deltaE(Ha) residm    vres2
-ETOT  1  -232.04812362667     -2.320E+02 1.305E-01 0.000E+00
 ETOT  2  -232.26193925158     -2.138E-01 2.266E-03 0.000E+00
 ETOT  3  -232.26268283763     -7.436E-04 1.254E-04 0.000E+00
 ETOT  4  -232.26268806049     -5.223E-06 3.915E-06 0.000E+00
 ETOT  5  -232.26268811194     -5.146E-08 3.463E-07 0.000E+00
 ETOT  6  -232.26268811256     -6.199E-10 1.118E-08 0.000E+00
 ETOT  7  -232.26268811257     -8.441E-12 1.061E-09 0.000E+00
 ETOT  8  -232.26268811257     -1.421E-13 3.577E-11 0.000E+00
 ETOT  9  -232.26268811257      1.705E-13 3.487E-12 0.000E+00
 ETOT 10  -232.26268811257     -5.684E-14 1.225E-13 0.000E+00
 ETOT 11  -232.26268811257      0.000E+00 1.209E-14 0.000E+00
 ETOT 12  -232.26268811257      5.684E-14 4.395E-16 0.000E+00
 ETOT 13  -232.26268811257      2.842E-14 4.353E-17 0.000E+00
 ETOT 14  -232.26268811257      0.000E+00 1.626E-18 0.000E+00
 ETOT 15  -232.26268811257     -2.842E-14 1.608E-19 0.000E+00
 ETOT 16  -232.26268811257      5.684E-14 9.887E-21 0.000E+00

 At SCF step   16   max residual=  9.89E-21 < tolwfr=  1.00E-20 =>converged.

 ----iterations are completed or convergence reached----

 dfpt_looppert: DFPT cycle converged with prtwf=-1. Will skip output of the 1st-order WFK file.
 dfpt_looppert : ek2=    2.2328598679E+02
          f-sum rule ratio=    1.1873301326E+00
 prteigrs : about to open file /scratch/users/j/a/jabreu/flow_simple_10atoms/flow/w421/t1/tmpdata/tmp_1WF1_EIG
 Expectation of eigenvalue derivatives (hartree) for nkpt=   2  k points:
  (in case of degenerate eigenvalues, averaged derivative)
 kpt#   1, nband= 53, wtk=  0.50000, kpt=  0.5484  0.4516  0.5000 (reduced coord)
   0.04538    0.03018    0.02561    0.02561   -0.00381   -0.00723    0.00337    0.00448
   0.01104    0.02142    0.01573    0.01884    0.00326   -0.00038   -0.00157    0.01676
  -0.01287   -0.00293    0.00348    0.00599    0.00037    0.00158   -0.00331    0.01471
   0.02626   -0.00620    0.04284    0.00204   -0.00511   -0.02891   -0.05941   -0.16241
   0.04618   -0.09714   -0.12846   -0.13687   -0.07476   -0.17164   -0.07835   -0.19234
   0.00244   -0.02544    0.00520    0.00099    0.19025    0.16100    0.14097    0.16129
   0.24802    0.21000    0.16359    0.11775   -0.04079
 prteigrs : prtvol=0 or 1, do not print more k-points.

 Eight components of 2nd-order total energy (hartree) are
 1,2,3: 0th-order hamiltonian combined with 1st-order wavefunctions
     kin0=   2.76379614E+02 eigvalue=   7.90951162E+00  local=  -1.02470343E+02
 4,5,6: 1st-order hamiltonian combined with 1st and 0th-order wfs
     kin1=  -2.65114180E+02  Hartree=   0.00000000E+00     xc=   0.00000000E+00
 7,8,9: eventually, occupation + non-local contributions
    edocc=   3.24687598E+01     enl0=   1.79751462E+01   enl1=  -1.99411196E+02
 1-9 gives the relaxation energy (to be shifted if some occ is /=2.0)
   erelax=  -2.32262688E+02
  No Ewald or frozen-wf contrib.: the relaxation energy is the total one
 2DEtotal=   -0.2322626881E+03 Ha. Also 2DEtotal=   -0.632018916259E+04 eV
    (  non-var. 2DEtotal :   -2.3226268811E+02 Ha)

 Perturbation wavevector (in red.coord.)   0.000000  0.000000  0.000000
 Perturbation : derivative vs k along direction   2
 The set of symmetries contains only one element for this perturbation.
 symkpt : not enough symmetry to change the number of k points.

[...]

 Perturbation wavevector (in red.coord.)   0.000000  0.000000  0.000000
 Perturbation : derivative vs k along direction   3
 The set of symmetries contains only one element for this perturbation.
 symkpt : not enough symmetry to change the number of k points.

 Initialisation of the first-order wave-functions :
  ireadwf=   0

--- !BeginCycle
iteration_state: {dtset: 1, }
solver: {iscf: 7, nstep: 2000, nline: 4, wfoptalg: 0, }
tolerances: {tolwfr: 1.00E-20, }
...

     iter   2DEtotal(Ha)        deltaE(Ha) residm    vres2
-ETOT  1  -59.525285180705     -5.953E+01 3.752E-02 0.000E+00
 ETOT  2  -59.585740803774     -6.046E-02 1.217E-03 0.000E+00
 ETOT  3  -59.585959529857     -2.187E-04 2.339E-05 0.000E+00
 ETOT  4  -59.585961156311     -1.626E-06 1.282E-06 0.000E+00
 ETOT  5  -59.585961173779     -1.747E-08 4.082E-08 0.000E+00
 ETOT  6  -59.585961174008     -2.294E-10 3.303E-09 0.000E+00
 ETOT  7  -59.585961174011     -3.318E-12 1.081E-10 0.000E+00
 ETOT  8  -59.585961174011     -4.974E-14 9.247E-12 0.000E+00
 ETOT  9  -59.585961174011     -2.842E-14 3.068E-13 0.000E+00
 ETOT 10  -59.585961174011     -2.132E-14 2.705E-14 0.000E+00
 ETOT 11  -59.585961174011      7.105E-15 8.990E-16 0.000E+00
 ETOT 12  -59.585961174011      1.421E-14 8.164E-17 0.000E+00
 ETOT 13  -59.585961174011     -1.421E-14 2.737E-18 0.000E+00
 ETOT 14  -59.585961174011      7.105E-15 2.546E-19 0.000E+00
 ETOT 15  -59.585961174011      1.421E-14 9.951E-21 0.000E+00

 At SCF step   15   max residual=  9.95E-21 < tolwfr=  1.00E-20 =>converged.

 ----iterations are completed or convergence reached----

 dfpt_looppert: DFPT cycle converged with prtwf=-1. Will skip output of the 1st-order WFK file.
 dfpt_looppert : ek2=    6.1101594540E+01
          f-sum rule ratio=    1.0476857135E+00
 prteigrs : about to open file /scratch/users/j/a/jabreu/flow_simple_10atoms/flow/w421/t1/tmpdata/tmp_1WF1_EIG
 Expectation of eigenvalue derivatives (hartree) for nkpt=   2  k points:
  (in case of degenerate eigenvalues, averaged derivative)
 kpt#   1, nband= 53, wtk=  0.50000, kpt=  0.5484  0.4516  0.5000 (reduced coord)
  -0.00000    0.00000    0.00000   -0.00000   -0.00000   -0.00000    0.00000    0.00000
  -0.00000   -0.00000   -0.00000    0.00000   -0.00000   -0.00000    0.00000    0.00000
  -0.00000   -0.00000    0.00000   -0.00000    0.00000   -0.00000    0.00000   -0.00000
   0.00000   -0.00000    0.00000   -0.00000    0.00000   -0.00000   -0.00000    0.00000
  -0.00000    0.00000   -0.00000   -0.00000   -0.00000    0.00000    0.00000    0.00000
  -0.00000    0.00000   -0.00000    0.00000   -0.00000    0.00000    0.00000   -0.00000
  -0.00000    0.00000    0.00000   -0.00000    0.00472
 prteigrs : prtvol=0 or 1, do not print more k-points.

 Eight components of 2nd-order total energy (hartree) are
 1,2,3: 0th-order hamiltonian combined with 1st-order wavefunctions
     kin0=   7.55547504E+01 eigvalue=   2.12966841E+00  local=  -2.77761094E+01
 4,5,6: 1st-order hamiltonian combined with 1st and 0th-order wfs
     kin1=  -6.40152677E+01  Hartree=   0.00000000E+00     xc=   0.00000000E+00
 7,8,9: eventually, occupation + non-local contributions
    edocc=   4.93220668E+00     enl0=   4.74544510E+00   enl1=  -5.51566547E+01
 1-9 gives the relaxation energy (to be shifted if some occ is /=2.0)
   erelax=  -5.95859612E+01
  No Ewald or frozen-wf contrib.: the relaxation energy is the total one
 2DEtotal=   -0.5958596117E+02 Ha. Also 2DEtotal=   -0.162141646217E+04 eV
    (  non-var. 2DEtotal :   -5.9585961174E+01 Ha)

 CALCULATION OF EFFECTIVE MASSES
 NOTE : Additional infos (eff. mass eigenvalues, eigenvectors and, if degenerate, average mass) are available in stdout.

 K-point ( 0.548, 0.452, 0.500) | band =    44
 Effective mass tensor:
             -3.2186804979              0.0835116729              0.2509933516
              0.0835116729             -3.5261007635              0.0643731518
              0.2509933516              0.0643731518             -4.1714079754
 Effective mass tensor eigenvalues:
             -4.2360546419             -3.5473216540             -3.1328129410
 Angular average effective mass 1/(<1/m>)=  -3.5834865898
 Angular average effective mass for Frohlich model (<m**0.5>)**2=  -3.5997304225
 Effective masses along directions: (cart. coord. / red. coord. -> eff. mass)
    1:   1.000000  0.000000  0.000000 /   0.751737  0.659463  0.000000 ->  -3.2014120295
    2:   0.000000  1.000000  0.000000 /   0.000000  1.000000  0.000000 ->  -3.5227237294
    3:   0.000000  0.000000  1.000000 /   0.236377  0.236377  0.942471 ->  -4.1504095738
    4:   0.577350  0.577350  0.577350 /   0.555178  0.715539  0.424007 ->  -3.3326600686
    5:   0.000000  0.707107  0.707107 /   0.195912  0.592835  0.781131 ->  -3.7417829210
    6:   0.707107  0.000000  0.707107 /   0.646216  0.582089  0.493535 ->  -3.3833456410
    7:   0.707107  0.707107  0.000000 /   0.593160  0.805085  0.000000 ->  -3.2694701745

 K-point ( 0.000, 0.000, 0.000) | band =    45
 Effective mass tensor:
              0.2342369593             -0.0026554767             -0.0008370249
             -0.0026554767              0.2439427013             -0.0002140345
             -0.0008370249             -0.0002140345              0.2242895450
 Effective mass tensor eigenvalues:
              0.2242096987              0.2336377769              0.2446217299
 Angular average effective mass 1/(<1/m>)=   0.2338600624
 Angular average effective mass for Frohlich model (<m**0.5>)**2=   0.2339488080
 Effective masses along directions: (cart. coord. / red. coord. -> eff. mass)
    1:   1.000000  0.000000  0.000000 /   0.751737  0.659463  0.000000 ->   0.2342049116
    2:   0.000000  1.000000  0.000000 /   0.000000  1.000000  0.000000 ->   0.2439123742
    3:   0.000000  0.000000  1.000000 /   0.236377  0.236377  0.942471 ->   0.2242863491
    4:   0.577350  0.577350  0.577350 /   0.555178  0.715539  0.424007 ->   0.2314582649
    5:   0.000000  0.707107  0.707107 /   0.195912  0.592835  0.781131 ->   0.2334651005
    6:   0.707107  0.000000  0.707107 /   0.646216  0.582089  0.493535 ->   0.2283024557
    7:   0.707107  0.707107  0.000000 /   0.593160  0.805085  0.000000 ->   0.2363344139

 END OF EFFECTIVE MASSES SECTION

 ---- first-order wavefunction calculations are completed ----

 Total localisation tensor (bohr^2) in cartesian coordinates
  WARNING : still subject to testing - especially symmetries.
      direction              matrix element
   alpha     beta       real part   imaginary part
     1        1       6.9163101626    0.0000000000
     1        2       1.6458805409    0.0000000000
     1        3       1.7384076030    0.0000000000
     2        1       1.6458805409    0.0000000000
     2        2       0.9006207385    0.0000000000
     2        3       0.4445253138    0.0000000000
     3        1       1.7384076030    0.0000000000
     3        2       0.4445253138    0.0000000000
     3        3       1.2351817491    0.0000000000

 respfn : d/dk was computed, but no 2DTE, so no DDB output.

== END DATASET(S) ==============================================================

 -outvars: echo values of variables after computation  --------
            acell      1.0000000000E+00  1.0000000000E+00  1.0000000000E+00 Bohr
              amu      6.97230000E+01  1.59994000E+01
             ecut      4.40000000E+01 Hartree
           etotal     -5.9585961174E+01
            fcart      0.0000000000E+00  0.0000000000E+00  0.0000000000E+00
                       0.0000000000E+00  0.0000000000E+00  0.0000000000E+00
                       0.0000000000E+00  0.0000000000E+00  0.0000000000E+00
                       0.0000000000E+00  0.0000000000E+00  0.0000000000E+00
                       0.0000000000E+00  0.0000000000E+00  0.0000000000E+00
                       0.0000000000E+00  0.0000000000E+00  0.0000000000E+00
                       0.0000000000E+00  0.0000000000E+00  0.0000000000E+00
                       0.0000000000E+00  0.0000000000E+00  0.0000000000E+00
                       0.0000000000E+00  0.0000000000E+00  0.0000000000E+00
                       0.0000000000E+00  0.0000000000E+00  0.0000000000E+00
-          fftalg         512
           irdden           1
           irdwfk           1
           istwfk        0    1
              ixc     -116133
              kpt      5.48370592E-01  4.51629408E-01  5.00000000E-01
                       0.00000000E+00  0.00000000E+00  0.00000000E+00
           kptopt           0
P           mkmem           2
P          mkqmem           2
P          mk1mem           2
            natom          10
            nband          53
           nbdbuf           4
            ngfft          72      72      72
             nkpt           2
            nstep        2000
             nsym           4
           ntypat           2
              occ      2.000000  2.000000  2.000000  2.000000  2.000000  2.000000
                       2.000000  2.000000  2.000000  2.000000  2.000000  2.000000
                       2.000000  2.000000  2.000000  2.000000  2.000000  2.000000
                       2.000000  2.000000  2.000000  2.000000  2.000000  2.000000
                       2.000000  2.000000  2.000000  2.000000  2.000000  2.000000
                       2.000000  2.000000  2.000000  2.000000  2.000000  2.000000
                       2.000000  2.000000  2.000000  2.000000  2.000000  2.000000
                       2.000000  2.000000  0.000000  0.000000  0.000000  0.000000
                       0.000000  0.000000  0.000000  0.000000  0.000000
        optdriver           1
            prtwf          -1
            rfdir           1       1       1
           rfelfd           2
            rprim      1.1620835495E+01  0.0000000000E+00  2.7533411292E+00
                       1.0194403887E+01  5.5783462586E+00  2.7533411292E+00
                       0.0000000000E+00  0.0000000000E+00  1.0978002908E+01
          spgroup          12
           strten      0.0000000000E+00  0.0000000000E+00  0.0000000000E+00
                       0.0000000000E+00  0.0000000000E+00  0.0000000000E+00
           symrel      1  0  0   0  1  0   0  0  1      -1  0  0   0 -1  0   0  0 -1
                       0 -1  0  -1  0  0   0  0 -1       0  1  0   1  0  0   0  0  1
           tolwfr      1.00000000E-20
            typat      1  1  1  1  2  2  2  2  2  2
           useylm           1
              wtk        0.50000    0.50000
           xangst      7.6046939779E+00  1.9445863260E+00  5.9017290023E+00
                       3.9394335028E+00  1.0073473757E+00  2.8215906784E+00
                       1.0454592729E+00  2.6733301989E-01  1.4531687477E+00
                       1.0498668208E+01  2.6846006818E+00  7.2701509330E+00
                       5.7280806147E+00  1.4647199834E+00  5.7692778409E+00
                       5.8160468661E+00  1.4872137182E+00  2.9540418398E+00
                       1.9997430270E+00  5.1135166741E-01  3.0450189433E+00
                       9.5443844538E+00  2.4405820343E+00  5.6783007374E+00
                       9.6371646063E+00  2.4643067254E+00  3.0694530517E+00
                       1.9069628744E+00  4.8762697625E-01  5.6538666289E+00
            xcart      1.4370788943E+01  3.6747355979E+00  1.1152651525E+01
                       7.4444504390E+00  1.9036106607E+00  5.3320336412E+00
                       1.9756317089E+00  5.0518619387E-01  2.7460909579E+00
                       1.9839607673E+01  5.0731600647E+00  1.3738594208E+01
                       1.0824503629E+01  2.7679196301E+00  1.0902355104E+01
                       1.0990735753E+01  2.8104266285E+00  5.5823300624E+00
                       3.7789666571E+00  9.6631460899E-01  5.7542518723E+00
                       1.8036272725E+01  4.6120316496E+00  1.0730433294E+01
                       1.8211601803E+01  4.6568648185E+00  5.8004256456E+00
                       3.6036375782E+00  9.2148144011E-01  1.0684259521E+01
             xred      6.5875000000E-01  6.5875000000E-01  6.8547300000E-01
                       3.4125000000E-01  3.4125000000E-01  3.1452700000E-01
                       9.0562000000E-02  9.0562000000E-02  2.0471800000E-01
                       9.0943800000E-01  9.0943800000E-01  7.9528200000E-01
                       4.9619000000E-01  4.9619000000E-01  7.4421500000E-01
                       5.0381000000E-01  5.0381000000E-01  2.5578500000E-01
                       1.7322600000E-01  1.7322600000E-01  4.3727000000E-01
                       8.2677400000E-01  8.2677400000E-01  5.6273000000E-01
                       8.3481100000E-01  8.3481100000E-01  1.0961800000E-01
                       1.6518900000E-01  1.6518900000E-01  8.9038200000E-01
            znucl       31.00000    8.00000

- Timing analysis has been suppressed with timopt=0

 Suggested references for the acknowledgment of ABINIT usage.

 Calculation completed.
.Delivered   2 WARNINGs and   5 COMMENTs to log file.