.Version 9.5.1 of ABINIT

 ABINIT is a project of the Universite Catholique de Louvain,
 Corning Inc. and other collaborators, see ~abinit/doc/developers/contributors.txt .
 acknowledgments of the ABINIT effort.

.Starting date : Wed 19 May 2021.
- ( at 07h45 )

- input  file    -> /scratch/users/j/a/jabreu/flow_simple_9atoms/flow/w112/t1/run.abi
- output file    -> /scratch/users/j/a/jabreu/flow_simple_9atoms/flow/w112/t1/run.abo
- root for input  files -> /scratch/users/j/a/jabreu/flow_simple_9atoms/flow/w112/t1/indata/in
- root for output files -> /scratch/users/j/a/jabreu/flow_simple_9atoms/flow/w112/t1/outdata/out

 Symmetries : space group P-3 m 1 (#164); Bravais hP (primitive hexag.)
     intxc =       0      iscf =       7    lmnmax =      32     lnmax =       8
     mgfft =      72  mpssoang =       4    mqgrid =    3001     natom =       9
  nloc_mem =       1    nspden =       1   nspinor =       1    nsppol =       1
      nsym =      12    n1xccc =    2501    ntypat =       3    occopt =       1
   xclevel =       2
-    mband =          48        mffmem =           1         mkmem =           2
-   mkqmem =           2        mk1mem =           2           mpw =       12942
      nfft =      279936          nkpt =           2
  Rough estimation (10% accuracy) of disk space for files :

------------- Echo of variables that govern the present computation ------------
-
- outvars: echo of selected default values
-   iomode0 =  0 , fftalg0 =512 , wfoptalg0 =  0
-
- outvars: echo of global parameters not present in the input file
-  max_nthreads =    0
-
 -outvars: echo values of preprocessed input variables --------
            acell      1.0000000000E+00  1.0000000000E+00  1.0000000000E+00 Bohr
              amu      8.54678000E+01  1.95080000E+02  1.89984032E+01
             ecut      4.20000000E+01 Hartree
-          fftalg         512
           irdden           1
           irdwfk           1
           istwfk        1    0
              ixc     -116133
              kpt      5.00000000E-01  0.00000000E+00  5.00000000E-01
                       5.00000000E-01  0.00000000E+00  2.50000000E-02
           kptopt           0
P           mkmem           2
P          mkqmem           2
P          mk1mem           2
            natom           9
            nband          48
           nbdbuf           4
            ngfft          72      72      54
             nkpt           2
            nstep        2000
             nsym          12
           ntypat           3
              occ      2.000000  2.000000  2.000000  2.000000  2.000000  2.000000
                       2.000000  2.000000  2.000000  2.000000  2.000000  2.000000
                       2.000000  2.000000  2.000000  2.000000  2.000000  2.000000
                       2.000000  2.000000  2.000000  2.000000  2.000000  2.000000
                       2.000000  2.000000  2.000000  2.000000  2.000000  2.000000
                       2.000000  2.000000  2.000000  2.000000  2.000000  2.000000
                       2.000000  2.000000  2.000000  0.000000  0.000000  0.000000
                       0.000000  0.000000  0.000000  0.000000  0.000000  0.000000
        optdriver           1
            prtwf          -1
            rfdir           1       1       1
           rfelfd           2
            rprim      1.1230104297E+01  0.0000000000E+00  0.0000000000E+00
                      -5.6150521485E+00  9.7255556083E+00  0.0000000000E+00
                       0.0000000000E+00  0.0000000000E+00  9.0908764226E+00
          spgroup         164
           symrel      1  0  0   0  1  0   0  0  1      -1  0  0   0 -1  0   0  0 -1
                      -1  0  0   1  1  0   0  0  1       1  0  0  -1 -1  0   0  0 -1
                       0  1  0  -1 -1  0   0  0  1       0 -1  0   1  1  0   0  0 -1
                       0 -1  0  -1  0  0   0  0  1       0  1  0   1  0  0   0  0 -1
                      -1 -1  0   1  0  0   0  0  1       1  1  0  -1  0  0   0  0 -1
                       1  1  0   0 -1  0   0  0  1      -1 -1  0   0  1  0   0  0 -1
           tolwfr      1.00000000E-20
            typat      1  1  2  3  3  3  3  3  3
           useylm           1
              wtk        0.50000    0.50000
           xangst      2.9713576220E+00  1.7155141229E+00  3.4402360203E+00
                      -1.7639946751E-11  3.4310282459E+00  1.3704485887E+00
                       0.0000000000E+00  0.0000000000E+00  0.0000000000E+00
                      -8.4081325663E-12  1.6354750960E+00  3.7571494903E+00
                       1.5549946416E+00  4.3288048208E+00  3.7571494903E+00
                      -1.5549946416E+00  4.3288048208E+00  3.7571494903E+00
                       2.9713576220E+00  3.5110672728E+00  1.0535351187E+00
                       1.4163629804E+00  8.1773754800E-01  1.0535351187E+00
                       4.5263522636E+00  8.1773754800E-01  1.0535351187E+00
            xcart      5.6150521484E+00  3.2418518694E+00  6.5011039108E+00
                      -3.3334668359E-11  6.4837037389E+00  2.5897725118E+00
                       0.0000000000E+00  0.0000000000E+00  0.0000000000E+00
                      -1.5889067839E-11  3.0906000286E+00  7.0999835769E+00
                       2.9385140107E+00  8.1802555940E+00  7.0999835769E+00
                      -2.9385140108E+00  8.1802555940E+00  7.0999835769E+00
                       5.6150521484E+00  6.6349555797E+00  1.9908928457E+00
                       2.6765381377E+00  1.5453000143E+00  1.9908928457E+00
                       8.5535661592E+00  1.5453000143E+00  1.9908928457E+00
             xred      6.6666666667E-01  3.3333333333E-01  7.1512400000E-01
                       3.3333333333E-01  6.6666666667E-01  2.8487600000E-01
                       0.0000000000E+00  0.0000000000E+00  0.0000000000E+00
                       1.5889066667E-01  3.1778133333E-01  7.8100100000E-01
                       6.8221866667E-01  8.4110933333E-01  7.8100100000E-01
                       1.5889066667E-01  8.4110933333E-01  7.8100100000E-01
                       8.4110933333E-01  6.8221866667E-01  2.1899900000E-01
                       3.1778133333E-01  1.5889066667E-01  2.1899900000E-01
                       8.4110933333E-01  1.5889066667E-01  2.1899900000E-01
            znucl       37.00000   78.00000    9.00000

 chkinp: Checking input parameters for consistency.

== DATASET  1 ==================================================================
-   mpi_nproc: 1, omp_nthreads: -1 (-1 if OMP is not activated)

--- !DatasetInfo
iteration_state: {dtset: 1, }
dimensions: {natom: 9, nkpt: 2, mband: 48, nsppol: 1, nspinor: 1, nspden: 1, mpw: 12942, }
cutoff_energies: {ecut:  42.0, pawecutdg:  -1.0, }
electrons: {nelect:   7.80000000E+01, charge:   0.00000000E+00, occopt:   1.00000000E+00, tsmear:   1.00000000E-02, }
meta: {optdriver: 1, rfelfd: 2, }
...

 Real(R)+Recip(G) space primitive vectors, cartesian coordinates (Bohr,Bohr^-1):
 R(1)= 11.2301043  0.0000000  0.0000000  G(1)=  0.0890464  0.0514109  0.0000000
 R(2)= -5.6150521  9.7255556  0.0000000  G(2)=  0.0000000  0.1028219  0.0000000
 R(3)=  0.0000000  0.0000000  9.0908764  G(3)=  0.0000000  0.0000000  0.1100004
 Unit cell volume ucvol=  9.9289647E+02 bohr^3
 Angles (23,13,12)=  9.00000000E+01  9.00000000E+01  1.20000000E+02 degrees

 getcut: wavevector=  0.0000  0.0000  0.0000  ngfft=  72  72  54
         ecut(hartree)=     42.000   => boxcut(ratio)=   2.03610

--- Pseudopotential description ------------------------------------------------
- pspini: atom type   1  psp file is /scratch/users/j/a/jabreu/pseudos/PBEsol/Rb.psp8
- pspatm: opening atomic psp file    /scratch/users/j/a/jabreu/pseudos/PBEsol/Rb.psp8
- Rb    ONCVPSP-3.3.0  r_core=   1.71227   1.75361   1.90633
- 37.00000   9.00000    180112                znucl, zion, pspdat
    8 -116133    2    4       600   0.00000   pspcod,pspxc,lmax,lloc,mmax,r2well
    5.99000000000000    7.00000000000000    0.00000000000000   rchrg,fchrg,qchrg
     nproj     2     2     2
     extension_switch     1
  pspatm : epsatm=   34.48400912
         --- l  ekb(1:nproj) -->
             0    8.196957   -0.477221
             1    3.231347   -0.378736
             2   -1.047201    0.996637
 pspatm: atomic psp has been read  and splines computed

- pspini: atom type   2  psp file is /scratch/users/j/a/jabreu/pseudos/PBEsol/Pt.psp8
- pspatm: opening atomic psp file    /scratch/users/j/a/jabreu/pseudos/PBEsol/Pt.psp8
- Pt    ONCVPSP-3.3.0  r_core=   1.45722   1.45722   1.45722   1.91724
- 78.00000  18.00000    180112                znucl, zion, pspdat
    8 -116133    3    4       500   0.00000   pspcod,pspxc,lmax,lloc,mmax,r2well
    4.99000000000000    5.00000000000000    0.00000000000000   rchrg,fchrg,qchrg
     nproj     2     2     2     2
     extension_switch     1
  pspatm : epsatm=   26.54019552
         --- l  ekb(1:nproj) -->
             0   18.149684    1.747248
             1    8.048135    1.208190
             2    2.365973    0.348456
             3    3.491561    0.381218
 pspatm: atomic psp has been read  and splines computed

- pspini: atom type   3  psp file is /scratch/users/j/a/jabreu/pseudos/PBEsol/F.psp8
- pspatm: opening atomic psp file    /scratch/users/j/a/jabreu/pseudos/PBEsol/F.psp8
- F     ONCVPSP-3.3.0  r_core=   1.30942   1.45782   1.60379
-  9.00000   7.00000    180112                znucl, zion, pspdat
    8 -116133    2    4       600   0.00000   pspcod,pspxc,lmax,lloc,mmax,r2well
    5.99000000000000    2.50000000000000    0.00000000000000   rchrg,fchrg,qchrg
     nproj     2     2     1
     extension_switch     1
  pspatm : epsatm=    4.89824824
         --- l  ekb(1:nproj) -->
             0    6.506434    1.065875
             1   -3.978753   -1.295852
             2   -2.394754
 pspatm: atomic psp has been read  and splines computed

   9.74202085E+03                                ecore*ucvol(ha*bohr**3)

-inwffil : will read wavefunctions from disk file /scratch/users/j/a/jabreu/flow_simple_9atoms/flow/w112/t1/indata/in_WFK

 ==>  initialize data related to q vector <==

 The list of irreducible perturbations for this q vector is:
    1)    idir= 1    ipert=  10
    2)    idir= 2    ipert=  10
    3)    idir= 3    ipert=  10

 Perturbation wavevector (in red.coord.)   0.000000  0.000000  0.000000
 Perturbation : derivative vs k along direction   1

 dfpt_looppert : COMMENT -
  In a d/dk calculation, iscf is set to -3 automatically.
 The set of symmetries contains only one element for this perturbation.
 symkpt : not enough symmetry to change the number of k points.

[...]

 Initialisation of the first-order wave-functions :
  ireadwf=   0

--- !BeginCycle
iteration_state: {dtset: 1, }
solver: {iscf: 7, nstep: 2000, nline: 4, wfoptalg: 0, }
tolerances: {tolwfr: 1.00E-20, }
...

     iter   2DEtotal(Ha)        deltaE(Ha) residm    vres2
-ETOT  1  -33.325303779262     -3.333E+01 7.846E-02 0.000E+00
 ETOT  2  -33.362812343586     -3.751E-02 9.349E-03 0.000E+00
 ETOT  3  -33.363020523815     -2.082E-04 3.188E-03 0.000E+00
 ETOT  4  -33.363023095739     -2.572E-06 3.447E-04 0.000E+00
 ETOT  5  -33.363023146568     -5.083E-08 1.471E-04 0.000E+00
[...]
 ETOT 19  -33.363023147821      0.000E+00 1.424E-13 0.000E+00
 ETOT 20  -33.363023147821      0.000E+00 1.765E-14 0.000E+00
 ETOT 21  -33.363023147821      0.000E+00 7.449E-15 0.000E+00
 ETOT 22  -33.363023147821      0.000E+00 9.256E-16 0.000E+00
 ETOT 23  -33.363023147821     -1.421E-14 3.901E-16 0.000E+00
 ETOT 24  -33.363023147821      1.421E-14 4.857E-17 0.000E+00
 ETOT 25  -33.363023147821      0.000E+00 2.044E-17 0.000E+00
 ETOT 26  -33.363023147821      0.000E+00 2.550E-18 0.000E+00
 ETOT 27  -33.363023147821      0.000E+00 1.072E-18 0.000E+00
 ETOT 28  -33.363023147821     -7.105E-15 1.339E-19 0.000E+00
 ETOT 29  -33.363023147821      0.000E+00 5.621E-20 0.000E+00
 ETOT 30  -33.363023147821     -7.105E-15 9.963E-21 0.000E+00

 At SCF step   30   max residual=  9.96E-21 < tolwfr=  1.00E-20 =>converged.

 ----iterations are completed or convergence reached----

 dfpt_looppert: DFPT cycle converged with prtwf=-1. Will skip output of the 1st-order WFK file.
 dfpt_looppert : ek2=    6.5111168941E+01
          f-sum rule ratio=    9.7239776610E-01
 prteigrs : about to open file /scratch/users/j/a/jabreu/flow_simple_9atoms/flow/w112/t1/tmpdata/tmp_1WF1_EIG
 Expectation of eigenvalue derivatives (hartree) for nkpt=   2  k points:
  (in case of degenerate eigenvalues, averaged derivative)
 kpt#   1, nband= 48, wtk=  0.50000, kpt=  0.5000  0.0000  0.5000 (reduced coord)
  -0.00000    0.00000    0.00000   -0.00000   -0.00000    0.00000    0.00000   -0.00000
  -0.00000    0.00000    0.00000   -0.00000    0.00000   -0.00000    0.00000    0.00000
   0.00000   -0.00000    0.00000    0.00000    0.00000    0.00000   -0.00000    0.00000
  -0.00000    0.00000    0.00000   -0.00000    0.00000    0.00000   -0.00000   -0.00000
   0.00000    0.00000   -0.00000    0.00000   -0.00000    0.00000   -0.00000    0.00000
   0.00000   -0.00000   -0.00000    0.00000   -0.00000    0.00000   -0.00000   -0.00000
 prteigrs : prtvol=0 or 1, do not print more k-points.

 Eight components of 2nd-order total energy (hartree) are
 1,2,3: 0th-order hamiltonian combined with 1st-order wavefunctions
     kin0=   4.79616408E+01 eigvalue=   3.13056018E+00  local=  -2.27362813E+01
 4,5,6: 1st-order hamiltonian combined with 1st and 0th-order wfs
     kin1=  -6.33139552E+01  Hartree=   0.00000000E+00     xc=   0.00000000E+00
 7,8,9: eventually, occupation + non-local contributions
    edocc=   4.69994068E+00     enl0=   3.07162841E-01   enl1=  -3.41209107E+00
 1-9 gives the relaxation energy (to be shifted if some occ is /=2.0)
   erelax=  -3.33630231E+01
  No Ewald or frozen-wf contrib.: the relaxation energy is the total one
 2DEtotal=   -0.3336302315E+02 Ha. Also 2DEtotal=   -0.907854029605E+03 eV
    (  non-var. 2DEtotal :   -3.3363023148E+01 Ha)

 Perturbation wavevector (in red.coord.)   0.000000  0.000000  0.000000
 Perturbation : derivative vs k along direction   2
 The set of symmetries contains only one element for this perturbation.
 symkpt : not enough symmetry to change the number of k points.

[...]

 Perturbation wavevector (in red.coord.)   0.000000  0.000000  0.000000
 Perturbation : derivative vs k along direction   3
 The set of symmetries contains only one element for this perturbation.
 symkpt : not enough symmetry to change the number of k points.

-inwffil : will read wavefunctions from disk file /scratch/users/j/a/jabreu/flow_simple_9atoms/flow/w112/t1/indata/in_WFK

 Initialisation of the first-order wave-functions :
  ireadwf=   0

--- !BeginCycle
iteration_state: {dtset: 1, }
solver: {iscf: 7, nstep: 2000, nline: 4, wfoptalg: 0, }
tolerances: {tolwfr: 1.00E-20, }
...

     iter   2DEtotal(Ha)        deltaE(Ha) residm    vres2
-ETOT  1  -39.056207648919     -3.906E+01 4.558E-02 0.000E+00
 ETOT  2  -39.105533109416     -4.933E-02 8.186E-03 0.000E+00
 ETOT  3  -39.105864253829     -3.311E-04 4.943E-04 0.000E+00
 ETOT  4  -39.105868487438     -4.234E-06 2.253E-04 0.000E+00
 ETOT  5  -39.105868558280     -7.084E-08 1.450E-05 0.000E+00
 ETOT  6  -39.105868559642     -1.362E-09 7.283E-06 0.000E+00
 ETOT  7  -39.105868559672     -3.027E-11 4.599E-07 0.000E+00
 ETOT  8  -39.105868559673     -7.105E-13 2.483E-07 0.000E+00
 ETOT  9  -39.105868559673      0.000E+00 1.511E-08 0.000E+00
 ETOT 10  -39.105868559673      1.421E-14 8.752E-09 0.000E+00
 ETOT 11  -39.105868559673     -2.842E-14 5.160E-10 0.000E+00
 ETOT 12  -39.105868559673     -2.132E-14 3.162E-10 0.000E+00
 ETOT 13  -39.105868559673      7.105E-15 1.825E-11 0.000E+00
 ETOT 14  -39.105868559673      7.105E-15 1.160E-11 0.000E+00
 ETOT 15  -39.105868559673     -2.132E-14 6.611E-13 0.000E+00
 ETOT 16  -39.105868559673      7.105E-15 4.294E-13 0.000E+00
 ETOT 17  -39.105868559673     -1.421E-14 2.430E-14 0.000E+00
 ETOT 18  -39.105868559673      2.132E-14 1.597E-14 0.000E+00
 ETOT 19  -39.105868559673      0.000E+00 9.017E-16 0.000E+00
 ETOT 20  -39.105868559673      7.105E-15 5.962E-16 0.000E+00
 ETOT 21  -39.105868559673     -7.105E-15 3.365E-17 0.000E+00
 ETOT 22  -39.105868559673      0.000E+00 2.231E-17 0.000E+00
 ETOT 23  -39.105868559673      7.105E-15 1.260E-18 0.000E+00
 ETOT 24  -39.105868559673      0.000E+00 8.363E-19 0.000E+00
 ETOT 25  -39.105868559673      0.000E+00 4.928E-20 0.000E+00
 ETOT 26  -39.105868559673      0.000E+00 3.140E-20 0.000E+00
 ETOT 27  -39.105868559673      0.000E+00 9.735E-21 0.000E+00

 At SCF step   27   max residual=  9.73E-21 < tolwfr=  1.00E-20 =>converged.

 ----iterations are completed or convergence reached----

 dfpt_looppert: DFPT cycle converged with prtwf=-1. Will skip output of the 1st-order WFK file.
 dfpt_looppert : ek2=    7.4519996646E+01
          f-sum rule ratio=    9.9962167417E-01
 prteigrs : about to open file /scratch/users/j/a/jabreu/flow_simple_9atoms/flow/w112/t1/tmpdata/tmp_1WF1_EIG
 Expectation of eigenvalue derivatives (hartree) for nkpt=   2  k points:
  (in case of degenerate eigenvalues, averaged derivative)
 kpt#   1, nband= 48, wtk=  0.50000, kpt=  0.5000  0.0000  0.5000 (reduced coord)
   0.00000    0.00000    0.00000    0.00000   -0.00000   -0.00000   -0.00000   -0.00000
  -0.00000    0.00000   -0.00000    0.00000    0.00000    0.00000   -0.00000   -0.00000
  -0.00000    0.00000   -0.00000   -0.00000    0.00000   -0.00000   -0.00000    0.00000
   0.00000    0.00000   -0.00000    0.00000    0.00000    0.00000    0.00000    0.00000
  -0.00000   -0.00000    0.00000    0.00000    0.00000   -0.00000   -0.00000    0.00000
  -0.00000    0.00000   -0.00000   -0.00000   -0.00000   -0.00000   -0.00000   -0.00003
 prteigrs : prtvol=0 or 1, do not print more k-points.

 Eight components of 2nd-order total energy (hartree) are
 1,2,3: 0th-order hamiltonian combined with 1st-order wavefunctions
     kin0=   5.45839842E+01 eigvalue=   3.48185130E+00  local=  -2.56281337E+01
 4,5,6: 1st-order hamiltonian combined with 1st and 0th-order wfs
     kin1=  -7.44918038E+01  Hartree=   0.00000000E+00     xc=   0.00000000E+00
 7,8,9: eventually, occupation + non-local contributions
    edocc=   6.16338970E+00     enl0=   5.04777081E-01   enl1=  -3.71993331E+00
 1-9 gives the relaxation energy (to be shifted if some occ is /=2.0)
   erelax=  -3.91058686E+01
  No Ewald or frozen-wf contrib.: the relaxation energy is the total one
 2DEtotal=   -0.3910586856E+02 Ha. Also 2DEtotal=   -0.106412480056E+04 eV
    (  non-var. 2DEtotal :   -3.9105868559E+01 Ha)

 CALCULATION OF EFFECTIVE MASSES
 NOTE : Additional infos (eff. mass eigenvalues, eigenvectors and, if degenerate, average mass) are available in stdout.

 K-point ( 0.500, 0.000, 0.500) | band =    39
 Effective mass tensor:
            -44.9327068122             70.5526210612             -0.0973986780
             70.5526210612           -126.3998454776             -0.0562431719
             -0.0973986780             -0.0562431719             -3.9522438114
 Effective mass tensor eigenvalues:
           -167.1334229539             -4.2426833172             -3.9086898302
 Angular average effective mass 1/(<1/m>)=  -6.0298678787
 Angular average effective mass for Frohlich model (<m**0.5>)**2=  -8.3442582092
 Effective masses along directions: (cart. coord. / red. coord. -> eff. mass)
    1:   1.000000  0.000000  0.000000 /   0.894427 -0.447214  0.000000 ->  -5.5481425607
    2:   0.000000  1.000000  0.000000 /   0.000000  1.000000  0.000000 -> -15.6081713193
    3:   0.000000  0.000000  1.000000 /   0.000000  0.000000  1.000000 ->  -3.9492313306
    4:   0.577350  0.577350  0.577350 /   0.747585  0.273635  0.605178 ->  -4.4104091173
    5:   0.000000  0.707107  0.707107 /   0.000000  0.730542  0.682868 ->  -6.4412108903
    6:   0.707107  0.000000  0.707107 /   0.724465 -0.362233  0.586462 ->  -4.7426265492
    7:   0.707107  0.707107  0.000000 /   0.939071  0.343724  0.000000 ->  -4.4890912445

--- !WARNING
src_file: m_efmas.F90
src_line: 0
message: |

    Band(s)    40,
    are not band extrema, but saddle points;
    the transport equivalent formalism breaks down in these conditions.
    The associated tensor(s) will therefore not be printed.
...

 K-point ( 0.500, 0.000, 0.025) | band =    40
 Effective mass tensor:
     *** SADDLE POINT: TRANSPORT EQV. EFF. MASS NOT DEFINED (see WARNING above) ***
 Angular average effective mass 1/(<1/m>)=   3.3814671881
 Angular average effective mass for Frohlich model (<m**0.5>)**2=   5.9920478185
 Effective masses along directions: (cart. coord. / red. coord. -> eff. mass)
    1:   1.000000  0.000000  0.000000 /   0.894427 -0.447214  0.000000 ->   2.0544215871
    2:   0.000000  1.000000  0.000000 /   0.000000  1.000000  0.000000 ->   2.5007667200
    3:   0.000000  0.000000  1.000000 /   0.000000  0.000000  1.000000 -> **************
    4:   0.577350  0.577350  0.577350 /   0.747585  0.273635  0.605178 ->   2.6773088480
    5:   0.000000  0.707107  0.707107 /   0.000000  0.730542  0.682868 ->   4.6429162426
    6:   0.707107  0.000000  0.707107 /   0.724465 -0.362233  0.586462 ->   3.7047713061
    7:   0.707107  0.707107  0.000000 /   0.939071  0.343724  0.000000 ->   1.9284378055

 END OF EFFECTIVE MASSES SECTION

 ---- first-order wavefunction calculations are completed ----

 Total localisation tensor (bohr^2) in cartesian coordinates
  WARNING : still subject to testing - especially symmetries.
      direction              matrix element
   alpha     beta       real part   imaginary part
     1        1       0.8650859862    0.0000000000
     1        2      -0.3132048965    0.0000000000
     1        3       0.0000000000    0.0000000000
     2        1      -0.3132048965    0.0000000000
     2        2       0.5424867939    0.0000000000
     2        3       0.0000000000    0.0000000000
     3        1       0.0000000000    0.0000000000
     3        2       0.0000000000    0.0000000000
     3        3       0.5274737199    0.0000000000

 respfn : d/dk was computed, but no 2DTE, so no DDB output.

== END DATASET(S) ==============================================================

 -outvars: echo values of variables after computation  --------
            acell      1.0000000000E+00  1.0000000000E+00  1.0000000000E+00 Bohr
              amu      8.54678000E+01  1.95080000E+02  1.89984032E+01
             ecut      4.20000000E+01 Hartree
           etotal     -3.9105868560E+01
            fcart      0.0000000000E+00  0.0000000000E+00  0.0000000000E+00
                       0.0000000000E+00  0.0000000000E+00  0.0000000000E+00
                       0.0000000000E+00  0.0000000000E+00  0.0000000000E+00
                       0.0000000000E+00  0.0000000000E+00  0.0000000000E+00
                       0.0000000000E+00  0.0000000000E+00  0.0000000000E+00
                       0.0000000000E+00  0.0000000000E+00  0.0000000000E+00
                       0.0000000000E+00  0.0000000000E+00  0.0000000000E+00
                       0.0000000000E+00  0.0000000000E+00  0.0000000000E+00
                       0.0000000000E+00  0.0000000000E+00  0.0000000000E+00
-          fftalg         512
           irdden           1
           irdwfk           1
           istwfk        1    0
              ixc     -116133
              kpt      5.00000000E-01  0.00000000E+00  5.00000000E-01
                       5.00000000E-01  0.00000000E+00  2.50000000E-02
           kptopt           0
P           mkmem           2
P          mkqmem           2
P          mk1mem           2
            natom           9
            nband          48
           nbdbuf           4
            ngfft          72      72      54
             nkpt           2
            nstep        2000
             nsym          12
           ntypat           3
              occ      2.000000  2.000000  2.000000  2.000000  2.000000  2.000000
                       2.000000  2.000000  2.000000  2.000000  2.000000  2.000000
                       2.000000  2.000000  2.000000  2.000000  2.000000  2.000000
                       2.000000  2.000000  2.000000  2.000000  2.000000  2.000000
                       2.000000  2.000000  2.000000  2.000000  2.000000  2.000000
                       2.000000  2.000000  2.000000  2.000000  2.000000  2.000000
                       2.000000  2.000000  2.000000  0.000000  0.000000  0.000000
                       0.000000  0.000000  0.000000  0.000000  0.000000  0.000000
        optdriver           1
            prtwf          -1
            rfdir           1       1       1
           rfelfd           2
            rprim      1.1230104297E+01  0.0000000000E+00  0.0000000000E+00
                      -5.6150521485E+00  9.7255556083E+00  0.0000000000E+00
                       0.0000000000E+00  0.0000000000E+00  9.0908764226E+00
          spgroup         164
           strten      0.0000000000E+00  0.0000000000E+00  0.0000000000E+00
                       0.0000000000E+00  0.0000000000E+00  0.0000000000E+00
           symrel      1  0  0   0  1  0   0  0  1      -1  0  0   0 -1  0   0  0 -1
                      -1  0  0   1  1  0   0  0  1       1  0  0  -1 -1  0   0  0 -1
                       0  1  0  -1 -1  0   0  0  1       0 -1  0   1  1  0   0  0 -1
                       0 -1  0  -1  0  0   0  0  1       0  1  0   1  0  0   0  0 -1
                      -1 -1  0   1  0  0   0  0  1       1  1  0  -1  0  0   0  0 -1
                       1  1  0   0 -1  0   0  0  1      -1 -1  0   0  1  0   0  0 -1
           tolwfr      1.00000000E-20
            typat      1  1  2  3  3  3  3  3  3
           useylm           1
              wtk        0.50000    0.50000
           xangst      2.9713576220E+00  1.7155141229E+00  3.4402360203E+00
                      -1.7639946751E-11  3.4310282459E+00  1.3704485887E+00
                       0.0000000000E+00  0.0000000000E+00  0.0000000000E+00
                      -8.4081325663E-12  1.6354750960E+00  3.7571494903E+00
                       1.5549946416E+00  4.3288048208E+00  3.7571494903E+00
                      -1.5549946416E+00  4.3288048208E+00  3.7571494903E+00
                       2.9713576220E+00  3.5110672728E+00  1.0535351187E+00
                       1.4163629804E+00  8.1773754800E-01  1.0535351187E+00
                       4.5263522636E+00  8.1773754800E-01  1.0535351187E+00
            xcart      5.6150521484E+00  3.2418518694E+00  6.5011039108E+00
                      -3.3334668359E-11  6.4837037389E+00  2.5897725118E+00
                       0.0000000000E+00  0.0000000000E+00  0.0000000000E+00
                      -1.5889067839E-11  3.0906000286E+00  7.0999835769E+00
                       2.9385140107E+00  8.1802555940E+00  7.0999835769E+00
                      -2.9385140108E+00  8.1802555940E+00  7.0999835769E+00
                       5.6150521484E+00  6.6349555797E+00  1.9908928457E+00
                       2.6765381377E+00  1.5453000143E+00  1.9908928457E+00
                       8.5535661592E+00  1.5453000143E+00  1.9908928457E+00
             xred      6.6666666667E-01  3.3333333333E-01  7.1512400000E-01
                       3.3333333333E-01  6.6666666667E-01  2.8487600000E-01
                       0.0000000000E+00  0.0000000000E+00  0.0000000000E+00
                       1.5889066667E-01  3.1778133333E-01  7.8100100000E-01
                       6.8221866667E-01  8.4110933333E-01  7.8100100000E-01
                       1.5889066667E-01  8.4110933333E-01  7.8100100000E-01
                       8.4110933333E-01  6.8221866667E-01  2.1899900000E-01
                       3.1778133333E-01  1.5889066667E-01  2.1899900000E-01
                       8.4110933333E-01  1.5889066667E-01  2.1899900000E-01
            znucl       37.00000   78.00000    9.00000

- Timing analysis has been suppressed with timopt=0

 Suggested references for the acknowledgment of ABINIT usage.

 Calculation completed.
.Delivered  15 WARNINGs and   9 COMMENTs to log file.