.Version 9.5.2 of ABINIT

 ABINIT is a project of the Universite Catholique de Louvain,
 Corning Inc. and other collaborators, see ~abinit/doc/developers/contributors.txt .
 acknowledgments of the ABINIT effort.

.Starting date : Tue 25 May 2021.
- ( at 11h17 )

- input  file    -> /scratch/users/j/a/jabreu/flow_simple_10atoms/flow/w508/t1/run.abi
- output file    -> /scratch/users/j/a/jabreu/flow_simple_10atoms/flow/w508/t1/run.abo
- root for input  files -> /scratch/users/j/a/jabreu/flow_simple_10atoms/flow/w508/t1/indata/in
- root for output files -> /scratch/users/j/a/jabreu/flow_simple_10atoms/flow/w508/t1/outdata/out

 Symmetries : space group Ib a m (# 72); Bravais oI (body-center ortho.)
     intxc =       0      iscf =       7    lmnmax =      18     lnmax =       6
     mgfft =      96  mpssoang =       3    mqgrid =    3611     natom =      10
  nloc_mem =       1    nspden =       1   nspinor =       1    nsppol =       1
      nsym =       8    n1xccc =    2501    ntypat =       3    occopt =       1
   xclevel =       2
-    mband =          71        mffmem =           1         mkmem =           2
-   mkqmem =           2        mk1mem =           2           mpw =       31493
      nfft =      884736          nkpt =           2
  Rough estimation (10% accuracy) of disk space for files :

------------- Echo of variables that govern the present computation ------------
-
- outvars: echo of selected default values
-   iomode0 =  0 , fftalg0 =512 , wfoptalg0 =  0
-
- outvars: echo of global parameters not present in the input file
-  max_nthreads =    0
-
 -outvars: echo values of preprocessed input variables --------
            acell      1.0000000000E+00  1.0000000000E+00  1.0000000000E+00 Bohr
              amu      8.54678000E+01  1.18710000E+02  7.49215900E+01
             ecut      4.20000000E+01 Hartree
-          fftalg         512
           irdden           1
           irdwfk           1
           istwfk        0    1
              ixc     -116133
              kpt      5.00000000E-01  5.00000000E-01 -5.00000000E-01
                       0.00000000E+00  0.00000000E+00  0.00000000E+00
           kptopt           0
P           mkmem           2
P          mkqmem           2
P          mk1mem           2
            natom          10
            nband          71
           nbdbuf           4
            ngfft          96      96      96
             nkpt           2
            nstep        2000
             nsym           8
           ntypat           3
              occ      2.000000  2.000000  2.000000  2.000000  2.000000  2.000000
                       2.000000  2.000000  2.000000  2.000000  2.000000  2.000000
                       2.000000  2.000000  2.000000  2.000000  2.000000  2.000000
                       2.000000  2.000000  2.000000  2.000000  2.000000  2.000000
                       2.000000  2.000000  2.000000  2.000000  2.000000  2.000000
                       2.000000  2.000000  2.000000  2.000000  2.000000  2.000000
                       2.000000  2.000000  2.000000  2.000000  2.000000  2.000000
                       2.000000  2.000000  2.000000  2.000000  2.000000  2.000000
                       2.000000  2.000000  2.000000  2.000000  2.000000  2.000000
                       2.000000  2.000000  2.000000  2.000000  2.000000  2.000000
                       2.000000  2.000000  0.000000  0.000000  0.000000  0.000000
                       0.000000  0.000000  0.000000  0.000000  0.000000
        optdriver           1
            prtwf          -1
            rfdir           1       1       1
           rfelfd           2
            rprim      1.2654297372E+01  0.0000000000E+00 -1.0292251781E+01
                      -2.5028726565E+00  1.1734809140E+01 -1.1049505493E+01
                       0.0000000000E+00  0.0000000000E+00  1.6311397510E+01
          spgroup          72
           symrel      1  0  0   0  1  0   0  0  1      -1  0  0   0 -1  0   0  0 -1
                       0  0  1  -1 -1 -1   1  0  0       0  0 -1   1  1  1  -1  0  0
                      -1 -1 -1   0  0  1   0  1  0       1  1  1   0  0 -1   0 -1  0
                       0  1  0   1  0  0  -1 -1 -1       0 -1  0  -1  0  0   1  1  1
            tnons      0.0000000  0.0000000  0.0000000    -0.0000000 -0.0000000  0.0000000
                      -0.0000000  0.5000000  0.5000000     0.0000000  0.5000000  0.5000000
                      -0.0000000 -0.0000000  0.0000000     0.0000000 -0.0000000  0.0000000
                       0.0000000  0.5000000  0.5000000    -0.0000000  0.5000000  0.5000000
           tolwfr      1.00000000E-20
            typat      1  1  1  1  2  2  3  3  3  3
           useylm           1
              wtk        0.50000    0.50000
           xangst      1.8531600536E+00  8.9670039752E-01 -1.1183020061E+00
                      -3.6048774226E-01  2.2081963744E+00  3.5355407067E+00
                       3.5187425405E+00  5.3130931463E+00 -1.5436497324E+00
                       5.7323903364E+00  4.0015971694E+00 -6.1974924452E+00
                       2.3548355056E+00  4.6573451579E+00 -4.9506674381E+00
                       3.0170670885E+00  1.5524483860E+00  2.2887156995E+00
                       2.0288295296E+00  3.7555853311E+00  1.2211341832E+00
                       2.4081637786E-01  5.5591049847E+00 -3.6514721070E+00
                       3.3430730646E+00  2.4542082128E+00 -3.8830859217E+00
                       5.1310862163E+00  6.5068855915E-01  9.8952036846E-01
            xcart      3.5019649818E+00  1.6945181746E+00 -2.1132845254E+00
                      -6.8122310714E-01  4.1728863952E+00  6.6812036673E+00
                       6.6494597337E+00  1.0040290965E+01 -2.9170752394E+00
                       1.0832647823E+01  7.5619227444E+00 -1.1711563432E+01
                       4.4499941936E+00  8.8011068547E+00 -9.3554056330E+00
                       5.7014305219E+00  2.9337022849E+00  4.3250458682E+00
                       3.8339321812E+00  7.0970277444E+00  2.3076091777E+00
                       4.5507700248E-01  1.0505185965E+01 -6.9002822641E+00
                       6.3174925343E+00  4.6377813952E+00 -7.3379689425E+00
                       9.6963477130E+00  1.2296231746E+00  1.8699224993E+00
             xred      3.0530200000E-01  1.4440100000E-01  1.6090100000E-01
                       1.6500000000E-02  3.5559900000E-01  6.6090100000E-01
                       6.9469800000E-01  8.5559900000E-01  8.3909900000E-01
                       9.8350000000E-01  6.4440100000E-01  3.3909900000E-01
                       5.0000000000E-01  7.5000000000E-01  2.5000000000E-01
                       5.0000000000E-01  2.5000000000E-01  7.5000000000E-01
                       4.2259400000E-01  6.0478425000E-01  8.1780975000E-01
                       2.1302550000E-01  8.9521575000E-01  3.1780975000E-01
                       5.7740600000E-01  3.9521575000E-01  1.8219025000E-01
                       7.8697450000E-01  1.0478425000E-01  6.8219025000E-01
            znucl       37.00000   50.00000   33.00000

 chkinp: Checking input parameters for consistency.

== DATASET  1 ==================================================================
-   mpi_nproc: 1, omp_nthreads: -1 (-1 if OMP is not activated)

--- !DatasetInfo
iteration_state: {dtset: 1, }
dimensions: {natom: 10, nkpt: 2, mband: 71, nsppol: 1, nspinor: 1, nspden: 1, mpw: 31493, }
cutoff_energies: {ecut:  42.0, pawecutdg:  -1.0, }
electrons: {nelect:   1.24000000E+02, charge:   0.00000000E+00, occopt:   1.00000000E+00, tsmear:   1.00000000E-02, }
meta: {optdriver: 1, rfelfd: 2, }
...

 Real(R)+Recip(G) space primitive vectors, cartesian coordinates (Bohr,Bohr^-1):
 R(1)= 12.6542974  0.0000000-10.2922518  G(1)=  0.0790245  0.0168548  0.0000000
 R(2)= -2.5028727 11.7348091-11.0495055  G(2)=  0.0000000  0.0852166  0.0000000
 R(3)=  0.0000000  0.0000000 16.3113975  G(3)=  0.0498633  0.0683617  0.0613068
 Unit cell volume ucvol=  2.4221734E+03 bohr^3
 Angles (23,13,12)=  1.32641589E+02  1.29122852E+02  7.20374443E+01 degrees

 getcut: wavevector=  0.0000  0.0000  0.0000  ngfft=  96  96  96
         ecut(hartree)=     42.000   => boxcut(ratio)=   2.01761

--- Pseudopotential description ------------------------------------------------
- pspini: atom type   1  psp file is /scratch/users/j/a/jabreu/pseudos/PBEsol/Rb.psp8
- pspatm: opening atomic psp file    /scratch/users/j/a/jabreu/pseudos/PBEsol/Rb.psp8
- Rb    ONCVPSP-3.3.0  r_core=   1.71227   1.75361   1.90633
- 37.00000   9.00000    180112                znucl, zion, pspdat
    8 -116133    2    4       600   0.00000   pspcod,pspxc,lmax,lloc,mmax,r2well
    5.99000000000000    7.00000000000000    0.00000000000000   rchrg,fchrg,qchrg
     nproj     2     2     2
     extension_switch     1
  pspatm : epsatm=   34.48400912
         --- l  ekb(1:nproj) -->
             0    8.196957   -0.477221
             1    3.231347   -0.378736
             2   -1.047201    0.996637
 pspatm: atomic psp has been read  and splines computed

- pspini: atom type   2  psp file is /scratch/users/j/a/jabreu/pseudos/PBEsol/Sn.psp8
- pspatm: opening atomic psp file    /scratch/users/j/a/jabreu/pseudos/PBEsol/Sn.psp8
- Sn    ONCVPSP-3.3.0  r_core=   2.27326   2.62311   1.85601
- 50.00000  14.00000    180112                znucl, zion, pspdat
    8 -116133    2    4       600   0.00000   pspcod,pspxc,lmax,lloc,mmax,r2well
    5.99000000000000    6.50000000000000    0.00000000000000   rchrg,fchrg,qchrg
     nproj     2     2     2
     extension_switch     1
  pspatm : epsatm=   32.44586081
         --- l  ekb(1:nproj) -->
             0    5.587869    0.749373
             1    4.197111    0.728791
             2   -5.271877   -1.523486
 pspatm: atomic psp has been read  and splines computed

- pspini: atom type   3  psp file is /scratch/users/j/a/jabreu/pseudos/PBEsol/As.psp8
- pspatm: opening atomic psp file    /scratch/users/j/a/jabreu/pseudos/PBEsol/As.psp8
- As    ONCVPSP-3.3.0  r_core=   1.76603   1.70395   1.80867
- 33.00000  15.00000    180112                znucl, zion, pspdat
    8 -116133    2    4       600   0.00000   pspcod,pspxc,lmax,lloc,mmax,r2well
    5.99000000000000    5.00000000000000    0.00000000000000   rchrg,fchrg,qchrg
     nproj     2     2     2
     extension_switch     1
  pspatm : epsatm=   28.79155382
         --- l  ekb(1:nproj) -->
             0    8.270760    0.868950
             1    4.919053    0.756587
             2  -10.048665   -4.076802
 pspatm: atomic psp has been read  and splines computed

   3.94312527E+04                                ecore*ucvol(ha*bohr**3)

 ==>  initialize data related to q vector <==

 The list of irreducible perturbations for this q vector is:
    1)    idir= 1    ipert=  11
    2)    idir= 2    ipert=  11
    3)    idir= 3    ipert=  11

 Perturbation wavevector (in red.coord.)   0.000000  0.000000  0.000000
 Perturbation : derivative vs k along direction   1

 dfpt_looppert : COMMENT -
  In a d/dk calculation, iscf is set to -3 automatically.
 The set of symmetries contains only one element for this perturbation.
 symkpt : not enough symmetry to change the number of k points.

[...]
 kpt#   1, nband= 71, wtk=  0.50000, kpt=  0.5000  0.5000 -0.5000 (reduced coord)
   0.00000   -0.00000   -0.00000    0.00000    0.00000    0.00000    0.00000    0.00000
  -0.00000   -0.00000   -0.00000    0.00000   -0.00000   -0.00000    0.00000   -0.00000
   0.00000    0.00000   -0.00000    0.00000   -0.00000   -0.00000   -0.00000   -0.00000
   0.00000   -0.00000   -0.00000    0.00000   -0.00000    0.00000    0.00000    0.00000
  -0.00000    0.00000    0.00000    0.00000    0.00000    0.00000    0.00000    0.00000
  -0.00000    0.00000   -0.00000    0.00000    0.00000    0.00000   -0.00000    0.00000
   0.00000    0.00000    0.00000   -0.00000    0.00000    0.00000   -0.00000    0.00000
   0.00000    0.00000   -0.00000   -0.00000    0.00000   -0.00000    0.00000    0.00000
  -0.00000    0.00000    0.00000    0.00000   -0.00000    0.00000    0.00000
 prteigrs : prtvol=0 or 1, do not print more k-points.

 Eight components of 2nd-order total energy (hartree) are
 1,2,3: 0th-order hamiltonian combined with 1st-order wavefunctions
     kin0=   8.03164349E+01 eigvalue=   1.18341519E+01  local=  -3.79227588E+01
 4,5,6: 1st-order hamiltonian combined with 1st and 0th-order wfs
     kin1=  -6.78485473E+01  Hartree=   0.00000000E+00     xc=   0.00000000E+00
 7,8,9: eventually, occupation + non-local contributions
    edocc=   6.92761749E+00     enl0=   6.77782085E+00   enl1=  -6.80179854E+01
 1-9 gives the relaxation energy (to be shifted if some occ is /=2.0)
   erelax=  -6.79332663E+01
  No Ewald or frozen-wf contrib.: the relaxation energy is the total one
 2DEtotal=   -0.6793326635E+02 Ha. Also 2DEtotal=   -0.184855818750E+04 eV
    (  non-var. 2DEtotal :   -6.7933266349E+01 Ha)

 Perturbation wavevector (in red.coord.)   0.000000  0.000000  0.000000
 Perturbation : derivative vs k along direction   2
 The set of symmetries contains only one element for this perturbation.
 symkpt : not enough symmetry to change the number of k points.

[...]

 Perturbation wavevector (in red.coord.)   0.000000  0.000000  0.000000
 Perturbation : derivative vs k along direction   3
 The set of symmetries contains only one element for this perturbation.
 symkpt : not enough symmetry to change the number of k points.

 Initialisation of the first-order wave-functions :
  ireadwf=   0

--- !BeginCycle
iteration_state: {dtset: 1, }
solver: {iscf: 7, nstep: 2000, nline: 4, wfoptalg: 0, }
tolerances: {tolwfr: 1.00E-20, }
...

     iter   2DEtotal(Ha)        deltaE(Ha) residm    vres2
-ETOT  1  -112.58423228428     -1.126E+02 1.406E-01 0.000E+00
 ETOT  2  -112.69463988262     -1.104E-01 1.147E-02 0.000E+00
 ETOT  3  -112.69510032400     -4.604E-04 1.270E-03 0.000E+00
 ETOT  4  -112.69510431425     -3.990E-06 1.505E-04 0.000E+00
 ETOT  5  -112.69510435544     -4.118E-08 2.093E-05 0.000E+00
 ETOT  6  -112.69510435589     -4.589E-10 2.699E-06 0.000E+00
 ETOT  7  -112.69510435590     -5.187E-12 3.992E-07 0.000E+00
 ETOT  8  -112.69510435590     -9.948E-14 5.304E-08 0.000E+00
 ETOT  9  -112.69510435590     -1.137E-13 8.566E-09 0.000E+00
 ETOT 10  -112.69510435590      7.105E-14 1.316E-09 0.000E+00
 ETOT 11  -112.69510435590     -2.842E-14 2.534E-10 0.000E+00
 ETOT 12  -112.69510435590      0.000E+00 5.160E-11 0.000E+00
 ETOT 13  -112.69510435590      0.000E+00 1.119E-11 0.000E+00
 ETOT 14  -112.69510435590      2.842E-14 2.752E-12 0.000E+00
 ETOT 15  -112.69510435590     -1.421E-14 6.041E-13 0.000E+00
 ETOT 16  -112.69510435590     -1.421E-14 1.579E-13 0.000E+00
 ETOT 17  -112.69510435590      0.000E+00 3.452E-14 0.000E+00
 ETOT 18  -112.69510435590     -1.421E-14 9.140E-15 0.000E+00
 ETOT 19  -112.69510435590      2.842E-14 2.006E-15 0.000E+00
 ETOT 20  -112.69510435590     -2.842E-14 5.306E-16 0.000E+00
 ETOT 21  -112.69510435590      2.842E-14 1.173E-16 0.000E+00
 ETOT 22  -112.69510435590     -1.421E-14 3.087E-17 0.000E+00
 ETOT 23  -112.69510435590      0.000E+00 6.885E-18 0.000E+00
 ETOT 24  -112.69510435590     -1.421E-14 1.800E-18 0.000E+00
 ETOT 25  -112.69510435590      4.263E-14 4.046E-19 0.000E+00
 ETOT 26  -112.69510435590     -2.842E-14 1.050E-19 0.000E+00
 ETOT 27  -112.69510435590      0.000E+00 2.379E-20 0.000E+00
 ETOT 28  -112.69510435590      0.000E+00 9.962E-21 0.000E+00

 At SCF step   28   max residual=  9.96E-21 < tolwfr=  1.00E-20 =>converged.

 ----iterations are completed or convergence reached----

 dfpt_looppert: DFPT cycle converged with prtwf=-1. Will skip output of the 1st-order WFK file.
 dfpt_looppert : ek2=    1.0689626062E+02
          f-sum rule ratio=    1.0449858032E+00
 prteigrs : about to open file /scratch/users/j/a/jabreu/flow_simple_10atoms/flow/w508/t1/tmpdata/tmp_1WF1_EIG
 Expectation of eigenvalue derivatives (hartree) for nkpt=   2  k points:
  (in case of degenerate eigenvalues, averaged derivative)
 kpt#   1, nband= 71, wtk=  0.50000, kpt=  0.5000  0.5000 -0.5000 (reduced coord)
  -0.00000    0.00000   -0.00000    0.00000    0.00000    0.00000   -0.00000   -0.00000
  -0.00000   -0.00000   -0.00000    0.00000   -0.00000    0.00000   -0.00000   -0.00000
   0.00000   -0.00000    0.00000   -0.00000   -0.00000   -0.00000   -0.00000    0.00000
   0.00000   -0.00000    0.00000    0.00000    0.00000   -0.00000    0.00000    0.00000
  -0.00000    0.00000   -0.00000    0.00000    0.00000    0.00000    0.00000    0.00000
  -0.00000    0.00000   -0.00000    0.00000    0.00000   -0.00000   -0.00000    0.00000
  -0.00000    0.00000    0.00000   -0.00000    0.00000    0.00000   -0.00000   -0.00000
   0.00000    0.00000   -0.00000    0.00000    0.00000   -0.00000    0.00000   -0.00000
   0.00000    0.00000    0.00000    0.00000   -0.00000    0.00000   -0.00000
 prteigrs : prtvol=0 or 1, do not print more k-points.

 Eight components of 2nd-order total energy (hartree) are
 1,2,3: 0th-order hamiltonian combined with 1st-order wavefunctions
     kin0=   1.30537330E+02 eigvalue=   2.00873884E+01  local=  -6.12705265E+01
 4,5,6: 1st-order hamiltonian combined with 1st and 0th-order wfs
     kin1=  -1.11705075E+02  Hartree=   0.00000000E+00     xc=   0.00000000E+00
 7,8,9: eventually, occupation + non-local contributions
    edocc=   1.20639064E+01     enl0=   1.12770060E+01   enl1=  -1.13685134E+02
 1-9 gives the relaxation energy (to be shifted if some occ is /=2.0)
   erelax=  -1.12695104E+02
  No Ewald or frozen-wf contrib.: the relaxation energy is the total one
 2DEtotal=   -0.1126951044E+03 Ha. Also 2DEtotal=   -0.306658974377E+04 eV
    (  non-var. 2DEtotal :   -1.1269510436E+02 Ha)

 CALCULATION OF EFFECTIVE MASSES
 NOTE : Additional infos (eff. mass eigenvalues, eigenvectors and, if degenerate, average mass) are available in stdout.

 K-point ( 0.500, 0.500,-0.500) | band =    62
 Effective mass tensor:
             -2.0709735066             -0.0598919284             -0.5415998234
             -0.0598919284             -0.7207741348              0.1259132616
             -0.5415998234              0.1259132616             -1.1899634300
 Effective mass tensor eigenvalues:
             -2.3285909915             -1.0015796110             -0.6515404688
 Angular average effective mass 1/(<1/m>)=  -1.0125928736
 Angular average effective mass for Frohlich model (<m**0.5>)**2=  -1.0883034543
 Effective masses along directions: (cart. coord. / red. coord. -> eff. mass)
    1:   1.000000  0.000000  0.000000 /   0.980996 -0.194030  0.000000 ->  -1.8050538358
    2:   0.000000  1.000000  0.000000 /   0.000000  1.000000  0.000000 ->  -0.6999222261
    3:   0.000000  0.000000  1.000000 /  -0.463031 -0.497099  0.733822 ->  -1.0204488368
    4:   0.577350  0.577350  0.577350 /   0.142451 -0.109615  0.983714 ->  -1.1357974264
    5:   0.000000  0.707107  0.707107 /  -0.533297  0.035509  0.845182 ->  -0.7156682455
    6:   0.707107  0.000000  0.707107 /   0.110697 -0.635130  0.764432 ->  -1.9797211915
    7:   0.707107  0.707107  0.000000 /   0.807860  0.589374  0.000000 ->  -1.1116217983

 K-point ( 0.000, 0.000, 0.000) | band =    63
 Effective mass tensor:
              0.1698541860              0.0063623875              0.0022658250
              0.0063623875              0.1426154171             -0.0133758246
              0.0022658250             -0.0133758246              0.1661684564
 Effective mass tensor eigenvalues:
              0.1352606582              0.1709319570              0.1724454443
 Angular average effective mass 1/(<1/m>)=   0.1575435863
 Angular average effective mass for Frohlich model (<m**0.5>)**2=   0.1581659948
 Effective masses along directions: (cart. coord. / red. coord. -> eff. mass)
    1:   1.000000  0.000000  0.000000 /   0.980996 -0.194030  0.000000 ->   0.1695206582
    2:   0.000000  1.000000  0.000000 /   0.000000  1.000000  0.000000 ->   0.1412864950
    3:   0.000000  0.000000  1.000000 /  -0.463031 -0.497099  0.733822 ->   0.1648656216
    4:   0.577350  0.577350  0.577350 /   0.142451 -0.109615  0.983714 ->   0.1543295115
    5:   0.000000  0.707107  0.707107 /  -0.533297  0.035509  0.845182 ->   0.1399553884
    6:   0.707107  0.000000  0.707107 /   0.110697 -0.635130  0.764432 ->   0.1700717198
    7:   0.707107  0.707107  0.000000 /   0.807860  0.589374  0.000000 ->   0.1608846987

 END OF EFFECTIVE MASSES SECTION

 ---- first-order wavefunction calculations are completed ----

 Total localisation tensor (bohr^2) in cartesian coordinates
  WARNING : still subject to testing - especially symmetries.
      direction              matrix element
   alpha     beta       real part   imaginary part
     1        1       1.7138970687    0.0000000000
     1        2      -0.3162688553    0.0000000000
     1        3      -1.0413182808    0.0000000000
     2        1      -0.3162688553    0.0000000000
     2        2       1.4828379879    0.0000000000
     2        3      -1.3962414129    0.0000000000
     3        1      -1.0413182808    0.0000000000
     3        2      -1.3962414129    0.0000000000
     3        3       6.8600314556    0.0000000000

 respfn : d/dk was computed, but no 2DTE, so no DDB output.

== END DATASET(S) ==============================================================

 -outvars: echo values of variables after computation  --------
            acell      1.0000000000E+00  1.0000000000E+00  1.0000000000E+00 Bohr
              amu      8.54678000E+01  1.18710000E+02  7.49215900E+01
             ecut      4.20000000E+01 Hartree
           etotal     -1.1269510436E+02
            fcart      0.0000000000E+00  0.0000000000E+00  0.0000000000E+00
                       0.0000000000E+00  0.0000000000E+00  0.0000000000E+00
                       0.0000000000E+00  0.0000000000E+00  0.0000000000E+00
                       0.0000000000E+00  0.0000000000E+00  0.0000000000E+00
                       0.0000000000E+00  0.0000000000E+00  0.0000000000E+00
                       0.0000000000E+00  0.0000000000E+00  0.0000000000E+00
                       0.0000000000E+00  0.0000000000E+00  0.0000000000E+00
                       0.0000000000E+00  0.0000000000E+00  0.0000000000E+00
                       0.0000000000E+00  0.0000000000E+00  0.0000000000E+00
                       0.0000000000E+00  0.0000000000E+00  0.0000000000E+00
-          fftalg         512
           irdden           1
           irdwfk           1
           istwfk        0    1
              ixc     -116133
              kpt      5.00000000E-01  5.00000000E-01 -5.00000000E-01
                       0.00000000E+00  0.00000000E+00  0.00000000E+00
           kptopt           0
P           mkmem           2
P          mkqmem           2
P          mk1mem           2
            natom          10
            nband          71
           nbdbuf           4
            ngfft          96      96      96
             nkpt           2
            nstep        2000
             nsym           8
           ntypat           3
              occ      2.000000  2.000000  2.000000  2.000000  2.000000  2.000000
                       2.000000  2.000000  2.000000  2.000000  2.000000  2.000000
                       2.000000  2.000000  2.000000  2.000000  2.000000  2.000000
                       2.000000  2.000000  2.000000  2.000000  2.000000  2.000000
                       2.000000  2.000000  2.000000  2.000000  2.000000  2.000000
                       2.000000  2.000000  2.000000  2.000000  2.000000  2.000000
                       2.000000  2.000000  2.000000  2.000000  2.000000  2.000000
                       2.000000  2.000000  2.000000  2.000000  2.000000  2.000000
                       2.000000  2.000000  2.000000  2.000000  2.000000  2.000000
                       2.000000  2.000000  2.000000  2.000000  2.000000  2.000000
                       2.000000  2.000000  0.000000  0.000000  0.000000  0.000000
                       0.000000  0.000000  0.000000  0.000000  0.000000
        optdriver           1
            prtwf          -1
            rfdir           1       1       1
           rfelfd           2
            rprim      1.2654297372E+01  0.0000000000E+00 -1.0292251781E+01
                      -2.5028726565E+00  1.1734809140E+01 -1.1049505493E+01
                       0.0000000000E+00  0.0000000000E+00  1.6311397510E+01
          spgroup          72
           strten      0.0000000000E+00  0.0000000000E+00  0.0000000000E+00
                       0.0000000000E+00  0.0000000000E+00  0.0000000000E+00
           symrel      1  0  0   0  1  0   0  0  1      -1  0  0   0 -1  0   0  0 -1
                       0  0  1  -1 -1 -1   1  0  0       0  0 -1   1  1  1  -1  0  0
                      -1 -1 -1   0  0  1   0  1  0       1  1  1   0  0 -1   0 -1  0
                       0  1  0   1  0  0  -1 -1 -1       0 -1  0  -1  0  0   1  1  1
            tnons      0.0000000  0.0000000  0.0000000    -0.0000000 -0.0000000  0.0000000
                      -0.0000000  0.5000000  0.5000000     0.0000000  0.5000000  0.5000000
                      -0.0000000 -0.0000000  0.0000000     0.0000000 -0.0000000  0.0000000
                       0.0000000  0.5000000  0.5000000    -0.0000000  0.5000000  0.5000000
           tolwfr      1.00000000E-20
            typat      1  1  1  1  2  2  3  3  3  3
           useylm           1
              wtk        0.50000    0.50000
           xangst      1.8531600536E+00  8.9670039752E-01 -1.1183020061E+00
                      -3.6048774226E-01  2.2081963744E+00  3.5355407067E+00
                       3.5187425405E+00  5.3130931463E+00 -1.5436497324E+00
                       5.7323903364E+00  4.0015971694E+00 -6.1974924452E+00
                       2.3548355056E+00  4.6573451579E+00 -4.9506674381E+00
                       3.0170670885E+00  1.5524483860E+00  2.2887156995E+00
                       2.0288295296E+00  3.7555853311E+00  1.2211341832E+00
                       2.4081637786E-01  5.5591049847E+00 -3.6514721070E+00
                       3.3430730646E+00  2.4542082128E+00 -3.8830859217E+00
                       5.1310862163E+00  6.5068855915E-01  9.8952036846E-01
            xcart      3.5019649818E+00  1.6945181746E+00 -2.1132845254E+00
                      -6.8122310714E-01  4.1728863952E+00  6.6812036673E+00
                       6.6494597337E+00  1.0040290965E+01 -2.9170752394E+00
                       1.0832647823E+01  7.5619227444E+00 -1.1711563432E+01
                       4.4499941936E+00  8.8011068547E+00 -9.3554056330E+00
                       5.7014305219E+00  2.9337022849E+00  4.3250458682E+00
                       3.8339321812E+00  7.0970277444E+00  2.3076091777E+00
                       4.5507700248E-01  1.0505185965E+01 -6.9002822641E+00
                       6.3174925343E+00  4.6377813952E+00 -7.3379689425E+00
                       9.6963477130E+00  1.2296231746E+00  1.8699224993E+00
             xred      3.0530200000E-01  1.4440100000E-01  1.6090100000E-01
                       1.6500000000E-02  3.5559900000E-01  6.6090100000E-01
                       6.9469800000E-01  8.5559900000E-01  8.3909900000E-01
                       9.8350000000E-01  6.4440100000E-01  3.3909900000E-01
                       5.0000000000E-01  7.5000000000E-01  2.5000000000E-01
                       5.0000000000E-01  2.5000000000E-01  7.5000000000E-01
                       4.2259400000E-01  6.0478425000E-01  8.1780975000E-01
                       2.1302550000E-01  8.9521575000E-01  3.1780975000E-01
                       5.7740600000E-01  3.9521575000E-01  1.8219025000E-01
                       7.8697450000E-01  1.0478425000E-01  6.8219025000E-01
            znucl       37.00000   50.00000   33.00000

- Timing analysis has been suppressed with timopt=0

 Suggested references for the acknowledgment of ABINIT usage.

 Calculation completed.
.Delivered   2 WARNINGs and   7 COMMENTs to log file.