.Version 9.7.2 of ABINIT

 ABINIT is a project of the Universite Catholique de Louvain,
 Corning Inc. and other collaborators, see ~abinit/doc/developers/contributors.txt .
 acknowledgments of the ABINIT effort.

.Starting date : Wed  1 Dec 2021.
- ( at 21h32 )

- input  file    -> /scratch/users/j/a/jabreu/flow_simple_remain_atoms/flow/w215/t1/run.abi
- output file    -> /scratch/users/j/a/jabreu/flow_simple_remain_atoms/flow/w215/t1/run.abo
- root for input  files -> /scratch/users/j/a/jabreu/flow_simple_remain_atoms/flow/w215/t1/indata/in
- root for output files -> /scratch/users/j/a/jabreu/flow_simple_remain_atoms/flow/w215/t1/outdata/out

 Symmetries : space group P-3 m 1 (#164); Bravais hP (primitive hexag.)
     intxc =       0      iscf =       7    lmnmax =      18     lnmax =       6
     mgfft =      90  mpssoang =       3    mqgrid =    4365     natom =       5
  nloc_mem =       1    nspden =       1   nspinor =       1    nsppol =       1
      nsym =      12    n1xccc =    2501    ntypat =       3    occopt =       1
   xclevel =       2
-    mband =          39        mffmem =           1         mkmem =           1
-   mkqmem =           1        mk1mem =           1           mpw =       13549
      nfft =      262440          nkpt =           1
  Rough estimation (10% accuracy) of disk space for files :

------------- Echo of variables that govern the present computation ------------
-
- outvars: echo of selected default values
-   iomode0 =  0 , fftalg0 =512 , wfoptalg0 =  0
-
- outvars: echo of global parameters not present in the input file
-  max_nthreads =    0
-
 -outvars: echo values of preprocessed input variables --------
            acell      1.0000000000E+00  1.0000000000E+00  1.0000000000E+00 Bohr
              amu      8.76200000E+01  1.12411000E+02  3.09737620E+01
             ecut      5.10000000E+01 Hartree
-          fftalg         512
           irdden           1
           irdwfk           1
           istwfk        1
              ixc     -116133
           kptopt           0
P           mkmem           1
P          mkqmem           1
P          mk1mem           1
            natom           5
            nband          39
           nbdbuf           4
            ngfft          54      54      90
             nkpt           1
            nstep        2000
             nsym          12
           ntypat           3
              occ      2.000000  2.000000  2.000000  2.000000  2.000000  2.000000
                       2.000000  2.000000  2.000000  2.000000  2.000000  2.000000
                       2.000000  2.000000  2.000000  2.000000  2.000000  2.000000
                       2.000000  2.000000  2.000000  2.000000  2.000000  2.000000
                       2.000000  2.000000  2.000000  2.000000  2.000000  2.000000
                       0.000000  0.000000  0.000000  0.000000  0.000000  0.000000
                       0.000000  0.000000  0.000000
        optdriver           1
            prtwf          -1
            rfdir           1       1       1
           rfelfd           2
            rprim      8.1438593182E+00  0.0000000000E+00  0.0000000000E+00
                      -4.0719296591E+00  7.0527890544E+00  0.0000000000E+00
                       0.0000000000E+00  0.0000000000E+00  1.3577439489E+01
          spgroup         164
           symrel      1  0  0   0  1  0   0  0  1      -1  0  0   0 -1  0   0  0 -1
                      -1  0  0   1  1  0   0  0  1       1  0  0  -1 -1  0   0  0 -1
                       0  1  0  -1 -1  0   0  0  1       0 -1  0   1  1  0   0  0 -1
                       0 -1  0  -1  0  0   0  0  1       0  1  0   1  0  0   0  0 -1
                      -1 -1  0   1  0  0   0  0  1       1  1  0  -1  0  0   0  0 -1
                       1  1  0   0 -1  0   0  0  1      -1 -1  0   0  1  0   0  0 -1
           tolwfr      1.00000000E-20
            typat      1  2  2  3  3
           useylm           1
           xangst      0.0000000000E+00  0.0000000000E+00  0.0000000000E+00
                      -4.7000377687E-16  2.4881168164E+00  2.6204519742E+00
                       2.1547723706E+00  1.2440584082E+00  4.5644195544E+00
                       2.1547723706E+00  1.2440584082E+00  1.8143381281E+00
                      -4.7000377687E-16  2.4881168164E+00  5.3705334004E+00
            xcart      0.0000000000E+00  0.0000000000E+00  0.0000000000E+00
                      -8.8817841970E-16  4.7018593696E+00  4.9519365755E+00
                       4.0719296591E+00  2.3509296848E+00  8.6255029135E+00
                       4.0719296591E+00  2.3509296848E+00  3.4286021746E+00
                      -8.8817841970E-16  4.7018593696E+00  1.0148837314E+01
             xred      0.0000000000E+00  0.0000000000E+00  0.0000000000E+00
                       3.3333333333E-01  6.6666666667E-01  3.6471800000E-01
                       6.6666666667E-01  3.3333333333E-01  6.3528200000E-01
                       6.6666666667E-01  3.3333333333E-01  2.5252200000E-01
                       3.3333333333E-01  6.6666666667E-01  7.4747800000E-01
            znucl       38.00000   48.00000   15.00000

 chkinp: Checking input parameters for consistency.

== DATASET  1 ==================================================================
-   mpi_nproc: 1, omp_nthreads: -1 (-1 if OMP is not activated)

--- !DatasetInfo
iteration_state: {dtset: 1, }
dimensions: {natom: 5, nkpt: 1, mband: 39, nsppol: 1, nspinor: 1, nspden: 1, mpw: 13549, }
cutoff_energies: {ecut:  51.0, pawecutdg:  -1.0, }
electrons: {nelect:   6.00000000E+01, charge:   0.00000000E+00, occopt:   1.00000000E+00, tsmear:   1.00000000E-02, }
meta: {optdriver: 1, rfelfd: 2, }
...

 Real(R)+Recip(G) space primitive vectors, cartesian coordinates (Bohr,Bohr^-1):
 R(1)=  8.1438593  0.0000000  0.0000000  G(1)=  0.1227919  0.0708939  0.0000000
 R(2)= -4.0719297  7.0527891  0.0000000  G(2)=  0.0000000  0.1417879  0.0000000
 R(3)=  0.0000000  0.0000000 13.5774395  G(3)=  0.0000000  0.0000000  0.0736516
 Unit cell volume ucvol=  7.7984633E+02 bohr^3
 Angles (23,13,12)=  9.00000000E+01  9.00000000E+01  1.20000000E+02 degrees

 getcut: wavevector=  0.0000  0.0000  0.0000  ngfft=  54  54  90
         ecut(hartree)=     51.000   => boxcut(ratio)=   2.06193

--- Pseudopotential description ------------------------------------------------
- pspini: atom type   1  psp file is /scratch/users/j/a/jabreu/pseudos/PBEsol/Sr.psp8
- pspatm: opening atomic psp file    /scratch/users/j/a/jabreu/pseudos/PBEsol/Sr.psp8
- Sr    ONCVPSP-3.3.0  r_core=   1.66721   1.31335   1.51547
- 38.00000  10.00000    180112                znucl, zion, pspdat
    8 -116133    2    4       600   0.00000   pspcod,pspxc,lmax,lloc,mmax,r2well
    5.99000000000000    6.00000000000000    0.00000000000000   rchrg,fchrg,qchrg
     nproj     2     2     2
     extension_switch     1
  pspatm : epsatm=   12.46450977
         --- l  ekb(1:nproj) -->
             0   10.029206    1.044171
             1    7.472414    1.670829
             2    4.142950    0.968140
 pspatm: atomic psp has been read  and splines computed

- pspini: atom type   2  psp file is /scratch/users/j/a/jabreu/pseudos/PBEsol/Cd.psp8
- pspatm: opening atomic psp file    /scratch/users/j/a/jabreu/pseudos/PBEsol/Cd.psp8
- Cd    ONCVPSP-3.3.0  r_core=   1.25838   1.30423   1.35174
- 48.00000  20.00000    180112                znucl, zion, pspdat
    8 -116133    2    4       600   0.00000   pspcod,pspxc,lmax,lloc,mmax,r2well
    5.99000000000000    6.00000000000000    0.00000000000000   rchrg,fchrg,qchrg
     nproj     2     2     2
     extension_switch     1
  pspatm : epsatm=   23.26728021
         --- l  ekb(1:nproj) -->
             0   63.701523    3.700425
             1    8.703569    1.290373
             2    0.983656   -0.721725
 pspatm: atomic psp has been read  and splines computed

- pspini: atom type   3  psp file is /scratch/users/j/a/jabreu/pseudos/PBEsol/P.psp8
- pspatm: opening atomic psp file    /scratch/users/j/a/jabreu/pseudos/PBEsol/P.psp8
- P     ONCVPSP-3.3.0  r_core=   1.46089   1.55067   1.70594
- 15.00000   5.00000    180112                znucl, zion, pspdat
    8 -116133    2    4       600   0.00000   pspcod,pspxc,lmax,lloc,mmax,r2well
    5.99000000000000    5.00000000000000    0.00000000000000   rchrg,fchrg,qchrg
     nproj     2     2     2
     extension_switch     1
  pspatm : epsatm=    7.31221086
         --- l  ekb(1:nproj) -->
             0    6.742364    1.063650
             1    3.449117    0.910422
             2   -3.077645   -0.799176
 pspatm: atomic psp has been read  and splines computed

   4.41740951E+03                                ecore*ucvol(ha*bohr**3)

 ==>  initialize data related to q vector <==

 The list of irreducible perturbations for this q vector is:
    1)    idir= 1    ipert=   6
    2)    idir= 2    ipert=   6
    3)    idir= 3    ipert=   6

 Perturbation wavevector (in red.coord.)   0.000000  0.000000  0.000000
 Perturbation : derivative vs k along direction   1

 dfpt_looppert : COMMENT -
  In a d/dk calculation, iscf is set to -3 automatically.
 The set of symmetries contains only one element for this perturbation.
 symkpt : not enough symmetry to change the number of k points.

 Initialisation of the first-order wave-functions :
  ireadwf=   0

--- !BeginCycle
iteration_state: {dtset: 1, }
solver: {iscf: 7, nstep: 2000, nline: 4, wfoptalg: 0, }
tolerances: {tolwfr: 1.00E-20, }
...

     iter   2DEtotal(Ha)        deltaE(Ha) residm    vres2
-ETOT  1  -83.703502425090     -8.370E+01 9.562E-02 0.000E+00
 ETOT  2  -83.816404102040     -1.129E-01 3.376E-03 0.000E+00
 ETOT  3  -83.818079913285     -1.676E-03 2.957E-05 0.000E+00
 ETOT  4  -83.818122215002     -4.230E-05 1.972E-06 0.000E+00
 ETOT  5  -83.818123557447     -1.342E-06 3.187E-08 0.000E+00
 ETOT  6  -83.818123603958     -4.651E-08 2.151E-09 0.000E+00
 ETOT  7  -83.818123605626     -1.668E-09 3.901E-11 0.000E+00
 ETOT  8  -83.818123605688     -6.118E-11 2.744E-12 0.000E+00
 ETOT  9  -83.818123605690     -2.331E-12 4.852E-14 0.000E+00
 ETOT 10  -83.818123605690     -1.137E-13 4.754E-15 0.000E+00
 ETOT 11  -83.818123605690     -7.105E-14 6.502E-17 0.000E+00
 ETOT 12  -83.818123605690      0.000E+00 8.388E-18 0.000E+00
 ETOT 13  -83.818123605690      1.421E-13 1.053E-19 0.000E+00
 ETOT 14  -83.818123605690     -4.263E-14 1.501E-20 0.000E+00
 ETOT 15  -83.818123605690      8.527E-14 9.630E-21 0.000E+00

 At SCF step   15   max residual=  9.63E-21 < tolwfr=  1.00E-20 =>converged.

 ----iterations are completed or convergence reached----

 dfpt_looppert: DFPT cycle converged with prtwf=-1. Will skip output of the 1st-order WFK file.
 dfpt_looppert : ek2=    9.5239957684E+01
          f-sum rule ratio=    1.7935462086E+00
 prteigrs : about to open file /scratch/users/j/a/jabreu/flow_simple_remain_atoms/flow/w215/t1/tmpdata/tmp_1WF1_EIG
 Expectation of eigenvalue derivatives (hartree) for nkpt=   1  k points:
  (in case of degenerate eigenvalues, averaged derivative)
 kpt#   1, nband= 39, wtk=  1.00000, kpt=  0.0000  0.0000  0.0000 (reduced coord)
   0.00000    0.00000    0.00000   -0.00000   -0.00000   -0.00000    0.00000    0.00000
  -0.00000    0.00000   -0.00000   -0.00000    0.00000   -0.00000    0.00000    0.00000
   0.00000    0.00000    0.00000    0.00000   -0.00000   -0.00000   -0.00000   -0.00000
   0.00000    0.00000    0.00000   -0.00000    0.00000    0.00000    0.00000   -0.00000
   0.00000    0.00000    0.00000    0.00000    0.00000   -0.00000   -0.00000

 Eight components of 2nd-order total energy (hartree) are
 1,2,3: 0th-order hamiltonian combined with 1st-order wavefunctions
     kin0=   6.61451546E+01 eigvalue=   1.27835914E-01  local=  -3.63163031E+01
 4,5,6: 1st-order hamiltonian combined with 1st and 0th-order wfs
     kin1=  -1.70817265E+02  Hartree=   0.00000000E+00     xc=   0.00000000E+00
 7,8,9: eventually, occupation + non-local contributions
    edocc=   4.95300205E+01     enl0=   4.33141560E+00   enl1=   3.18101780E+00
 1-9 gives the relaxation energy (to be shifted if some occ is /=2.0)
   erelax=  -8.38181236E+01
  No Ewald or frozen-wf contrib.: the relaxation energy is the total one
 2DEtotal=   -0.8381812361E+02 Ha. Also 2DEtotal=   -0.228080713586E+04 eV
    (  non-var. 2DEtotal :   -8.3818123605E+01 Ha)

 Perturbation wavevector (in red.coord.)   0.000000  0.000000  0.000000
 Perturbation : derivative vs k along direction   2
 The set of symmetries contains only one element for this perturbation.
 symkpt : not enough symmetry to change the number of k points.

[...]

 Perturbation wavevector (in red.coord.)   0.000000  0.000000  0.000000
 Perturbation : derivative vs k along direction   3
 The set of symmetries contains only one element for this perturbation.
 symkpt : not enough symmetry to change the number of k points.

 Initialisation of the first-order wave-functions :
  ireadwf=   0

--- !BeginCycle
iteration_state: {dtset: 1, }
solver: {iscf: 7, nstep: 2000, nline: 4, wfoptalg: 0, }
tolerances: {tolwfr: 1.00E-20, }
...

     iter   2DEtotal(Ha)        deltaE(Ha) residm    vres2
-ETOT  1  -17.778243209912     -1.778E+01 3.208E-02 0.000E+00
 ETOT  2  -17.799644813960     -2.140E-02 7.930E-04 0.000E+00
 ETOT  3  -17.799962273724     -3.175E-04 2.062E-05 0.000E+00
 ETOT  4  -17.799971295223     -9.021E-06 5.627E-07 0.000E+00
 ETOT  5  -17.799971580878     -2.857E-07 2.357E-08 0.000E+00
 ETOT  6  -17.799971590284     -9.405E-09 8.741E-10 0.000E+00
 ETOT  7  -17.799971590599     -3.157E-10 3.498E-11 0.000E+00
 ETOT  8  -17.799971590610     -1.073E-11 2.039E-12 0.000E+00
 ETOT  9  -17.799971590611     -3.766E-13 8.091E-14 0.000E+00
 ETOT 10  -17.799971590611     -2.487E-14 4.831E-15 0.000E+00
 ETOT 11  -17.799971590611     -1.066E-14 1.900E-16 0.000E+00
 ETOT 12  -17.799971590611      2.842E-14 1.152E-17 0.000E+00
 ETOT 13  -17.799971590611     -1.066E-14 4.500E-19 0.000E+00
 ETOT 14  -17.799971590611     -4.974E-14 2.757E-20 0.000E+00
 ETOT 15  -17.799971590611      1.066E-14 9.915E-21 0.000E+00

 At SCF step   15   max residual=  9.92E-21 < tolwfr=  1.00E-20 =>converged.

 ----iterations are completed or convergence reached----

 dfpt_looppert: DFPT cycle converged with prtwf=-1. Will skip output of the 1st-order WFK file.
 dfpt_looppert : ek2=    2.5698349478E+01
          f-sum rule ratio=    1.3960626666E+00
 prteigrs : about to open file /scratch/users/j/a/jabreu/flow_simple_remain_atoms/flow/w215/t1/tmpdata/tmp_1WF1_EIG
 Expectation of eigenvalue derivatives (hartree) for nkpt=   1  k points:
  (in case of degenerate eigenvalues, averaged derivative)
 kpt#   1, nband= 39, wtk=  1.00000, kpt=  0.0000  0.0000  0.0000 (reduced coord)
  -0.00000   -0.00000   -0.00000    0.00000    0.00000    0.00000    0.00000    0.00000
   0.00000    0.00000   -0.00000   -0.00000   -0.00000   -0.00000    0.00000    0.00000
   0.00000    0.00000    0.00000    0.00000   -0.00000   -0.00000   -0.00000    0.00000
  -0.00000   -0.00000   -0.00000   -0.00000   -0.00000   -0.00000    0.00000    0.00000
  -0.00000   -0.00000   -0.00000    0.00000    0.00000   -0.00000   -0.00000

 Eight components of 2nd-order total energy (hartree) are
 1,2,3: 0th-order hamiltonian combined with 1st-order wavefunctions
     kin0=   1.82585392E+01 eigvalue=   1.08025883E-01  local=  -1.00910467E+01
 4,5,6: 1st-order hamiltonian combined with 1st and 0th-order wfs
     kin1=  -3.58765063E+01  Hartree=   0.00000000E+00     xc=   0.00000000E+00
 7,8,9: eventually, occupation + non-local contributions
    edocc=   8.29097422E+00     enl0=   1.23347897E+00   enl1=   2.76563119E-01
 1-9 gives the relaxation energy (to be shifted if some occ is /=2.0)
   erelax=  -1.77999716E+01
  No Ewald or frozen-wf contrib.: the relaxation energy is the total one
 2DEtotal=   -0.1779997159E+02 Ha. Also 2DEtotal=   -0.484361859649E+03 eV
    (  non-var. 2DEtotal :   -1.7799971590E+01 Ha)

 CALCULATION OF EFFECTIVE MASSES
 NOTE : Additional infos (eff. mass eigenvalues, eigenvectors and, if degenerate, average mass) are available in stdout.

 COMMENTS:
 - At k-point ( 0.000, 0.000, 0.000), bands    29 through    30
   are DEGENERATE (effective mass tensor is therefore not defined).
   See Section IIIB Eqs. (67)-(70) and Appendix E of PRB 93 205147 (2016).
 - Angular average effective mass for Frohlich model is to be averaged over degenerate bands. See later.
 - Associated theta integrals calculated with ntheta=   1000 points.

 K-point ( 0.000, 0.000, 0.000) | band =    29
 Transport equivalent effective mass tensor:
             -0.0705798956              0.0000000000              0.0000000030
              0.0000000000             -0.0705801406              0.0000007306
              0.0000000030              0.0000007306             -0.6715471862
 Transport equivalent effective mass tensor eigenvalues:
             -0.6715471862             -0.0705801406             -0.0705798956
 Angular average effective mass 1/(<1/m>)=  -0.0925674297
 Angular average effective mass for Frohlich model (<m**0.5>)**2=  -0.1116161568
 Effective masses along directions: (cart. coord. / red. coord. -> eff. mass)
    1:   1.000000  0.000000  0.000000 /   0.894427 -0.447214  0.000000 ->  -0.0650902189
    2:   0.000000  1.000000  0.000000 /   0.000000  1.000000  0.000000 ->  -0.0650902189
    3:   0.000000  0.000000  1.000000 /   0.000000  0.000000  1.000000 ->  -0.6430334533
    4:   0.577350  0.577350  0.577350 /   0.505494  0.185024  0.842759 ->  -0.0877026095
    5:   0.000000  0.707107  0.707107 /   0.000000  0.460968  0.887417 ->  -0.1324264568
    6:   0.707107  0.000000  0.707107 /   0.498163 -0.249082  0.830537 ->  -0.1165302576
    7:   0.707107  0.707107  0.000000 /   0.939071  0.343724  0.000000 ->  -0.0650902189

 K-point ( 0.000, 0.000, 0.000) | band =    30
 Transport equivalent effective mass tensor:
             -0.9231925045             -0.0000000005              0.0000000029
             -0.0000000005             -0.9231908389             -0.0000014902
              0.0000000029             -0.0000014902             -1.9719463899
 Transport equivalent effective mass tensor eigenvalues:
             -1.9719463899             -0.9231925045             -0.9231908389
 Angular average effective mass 1/(<1/m>)=  -0.5284776957
 Angular average effective mass for Frohlich model (<m**0.5>)**2=  -0.5630086858
 Effective masses along directions: (cart. coord. / red. coord. -> eff. mass)
    1:   1.000000  0.000000  0.000000 /   0.894427 -0.447214  0.000000 ->  -0.4707378899
    2:   0.000000  1.000000  0.000000 /   0.000000  1.000000  0.000000 ->  -0.4707378899
    3:   0.000000  0.000000  1.000000 /   0.000000  0.000000  1.000000 ->  -0.6430334596
    4:   0.577350  0.577350  0.577350 /   0.505494  0.185024  0.842759 ->  -0.7733987810
    5:   0.000000  0.707107  0.707107 /   0.000000  0.460968  0.887417 ->  -0.3639571999
    6:   0.707107  0.000000  0.707107 /   0.498163 -0.249082  0.830537 ->  -0.5822501618
    7:   0.707107  0.707107  0.000000 /   0.939071  0.343724  0.000000 ->  -0.4707378898

 Angular average effective mass for Frohlich model, averaged over degenerate bands.
 Value of     (<<m**0.5>>)**2 =     2.939966E-01
 Absolute Value of <<m**0.5>> =     5.422145E-01

 K-point ( 0.000, 0.000, 0.000) | band =    31
 Effective mass tensor:
              0.0782531967             -0.0000000001              0.0000000003
             -0.0000000001              0.0782531969              0.0000000002
              0.0000000003              0.0000000002              0.1286345054
 Effective mass tensor eigenvalues:
              0.0782531967              0.0782531969              0.1286345054
 Angular average effective mass 1/(<1/m>)=   0.0900035321
 Angular average effective mass for Frohlich model (<m**0.5>)**2=   0.0913552267
 Effective masses along directions: (cart. coord. / red. coord. -> eff. mass)
    1:   1.000000  0.000000  0.000000 /   0.894427 -0.447214  0.000000 ->   0.0782531967
    2:   0.000000  1.000000  0.000000 /   0.000000  1.000000  0.000000 ->   0.0782531969
    3:   0.000000  0.000000  1.000000 /   0.000000  0.000000  1.000000 ->   0.1286345054
    4:   0.577350  0.577350  0.577350 /   0.505494  0.185024  0.842759 ->   0.0900035323
    5:   0.000000  0.707107  0.707107 /   0.000000  0.460968  0.887417 ->   0.0973094213
    6:   0.707107  0.000000  0.707107 /   0.498163 -0.249082  0.830537 ->   0.0973094213
    7:   0.707107  0.707107  0.000000 /   0.939071  0.343724  0.000000 ->   0.0782531967

 END OF EFFECTIVE MASSES SECTION

 ---- first-order wavefunction calculations are completed ----

 Total localisation tensor (bohr^2) in cartesian coordinates
  WARNING : still subject to testing - especially symmetries.
      direction              matrix element
   alpha     beta       real part   imaginary part
     1        1      16.1611079402    0.0000000000
     1        2      -5.5983720069    0.0000000000
     1        3       0.0000000000    0.0000000000
     2        1      -5.5983720069    0.0000000000
     2        2       9.6966647556    0.0000000000
     2        3       0.0000000000    0.0000000000
     3        1       0.0000000000    0.0000000000
     3        2       0.0000000000    0.0000000000
     3        3       6.2496493157    0.0000000000

 respfn : d/dk was computed, but no 2DTE, so no DDB output.

== END DATASET(S) ==============================================================

 -outvars: echo values of variables after computation  --------
            acell      1.0000000000E+00  1.0000000000E+00  1.0000000000E+00 Bohr
              amu      8.76200000E+01  1.12411000E+02  3.09737620E+01
             ecut      5.10000000E+01 Hartree
           etotal     -1.7799971591E+01
            fcart      0.0000000000E+00  0.0000000000E+00  0.0000000000E+00
                       0.0000000000E+00  0.0000000000E+00  0.0000000000E+00
                       0.0000000000E+00  0.0000000000E+00  0.0000000000E+00
                       0.0000000000E+00  0.0000000000E+00  0.0000000000E+00
                       0.0000000000E+00  0.0000000000E+00  0.0000000000E+00
-          fftalg         512
           irdden           1
           irdwfk           1
           istwfk        1
              ixc     -116133
           kptopt           0
P           mkmem           1
P          mkqmem           1
P          mk1mem           1
            natom           5
            nband          39
           nbdbuf           4
            ngfft          54      54      90
             nkpt           1
            nstep        2000
             nsym          12
           ntypat           3
              occ      2.000000  2.000000  2.000000  2.000000  2.000000  2.000000
                       2.000000  2.000000  2.000000  2.000000  2.000000  2.000000
                       2.000000  2.000000  2.000000  2.000000  2.000000  2.000000
                       2.000000  2.000000  2.000000  2.000000  2.000000  2.000000
                       2.000000  2.000000  2.000000  2.000000  2.000000  2.000000
                       0.000000  0.000000  0.000000  0.000000  0.000000  0.000000
                       0.000000  0.000000  0.000000
        optdriver           1
            prtwf          -1
            rfdir           1       1       1
           rfelfd           2
            rprim      8.1438593182E+00  0.0000000000E+00  0.0000000000E+00
                      -4.0719296591E+00  7.0527890544E+00  0.0000000000E+00
                       0.0000000000E+00  0.0000000000E+00  1.3577439489E+01
          spgroup         164
           strten      0.0000000000E+00  0.0000000000E+00  0.0000000000E+00
                       0.0000000000E+00  0.0000000000E+00  0.0000000000E+00
           symrel      1  0  0   0  1  0   0  0  1      -1  0  0   0 -1  0   0  0 -1
                      -1  0  0   1  1  0   0  0  1       1  0  0  -1 -1  0   0  0 -1
                       0  1  0  -1 -1  0   0  0  1       0 -1  0   1  1  0   0  0 -1
                       0 -1  0  -1  0  0   0  0  1       0  1  0   1  0  0   0  0 -1
                      -1 -1  0   1  0  0   0  0  1       1  1  0  -1  0  0   0  0 -1
                       1  1  0   0 -1  0   0  0  1      -1 -1  0   0  1  0   0  0 -1
           tolwfr      1.00000000E-20
            typat      1  2  2  3  3
           useylm           1
           xangst      0.0000000000E+00  0.0000000000E+00  0.0000000000E+00
                      -4.7000377687E-16  2.4881168164E+00  2.6204519742E+00
                       2.1547723706E+00  1.2440584082E+00  4.5644195544E+00
                       2.1547723706E+00  1.2440584082E+00  1.8143381281E+00
                      -4.7000377687E-16  2.4881168164E+00  5.3705334004E+00
            xcart      0.0000000000E+00  0.0000000000E+00  0.0000000000E+00
                      -8.8817841970E-16  4.7018593696E+00  4.9519365755E+00
                       4.0719296591E+00  2.3509296848E+00  8.6255029135E+00
                       4.0719296591E+00  2.3509296848E+00  3.4286021746E+00
                      -8.8817841970E-16  4.7018593696E+00  1.0148837314E+01
             xred      0.0000000000E+00  0.0000000000E+00  0.0000000000E+00
                       3.3333333333E-01  6.6666666667E-01  3.6471800000E-01
                       6.6666666667E-01  3.3333333333E-01  6.3528200000E-01
                       6.6666666667E-01  3.3333333333E-01  2.5252200000E-01
                       3.3333333333E-01  6.6666666667E-01  7.4747800000E-01
            znucl       38.00000   48.00000   15.00000

- Timing analysis has been suppressed with timopt=0

 Suggested references for the acknowledgment of ABINIT usage.

 Calculation completed.
.Delivered   2 WARNINGs and   5 COMMENTs to log file.