.Version 9.5.2 of ABINIT

 ABINIT is a project of the Universite Catholique de Louvain,
 Corning Inc. and other collaborators, see ~abinit/doc/developers/contributors.txt .
 acknowledgments of the ABINIT effort.

.Starting date : Mon 24 May 2021.
- ( at 22h50 )

- input  file    -> /scratch/users/j/a/jabreu/flow_simple_10atoms/flow/w453/t1/run.abi
- output file    -> /scratch/users/j/a/jabreu/flow_simple_10atoms/flow/w453/t1/run.abo
- root for input  files -> /scratch/users/j/a/jabreu/flow_simple_10atoms/flow/w453/t1/indata/in
- root for output files -> /scratch/users/j/a/jabreu/flow_simple_10atoms/flow/w453/t1/outdata/out

 Symmetries : space group Im m m (# 71); Bravais oI (body-center ortho.)
     intxc =       0      iscf =       7    lmnmax =      18     lnmax =       6
     mgfft =      72  mpssoang =       3    mqgrid =    3106     natom =      10
  nloc_mem =       1    nspden =       1   nspinor =       1    nsppol =       1
      nsym =       8    n1xccc =    2501    ntypat =       3    occopt =       1
   xclevel =       2
-    mband =          41        mffmem =           1         mkmem =           2
-   mkqmem =           2        mk1mem =           2           mpw =       17698
      nfft =      373248          nkpt =           2
  Rough estimation (10% accuracy) of disk space for files :

------------- Echo of variables that govern the present computation ------------
-
- outvars: echo of selected default values
-   iomode0 =  0 , fftalg0 =512 , wfoptalg0 =  0
-
- outvars: echo of global parameters not present in the input file
-  max_nthreads =    0
-
 -outvars: echo values of preprocessed input variables --------
            acell      1.0000000000E+00  1.0000000000E+00  1.0000000000E+00 Bohr
              amu      3.90983000E+01  3.09737620E+01  3.20660000E+01
             ecut      3.60000000E+01 Hartree
-          fftalg         512
           irdden           1
           irdwfk           1
           istwfk        0    1
              ixc     -116133
              kpt      1.66666667E-01  1.66666667E-01 -1.66666667E-01
                       5.00000000E-01  0.00000000E+00  0.00000000E+00
           kptopt           0
P           mkmem           2
P          mkqmem           2
P          mk1mem           2
            natom          10
            nband          41
           nbdbuf           4
            ngfft          72      72      72
             nkpt           2
            nstep        2000
             nsym           8
           ntypat           3
              occ      2.000000  2.000000  2.000000  2.000000  2.000000  2.000000
                       2.000000  2.000000  2.000000  2.000000  2.000000  2.000000
                       2.000000  2.000000  2.000000  2.000000  2.000000  2.000000
                       2.000000  2.000000  2.000000  2.000000  2.000000  2.000000
                       2.000000  2.000000  2.000000  2.000000  2.000000  2.000000
                       2.000000  2.000000  0.000000  0.000000  0.000000  0.000000
                       0.000000  0.000000  0.000000  0.000000  0.000000
        optdriver           1
            prtwf          -1
            rfdir           1       1       1
           rfelfd           2
            rprim      1.2562733897E+01  0.0000000000E+00 -4.1414925339E+00
                      -4.5271384829E+00  1.0291676856E+01 -6.9685470525E+00
                       0.0000000000E+00  0.0000000000E+00  1.3227783011E+01
          spgroup          71
           symrel      1  0  0   0  1  0   0  0  1      -1  0  0   0 -1  0   0  0 -1
                       0  0  1  -1 -1 -1   1  0  0       0  0 -1   1  1  1  -1  0  0
                      -1 -1 -1   0  0  1   0  1  0       1  1  1   0  0 -1   0 -1  0
                       0  1  0   1  0  0  -1 -1 -1       0 -1  0  -1  0  0   1  1  1
           tolwfr      1.00000000E-20
            typat      1  1  2  2  3  3  3  3  3  3
           useylm           1
              wtk        0.50000    0.50000
           xangst      5.0185157609E+00  0.0000000000E+00  3.6297586448E+00
                       1.6293966950E+00  0.0000000000E+00  1.1784991861E+00
                       4.7625022440E+00  1.8424335692E+00  4.1519065252E-01
                      -5.1024829333E-01  3.6036872612E+00  7.0547090121E-01
                       2.4865025548E+00  5.3203045470E+00 -3.4378462816E+00
                       5.6393097611E-01  2.8579499359E+00 -7.7969274774E-01
                       4.1786101149E+00  2.7230604152E+00 -1.4550835369E+00
                       7.3643835767E-02  2.7230604152E+00  2.5757450906E+00
                       1.7657513958E+00  1.2581628342E-01  4.5585078353E+00
                       3.6883229745E+00  2.5881708945E+00  1.9003543015E+00
            xcart      9.4836203817E+00  0.0000000000E+00  6.8592497672E+00
                       3.0791135154E+00  0.0000000000E+00  2.2270407095E+00
                       8.9998249484E+00  3.4816948638E+00  7.8459662619E-01
                      -9.6422953416E-01  6.8099819923E+00  1.3331467980E+00
                       4.6988088573E+00  1.0053918537E+01 -6.4965879592E+00
                       1.0656751027E+00  5.4007426804E+00 -1.4734057610E+00
                       7.8964287332E+00  5.1458384280E+00 -2.7497093851E+00
                       1.3916668098E-01  5.1458384280E+00  4.8674528093E+00
                       3.3367865569E+00  2.3775831873E-01  8.6143313834E+00
                       6.9699203115E+00  4.8909341757E+00  3.5911491852E+00
             xred      7.5490100000E-01  0.0000000000E+00  7.5490100000E-01
                       2.4509900000E-01  0.0000000000E+00  2.4509900000E-01
                       8.3830200000E-01  3.3830200000E-01  5.0000000000E-01
                       1.6169800000E-01  6.6169800000E-01  5.0000000000E-01
                       7.2606500000E-01  9.7689800000E-01  2.5083300000E-01
                       2.7393500000E-01  5.2476800000E-01  2.5083300000E-01
                       8.0874100000E-01  5.0000000000E-01  3.0874100000E-01
                       1.9125900000E-01  5.0000000000E-01  6.9125900000E-01
                       2.7393500000E-01  2.3102000000E-02  7.4916700000E-01
                       7.2606500000E-01  4.7523200000E-01  7.4916700000E-01
            znucl       19.00000   15.00000   16.00000

 chkinp: Checking input parameters for consistency.

== DATASET  1 ==================================================================
-   mpi_nproc: 1, omp_nthreads: -1 (-1 if OMP is not activated)

--- !DatasetInfo
iteration_state: {dtset: 1, }
dimensions: {natom: 10, nkpt: 2, mband: 41, nsppol: 1, nspinor: 1, nspden: 1, mpw: 17698, }
cutoff_energies: {ecut:  36.0, pawecutdg:  -1.0, }
electrons: {nelect:   6.40000000E+01, charge:   0.00000000E+00, occopt:   1.00000000E+00, tsmear:   1.00000000E-02, }
meta: {optdriver: 1, rfelfd: 2, }
...

 Real(R)+Recip(G) space primitive vectors, cartesian coordinates (Bohr,Bohr^-1):
 R(1)= 12.5627339  0.0000000 -4.1414925  G(1)=  0.0796005  0.0350149  0.0000000
 R(2)= -4.5271385 10.2916769 -6.9685471  G(2)=  0.0000000  0.0971659  0.0000000
 R(3)=  0.0000000  0.0000000 13.2277830  G(3)=  0.0249222  0.0621509  0.0755985
 Unit cell volume ucvol=  1.7102412E+03 bohr^3
 Angles (23,13,12)=  1.21790267E+02  1.08245574E+02  9.92125925E+01 degrees

 getcut: wavevector=  0.0000  0.0000  0.0000  ngfft=  72  72  72
         ecut(hartree)=     36.000   => boxcut(ratio)=   2.01532

--- Pseudopotential description ------------------------------------------------
- pspini: atom type   1  psp file is /scratch/users/j/a/jabreu/pseudos/PBEsol/K.psp8
- pspatm: opening atomic psp file    /scratch/users/j/a/jabreu/pseudos/PBEsol/K.psp8
- K     ONCVPSP-3.3.0  r_core=   1.36296   1.46408   1.61068
- 19.00000   9.00000    180112                znucl, zion, pspdat
    8 -116133    2    4       400   0.00000   pspcod,pspxc,lmax,lloc,mmax,r2well
    3.99000000000000    5.00000000000000    0.00000000000000   rchrg,fchrg,qchrg
     nproj     2     2     2
     extension_switch     1
  pspatm : epsatm=    8.32487830
         --- l  ekb(1:nproj) -->
             0   10.921326    0.816676
             1    4.431000    0.560368
             2   -3.384038   -1.043186
 pspatm: atomic psp has been read  and splines computed

- pspini: atom type   2  psp file is /scratch/users/j/a/jabreu/pseudos/PBEsol/P.psp8
- pspatm: opening atomic psp file    /scratch/users/j/a/jabreu/pseudos/PBEsol/P.psp8
- P     ONCVPSP-3.3.0  r_core=   1.46089   1.55067   1.70594
- 15.00000   5.00000    180112                znucl, zion, pspdat
    8 -116133    2    4       600   0.00000   pspcod,pspxc,lmax,lloc,mmax,r2well
    5.99000000000000    5.00000000000000    0.00000000000000   rchrg,fchrg,qchrg
     nproj     2     2     2
     extension_switch     1
  pspatm : epsatm=    7.31221086
         --- l  ekb(1:nproj) -->
             0    6.742364    1.063650
             1    3.449117    0.910422
             2   -3.077645   -0.799176
 pspatm: atomic psp has been read  and splines computed

- pspini: atom type   3  psp file is /scratch/users/j/a/jabreu/pseudos/PBEsol/S.psp8
- pspatm: opening atomic psp file    /scratch/users/j/a/jabreu/pseudos/PBEsol/S.psp8
- S     ONCVPSP-3.3.0  r_core=   1.45376   1.45376   1.61851
- 16.00000   6.00000    180112                znucl, zion, pspdat
    8 -116133    2    4       600   0.00000   pspcod,pspxc,lmax,lloc,mmax,r2well
    5.99000000000000    6.00000000000000    0.00000000000000   rchrg,fchrg,qchrg
     nproj     2     2     2
     extension_switch     1
  pspatm : epsatm=    8.71840985
         --- l  ekb(1:nproj) -->
             0    6.834532    0.579453
             1    3.282851    0.896984
             2   -3.496974   -0.974265
 pspatm: atomic psp has been read  and splines computed

   5.34941680E+03                                ecore*ucvol(ha*bohr**3)

 ==>  initialize data related to q vector <==

 The list of irreducible perturbations for this q vector is:
    1)    idir= 1    ipert=  11
    2)    idir= 2    ipert=  11
    3)    idir= 3    ipert=  11

 Perturbation wavevector (in red.coord.)   0.000000  0.000000  0.000000
 Perturbation : derivative vs k along direction   1

 dfpt_looppert : COMMENT -
  In a d/dk calculation, iscf is set to -3 automatically.
 The set of symmetries contains only one element for this perturbation.
 symkpt : not enough symmetry to change the number of k points.

 Initialisation of the first-order wave-functions :
  ireadwf=   0

--- !BeginCycle
iteration_state: {dtset: 1, }
solver: {iscf: 7, nstep: 2000, nline: 4, wfoptalg: 0, }
tolerances: {tolwfr: 1.00E-20, }
...

     iter   2DEtotal(Ha)        deltaE(Ha) residm    vres2
-ETOT  1  -17.104037936596     -1.710E+01 9.652E-02 0.000E+00
 ETOT  2  -17.155062523382     -5.102E-02 4.287E-03 0.000E+00
 ETOT  3  -17.155918081690     -8.556E-04 3.085E-04 0.000E+00
 ETOT  4  -17.155937932348     -1.985E-05 2.301E-05 0.000E+00
 ETOT  5  -17.155938522011     -5.897E-07 2.111E-06 0.000E+00
 ETOT  6  -17.155938542067     -2.006E-08 1.846E-07 0.000E+00
 ETOT  7  -17.155938542818     -7.507E-10 1.964E-08 0.000E+00
 ETOT  8  -17.155938542848     -2.981E-11 4.429E-09 0.000E+00
 ETOT  9  -17.155938542849     -1.226E-12 4.253E-10 0.000E+00
 ETOT 10  -17.155938542849     -4.619E-14 1.100E-10 0.000E+00
 ETOT 11  -17.155938542849      1.066E-14 1.029E-11 0.000E+00
 ETOT 12  -17.155938542849     -7.105E-15 2.769E-12 0.000E+00
 ETOT 13  -17.155938542849     -7.105E-15 2.516E-13 0.000E+00
 ETOT 14  -17.155938542849      1.066E-14 7.003E-14 0.000E+00
 ETOT 15  -17.155938542849      0.000E+00 6.154E-15 0.000E+00
 ETOT 16  -17.155938542849      3.553E-15 1.776E-15 0.000E+00
 ETOT 17  -17.155938542849      0.000E+00 1.508E-16 0.000E+00
 ETOT 18  -17.155938542849      0.000E+00 4.533E-17 0.000E+00
 ETOT 19  -17.155938542849      0.000E+00 3.730E-18 0.000E+00
 ETOT 20  -17.155938542849      0.000E+00 1.173E-18 0.000E+00
 ETOT 21  -17.155938542849      0.000E+00 9.420E-20 0.000E+00
 ETOT 22  -17.155938542849      0.000E+00 3.091E-20 0.000E+00
 ETOT 23  -17.155938542849     -3.553E-15 9.814E-21 0.000E+00

 At SCF step   23   max residual=  9.81E-21 < tolwfr=  1.00E-20 =>converged.

 ----iterations are completed or convergence reached----

 dfpt_looppert: DFPT cycle converged with prtwf=-1. Will skip output of the 1st-order WFK file.
 dfpt_looppert : ek2=    3.8214033968E+01
          f-sum rule ratio=    9.7200489711E-01
 prteigrs : about to open file /scratch/users/j/a/jabreu/flow_simple_10atoms/flow/w453/t1/tmpdata/tmp_1WF1_EIG
 Expectation of eigenvalue derivatives (hartree) for nkpt=   2  k points:
  (in case of degenerate eigenvalues, averaged derivative)
 kpt#   1, nband= 41, wtk=  0.50000, kpt=  0.1667  0.1667 -0.1667 (reduced coord)
   0.00002   -0.00001    0.00295   -0.00708   -0.00127   -0.00399   -0.00453   -0.00811
   0.00127    0.00035   -0.00009    0.00786    0.00347    0.00555    0.00123    0.04633
   0.01128   -0.03914    0.02899   -0.01478   -0.02577    0.01452    0.02239    0.02172
  -0.07942   -0.01853   -0.07512   -0.00151   -0.04310   -0.01936   -0.01196    0.00026
   0.00283    0.04567    0.07023    0.06208    0.00238    0.03282    0.06454    0.11290
   0.05180
 prteigrs : prtvol=0 or 1, do not print more k-points.

 Eight components of 2nd-order total energy (hartree) are
 1,2,3: 0th-order hamiltonian combined with 1st-order wavefunctions
     kin0=   2.51157165E+01 eigvalue=   9.91754934E-01  local=  -1.50445511E+01
 4,5,6: 1st-order hamiltonian combined with 1st and 0th-order wfs
     kin1=  -3.71442282E+01  Hartree=   0.00000000E+00     xc=   0.00000000E+00
 7,8,9: eventually, occupation + non-local contributions
    edocc=   4.48014703E+00     enl0=   1.61287120E+00   enl1=   2.83235107E+00
 1-9 gives the relaxation energy (to be shifted if some occ is /=2.0)
   erelax=  -1.71559385E+01
  No Ewald or frozen-wf contrib.: the relaxation energy is the total one
 2DEtotal=   -0.1715593854E+02 Ha. Also 2DEtotal=   -0.466836829168E+03 eV
    (  non-var. 2DEtotal :   -1.7155938543E+01 Ha)

 Perturbation wavevector (in red.coord.)   0.000000  0.000000  0.000000
 Perturbation : derivative vs k along direction   2
 The set of symmetries contains only one element for this perturbation.
 symkpt : not enough symmetry to change the number of k points.

[...]

 Perturbation wavevector (in red.coord.)   0.000000  0.000000  0.000000
 Perturbation : derivative vs k along direction   3
 The set of symmetries contains only one element for this perturbation.
 symkpt : not enough symmetry to change the number of k points.

 Initialisation of the first-order wave-functions :
  ireadwf=   0

--- !BeginCycle
iteration_state: {dtset: 1, }
solver: {iscf: 7, nstep: 2000, nline: 4, wfoptalg: 0, }
tolerances: {tolwfr: 1.00E-20, }
...

     iter   2DEtotal(Ha)        deltaE(Ha) residm    vres2
-ETOT  1  -27.541242484711     -2.754E+01 5.345E-02 0.000E+00
 ETOT  2  -27.621961368626     -8.072E-02 3.019E-03 0.000E+00
 ETOT  3  -27.623430966935     -1.470E-03 1.387E-04 0.000E+00
 ETOT  4  -27.623467877490     -3.691E-05 1.265E-05 0.000E+00
 ETOT  5  -27.623469036786     -1.159E-06 1.003E-06 0.000E+00
 ETOT  6  -27.623469077102     -4.032E-08 1.240E-07 0.000E+00
 ETOT  7  -27.623469078609     -1.507E-09 1.172E-08 0.000E+00
 ETOT  8  -27.623469078668     -5.877E-11 2.208E-09 0.000E+00
 ETOT  9  -27.623469078670     -2.348E-12 1.860E-10 0.000E+00
 ETOT 10  -27.623469078671     -1.172E-13 5.262E-11 0.000E+00
 ETOT 11  -27.623469078671      1.421E-14 4.429E-12 0.000E+00
 ETOT 12  -27.623469078671     -2.842E-14 1.370E-12 0.000E+00
 ETOT 13  -27.623469078671      7.105E-15 1.115E-13 0.000E+00
 ETOT 14  -27.623469078671      3.553E-15 3.627E-14 0.000E+00
 ETOT 15  -27.623469078671      1.066E-14 2.893E-15 0.000E+00
 ETOT 16  -27.623469078671     -3.553E-15 9.694E-16 0.000E+00
 ETOT 17  -27.623469078671     -3.553E-15 7.639E-17 0.000E+00
 ETOT 18  -27.623469078671     -1.776E-14 2.606E-17 0.000E+00
 ETOT 19  -27.623469078671      7.105E-15 2.042E-18 0.000E+00
 ETOT 20  -27.623469078671      3.553E-15 7.040E-19 0.000E+00
 ETOT 21  -27.623469078671      7.105E-15 5.508E-20 0.000E+00
 ETOT 22  -27.623469078671     -3.553E-15 1.909E-20 0.000E+00
 ETOT 23  -27.623469078671     -3.553E-15 9.867E-21 0.000E+00

 At SCF step   23   max residual=  9.87E-21 < tolwfr=  1.00E-20 =>converged.

 ----iterations are completed or convergence reached----

 dfpt_looppert: DFPT cycle converged with prtwf=-1. Will skip output of the 1st-order WFK file.
 dfpt_looppert : ek2=    5.1537874074E+01
          f-sum rule ratio=    1.1594930530E+00
 prteigrs : about to open file /scratch/users/j/a/jabreu/flow_simple_10atoms/flow/w453/t1/tmpdata/tmp_1WF1_EIG
 Expectation of eigenvalue derivatives (hartree) for nkpt=   2  k points:
  (in case of degenerate eigenvalues, averaged derivative)
 kpt#   1, nband= 41, wtk=  0.50000, kpt=  0.1667  0.1667 -0.1667 (reduced coord)
  -0.00000    0.00000   -0.00000    0.00000   -0.00000    0.00000   -0.00000    0.00000
  -0.00000    0.00000   -0.00000   -0.00000   -0.00000   -0.00000   -0.00000   -0.00000
   0.00000   -0.00000    0.00000    0.00000    0.00000   -0.00000    0.00000    0.00000
  -0.00000    0.00000   -0.00000    0.00000   -0.00000    0.00000   -0.00000   -0.00000
  -0.00000   -0.00000    0.00000    0.00000   -0.00000   -0.00000    0.00000   -0.00000
   0.00169
 prteigrs : prtvol=0 or 1, do not print more k-points.

 Eight components of 2nd-order total energy (hartree) are
 1,2,3: 0th-order hamiltonian combined with 1st-order wavefunctions
     kin0=   3.45848467E+01 eigvalue=   1.19067184E+00  local=  -2.09899363E+01
 4,5,6: 1st-order hamiltonian combined with 1st and 0th-order wfs
     kin1=  -5.97578070E+01  Hartree=   0.00000000E+00     xc=   0.00000000E+00
 7,8,9: eventually, occupation + non-local contributions
    edocc=   1.05640876E+01     enl0=   2.27379932E+00   enl1=   4.51086880E+00
 1-9 gives the relaxation energy (to be shifted if some occ is /=2.0)
   erelax=  -2.76234691E+01
  No Ewald or frozen-wf contrib.: the relaxation energy is the total one
 2DEtotal=   -0.2762346908E+02 Ha. Also 2DEtotal=   -0.751672820645E+03 eV
    (  non-var. 2DEtotal :   -2.7623469078E+01 Ha)

 CALCULATION OF EFFECTIVE MASSES
 NOTE : Additional infos (eff. mass eigenvalues, eigenvectors and, if degenerate, average mass) are available in stdout.

 K-point ( 0.167, 0.167,-0.167) | band =    32
 Effective mass tensor:
            -10.3725497616             -0.1398551709             -6.9525890618
             -0.1398551709             -0.6210817552              0.1931329807
             -6.9525890618              0.1931329807             -5.7887556485
 Effective mass tensor eigenvalues:
            -15.4012597016             -0.9389335056             -0.4421939582
 Angular average effective mass 1/(<1/m>)=  -0.8845854866
 Angular average effective mass for Frohlich model (<m**0.5>)**2=  -1.2289673402
 Effective masses along directions: (cart. coord. / red. coord. -> eff. mass)
    1:   1.000000  0.000000  0.000000 /   0.940779 -0.339021  0.000000 ->  -1.7972113044
    2:   0.000000  1.000000  0.000000 /   0.000000  1.000000  0.000000 ->  -0.5462707282
    3:   0.000000  0.000000  1.000000 /  -0.266950 -0.449175  0.852631 ->  -0.9956121191
    4:   0.577350  0.577350  0.577350 /   0.535461 -0.076556  0.841083 ->  -1.3101101751
    5:   0.000000  0.707107  0.707107 /  -0.290555  0.233141  0.928021 ->  -0.5311106655
    6:   0.707107  0.000000  0.707107 /   0.433118 -0.591241  0.680326 ->  -9.9111382151
    7:   0.707107  0.707107  0.000000 /   0.908883  0.417050  0.000000 ->  -1.1669864118

 K-point ( 0.500, 0.000, 0.000) | band =    33
 Effective mass tensor:
              4.7899813560              1.0336773864              1.4024953493
              1.0336773864              0.7162814619              0.3936331191
              1.4024953493              0.3936331191              0.8681425282
 Effective mass tensor eigenvalues:
              0.3781948488              0.5009860266              5.4952244707
 Angular average effective mass 1/(<1/m>)=   0.6221253265
 Angular average effective mass for Frohlich model (<m**0.5>)**2=   0.7790779568
 Effective masses along directions: (cart. coord. / red. coord. -> eff. mass)
    1:   1.000000  0.000000  0.000000 /   0.940779 -0.339021  0.000000 ->   2.2300496718
    2:   0.000000  1.000000  0.000000 /   0.000000  1.000000  0.000000 ->   0.4751232971
    3:   0.000000  0.000000  1.000000 /  -0.266950 -0.449175  0.852631 ->   0.4407145944
    4:   0.577350  0.577350  0.577350 /   0.535461 -0.076556  0.841083 ->   1.3801296433
    5:   0.000000  0.707107  0.707107 /  -0.290555  0.233141  0.928021 ->   0.5654995821
    6:   0.707107  0.000000  0.707107 /   0.433118 -0.591241  0.680326 ->   1.2744045944
    7:   0.707107  0.707107  0.000000 /   0.908883  0.417050  0.000000 ->   1.0582950067

 END OF EFFECTIVE MASSES SECTION

 ---- first-order wavefunction calculations are completed ----

 Total localisation tensor (bohr^2) in cartesian coordinates
  WARNING : still subject to testing - especially symmetries.
      direction              matrix element
   alpha     beta       real part   imaginary part
     1        1       1.6906978508    0.0000000000
     1        2      -0.7997521435    0.0000000000
     1        3       0.1001278856    0.0000000000
     2        1      -0.7997521435    0.0000000000
     2        2       1.8181000333    0.0000000000
     2        3      -1.2310448341    0.0000000000
     3        1       0.1001278856    0.0000000000
     3        2      -1.2310448341    0.0000000000
     3        3       3.9979342694    0.0000000000

 respfn : d/dk was computed, but no 2DTE, so no DDB output.

== END DATASET(S) ==============================================================

 -outvars: echo values of variables after computation  --------
            acell      1.0000000000E+00  1.0000000000E+00  1.0000000000E+00 Bohr
              amu      3.90983000E+01  3.09737620E+01  3.20660000E+01
             ecut      3.60000000E+01 Hartree
           etotal     -2.7623469079E+01
            fcart      0.0000000000E+00  0.0000000000E+00  0.0000000000E+00
                       0.0000000000E+00  0.0000000000E+00  0.0000000000E+00
                       0.0000000000E+00  0.0000000000E+00  0.0000000000E+00
                       0.0000000000E+00  0.0000000000E+00  0.0000000000E+00
                       0.0000000000E+00  0.0000000000E+00  0.0000000000E+00
                       0.0000000000E+00  0.0000000000E+00  0.0000000000E+00
                       0.0000000000E+00  0.0000000000E+00  0.0000000000E+00
                       0.0000000000E+00  0.0000000000E+00  0.0000000000E+00
                       0.0000000000E+00  0.0000000000E+00  0.0000000000E+00
                       0.0000000000E+00  0.0000000000E+00  0.0000000000E+00
-          fftalg         512
           irdden           1
           irdwfk           1
           istwfk        0    1
              ixc     -116133
              kpt      1.66666667E-01  1.66666667E-01 -1.66666667E-01
                       5.00000000E-01  0.00000000E+00  0.00000000E+00
           kptopt           0
P           mkmem           2
P          mkqmem           2
P          mk1mem           2
            natom          10
            nband          41
           nbdbuf           4
            ngfft          72      72      72
             nkpt           2
            nstep        2000
             nsym           8
           ntypat           3
              occ      2.000000  2.000000  2.000000  2.000000  2.000000  2.000000
                       2.000000  2.000000  2.000000  2.000000  2.000000  2.000000
                       2.000000  2.000000  2.000000  2.000000  2.000000  2.000000
                       2.000000  2.000000  2.000000  2.000000  2.000000  2.000000
                       2.000000  2.000000  2.000000  2.000000  2.000000  2.000000
                       2.000000  2.000000  0.000000  0.000000  0.000000  0.000000
                       0.000000  0.000000  0.000000  0.000000  0.000000
        optdriver           1
            prtwf          -1
            rfdir           1       1       1
           rfelfd           2
            rprim      1.2562733897E+01  0.0000000000E+00 -4.1414925339E+00
                      -4.5271384829E+00  1.0291676856E+01 -6.9685470525E+00
                       0.0000000000E+00  0.0000000000E+00  1.3227783011E+01
          spgroup          71
           strten      0.0000000000E+00  0.0000000000E+00  0.0000000000E+00
                       0.0000000000E+00  0.0000000000E+00  0.0000000000E+00
           symrel      1  0  0   0  1  0   0  0  1      -1  0  0   0 -1  0   0  0 -1
                       0  0  1  -1 -1 -1   1  0  0       0  0 -1   1  1  1  -1  0  0
                      -1 -1 -1   0  0  1   0  1  0       1  1  1   0  0 -1   0 -1  0
                       0  1  0   1  0  0  -1 -1 -1       0 -1  0  -1  0  0   1  1  1
           tolwfr      1.00000000E-20
            typat      1  1  2  2  3  3  3  3  3  3
           useylm           1
              wtk        0.50000    0.50000
           xangst      5.0185157609E+00  0.0000000000E+00  3.6297586448E+00
                       1.6293966950E+00  0.0000000000E+00  1.1784991861E+00
                       4.7625022440E+00  1.8424335692E+00  4.1519065252E-01
                      -5.1024829333E-01  3.6036872612E+00  7.0547090121E-01
                       2.4865025548E+00  5.3203045470E+00 -3.4378462816E+00
                       5.6393097611E-01  2.8579499359E+00 -7.7969274774E-01
                       4.1786101149E+00  2.7230604152E+00 -1.4550835369E+00
                       7.3643835767E-02  2.7230604152E+00  2.5757450906E+00
                       1.7657513958E+00  1.2581628342E-01  4.5585078353E+00
                       3.6883229745E+00  2.5881708945E+00  1.9003543015E+00
            xcart      9.4836203817E+00  0.0000000000E+00  6.8592497672E+00
                       3.0791135154E+00  0.0000000000E+00  2.2270407095E+00
                       8.9998249484E+00  3.4816948638E+00  7.8459662619E-01
                      -9.6422953416E-01  6.8099819923E+00  1.3331467980E+00
                       4.6988088573E+00  1.0053918537E+01 -6.4965879592E+00
                       1.0656751027E+00  5.4007426804E+00 -1.4734057610E+00
                       7.8964287332E+00  5.1458384280E+00 -2.7497093851E+00
                       1.3916668098E-01  5.1458384280E+00  4.8674528093E+00
                       3.3367865569E+00  2.3775831873E-01  8.6143313834E+00
                       6.9699203115E+00  4.8909341757E+00  3.5911491852E+00
             xred      7.5490100000E-01  0.0000000000E+00  7.5490100000E-01
                       2.4509900000E-01  0.0000000000E+00  2.4509900000E-01
                       8.3830200000E-01  3.3830200000E-01  5.0000000000E-01
                       1.6169800000E-01  6.6169800000E-01  5.0000000000E-01
                       7.2606500000E-01  9.7689800000E-01  2.5083300000E-01
                       2.7393500000E-01  5.2476800000E-01  2.5083300000E-01
                       8.0874100000E-01  5.0000000000E-01  3.0874100000E-01
                       1.9125900000E-01  5.0000000000E-01  6.9125900000E-01
                       2.7393500000E-01  2.3102000000E-02  7.4916700000E-01
                       7.2606500000E-01  4.7523200000E-01  7.4916700000E-01
            znucl       19.00000   15.00000   16.00000

- Timing analysis has been suppressed with timopt=0

 Suggested references for the acknowledgment of ABINIT usage.

 Calculation completed.
.Delivered   2 WARNINGs and   5 COMMENTs to log file.