.Version 9.5.1 of ABINIT

 ABINIT is a project of the Universite Catholique de Louvain,
 Corning Inc. and other collaborators, see ~abinit/doc/developers/contributors.txt .
 acknowledgments of the ABINIT effort.

.Starting date : Wed  5 May 2021.
- ( at 19h49 )

- input  file    -> /scratch/users/j/a/jabreu/flow_simple_7atoms/flow/w142/t1/run.abi
- output file    -> /scratch/users/j/a/jabreu/flow_simple_7atoms/flow/w142/t1/run.abo
- root for input  files -> /scratch/users/j/a/jabreu/flow_simple_7atoms/flow/w142/t1/indata/in
- root for output files -> /scratch/users/j/a/jabreu/flow_simple_7atoms/flow/w142/t1/outdata/out

 Symmetries : space group I-4 (# 82); Bravais tI (body-center tetrag.)
     intxc =       0      iscf =       7    lmnmax =      18     lnmax =       6
     mgfft =      54  mpssoang =       3    mqgrid =    3001     natom =       7
  nloc_mem =       1    nspden =       1   nspinor =       1    nsppol =       1
      nsym =       4    n1xccc =    2501    ntypat =       4    occopt =       1
   xclevel =       2
-    mband =          31        mffmem =           1         mkmem =           2
-   mkqmem =           2        mk1mem =           2           mpw =        6651
      nfft =      157464          nkpt =           2
  Rough estimation (10% accuracy) of disk space for files :

------------- Echo of variables that govern the present computation ------------
-
- outvars: echo of selected default values
-   iomode0 =  0 , fftalg0 =512 , wfoptalg0 =  0
-
- outvars: echo of global parameters not present in the input file
-  max_nthreads =    0
-
 -outvars: echo values of preprocessed input variables --------
            acell      1.0000000000E+00  1.0000000000E+00  1.0000000000E+00 Bohr
              amu      6.94100000E+00  7.26100000E+01  1.08110000E+01
                       1.59994000E+01
             ecut      4.40000000E+01 Hartree
-          fftalg         512
           irdden           1
           irdwfk           1
           istwfk        0    1
              ixc     -116133
              kpt     -3.33056965E-01  3.33056965E-01  3.33056965E-01
                       0.00000000E+00  0.00000000E+00  0.00000000E+00
           kptopt           0
P           mkmem           2
P          mkqmem           2
P          mk1mem           2
            natom           7
            nband          31
           nbdbuf           4
            ngfft          54      54      54
             nkpt           2
            nstep        2000
             nsym           4
           ntypat           4
              occ      2.000000  2.000000  2.000000  2.000000  2.000000  2.000000
                       2.000000  2.000000  2.000000  2.000000  2.000000  2.000000
                       2.000000  2.000000  2.000000  2.000000  2.000000  2.000000
                       2.000000  2.000000  2.000000  2.000000  0.000000  0.000000
                       0.000000  0.000000  0.000000  0.000000  0.000000  0.000000
                       0.000000
        optdriver           1
            prtwf          -1
            rfdir           1       1       1
           rfelfd           2
            rprim      7.4709514774E+00  0.0000000000E+00 -4.7826037698E+00
                      -2.2369459067E+00  7.1281967558E+00 -4.7826037698E+00
                       0.0000000000E+00  0.0000000000E+00  8.8706490629E+00
          spgroup          82
           symrel      1  0  0   0  1  0   0  0  1       0  1  0   1  0  0  -1 -1 -1
                       0  0  1  -1 -1 -1   0  1  0      -1 -1 -1   0  0  1   1  0  0
           tolwfr      1.00000000E-20
            typat      1  2  3  4  4  4  4
           useylm           1
              wtk        0.50000    0.50000
           xangst      1.0055871907E-01  2.8290594461E+00 -1.8377225795E-01
                       2.6691577386E+00  9.4301981538E-01 -1.8377225795E-01
                       7.6556387300E-17 -4.1878492468E-16  3.1610275806E-16
                       2.6968283490E+00  3.5801841593E-01 -1.8479319545E+00
                      -5.7835116747E-01  2.5271375069E+00  2.6705349747E+00
                       9.6218558883E-01  1.0917793052E+00  2.3639019863E-01
                       2.4587701449E+00  3.5672232949E+00 -1.7940822506E+00
            xcart      1.9002843933E-01  5.3461475668E+00 -3.4727923835E-01
                       5.0439771314E+00  1.7820491889E+00 -3.4727923835E-01
                       1.4467060572E-16 -7.9138881623E-16  5.9734764258E-16
                       5.0962670070E+00  6.7655675663E-01 -3.4920853062E+00
                      -1.0929253152E+00  4.7755977883E+00  5.0465797305E+00
                       1.8182672519E+00  2.0631638844E+00  4.4671273590E-01
                       4.6464021976E+00  6.7410750823E+00 -3.3903241136E+00
             xred      2.5000000000E-01  7.5000000000E-01  5.0000000000E-01
                       7.5000000000E-01  2.5000000000E-01  5.0000000000E-01
                      -1.3877787808E-17 -1.1102230246E-16  0.0000000000E+00
                       7.1056300000E-01  9.4912750000E-02  4.0604250000E-02
                       5.4308500000E-02  6.6995875000E-01  9.5939575000E-01
                       3.3004125000E-01  2.8943700000E-01  3.8434975000E-01
                       9.0508725000E-01  9.4569150000E-01  6.1565025000E-01
            znucl        3.00000   32.00000    5.00000    8.00000

 chkinp: Checking input parameters for consistency.

== DATASET  1 ==================================================================
-   mpi_nproc: 1, omp_nthreads: -1 (-1 if OMP is not activated)

--- !DatasetInfo
iteration_state: {dtset: 1, }
dimensions: {natom: 7, nkpt: 2, mband: 31, nsppol: 1, nspinor: 1, nspden: 1, mpw: 6651, }
cutoff_energies: {ecut:  44.0, pawecutdg:  -1.0, }
electrons: {nelect:   4.40000000E+01, charge:   0.00000000E+00, occopt:   1.00000000E+00, tsmear:   1.00000000E-02, }
meta: {optdriver: 1, rfelfd: 2, }
...

 Real(R)+Recip(G) space primitive vectors, cartesian coordinates (Bohr,Bohr^-1):
 R(1)=  7.4709515  0.0000000 -4.7826038  G(1)=  0.1338518  0.0420049  0.0000000
 R(2)= -2.2369459  7.1281968 -4.7826038  G(2)=  0.0000000  0.1402879  0.0000000
 R(3)=  0.0000000  0.0000000  8.8706491  G(3)=  0.0721661  0.0982830  0.1127313
 Unit cell volume ucvol=  4.7240120E+02 bohr^3
 Angles (23,13,12)=  1.22625743E+02  1.22625743E+02  8.55092301E+01 degrees

 getcut: wavevector=  0.0000  0.0000  0.0000  ngfft=  54  54  54
         ecut(hartree)=     44.000   => boxcut(ratio)=   2.03945

--- Pseudopotential description ------------------------------------------------
- pspini: atom type   1  psp file is /scratch/users/j/a/jabreu/pseudos/PBEsol/Li.psp8
- pspatm: opening atomic psp file    /scratch/users/j/a/jabreu/pseudos/PBEsol/Li.psp8
- Li    ONCVPSP-3.3.0  r_core=   1.40824   1.10935
-  3.00000   3.00000    180112                znucl, zion, pspdat
    8 -116133    1    4       400   0.00000   pspcod,pspxc,lmax,lloc,mmax,r2well
    3.99000000000000    0.00000000000000    0.00000000000000   rchrg,fchrg,qchrg
     nproj     2     2
     extension_switch     1
  pspatm : epsatm=    2.60859637
         --- l  ekb(1:nproj) -->
             0   -4.855856   -1.482423
             1   -2.171544   -0.427615
 pspatm: atomic psp has been read  and splines computed

- pspini: atom type   2  psp file is /scratch/users/j/a/jabreu/pseudos/PBEsol/Ge.psp8
- pspatm: opening atomic psp file    /scratch/users/j/a/jabreu/pseudos/PBEsol/Ge.psp8
- Ge    ONCVPSP-3.3.0  r_core=   1.91022   1.82122   1.91022
- 32.00000  14.00000    180112                znucl, zion, pspdat
    8 -116133    2    4       600   0.00000   pspcod,pspxc,lmax,lloc,mmax,r2well
    5.99000000000000    5.00000000000000    0.00000000000000   rchrg,fchrg,qchrg
     nproj     2     2     2
     extension_switch     1
  pspatm : epsatm=   30.86751540
         --- l  ekb(1:nproj) -->
             0    6.339734    0.583066
             1    3.813259    0.738801
             2   -9.332373   -3.602819
 pspatm: atomic psp has been read  and splines computed

[...]

- pspini: atom type   4  psp file is /scratch/users/j/a/jabreu/pseudos/PBEsol/O.psp8
- pspatm: opening atomic psp file    /scratch/users/j/a/jabreu/pseudos/PBEsol/O.psp8
- O     ONCVPSP-3.3.0  r_core=   1.35509   1.45563   1.26150
-  8.00000   6.00000    180112                znucl, zion, pspdat
    8 -116133    2    4       600   0.00000   pspcod,pspxc,lmax,lloc,mmax,r2well
    5.99000000000000    4.00000000000000    0.00000000000000   rchrg,fchrg,qchrg
     nproj     2     2     1
     extension_switch     1
  pspatm : epsatm=    6.22910522
         --- l  ekb(1:nproj) -->
             0    6.050032    0.820363
             1   -4.739617   -1.153841
             2   -1.335834
 pspatm: atomic psp has been read  and splines computed

   2.71013945E+03                                ecore*ucvol(ha*bohr**3)

-inwffil : will read wavefunctions from disk file /scratch/users/j/a/jabreu/flow_simple_7atoms/flow/w142/t1/indata/in_WFK

 ==>  initialize data related to q vector <==

 The list of irreducible perturbations for this q vector is:
    1)    idir= 1    ipert=   8
    2)    idir= 2    ipert=   8
    3)    idir= 3    ipert=   8

 Perturbation wavevector (in red.coord.)   0.000000  0.000000  0.000000
 Perturbation : derivative vs k along direction   1

 dfpt_looppert : COMMENT -
  In a d/dk calculation, iscf is set to -3 automatically.
 The set of symmetries contains only one element for this perturbation.
 symkpt : not enough symmetry to change the number of k points.

[...]

 Initialisation of the first-order wave-functions :
  ireadwf=   0

--- !BeginCycle
iteration_state: {dtset: 1, }
solver: {iscf: 7, nstep: 2000, nline: 4, wfoptalg: 0, }
tolerances: {tolwfr: 1.00E-20, }
...

     iter   2DEtotal(Ha)        deltaE(Ha) residm    vres2
-ETOT  1  -52.743437474513     -5.274E+01 1.176E-01 0.000E+00
 ETOT  2  -52.804229393729     -6.079E-02 1.508E-02 0.000E+00
 ETOT  3  -52.804534521456     -3.051E-04 1.111E-03 0.000E+00
 ETOT  4  -52.804537998368     -3.477E-06 3.477E-04 0.000E+00
 ETOT  5  -52.804538048701     -5.033E-08 3.592E-05 0.000E+00
 ETOT  6  -52.804538049507     -8.065E-10 1.386E-05 0.000E+00
 ETOT  7  -52.804538049521     -1.354E-11 1.444E-06 0.000E+00
 ETOT  8  -52.804538049521     -1.990E-13 5.800E-07 0.000E+00
 ETOT  9  -52.804538049521     -4.974E-14 5.970E-08 0.000E+00
 ETOT 10  -52.804538049521     -1.421E-14 2.450E-08 0.000E+00
 ETOT 11  -52.804538049521      0.000E+00 2.490E-09 0.000E+00
 ETOT 12  -52.804538049521      7.105E-15 1.038E-09 0.000E+00
 ETOT 13  -52.804538049521      1.421E-14 1.043E-10 0.000E+00
 ETOT 14  -52.804538049521      1.421E-14 4.405E-11 0.000E+00
 ETOT 15  -52.804538049521     -7.105E-15 4.385E-12 0.000E+00
 ETOT 16  -52.804538049521      1.421E-14 1.870E-12 0.000E+00
 ETOT 17  -52.804538049521     -1.421E-14 1.847E-13 0.000E+00
 ETOT 18  -52.804538049521     -7.105E-15 7.938E-14 0.000E+00
 ETOT 19  -52.804538049521      7.105E-15 7.786E-15 0.000E+00
 ETOT 20  -52.804538049521     -1.421E-14 3.370E-15 0.000E+00
 ETOT 21  -52.804538049521      0.000E+00 3.286E-16 0.000E+00
 ETOT 22  -52.804538049521      2.842E-14 1.431E-16 0.000E+00
 ETOT 23  -52.804538049521     -1.421E-14 1.388E-17 0.000E+00
 ETOT 24  -52.804538049521     -1.421E-14 6.075E-18 0.000E+00
 ETOT 25  -52.804538049521      0.000E+00 5.866E-19 0.000E+00
 ETOT 26  -52.804538049521      2.842E-14 2.579E-19 0.000E+00
 ETOT 27  -52.804538049521     -2.842E-14 2.480E-20 0.000E+00
 ETOT 28  -52.804538049521      1.421E-14 1.094E-20 0.000E+00
 ETOT 29  -52.804538049521      7.105E-15 9.963E-21 0.000E+00

 At SCF step   29   max residual=  9.96E-21 < tolwfr=  1.00E-20 =>converged.

 ----iterations are completed or convergence reached----

 dfpt_looppert: DFPT cycle converged with prtwf=-1. Will skip output of the 1st-order WFK file.
 dfpt_looppert : ek2=    6.8372750537E+01
          f-sum rule ratio=    1.0157187192E+00
 prteigrs : about to open file /scratch/users/j/a/jabreu/flow_simple_7atoms/flow/w142/t1/tmpdata/tmp_1WF1_EIG
 Expectation of eigenvalue derivatives (hartree) for nkpt=   2  k points:
  (in case of degenerate eigenvalues, averaged derivative)
 kpt#   1, nband= 31, wtk=  0.50000, kpt= -0.3331  0.3331  0.3331 (reduced coord)
   0.00000    0.00001    0.00023   -0.00025    0.00000    0.00000    0.00026   -0.00023
  -0.00171    0.00165    0.00426   -0.01372    0.00685   -0.00493    0.06012   -0.04437
  -0.02881    0.00146   -0.00292    0.02880    0.00233   -0.00981   -0.01961    0.02109
   0.02958   -0.01945   -0.02770    0.04347   -0.10450    0.10324   -0.00700
 prteigrs : prtvol=0 or 1, do not print more k-points.

 Eight components of 2nd-order total energy (hartree) are
 1,2,3: 0th-order hamiltonian combined with 1st-order wavefunctions
     kin0=   5.95234789E+01 eigvalue=   4.84080474E+00  local=  -2.09896623E+01
 4,5,6: 1st-order hamiltonian combined with 1st and 0th-order wfs
     kin1=  -6.94474826E+01  Hartree=   0.00000000E+00     xc=   0.00000000E+00
 7,8,9: eventually, occupation + non-local contributions
    edocc=   9.56778442E+00     enl0=  -1.37867649E-01   enl1=  -3.61615935E+01
 1-9 gives the relaxation energy (to be shifted if some occ is /=2.0)
   erelax=  -5.28045380E+01
  No Ewald or frozen-wf contrib.: the relaxation energy is the total one
 2DEtotal=   -0.5280453805E+02 Ha. Also 2DEtotal=   -0.143688455442E+04 eV
    (  non-var. 2DEtotal :   -5.2804538050E+01 Ha)

 Perturbation wavevector (in red.coord.)   0.000000  0.000000  0.000000
 Perturbation : derivative vs k along direction   2
 The set of symmetries contains only one element for this perturbation.
 symkpt : not enough symmetry to change the number of k points.

[...]

 Perturbation wavevector (in red.coord.)   0.000000  0.000000  0.000000
 Perturbation : derivative vs k along direction   3
 The set of symmetries contains only one element for this perturbation.
 symkpt : not enough symmetry to change the number of k points.

-inwffil : will read wavefunctions from disk file /scratch/users/j/a/jabreu/flow_simple_7atoms/flow/w142/t1/indata/in_WFK

 Initialisation of the first-order wave-functions :
  ireadwf=   0

--- !BeginCycle
iteration_state: {dtset: 1, }
solver: {iscf: 7, nstep: 2000, nline: 4, wfoptalg: 0, }
tolerances: {tolwfr: 1.00E-20, }
...

     iter   2DEtotal(Ha)        deltaE(Ha) residm    vres2
-ETOT  1  -73.953827729026     -7.395E+01 1.768E-01 0.000E+00
 ETOT  2  -74.038037685339     -8.421E-02 2.808E-02 0.000E+00
 ETOT  3  -74.038348010963     -3.103E-04 2.090E-03 0.000E+00
 ETOT  4  -74.038351165094     -3.154E-06 7.738E-04 0.000E+00
 ETOT  5  -74.038351206097     -4.100E-08 6.980E-05 0.000E+00
 ETOT  6  -74.038351206699     -6.021E-10 3.099E-05 0.000E+00
 ETOT  7  -74.038351206708     -9.422E-12 2.835E-06 0.000E+00
 ETOT  8  -74.038351206708     -2.132E-13 1.304E-06 0.000E+00
 ETOT  9  -74.038351206708      1.421E-14 1.192E-07 0.000E+00
 ETOT 10  -74.038351206708     -4.263E-14 5.532E-08 0.000E+00
 ETOT 11  -74.038351206708     -1.421E-14 5.072E-09 0.000E+00
 ETOT 12  -74.038351206708     -1.421E-14 2.351E-09 0.000E+00
 ETOT 13  -74.038351206708      2.842E-14 2.165E-10 0.000E+00
 ETOT 14  -74.038351206708     -4.263E-14 9.997E-11 0.000E+00
 ETOT 15  -74.038351206708      1.421E-14 9.243E-12 0.000E+00
 ETOT 16  -74.038351206708     -1.421E-14 4.251E-12 0.000E+00
 ETOT 17  -74.038351206708      1.421E-14 3.945E-13 0.000E+00
 ETOT 18  -74.038351206708      1.421E-14 1.808E-13 0.000E+00
 ETOT 19  -74.038351206708      1.421E-14 1.683E-14 0.000E+00
 ETOT 20  -74.038351206708     -1.421E-14 7.686E-15 0.000E+00
 ETOT 21  -74.038351206708      0.000E+00 7.175E-16 0.000E+00
 ETOT 22  -74.038351206708      0.000E+00 3.269E-16 0.000E+00
 ETOT 23  -74.038351206708      1.421E-14 3.058E-17 0.000E+00
 ETOT 24  -74.038351206708      0.000E+00 1.390E-17 0.000E+00
 ETOT 25  -74.038351206708      2.842E-14 1.303E-18 0.000E+00
 ETOT 26  -74.038351206708     -1.421E-14 5.914E-19 0.000E+00
 ETOT 27  -74.038351206708     -2.842E-14 5.553E-20 0.000E+00
 ETOT 28  -74.038351206708      1.421E-14 2.516E-20 0.000E+00
 ETOT 29  -74.038351206708      0.000E+00 9.897E-21 0.000E+00

 At SCF step   29   max residual=  9.90E-21 < tolwfr=  1.00E-20 =>converged.

 ----iterations are completed or convergence reached----

 dfpt_looppert: DFPT cycle converged with prtwf=-1. Will skip output of the 1st-order WFK file.
 dfpt_looppert : ek2=    9.5801280026E+01
          f-sum rule ratio=    1.0169746464E+00
 prteigrs : about to open file /scratch/users/j/a/jabreu/flow_simple_7atoms/flow/w142/t1/tmpdata/tmp_1WF1_EIG
 Expectation of eigenvalue derivatives (hartree) for nkpt=   2  k points:
  (in case of degenerate eigenvalues, averaged derivative)
 kpt#   1, nband= 31, wtk=  0.50000, kpt= -0.3331  0.3331  0.3331 (reduced coord)
   0.00000   -0.00121    0.00168    0.00018   -0.00017   -0.00025    0.06117   -0.05473
  -0.00670   -0.02615    0.08976   -0.03890    0.08068   -0.02576    0.11774   -0.05105
  -0.07480   -0.08686   -0.00032   -0.04076    0.04678   -0.01105    0.04995   -0.06050
  -0.06788   -0.17175    0.03942    0.24389   -0.08556    0.24060   -0.05693
 prteigrs : prtvol=0 or 1, do not print more k-points.

 Eight components of 2nd-order total energy (hartree) are
 1,2,3: 0th-order hamiltonian combined with 1st-order wavefunctions
     kin0=   8.46476933E+01 eigvalue=   6.71798493E+00  local=  -3.00268655E+01
 4,5,6: 1st-order hamiltonian combined with 1st and 0th-order wfs
     kin1=  -9.74274729E+01  Hartree=   0.00000000E+00     xc=   0.00000000E+00
 7,8,9: eventually, occupation + non-local contributions
    edocc=   1.33133245E+01     enl0=  -6.13785965E-01   enl1=  -5.06492295E+01
 1-9 gives the relaxation energy (to be shifted if some occ is /=2.0)
   erelax=  -7.40383512E+01
  No Ewald or frozen-wf contrib.: the relaxation energy is the total one
 2DEtotal=   -0.7403835121E+02 Ha. Also 2DEtotal=   -0.201468599505E+04 eV
    (  non-var. 2DEtotal :   -7.4038351207E+01 Ha)

 CALCULATION OF EFFECTIVE MASSES
 NOTE : Additional infos (eff. mass eigenvalues, eigenvectors and, if degenerate, average mass) are available in stdout.

 K-point (-0.333, 0.333, 0.333) | band =    22
 Effective mass tensor:
             -3.9325783907             -0.6138506634             -0.3582292738
             -0.6138506634             -4.0778885755             -0.3088850622
             -0.3582292738             -0.3088850622             -4.5404077817
 Effective mass tensor eigenvalues:
             -5.0536421260             -4.1141332657             -3.3830993562
 Angular average effective mass 1/(<1/m>)=  -4.0731616052
 Angular average effective mass for Frohlich model (<m**0.5>)**2=  -4.1058543640
 Effective masses along directions: (cart. coord. / red. coord. -> eff. mass)
    1:   1.000000  0.000000  0.000000 /   0.957979 -0.286837  0.000000 ->  -3.8186609573
    2:   0.000000  1.000000  0.000000 /   0.000000  1.000000  0.000000 ->  -3.9678742973
    3:   0.000000  0.000000  1.000000 /  -0.428739 -0.428739  0.795214 ->  -4.4917054999
    4:   0.577350  0.577350  0.577350 /   0.290014  0.011721  0.956951 ->  -5.0335977352
    5:   0.000000  0.707107  0.707107 /  -0.462215  0.226690  0.857304 ->  -4.4805830752
    6:   0.707107  0.000000  0.707107 /   0.231214 -0.603723  0.762928 ->  -4.4607075156
    7:   0.707107  0.707107  0.000000 /   0.836641  0.547751  0.000000 ->  -4.5683593095

 K-point ( 0.000, 0.000, 0.000) | band =    23
 Effective mass tensor:
              0.6092060223             -0.0201776018              0.0270780264
             -0.0201776018              0.5965477239              0.0368725934
              0.0270780264              0.0368725934              0.5745412285
 Effective mass tensor eigenvalues:
              0.5322473721              0.6240237559              0.6240238468
 Angular average effective mass 1/(<1/m>)=   0.5901060949
 Angular average effective mass for Frohlich model (<m**0.5>)**2=   0.5911291208
 Effective masses along directions: (cart. coord. / red. coord. -> eff. mass)
    1:   1.000000  0.000000  0.000000 /   0.957979 -0.286837  0.000000 ->   0.6071215262
    2:   0.000000  1.000000  0.000000 /   0.000000  1.000000  0.000000 ->   0.5933913014
    3:   0.000000  0.000000  1.000000 /  -0.428739 -0.428739  0.795214 ->   0.5709436696
    4:   0.577350  0.577350  0.577350 /   0.290014  0.011721  0.956951 ->   0.6223748933
    5:   0.000000  0.707107  0.707107 /  -0.462215  0.226690  0.857304 ->   0.6221456858
    6:   0.707107  0.000000  0.707107 /   0.231214 -0.603723  0.762928 ->   0.6181331939
    7:   0.707107  0.707107  0.000000 /   0.836641  0.547751  0.000000 ->   0.5790643317

 END OF EFFECTIVE MASSES SECTION

 ---- first-order wavefunction calculations are completed ----

 Total localisation tensor (bohr^2) in cartesian coordinates
  WARNING : still subject to testing - especially symmetries.
      direction              matrix element
   alpha     beta       real part   imaginary part
     1        1       0.7159810750    0.0000000000
     1        2      -0.1919904072    0.0000000000
     1        3      -0.2909585593    0.0000000000
     2        1      -0.1919904072    0.0000000000
     2        2       0.6117919052    0.0000000000
     2        3      -0.4104766426    0.0000000000
     3        1      -0.2909585593    0.0000000000
     3        2      -0.4104766426    0.0000000000
     3        3       1.8438791422    0.0000000000

 respfn : d/dk was computed, but no 2DTE, so no DDB output.

== END DATASET(S) ==============================================================

 -outvars: echo values of variables after computation  --------
            acell      1.0000000000E+00  1.0000000000E+00  1.0000000000E+00 Bohr
              amu      6.94100000E+00  7.26100000E+01  1.08110000E+01
                       1.59994000E+01
             ecut      4.40000000E+01 Hartree
           etotal     -7.4038351207E+01
            fcart      0.0000000000E+00  0.0000000000E+00  0.0000000000E+00
                       0.0000000000E+00  0.0000000000E+00  0.0000000000E+00
                       0.0000000000E+00  0.0000000000E+00  0.0000000000E+00
                       0.0000000000E+00  0.0000000000E+00  0.0000000000E+00
                       0.0000000000E+00  0.0000000000E+00  0.0000000000E+00
                       0.0000000000E+00  0.0000000000E+00  0.0000000000E+00
                       0.0000000000E+00  0.0000000000E+00  0.0000000000E+00
-          fftalg         512
           irdden           1
           irdwfk           1
           istwfk        0    1
              ixc     -116133
              kpt     -3.33056965E-01  3.33056965E-01  3.33056965E-01
                       0.00000000E+00  0.00000000E+00  0.00000000E+00
           kptopt           0
P           mkmem           2
P          mkqmem           2
P          mk1mem           2
            natom           7
            nband          31
           nbdbuf           4
            ngfft          54      54      54
             nkpt           2
            nstep        2000
             nsym           4
           ntypat           4
              occ      2.000000  2.000000  2.000000  2.000000  2.000000  2.000000
                       2.000000  2.000000  2.000000  2.000000  2.000000  2.000000
                       2.000000  2.000000  2.000000  2.000000  2.000000  2.000000
                       2.000000  2.000000  2.000000  2.000000  0.000000  0.000000
                       0.000000  0.000000  0.000000  0.000000  0.000000  0.000000
                       0.000000
        optdriver           1
            prtwf          -1
            rfdir           1       1       1
           rfelfd           2
            rprim      7.4709514774E+00  0.0000000000E+00 -4.7826037698E+00
                      -2.2369459067E+00  7.1281967558E+00 -4.7826037698E+00
                       0.0000000000E+00  0.0000000000E+00  8.8706490629E+00
          spgroup          82
           strten      0.0000000000E+00  0.0000000000E+00  0.0000000000E+00
                       0.0000000000E+00  0.0000000000E+00  0.0000000000E+00
           symrel      1  0  0   0  1  0   0  0  1       0  1  0   1  0  0  -1 -1 -1
                       0  0  1  -1 -1 -1   0  1  0      -1 -1 -1   0  0  1   1  0  0
           tolwfr      1.00000000E-20
            typat      1  2  3  4  4  4  4
           useylm           1
              wtk        0.50000    0.50000
           xangst      1.0055871907E-01  2.8290594461E+00 -1.8377225795E-01
                       2.6691577386E+00  9.4301981538E-01 -1.8377225795E-01
                       7.6556387300E-17 -4.1878492468E-16  3.1610275806E-16
                       2.6968283490E+00  3.5801841593E-01 -1.8479319545E+00
                      -5.7835116747E-01  2.5271375069E+00  2.6705349747E+00
                       9.6218558883E-01  1.0917793052E+00  2.3639019863E-01
                       2.4587701449E+00  3.5672232949E+00 -1.7940822506E+00
            xcart      1.9002843933E-01  5.3461475668E+00 -3.4727923835E-01
                       5.0439771314E+00  1.7820491889E+00 -3.4727923835E-01
                       1.4467060572E-16 -7.9138881623E-16  5.9734764258E-16
                       5.0962670070E+00  6.7655675663E-01 -3.4920853062E+00
                      -1.0929253152E+00  4.7755977883E+00  5.0465797305E+00
                       1.8182672519E+00  2.0631638844E+00  4.4671273590E-01
                       4.6464021976E+00  6.7410750823E+00 -3.3903241136E+00
             xred      2.5000000000E-01  7.5000000000E-01  5.0000000000E-01
                       7.5000000000E-01  2.5000000000E-01  5.0000000000E-01
                      -1.3877787808E-17 -1.1102230246E-16  0.0000000000E+00
                       7.1056300000E-01  9.4912750000E-02  4.0604250000E-02
                       5.4308500000E-02  6.6995875000E-01  9.5939575000E-01
                       3.3004125000E-01  2.8943700000E-01  3.8434975000E-01
                       9.0508725000E-01  9.4569150000E-01  6.1565025000E-01
            znucl        3.00000   32.00000    5.00000    8.00000

- Timing analysis has been suppressed with timopt=0

 Suggested references for the acknowledgment of ABINIT usage.

 Calculation completed.
.Delivered  14 WARNINGs and   9 COMMENTs to log file.