.Version 9.5.2 of ABINIT

 ABINIT is a project of the Universite Catholique de Louvain,
 Corning Inc. and other collaborators, see ~abinit/doc/developers/contributors.txt .
 acknowledgments of the ABINIT effort.

.Starting date : Mon 24 May 2021.
- ( at 11h06 )

- input  file    -> /scratch/users/j/a/jabreu/flow_simple_10atoms/flow/w292/t1/run.abi
- output file    -> /scratch/users/j/a/jabreu/flow_simple_10atoms/flow/w292/t1/run.abo
- root for input  files -> /scratch/users/j/a/jabreu/flow_simple_10atoms/flow/w292/t1/indata/in
- root for output files -> /scratch/users/j/a/jabreu/flow_simple_10atoms/flow/w292/t1/outdata/out

 Symmetries : space group C2/m (# 12); Bravais mC (1-face-center monocl.)
     intxc =       0      iscf =       7    lmnmax =      32     lnmax =       8
     mgfft =      75  mpssoang =       4    mqgrid =    3554     natom =      10
  nloc_mem =       1    nspden =       1   nspinor =       1    nsppol =       1
      nsym =       4    n1xccc =    2501    ntypat =       3    occopt =       1
   xclevel =       2
-    mband =          48        mffmem =           1         mkmem =           2
-   mkqmem =           2        mk1mem =           2           mpw =       13076
      nfft =      388800          nkpt =           2
  Rough estimation (10% accuracy) of disk space for files :

------------- Echo of variables that govern the present computation ------------
-
- outvars: echo of selected default values
-   iomode0 =  0 , fftalg0 =512 , wfoptalg0 =  0
-
- outvars: echo of global parameters not present in the input file
-  max_nthreads =    0
-
 -outvars: echo values of preprocessed input variables --------
            acell      1.0000000000E+00  1.0000000000E+00  1.0000000000E+00 Bohr
              amu      8.76200000E+01  1.83850000E+02  1.40067400E+01
             ecut      4.20000000E+01 Hartree
-          fftalg         512
           irdden           1
           irdwfk           1
           istwfk        1    1
              ixc     -116133
              kpt      5.00000000E-01  0.00000000E+00  5.00000000E-01
                       5.00000000E-01  0.00000000E+00  0.00000000E+00
           kptopt           0
P           mkmem           2
P          mkqmem           2
P          mk1mem           2
            natom          10
            nband          48
           nbdbuf           4
            ngfft          72      72      75
             nkpt           2
            nstep        2000
             nsym           4
           ntypat           3
              occ      2.000000  2.000000  2.000000  2.000000  2.000000  2.000000
                       2.000000  2.000000  2.000000  2.000000  2.000000  2.000000
                       2.000000  2.000000  2.000000  2.000000  2.000000  2.000000
                       2.000000  2.000000  2.000000  2.000000  2.000000  2.000000
                       2.000000  2.000000  2.000000  2.000000  2.000000  2.000000
                       2.000000  2.000000  2.000000  2.000000  2.000000  2.000000
                       2.000000  2.000000  2.000000  0.000000  0.000000  0.000000
                       0.000000  0.000000  0.000000  0.000000  0.000000  0.000000
        optdriver           1
            prtwf          -1
            rfdir           1       1       1
           rfelfd           2
            rprim      1.1767278821E+01  0.0000000000E+00  2.7196377351E+00
                       9.5830290846E+00  6.8289387473E+00  2.7196377351E+00
                       0.0000000000E+00  0.0000000000E+00  1.2534295645E+01
          spgroup          12
           symrel      1  0  0   0  1  0   0  0  1      -1  0  0   0 -1  0   0  0 -1
                       0 -1  0  -1  0  0   0  0 -1       0  1  0   1  0  0   0  0  1
           tolwfr      1.00000000E-20
            typat      1  1  2  2  3  3  3  3  3  3
           useylm           1
              wtk        0.50000    0.50000
           xangst      6.9859406118E+00  2.2344670972E+00  6.1841420776E+00
                       4.3121557282E+00  1.3792516467E+00  3.3270621135E+00
                       9.5826724784E+00  3.0650369859E+00  8.2070363138E+00
                       1.7154238616E+00  5.4868175805E-01  1.3041678772E+00
                       9.5454452510E+00  3.0531297826E+00  6.4292838137E+00
                       1.1258564301E+01  3.6010743420E+00  3.5807648693E+00
                       3.9532039094E-02  1.2644401885E-02  5.9304393218E+00
                       7.6733054951E+00  2.4543221319E+00  2.1130242018E+00
                       3.6247908450E+00  1.1593966121E+00  7.3981799893E+00
                       1.7526510890E+00  5.6058896131E-01  3.0819203773E+00
            xcart      1.3201514537E+01  4.2225308667E+00  1.1686334894E+01
                       8.1487933686E+00  2.6064078806E+00  6.2872362216E+00
                       1.8108626605E+01  5.7920804905E+00  1.5509050996E+01
                       3.2416813002E+00  1.0368582568E+00  2.4645201193E+00
                       1.8038277341E+01  5.7695791373E+00  1.2149585639E+01
                       2.1275603178E+01  6.8050442906E+00  6.7666649492E+00
                       7.4704727362E-02  2.3894456677E-02  1.1206906166E+01
                       1.4500445920E+01  4.6379966711E+00  3.9930370536E+00
                       6.8498619860E+00  2.1909420762E+00  1.3980534061E+01
                       3.3120305648E+00  1.0593596100E+00  5.8239854765E+00
             xred      6.1832900000E-01  6.1832900000E-01  6.6402400000E-01
                       3.8167100000E-01  3.8167100000E-01  3.3597600000E-01
                       8.4816700000E-01  8.4816700000E-01  8.6926600000E-01
                       1.5183300000E-01  1.5183300000E-01  1.3073400000E-01
                       8.4487200000E-01  8.4487200000E-01  6.0267400000E-01
                       9.9650100000E-01  9.9650100000E-01  1.0741900000E-01
                       3.4990000000E-03  3.4990000000E-03  8.9258100000E-01
                       6.7916800000E-01  6.7916800000E-01  2.3843000000E-02
                       3.2083200000E-01  3.2083200000E-01  9.7615700000E-01
                       1.5512800000E-01  1.5512800000E-01  3.9732600000E-01
            znucl       38.00000   74.00000    7.00000

 chkinp: Checking input parameters for consistency.

== DATASET  1 ==================================================================
-   mpi_nproc: 1, omp_nthreads: -1 (-1 if OMP is not activated)

--- !DatasetInfo
iteration_state: {dtset: 1, }
dimensions: {natom: 10, nkpt: 2, mband: 48, nsppol: 1, nspinor: 1, nspden: 1, mpw: 13076, }
cutoff_energies: {ecut:  42.0, pawecutdg:  -1.0, }
electrons: {nelect:   7.80000000E+01, charge:   0.00000000E+00, occopt:   1.00000000E+00, tsmear:   1.00000000E-02, }
meta: {optdriver: 1, rfelfd: 2, }
...

 Real(R)+Recip(G) space primitive vectors, cartesian coordinates (Bohr,Bohr^-1):
 R(1)= 11.7672788  0.0000000  2.7196377  G(1)=  0.0849814 -0.1192542  0.0000000
 R(2)=  9.5830291  6.8289387  2.7196377  G(2)=  0.0000000  0.1464356  0.0000000
 R(3)=  0.0000000  0.0000000 12.5342956  G(3)= -0.0184389 -0.0058977  0.0797811
 Unit cell volume ucvol=  1.0072313E+03 bohr^3
 Angles (23,13,12)=  7.69863760E+01  7.69863760E+01  3.45338230E+01 degrees

 getcut: wavevector=  0.0000  0.0000  0.0000  ngfft=  72  72  75
         ecut(hartree)=     42.000   => boxcut(ratio)=   2.02368

--- Pseudopotential description ------------------------------------------------
- pspini: atom type   1  psp file is /scratch/users/j/a/jabreu/pseudos/PBEsol/Sr.psp8
- pspatm: opening atomic psp file    /scratch/users/j/a/jabreu/pseudos/PBEsol/Sr.psp8
- Sr    ONCVPSP-3.3.0  r_core=   1.66721   1.31335   1.51547
- 38.00000  10.00000    180112                znucl, zion, pspdat
    8 -116133    2    4       600   0.00000   pspcod,pspxc,lmax,lloc,mmax,r2well
    5.99000000000000    6.00000000000000    0.00000000000000   rchrg,fchrg,qchrg
     nproj     2     2     2
     extension_switch     1
  pspatm : epsatm=   12.46450977
         --- l  ekb(1:nproj) -->
             0   10.029206    1.044171
             1    7.472414    1.670829
             2    4.142950    0.968140
 pspatm: atomic psp has been read  and splines computed

- pspini: atom type   2  psp file is /scratch/users/j/a/jabreu/pseudos/PBEsol/W.psp8
- pspatm: opening atomic psp file    /scratch/users/j/a/jabreu/pseudos/PBEsol/W.psp8
- W     ONCVPSP-3.3.0  r_core=   1.61105   1.61105   1.61105   2.02088
- 74.00000  14.00000    180112                znucl, zion, pspdat
    8 -116133    3    4       600   0.00000   pspcod,pspxc,lmax,lloc,mmax,r2well
    5.99000000000000    5.00000000000000    0.00000000000000   rchrg,fchrg,qchrg
     nproj     2     2     2     2
     extension_switch     1
  pspatm : epsatm=   11.51367240
         --- l  ekb(1:nproj) -->
             0   13.027742    1.852033
             1    9.109631    1.414397
             2    4.487527    0.514612
             3   47.292176    0.887489
 pspatm: atomic psp has been read  and splines computed

- pspini: atom type   3  psp file is /scratch/users/j/a/jabreu/pseudos/PBEsol/N.psp8
- pspatm: opening atomic psp file    /scratch/users/j/a/jabreu/pseudos/PBEsol/N.psp8
- N     ONCVPSP-3.3.0  r_core=   1.20551   1.35824
-  7.00000   5.00000    180112                znucl, zion, pspdat
    8 -116133    1    4       600   0.00000   pspcod,pspxc,lmax,lloc,mmax,r2well
    5.99000000000000    4.00000000000000    0.00000000000000   rchrg,fchrg,qchrg
     nproj     2     2
     extension_switch     1
  pspatm : epsatm=    5.26508895
         --- l  ekb(1:nproj) -->
             0    7.464189    0.625868
             1   -4.309714   -1.012941
 pspatm: atomic psp has been read  and splines computed

   6.20465805E+03                                ecore*ucvol(ha*bohr**3)

 ==>  initialize data related to q vector <==

 The list of irreducible perturbations for this q vector is:
    1)    idir= 1    ipert=  11
    2)    idir= 2    ipert=  11
    3)    idir= 3    ipert=  11

 Perturbation wavevector (in red.coord.)   0.000000  0.000000  0.000000
 Perturbation : derivative vs k along direction   1

 dfpt_looppert : COMMENT -
  In a d/dk calculation, iscf is set to -3 automatically.
 The set of symmetries contains only one element for this perturbation.
 symkpt : not enough symmetry to change the number of k points.

 Initialisation of the first-order wave-functions :
  ireadwf=   0

--- !BeginCycle
iteration_state: {dtset: 1, }
solver: {iscf: 7, nstep: 2000, nline: 4, wfoptalg: 0, }
tolerances: {tolwfr: 1.00E-20, }
...

     iter   2DEtotal(Ha)        deltaE(Ha) residm    vres2
-ETOT  1  -64.844069741934     -6.484E+01 2.177E-01 0.000E+00
 ETOT  2  -64.990321025677     -1.463E-01 1.392E-01 0.000E+00
 ETOT  3  -64.992610246082     -2.289E-03 8.906E-03 0.000E+00
 ETOT  4  -64.992668351677     -5.811E-05 1.267E-02 0.000E+00
 ETOT  5  -64.992670273617     -1.922E-06 1.236E-03 0.000E+00
 ETOT  6  -64.992670349782     -7.617E-08 1.614E-03 0.000E+00
 ETOT  7  -64.992670353329     -3.547E-09 1.727E-04 0.000E+00
 ETOT  8  -64.992670353518     -1.886E-10 2.168E-04 0.000E+00
 ETOT  9  -64.992670353529     -1.113E-11 2.491E-05 0.000E+00
[...]
  (in case of degenerate eigenvalues, averaged derivative)
 kpt#   1, nband= 48, wtk=  0.50000, kpt=  0.5000  0.0000  0.5000 (reduced coord)
  -0.00000    0.00000   -0.00000   -0.00000   -0.00000    0.00000    0.00000    0.00000
   0.00000   -0.00000    0.00000   -0.00000    0.00000    0.00000   -0.00000   -0.00000
   0.00000   -0.00000   -0.00000   -0.00000    0.00000    0.00000    0.00000    0.00000
  -0.00000    0.00000    0.00000   -0.00000    0.00000   -0.00000   -0.00000   -0.00000
  -0.00000    0.00000   -0.00000    0.00000    0.00000    0.00000    0.00000    0.00000
   0.00000    0.00000   -0.00000    0.00000   -0.00000   -0.00000   -0.00000    0.00199
 prteigrs : prtvol=0 or 1, do not print more k-points.

 Eight components of 2nd-order total energy (hartree) are
 1,2,3: 0th-order hamiltonian combined with 1st-order wavefunctions
     kin0=   1.02550891E+02 eigvalue=  -2.28220304E+00  local=  -5.78614992E+01
 4,5,6: 1st-order hamiltonian combined with 1st and 0th-order wfs
     kin1=  -1.23454516E+02  Hartree=   0.00000000E+00     xc=   0.00000000E+00
 7,8,9: eventually, occupation + non-local contributions
    edocc=   1.47745943E+01     enl0=   7.81088722E+00   enl1=  -6.53082424E+00
 1-9 gives the relaxation energy (to be shifted if some occ is /=2.0)
   erelax=  -6.49926704E+01
  No Ewald or frozen-wf contrib.: the relaxation energy is the total one
 2DEtotal=   -0.6499267035E+02 Ha. Also 2DEtotal=   -0.176854050108E+04 eV
    (  non-var. 2DEtotal :   -6.4992670353E+01 Ha)

 Perturbation wavevector (in red.coord.)   0.000000  0.000000  0.000000
 Perturbation : derivative vs k along direction   2
 The set of symmetries contains only one element for this perturbation.
 symkpt : not enough symmetry to change the number of k points.

[...]

 Perturbation wavevector (in red.coord.)   0.000000  0.000000  0.000000
 Perturbation : derivative vs k along direction   3
 The set of symmetries contains only one element for this perturbation.
 symkpt : not enough symmetry to change the number of k points.

 Initialisation of the first-order wave-functions :
  ireadwf=   0

--- !BeginCycle
iteration_state: {dtset: 1, }
solver: {iscf: 7, nstep: 2000, nline: 4, wfoptalg: 0, }
tolerances: {tolwfr: 1.00E-20, }
...

     iter   2DEtotal(Ha)        deltaE(Ha) residm    vres2
-ETOT  1  -21.633775624429     -2.163E+01 1.164E-01 0.000E+00
 ETOT  2  -21.689270523516     -5.549E-02 6.579E-02 0.000E+00
 ETOT  3  -21.690067530499     -7.970E-04 8.180E-03 0.000E+00
 ETOT  4  -21.690086204208     -1.867E-05 7.929E-03 0.000E+00
 ETOT  5  -21.690086760475     -5.563E-07 9.060E-04 0.000E+00
 ETOT  6  -21.690086779929     -1.945E-08 9.035E-04 0.000E+00
 ETOT  7  -21.690086780684     -7.543E-10 1.219E-04 0.000E+00
 ETOT  8  -21.690086780715     -3.183E-11 9.901E-05 0.000E+00
 ETOT  9  -21.690086780717     -1.418E-12 1.783E-05 0.000E+00
 ETOT 10  -21.690086780717     -1.101E-13 1.327E-05 0.000E+00
 ETOT 11  -21.690086780717      1.421E-14 2.743E-06 0.000E+00
 ETOT 12  -21.690086780717     -2.842E-14 2.025E-06 0.000E+00
 ETOT 13  -21.690086780717      3.908E-14 4.325E-07 0.000E+00
 ETOT 14  -21.690086780717     -1.421E-14 3.164E-07 0.000E+00
 ETOT 15  -21.690086780717      0.000E+00 6.903E-08 0.000E+00
 ETOT 16  -21.690086780717      0.000E+00 5.022E-08 0.000E+00
 ETOT 17  -21.690086780717      0.000E+00 1.110E-08 0.000E+00
 ETOT 18  -21.690086780717      3.553E-15 8.053E-09 0.000E+00
 ETOT 19  -21.690086780717      0.000E+00 1.797E-09 0.000E+00
 ETOT 20  -21.690086780717     -3.553E-15 1.301E-09 0.000E+00
 ETOT 21  -21.690086780717      0.000E+00 2.920E-10 0.000E+00
 ETOT 22  -21.690086780717      0.000E+00 2.113E-10 0.000E+00
 ETOT 23  -21.690086780717      0.000E+00 4.764E-11 0.000E+00
 ETOT 24  -21.690086780717      0.000E+00 3.446E-11 0.000E+00
 ETOT 25  -21.690086780717      0.000E+00 7.794E-12 0.000E+00
 ETOT 26  -21.690086780717      0.000E+00 5.637E-12 0.000E+00
 ETOT 27  -21.690086780717     -3.553E-15 1.278E-12 0.000E+00
 ETOT 28  -21.690086780717      7.105E-15 9.243E-13 0.000E+00
 ETOT 29  -21.690086780717      0.000E+00 2.099E-13 0.000E+00
 ETOT 30  -21.690086780717      0.000E+00 1.518E-13 0.000E+00
 ETOT 31  -21.690086780717     -3.553E-15 3.451E-14 0.000E+00
 ETOT 32  -21.690086780717      3.553E-15 2.496E-14 0.000E+00
 ETOT 33  -21.690086780717      0.000E+00 5.681E-15 0.000E+00
 ETOT 34  -21.690086780717     -3.553E-15 4.109E-15 0.000E+00
 ETOT 35  -21.690086780717      7.105E-15 9.358E-16 0.000E+00
 ETOT 36  -21.690086780717      0.000E+00 6.770E-16 0.000E+00
 ETOT 37  -21.690086780717     -7.105E-15 1.542E-16 0.000E+00
 ETOT 38  -21.690086780717      0.000E+00 1.116E-16 0.000E+00
 ETOT 39  -21.690086780717      0.000E+00 2.543E-17 0.000E+00
 ETOT 40  -21.690086780717      0.000E+00 1.841E-17 0.000E+00
 ETOT 41  -21.690086780717      0.000E+00 4.195E-18 0.000E+00
 ETOT 42  -21.690086780717      3.553E-15 3.037E-18 0.000E+00
 ETOT 43  -21.690086780717     -3.553E-15 6.923E-19 0.000E+00
 ETOT 44  -21.690086780717      0.000E+00 5.014E-19 0.000E+00
 ETOT 45  -21.690086780717      7.105E-15 1.143E-19 0.000E+00
 ETOT 46  -21.690086780717      3.553E-15 8.279E-20 0.000E+00
 ETOT 47  -21.690086780717     -3.553E-15 1.887E-20 0.000E+00
 ETOT 48  -21.690086780717     -7.105E-15 1.368E-20 0.000E+00
 ETOT 49  -21.690086780717      0.000E+00 9.939E-21 0.000E+00

 At SCF step   49   max residual=  9.94E-21 < tolwfr=  1.00E-20 =>converged.

 ----iterations are completed or convergence reached----

 dfpt_looppert: DFPT cycle converged with prtwf=-1. Will skip output of the 1st-order WFK file.
 dfpt_looppert : ek2=    4.1507964978E+01
          f-sum rule ratio=    1.0027970860E+00
 prteigrs : about to open file /scratch/users/j/a/jabreu/flow_simple_10atoms/flow/w292/t1/tmpdata/tmp_1WF1_EIG
 Expectation of eigenvalue derivatives (hartree) for nkpt=   2  k points:
  (in case of degenerate eigenvalues, averaged derivative)
 kpt#   1, nband= 48, wtk=  0.50000, kpt=  0.5000  0.0000  0.5000 (reduced coord)
  -0.00000    0.00000   -0.00000    0.00000    0.00000    0.00000   -0.00000    0.00000
  -0.00000   -0.00000    0.00000    0.00000   -0.00000    0.00000   -0.00000    0.00000
   0.00000    0.00000   -0.00000   -0.00000    0.00000   -0.00000   -0.00000   -0.00000
   0.00000   -0.00000    0.00000   -0.00000    0.00000    0.00000   -0.00000    0.00000
  -0.00000    0.00000    0.00000    0.00000    0.00000   -0.00000   -0.00000    0.00000
  -0.00000    0.00000   -0.00000   -0.00000    0.00000   -0.00000    0.00000   -0.00451
 prteigrs : prtvol=0 or 1, do not print more k-points.

 Eight components of 2nd-order total energy (hartree) are
 1,2,3: 0th-order hamiltonian combined with 1st-order wavefunctions
     kin0=   3.44296879E+01 eigvalue=  -1.10222910E+00  local=  -2.07619390E+01
 4,5,6: 1st-order hamiltonian combined with 1st and 0th-order wfs
     kin1=  -4.16240663E+01  Hartree=   0.00000000E+00     xc=   0.00000000E+00
 7,8,9: eventually, occupation + non-local contributions
    edocc=   6.18549429E+00     enl0=   2.93907267E+00   enl1=  -1.75610723E+00
 1-9 gives the relaxation energy (to be shifted if some occ is /=2.0)
   erelax=  -2.16900868E+01
  No Ewald or frozen-wf contrib.: the relaxation energy is the total one
 2DEtotal=   -0.2169008678E+02 Ha. Also 2DEtotal=   -0.590217277347E+03 eV
    (  non-var. 2DEtotal :   -2.1690086781E+01 Ha)

 CALCULATION OF EFFECTIVE MASSES
 NOTE : Additional infos (eff. mass eigenvalues, eigenvectors and, if degenerate, average mass) are available in stdout.

 K-point ( 0.500, 0.000, 0.500) | band =    39
 Effective mass tensor:
             -2.1992857265              3.1156793992              0.0016442371
              3.1156793992             -6.8561871442              0.3748914705
              0.0016442371              0.3748914705             -2.5559665437
 Effective mass tensor eigenvalues:
             -8.4363879587             -2.5518949636             -0.6231564921
 Angular average effective mass 1/(<1/m>)=  -1.4183504298
 Angular average effective mass for Frohlich model (<m**0.5>)**2=  -1.9094865854
 Effective masses along directions: (cart. coord. / red. coord. -> eff. mass)
    1:   1.000000  0.000000  0.000000 /   0.775400  0.631470  0.000000 ->  -0.7717483483
    2:   0.000000  1.000000  0.000000 /   0.000000  1.000000  0.000000 ->  -2.3866011756
    3:   0.000000  0.000000  1.000000 /   0.207430  0.207430  0.956005 ->  -2.4977017445
    4:   0.577350  0.577350  0.577350 /   0.535087  0.706643  0.462966 ->  -0.8328924022
    5:   0.000000  0.707107  0.707107 /   0.170084  0.597159  0.783883 ->  -2.1207749218
    6:   0.707107  0.000000  0.707107 /   0.636313  0.540373  0.550547 ->  -1.0684119580
    7:   0.707107  0.707107  0.000000 /   0.582695  0.812691  0.000000 ->  -0.6891679207

 K-point ( 0.500, 0.000, 0.000) | band =    40
 Effective mass tensor:
              0.9332537552             -0.2095670255             -0.9131011679
             -0.2095670255              0.9779284008              0.2940114363
             -0.9131011679              0.2940114363              2.3687823823
 Effective mass tensor eigenvalues:
              0.4814369678              0.9193457507              2.8791818197
 Angular average effective mass 1/(<1/m>)=   0.8541737364
 Angular average effective mass for Frohlich model (<m**0.5>)**2=   0.9752442751
 Effective masses along directions: (cart. coord. / red. coord. -> eff. mass)
    1:   1.000000  0.000000  0.000000 /   0.775400  0.631470  0.000000 ->   0.5714410914
    2:   0.000000  1.000000  0.000000 /   0.000000  1.000000  0.000000 ->   0.9255039528
    3:   0.000000  0.000000  1.000000 /   0.207430  0.207430  0.956005 ->   1.4668951536
    4:   0.577350  0.577350  0.577350 /   0.535087  0.706643  0.462966 ->   0.5947264116
    5:   0.000000  0.707107  0.707107 /   0.170084  0.597159  0.783883 ->   1.2255711051
    6:   0.707107  0.000000  0.707107 /   0.636313  0.540373  0.550547 ->   0.5352755003
    7:   0.707107  0.707107  0.000000 /   0.582695  0.812691  0.000000 ->   0.6273099981

 END OF EFFECTIVE MASSES SECTION

 ---- first-order wavefunction calculations are completed ----

 Total localisation tensor (bohr^2) in cartesian coordinates
  WARNING : still subject to testing - especially symmetries.
      direction              matrix element
   alpha     beta       real part   imaginary part
     1        1       3.9525256590    0.0000000000
     1        2       1.0638910812    0.0000000000
     1        3       0.9921492777    0.0000000000
     2        1       1.0638910812    0.0000000000
     2        2       0.7581368024    0.0000000000
     2        3       0.3019294113    0.0000000000
     3        1       0.9921492777    0.0000000000
     3        2       0.3019294113    0.0000000000
     3        3       1.3251119046    0.0000000000

 respfn : d/dk was computed, but no 2DTE, so no DDB output.

== END DATASET(S) ==============================================================

 -outvars: echo values of variables after computation  --------
            acell      1.0000000000E+00  1.0000000000E+00  1.0000000000E+00 Bohr
              amu      8.76200000E+01  1.83850000E+02  1.40067400E+01
             ecut      4.20000000E+01 Hartree
           etotal     -2.1690086781E+01
            fcart      0.0000000000E+00  0.0000000000E+00  0.0000000000E+00
                       0.0000000000E+00  0.0000000000E+00  0.0000000000E+00
                       0.0000000000E+00  0.0000000000E+00  0.0000000000E+00
                       0.0000000000E+00  0.0000000000E+00  0.0000000000E+00
                       0.0000000000E+00  0.0000000000E+00  0.0000000000E+00
                       0.0000000000E+00  0.0000000000E+00  0.0000000000E+00
                       0.0000000000E+00  0.0000000000E+00  0.0000000000E+00
                       0.0000000000E+00  0.0000000000E+00  0.0000000000E+00
                       0.0000000000E+00  0.0000000000E+00  0.0000000000E+00
                       0.0000000000E+00  0.0000000000E+00  0.0000000000E+00
-          fftalg         512
           irdden           1
           irdwfk           1
           istwfk        1    1
              ixc     -116133
              kpt      5.00000000E-01  0.00000000E+00  5.00000000E-01
                       5.00000000E-01  0.00000000E+00  0.00000000E+00
           kptopt           0
P           mkmem           2
P          mkqmem           2
P          mk1mem           2
            natom          10
            nband          48
           nbdbuf           4
            ngfft          72      72      75
             nkpt           2
            nstep        2000
             nsym           4
           ntypat           3
              occ      2.000000  2.000000  2.000000  2.000000  2.000000  2.000000
                       2.000000  2.000000  2.000000  2.000000  2.000000  2.000000
                       2.000000  2.000000  2.000000  2.000000  2.000000  2.000000
                       2.000000  2.000000  2.000000  2.000000  2.000000  2.000000
                       2.000000  2.000000  2.000000  2.000000  2.000000  2.000000
                       2.000000  2.000000  2.000000  2.000000  2.000000  2.000000
                       2.000000  2.000000  2.000000  0.000000  0.000000  0.000000
                       0.000000  0.000000  0.000000  0.000000  0.000000  0.000000
        optdriver           1
            prtwf          -1
            rfdir           1       1       1
           rfelfd           2
            rprim      1.1767278821E+01  0.0000000000E+00  2.7196377351E+00
                       9.5830290846E+00  6.8289387473E+00  2.7196377351E+00
                       0.0000000000E+00  0.0000000000E+00  1.2534295645E+01
          spgroup          12
           strten      0.0000000000E+00  0.0000000000E+00  0.0000000000E+00
                       0.0000000000E+00  0.0000000000E+00  0.0000000000E+00
           symrel      1  0  0   0  1  0   0  0  1      -1  0  0   0 -1  0   0  0 -1
                       0 -1  0  -1  0  0   0  0 -1       0  1  0   1  0  0   0  0  1
           tolwfr      1.00000000E-20
            typat      1  1  2  2  3  3  3  3  3  3
           useylm           1
              wtk        0.50000    0.50000
           xangst      6.9859406118E+00  2.2344670972E+00  6.1841420776E+00
                       4.3121557282E+00  1.3792516467E+00  3.3270621135E+00
                       9.5826724784E+00  3.0650369859E+00  8.2070363138E+00
                       1.7154238616E+00  5.4868175805E-01  1.3041678772E+00
                       9.5454452510E+00  3.0531297826E+00  6.4292838137E+00
                       1.1258564301E+01  3.6010743420E+00  3.5807648693E+00
                       3.9532039094E-02  1.2644401885E-02  5.9304393218E+00
                       7.6733054951E+00  2.4543221319E+00  2.1130242018E+00
                       3.6247908450E+00  1.1593966121E+00  7.3981799893E+00
                       1.7526510890E+00  5.6058896131E-01  3.0819203773E+00
            xcart      1.3201514537E+01  4.2225308667E+00  1.1686334894E+01
                       8.1487933686E+00  2.6064078806E+00  6.2872362216E+00
                       1.8108626605E+01  5.7920804905E+00  1.5509050996E+01
                       3.2416813002E+00  1.0368582568E+00  2.4645201193E+00
                       1.8038277341E+01  5.7695791373E+00  1.2149585639E+01
                       2.1275603178E+01  6.8050442906E+00  6.7666649492E+00
                       7.4704727362E-02  2.3894456677E-02  1.1206906166E+01
                       1.4500445920E+01  4.6379966711E+00  3.9930370536E+00
                       6.8498619860E+00  2.1909420762E+00  1.3980534061E+01
                       3.3120305648E+00  1.0593596100E+00  5.8239854765E+00
             xred      6.1832900000E-01  6.1832900000E-01  6.6402400000E-01
                       3.8167100000E-01  3.8167100000E-01  3.3597600000E-01
                       8.4816700000E-01  8.4816700000E-01  8.6926600000E-01
                       1.5183300000E-01  1.5183300000E-01  1.3073400000E-01
                       8.4487200000E-01  8.4487200000E-01  6.0267400000E-01
                       9.9650100000E-01  9.9650100000E-01  1.0741900000E-01
                       3.4990000000E-03  3.4990000000E-03  8.9258100000E-01
                       6.7916800000E-01  6.7916800000E-01  2.3843000000E-02
                       3.2083200000E-01  3.2083200000E-01  9.7615700000E-01
                       1.5512800000E-01  1.5512800000E-01  3.9732600000E-01
            znucl       38.00000   74.00000    7.00000

- Timing analysis has been suppressed with timopt=0

 Suggested references for the acknowledgment of ABINIT usage.

 Calculation completed.
.Delivered   2 WARNINGs and   5 COMMENTs to log file.