.Version 9.5.1 of ABINIT

 ABINIT is a project of the Universite Catholique de Louvain,
 Corning Inc. and other collaborators, see ~abinit/doc/developers/contributors.txt .
 acknowledgments of the ABINIT effort.

.Starting date : Tue 27 Apr 2021.
- ( at 15h40 )

- input  file    -> /scratch/users/j/a/jabreu/flow_simple/flow/w166/t1/run.abi
- output file    -> /scratch/users/j/a/jabreu/flow_simple/flow/w166/t1/run.abo
- root for input  files -> /scratch/users/j/a/jabreu/flow_simple/flow/w166/t1/indata/in
- root for output files -> /scratch/users/j/a/jabreu/flow_simple/flow/w166/t1/outdata/out

 Symmetries : space group F-4 3 m (#216); Bravais cF (face-center cubic)
     intxc =       0      iscf =       7    lmnmax =      18     lnmax =       6
     mgfft =      50  mpssoang =       3    mqgrid =    3001     natom =       3
  nloc_mem =       1    nspden =       1   nspinor =       1    nsppol =       1
      nsym =      24    n1xccc =    2501    ntypat =       3    occopt =       1
   xclevel =       2
-    mband =          31        mffmem =           1         mkmem =           2
-   mkqmem =           2        mk1mem =           2           mpw =        5346
      nfft =      125000          nkpt =           2
  Rough estimation (10% accuracy) of disk space for files :

------------- Echo of variables that govern the present computation ------------
-
- outvars: echo of selected default values
-   iomode0 =  0 , fftalg0 =512 , wfoptalg0 =  0
-
- outvars: echo of global parameters not present in the input file
-  max_nthreads =    0
-
 -outvars: echo values of preprocessed input variables --------
            acell      1.0000000000E+00  1.0000000000E+00  1.0000000000E+00 Bohr
              amu      9.29063800E+01  5.58470000E+01  1.21753000E+02
             ecut      4.70000000E+01 Hartree
-          fftalg         512
           irdden           1
           irdwfk           1
           istwfk        1    1
              ixc     -116133
              kpt      5.00000000E-01  5.00000000E-01  5.00000000E-01
                       5.00000000E-01  1.23259516E-32  5.00000000E-01
           kptopt           0
P           mkmem           2
P          mkqmem           2
P          mk1mem           2
            natom           3
            nband          31
           nbdbuf           4
            ngfft          50      50      50
             nkpt           2
            nstep         100
             nsym          24
           ntypat           3
              occ      2.000000  2.000000  2.000000  2.000000  2.000000  2.000000
                       2.000000  2.000000  2.000000  2.000000  2.000000  2.000000
                       2.000000  2.000000  2.000000  2.000000  2.000000  2.000000
                       2.000000  2.000000  2.000000  2.000000  0.000000  0.000000
                       0.000000  0.000000  0.000000  0.000000  0.000000  0.000000
                       0.000000
        optdriver           1
            prtwf          -1
            rfdir           1       1       1
           rfelfd           2
            rprim      6.8182716641E+00  0.0000000000E+00  3.9365309807E+00
                       2.2727572214E+00  6.4283281729E+00  3.9365309807E+00
                       0.0000000000E+00  0.0000000000E+00  7.8730619614E+00
          spgroup         216
           symrel      1  0  0   0  1  0   0  0  1       0 -1  1   0 -1  0   1 -1  0
                      -1  0  0  -1  0  1  -1  1  0       0  1 -1   1  0 -1   0  0 -1
                      -1  0  0  -1  1  0  -1  0  1       0 -1  1   1 -1  0   0 -1  0
                       1  0  0   0  0  1   0  1  0       0  1 -1   0  0 -1   1  0 -1
                      -1  0  1  -1  1  0  -1  0  0       0 -1  0   1 -1  0   0 -1  1
                       1  0 -1   0  0 -1   0  1 -1       0  1  0   0  0  1   1  0  0
                       1  0 -1   0  1 -1   0  0 -1       0 -1  0   0 -1  1   1 -1  0
                      -1  0  1  -1  0  0  -1  1  0       0  1  0   1  0  0   0  0  1
                       0  0 -1   0  1 -1   1  0 -1       1 -1  0   0 -1  1   0 -1  0
                       0  0  1   1  0  0   0  1  0      -1  1  0  -1  0  0  -1  0  1
                       0  0  1   0  1  0   1  0  0       1 -1  0   0 -1  0   0 -1  1
                       0  0 -1   1  0 -1   0  1 -1      -1  1  0  -1  0  1  -1  0  0
           tolwfr      1.00000000E-20
            typat      1  2  3
           useylm           1
              wtk        0.50000    0.50000
           xangst      0.0000000000E+00  0.0000000000E+00  0.0000000000E+00
                       1.2026913222E+00  8.5043118961E-01  2.0831224759E+00
                       2.4053826444E+00  1.7008623792E+00  4.1662449518E+00
            xcart      0.0000000000E+00  0.0000000000E+00  0.0000000000E+00
                       2.2727572214E+00  1.6070820432E+00  3.9365309807E+00
                       4.5455144427E+00  3.2141640864E+00  7.8730619614E+00
             xred      0.0000000000E+00  0.0000000000E+00  0.0000000000E+00
                       2.5000000000E-01  2.5000000000E-01  2.5000000000E-01
                       5.0000000000E-01  5.0000000000E-01  5.0000000000E-01
            znucl       41.00000   26.00000   51.00000

 chkinp: Checking input parameters for consistency.

== DATASET  1 ==================================================================
-   mpi_nproc: 1, omp_nthreads: -1 (-1 if OMP is not activated)

--- !DatasetInfo
iteration_state: {dtset: 1, }
dimensions: {natom: 3, nkpt: 2, mband: 31, nsppol: 1, nspinor: 1, nspden: 1, mpw: 5346, }
cutoff_energies: {ecut:  47.0, pawecutdg:  -1.0, }
electrons: {nelect:   4.40000000E+01, charge:   0.00000000E+00, occopt:   1.00000000E+00, tsmear:   1.00000000E-02, }
meta: {optdriver: 1, rfelfd: 2, }
...

 Real(R)+Recip(G) space primitive vectors, cartesian coordinates (Bohr,Bohr^-1):
 R(1)=  6.8182717  0.0000000  3.9365310  G(1)=  0.1466647 -0.0518538  0.0000000
 R(2)=  2.2727572  6.4283282  3.9365310  G(2)=  0.0000000  0.1555614  0.0000000
 R(3)=  0.0000000  0.0000000  7.8730620  G(3)= -0.0733324 -0.0518538  0.1270154
 Unit cell volume ucvol=  3.4507700E+02 bohr^3
 Angles (23,13,12)=  6.00000000E+01  6.00000000E+01  6.00000000E+01 degrees

 getcut: wavevector=  0.0000  0.0000  0.0000  ngfft=  50  50  50
         ecut(hartree)=     47.000   => boxcut(ratio)=   2.05867

--- Pseudopotential description ------------------------------------------------
- pspini: atom type   1  psp file is /scratch/users/j/a/jabreu/pseudos/PBEsol/Nb.psp8
- pspatm: opening atomic psp file    /scratch/users/j/a/jabreu/pseudos/PBEsol/Nb.psp8
- Nb    ONCVPSP-3.3.0  r_core=   1.50879   1.40458   1.40458
- 41.00000  13.00000    180112                znucl, zion, pspdat
    8 -116133    2    4       600   0.00000   pspcod,pspxc,lmax,lloc,mmax,r2well
    5.99000000000000    5.00000000000000    0.00000000000000   rchrg,fchrg,qchrg
     nproj     2     2     2
     extension_switch     1
  pspatm : epsatm=   15.66753381
         --- l  ekb(1:nproj) -->
             0   12.953547    1.345168
             1    7.772306    0.779703
             2    3.518917    1.091480
 pspatm: atomic psp has been read  and splines computed

- pspini: atom type   2  psp file is /scratch/users/j/a/jabreu/pseudos/PBEsol/Fe.psp8
- pspatm: opening atomic psp file    /scratch/users/j/a/jabreu/pseudos/PBEsol/Fe.psp8
- Fe    ONCVPSP-3.3.0  r_core=   1.26437   1.20546   1.56719
- 26.00000  16.00000    180112                znucl, zion, pspdat
    8 -116133    2    4       600   0.00000   pspcod,pspxc,lmax,lloc,mmax,r2well
    5.99000000000000    3.00000000000000    0.00000000000000   rchrg,fchrg,qchrg
     nproj     2     2     2
     extension_switch     1
  pspatm : epsatm=   15.04792780
         --- l  ekb(1:nproj) -->
             0   10.133364    1.456638
             1    1.580231   -0.508538
             2   -5.545701   -2.037616
 pspatm: atomic psp has been read  and splines computed

- pspini: atom type   3  psp file is /scratch/users/j/a/jabreu/pseudos/PBEsol/Sb.psp8
- pspatm: opening atomic psp file    /scratch/users/j/a/jabreu/pseudos/PBEsol/Sb.psp8
- Sb    ONCVPSP-3.3.0  r_core=   1.81962   2.12485   1.81962
- 51.00000  15.00000    180112                znucl, zion, pspdat
    8 -116133    2    4       600   0.00000   pspcod,pspxc,lmax,lloc,mmax,r2well
    5.99000000000000    5.00000000000000    0.00000000000000   rchrg,fchrg,qchrg
     nproj     2     2     2
     extension_switch     1
  pspatm : epsatm=   26.35641246
         --- l  ekb(1:nproj) -->
             0    9.727814    1.485032
             1    5.505335    0.704623
             2   -4.710637   -1.436443
 pspatm: atomic psp has been read  and splines computed

   2.51116246E+03                                ecore*ucvol(ha*bohr**3)

-inwffil : will read wavefunctions from disk file /scratch/users/j/a/jabreu/flow_simple/flow/w166/t1/indata/in_WFK

 ==>  initialize data related to q vector <==

 The list of irreducible perturbations for this q vector is:
    1)    idir= 1    ipert=   4
    2)    idir= 2    ipert=   4
    3)    idir= 3    ipert=   4

 Perturbation wavevector (in red.coord.)   0.000000  0.000000  0.000000
 Perturbation : derivative vs k along direction   1

 dfpt_looppert : COMMENT -
  In a d/dk calculation, iscf is set to -3 automatically.
 The set of symmetries contains only one element for this perturbation.
 symkpt : not enough symmetry to change the number of k points.

[...]

 Initialisation of the first-order wave-functions :
  ireadwf=   0

--- !BeginCycle
iteration_state: {dtset: 1, }
solver: {iscf: 7, nstep: 100, nline: 4, wfoptalg: 0, }
tolerances: {tolwfr: 1.00E-20, }
...

     iter   2DEtotal(Ha)        deltaE(Ha) residm    vres2
-ETOT  1  -61.900587608400     -6.190E+01 1.363E-01 0.000E+00
 ETOT  2  -61.970013001508     -6.943E-02 5.703E-03 0.000E+00
 ETOT  3  -61.970636079075     -6.231E-04 2.024E-04 0.000E+00
 ETOT  4  -61.970649955557     -1.388E-05 1.122E-05 0.000E+00
 ETOT  5  -61.970650353377     -3.978E-07 5.110E-07 0.000E+00
 ETOT  6  -61.970650366202     -1.283E-08 3.362E-08 0.000E+00
 ETOT  7  -61.970650366650     -4.479E-10 1.609E-09 0.000E+00
 ETOT  8  -61.970650366667     -1.639E-11 1.090E-10 0.000E+00
 ETOT  9  -61.970650366667     -6.040E-13 5.321E-12 0.000E+00
 ETOT 10  -61.970650366667     -1.421E-14 3.640E-13 0.000E+00
 ETOT 11  -61.970650366667     -4.974E-14 1.797E-14 0.000E+00
 ETOT 12  -61.970650366667      4.263E-14 1.235E-15 0.000E+00
 ETOT 13  -61.970650366667      1.421E-14 6.139E-17 0.000E+00
 ETOT 14  -61.970650366667      7.105E-15 4.229E-18 0.000E+00
 ETOT 15  -61.970650366667     -2.132E-14 2.115E-19 0.000E+00
 ETOT 16  -61.970650366667      1.421E-14 1.459E-20 0.000E+00
 ETOT 17  -61.970650366667     -1.421E-14 9.833E-21 0.000E+00

 At SCF step   17   max residual=  9.83E-21 < tolwfr=  1.00E-20 =>converged.

 ----iterations are completed or convergence reached----

 dfpt_looppert: DFPT cycle converged with prtwf=-1. Will skip output of the 1st-order WFK file.
 dfpt_looppert : ek2=    8.4071022441E+01
          f-sum rule ratio=    1.0769458384E+00
 prteigrs : about to open file /scratch/users/j/a/jabreu/flow_simple/flow/w166/t1/tmpdata/tmp_1WF1_EIG
 Expectation of eigenvalue derivatives (hartree) for nkpt=   2  k points:
  (in case of degenerate eigenvalues, averaged derivative)
 kpt#   1, nband= 31, wtk=  0.50000, kpt=  0.5000  0.5000  0.5000 (reduced coord)
  -0.00000   -0.00000    0.00000    0.00000   -0.00000    0.00000    0.00000    0.00000
  -0.00000   -0.00000   -0.00000    0.00000    0.00000    0.00000   -0.00000    0.00000
   0.00000    0.00000    0.00000    0.00000    0.00000    0.00000   -0.00000   -0.00000
  -0.00000    0.00000    0.00000    0.00000   -0.00000   -0.00000   -0.00003
 prteigrs : prtvol=0 or 1, do not print more k-points.

 Eight components of 2nd-order total energy (hartree) are
 1,2,3: 0th-order hamiltonian combined with 1st-order wavefunctions
     kin0=   6.14530020E+01 eigvalue=   1.33976882E+00  local=  -2.91790736E+01
 4,5,6: 1st-order hamiltonian combined with 1st and 0th-order wfs
     kin1=  -9.05399377E+01  Hartree=   0.00000000E+00     xc=   0.00000000E+00
 7,8,9: eventually, occupation + non-local contributions
    edocc=   2.09401534E+01     enl0=   7.41679972E+00   enl1=  -3.34013630E+01
 1-9 gives the relaxation energy (to be shifted if some occ is /=2.0)
   erelax=  -6.19706504E+01
  No Ewald or frozen-wf contrib.: the relaxation energy is the total one
 2DEtotal=   -0.6197065037E+02 Ha. Also 2DEtotal=   -0.168630715518E+04 eV
    (  non-var. 2DEtotal :   -6.1970650367E+01 Ha)

 Perturbation wavevector (in red.coord.)   0.000000  0.000000  0.000000
 Perturbation : derivative vs k along direction   2
 The set of symmetries contains only one element for this perturbation.
 symkpt : not enough symmetry to change the number of k points.

[...]

 Perturbation wavevector (in red.coord.)   0.000000  0.000000  0.000000
 Perturbation : derivative vs k along direction   3
 The set of symmetries contains only one element for this perturbation.
 symkpt : not enough symmetry to change the number of k points.

-inwffil : will read wavefunctions from disk file /scratch/users/j/a/jabreu/flow_simple/flow/w166/t1/indata/in_WFK

 Initialisation of the first-order wave-functions :
  ireadwf=   0

--- !BeginCycle
iteration_state: {dtset: 1, }
solver: {iscf: 7, nstep: 100, nline: 4, wfoptalg: 0, }
tolerances: {tolwfr: 1.00E-20, }
...

     iter   2DEtotal(Ha)        deltaE(Ha) residm    vres2
-ETOT  1  -61.900909169242     -6.190E+01 1.751E-01 0.000E+00
 ETOT  2  -61.969976784497     -6.907E-02 6.649E-03 0.000E+00
 ETOT  3  -61.970597196294     -6.204E-04 2.851E-04 0.000E+00
 ETOT  4  -61.970611025403     -1.383E-05 1.606E-05 0.000E+00
 ETOT  5  -61.970611422038     -3.966E-07 7.894E-07 0.000E+00
 ETOT  6  -61.970611434833     -1.279E-08 4.772E-08 0.000E+00
 ETOT  7  -61.970611435280     -4.472E-10 2.490E-09 0.000E+00
 ETOT  8  -61.970611435296     -1.633E-11 1.499E-10 0.000E+00
 ETOT  9  -61.970611435297     -6.466E-13 8.161E-12 0.000E+00
 ETOT 10  -61.970611435297     -3.553E-14 4.870E-13 0.000E+00
 ETOT 11  -61.970611435297      0.000E+00 2.740E-14 0.000E+00
 ETOT 12  -61.970611435297      1.421E-14 1.619E-15 0.000E+00
 ETOT 13  -61.970611435297      0.000E+00 9.358E-17 0.000E+00
 ETOT 14  -61.970611435297     -1.421E-14 5.475E-18 0.000E+00
 ETOT 15  -61.970611435297     -1.421E-14 3.237E-19 0.000E+00
 ETOT 16  -61.970611435297      7.105E-15 1.876E-20 0.000E+00
 ETOT 17  -61.970611435297      7.105E-15 9.833E-21 0.000E+00

 At SCF step   17   max residual=  9.83E-21 < tolwfr=  1.00E-20 =>converged.

 ----iterations are completed or convergence reached----

 dfpt_looppert: DFPT cycle converged with prtwf=-1. Will skip output of the 1st-order WFK file.
 dfpt_looppert : ek2=    8.4071022440E+01
          f-sum rule ratio=    1.0769456618E+00
 prteigrs : about to open file /scratch/users/j/a/jabreu/flow_simple/flow/w166/t1/tmpdata/tmp_1WF1_EIG
 Expectation of eigenvalue derivatives (hartree) for nkpt=   2  k points:
  (in case of degenerate eigenvalues, averaged derivative)
 kpt#   1, nband= 31, wtk=  0.50000, kpt=  0.5000  0.5000  0.5000 (reduced coord)
   0.00000   -0.00000    0.00000    0.00000    0.00000   -0.00000    0.00000    0.00000
   0.00000    0.00000    0.00000    0.00000    0.00000    0.00000    0.00000    0.00000
   0.00000   -0.00000   -0.00000    0.00000   -0.00000   -0.00000    0.00000    0.00000
   0.00000    0.00000   -0.00000   -0.00000   -0.00000   -0.00000   -0.00047
 prteigrs : prtvol=0 or 1, do not print more k-points.

 Eight components of 2nd-order total energy (hartree) are
 1,2,3: 0th-order hamiltonian combined with 1st-order wavefunctions
     kin0=   6.14504496E+01 eigvalue=   1.33977455E+00  local=  -2.91775491E+01
 4,5,6: 1st-order hamiltonian combined with 1st and 0th-order wfs
     kin1=  -9.05399229E+01  Hartree=   0.00000000E+00     xc=   0.00000000E+00
 7,8,9: eventually, occupation + non-local contributions
    edocc=   2.09413946E+01     enl0=   7.41654180E+00   enl1=  -3.34013000E+01
 1-9 gives the relaxation energy (to be shifted if some occ is /=2.0)
   erelax=  -6.19706114E+01
  No Ewald or frozen-wf contrib.: the relaxation energy is the total one
 2DEtotal=   -0.6197061144E+02 Ha. Also 2DEtotal=   -0.168630609580E+04 eV
    (  non-var. 2DEtotal :   -6.1970611435E+01 Ha)

 CALCULATION OF EFFECTIVE MASSES
 NOTE : Additional infos (eff. mass eigenvalues, eigenvectors and, if degenerate, average mass) are available in stdout.

 COMMENTS:
 - At k-point ( 0.500, 0.500, 0.500), bands    21 through    22
   are DEGENERATE (effective mass tensor is therefore not defined).
   See Section IIIB Eqs. (67)-(70) and Appendix E of PRB 93 205147 (2016).
 - Angular average effective mass for Frohlich model is to be averaged over degenerate bands. See later.
 - Associated theta integrals calculated with ntheta=   1000 points.

 K-point ( 0.500, 0.500, 0.500) | band =    21
 Transport equivalent effective mass tensor:
             -0.8415951512              0.0408096121              0.0999422512
              0.0408096121             -0.8704641296              0.0706705511
              0.0999422512              0.0706705511             -0.7261889213
 Transport equivalent effective mass tensor eigenvalues:
             -0.8993179182             -0.8992939352             -0.6396363487
 Angular average effective mass 1/(<1/m>)=  -0.7441553436
 Angular average effective mass for Frohlich model (<m**0.5>)**2=  -0.7514478279
 Effective masses along directions: (cart. coord. / red. coord. -> eff. mass)
    1:   1.000000  0.000000  0.000000 /   0.948683  0.316228  0.000000 ->  -0.7043644514
    2:   0.000000  1.000000  0.000000 /   0.000000  1.000000  0.000000 ->  -0.7331596371
    3:   0.000000  0.000000  1.000000 /   0.408248  0.408248  0.816497 ->  -0.6450925098
    4:   0.577350  0.577350  0.577350 /   0.585539  0.688047  0.428644 ->  -0.6895052210
    5:   0.000000  0.707107  0.707107 /   0.289489  0.762222  0.578977 ->  -0.6675533672
    6:   0.707107  0.000000  0.707107 /   0.731423  0.422287  0.535439 ->  -0.6718949583
    7:   0.707107  0.707107  0.000000 /   0.616798  0.787122  0.000000 ->  -0.7327143419

 K-point ( 0.500, 0.500, 0.500) | band =    22
 Transport equivalent effective mass tensor:
             -1.4666203335              0.0327062702              0.0800735512
              0.0327062702             -1.4897498027              0.0566197515
              0.0800735512              0.0566197515             -1.3741856269
 Transport equivalent effective mass tensor eigenvalues:
             -1.5128757642             -1.5128519901             -1.3048280088
 Angular average effective mass 1/(<1/m>)=  -1.2325137721
 Angular average effective mass for Frohlich model (<m**0.5>)**2=  -1.2468520048
 Effective masses along directions: (cart. coord. / red. coord. -> eff. mass)
    1:   1.000000  0.000000  0.000000 /   0.948683  0.316228  0.000000 ->  -1.4664678665
    2:   0.000000  1.000000  0.000000 /   0.000000  1.000000  0.000000 ->  -1.4617747908
    3:   0.000000  0.000000  1.000000 /   0.408248  0.408248  0.816497 ->  -1.3061456201
    4:   0.577350  0.577350  0.577350 /   0.585539  0.688047  0.428644 ->  -1.0347708001
    5:   0.000000  0.707107  0.707107 /   0.289489  0.762222  0.578977 ->  -1.2269181369
    6:   0.707107  0.000000  0.707107 /   0.731423  0.422287  0.535439 ->  -1.1039506250
    7:   0.707107  0.707107  0.000000 /   0.616798  0.787122  0.000000 ->  -1.2726034048

 Angular average effective mass for Frohlich model, averaged over degenerate bands.
 Value of     (<<m**0.5>>)**2 =     9.835544E-01
 Absolute Value of <<m**0.5>> =     9.917431E-01

 K-point ( 0.500, 0.000, 0.500) | band =    23
 Effective mass tensor:
              0.2945972777             -0.0624410168              0.0764728036
             -0.0624410168              0.3387472336             -0.1081521329
              0.0764728036             -0.1081521329              0.3829012856
 Effective mass tensor eigenvalues:
              0.2504415415              0.2504459036              0.5153583517
 Angular average effective mass 1/(<1/m>)=   0.3022297476
 Angular average effective mass for Frohlich model (<m**0.5>)**2=   0.3113758389
 Effective masses along directions: (cart. coord. / red. coord. -> eff. mass)
    1:   1.000000  0.000000  0.000000 /   0.948683  0.316228  0.000000 ->   0.2739121502
    2:   0.000000  1.000000  0.000000 /   0.000000  1.000000  0.000000 ->   0.3022277001
    3:   0.000000  0.000000  1.000000 /   0.408248  0.408248  0.816497 ->   0.3370800556
    4:   0.577350  0.577350  0.577350 /   0.585539  0.688047  0.428644 ->   0.2635110283
    5:   0.000000  0.707107  0.707107 /   0.289489  0.762222  0.578977 ->   0.2515304224
    6:   0.707107  0.000000  0.707107 /   0.731423  0.422287  0.535439 ->   0.3681558861
    7:   0.707107  0.707107  0.000000 /   0.616798  0.787122  0.000000 ->   0.2522977917

 END OF EFFECTIVE MASSES SECTION

 ---- first-order wavefunction calculations are completed ----

 Total localisation tensor (bohr^2) in cartesian coordinates
  WARNING : still subject to testing - especially symmetries.
      direction              matrix element
   alpha     beta       real part   imaginary part
     1        1       1.9174367746    0.0000000000
     1        2       0.5423319113    0.0000000000
     1        3       1.3284387136    0.0000000000
     2        1       0.5423319113    0.0000000000
     2        2       1.5339462885    0.0000000000
     2        3       0.9393464249    0.0000000000
     3        1       1.3284387136    0.0000000000
     3        2       0.9393464249    0.0000000000
     3        3       3.4513852033    0.0000000000

 respfn : d/dk was computed, but no 2DTE, so no DDB output.

== END DATASET(S) ==============================================================

 -outvars: echo values of variables after computation  --------
            acell      1.0000000000E+00  1.0000000000E+00  1.0000000000E+00 Bohr
              amu      9.29063800E+01  5.58470000E+01  1.21753000E+02
             ecut      4.70000000E+01 Hartree
           etotal     -6.1970611435E+01
            fcart      0.0000000000E+00  0.0000000000E+00  0.0000000000E+00
                       0.0000000000E+00  0.0000000000E+00  0.0000000000E+00
                       0.0000000000E+00  0.0000000000E+00  0.0000000000E+00
-          fftalg         512
           irdden           1
           irdwfk           1
           istwfk        1    1
              ixc     -116133
              kpt      5.00000000E-01  5.00000000E-01  5.00000000E-01
                       5.00000000E-01  1.23259516E-32  5.00000000E-01
           kptopt           0
P           mkmem           2
P          mkqmem           2
P          mk1mem           2
            natom           3
            nband          31
           nbdbuf           4
            ngfft          50      50      50
             nkpt           2
            nstep         100
             nsym          24
           ntypat           3
              occ      2.000000  2.000000  2.000000  2.000000  2.000000  2.000000
                       2.000000  2.000000  2.000000  2.000000  2.000000  2.000000
                       2.000000  2.000000  2.000000  2.000000  2.000000  2.000000
                       2.000000  2.000000  2.000000  2.000000  0.000000  0.000000
                       0.000000  0.000000  0.000000  0.000000  0.000000  0.000000
                       0.000000
        optdriver           1
            prtwf          -1
            rfdir           1       1       1
           rfelfd           2
            rprim      6.8182716641E+00  0.0000000000E+00  3.9365309807E+00
                       2.2727572214E+00  6.4283281729E+00  3.9365309807E+00
                       0.0000000000E+00  0.0000000000E+00  7.8730619614E+00
          spgroup         216
           strten      0.0000000000E+00  0.0000000000E+00  0.0000000000E+00
                       0.0000000000E+00  0.0000000000E+00  0.0000000000E+00
           symrel      1  0  0   0  1  0   0  0  1       0 -1  1   0 -1  0   1 -1  0
                      -1  0  0  -1  0  1  -1  1  0       0  1 -1   1  0 -1   0  0 -1
                      -1  0  0  -1  1  0  -1  0  1       0 -1  1   1 -1  0   0 -1  0
                       1  0  0   0  0  1   0  1  0       0  1 -1   0  0 -1   1  0 -1
                      -1  0  1  -1  1  0  -1  0  0       0 -1  0   1 -1  0   0 -1  1
                       1  0 -1   0  0 -1   0  1 -1       0  1  0   0  0  1   1  0  0
                       1  0 -1   0  1 -1   0  0 -1       0 -1  0   0 -1  1   1 -1  0
                      -1  0  1  -1  0  0  -1  1  0       0  1  0   1  0  0   0  0  1
                       0  0 -1   0  1 -1   1  0 -1       1 -1  0   0 -1  1   0 -1  0
                       0  0  1   1  0  0   0  1  0      -1  1  0  -1  0  0  -1  0  1
                       0  0  1   0  1  0   1  0  0       1 -1  0   0 -1  0   0 -1  1
                       0  0 -1   1  0 -1   0  1 -1      -1  1  0  -1  0  1  -1  0  0
           tolwfr      1.00000000E-20
            typat      1  2  3
           useylm           1
              wtk        0.50000    0.50000
           xangst      0.0000000000E+00  0.0000000000E+00  0.0000000000E+00
                       1.2026913222E+00  8.5043118961E-01  2.0831224759E+00
                       2.4053826444E+00  1.7008623792E+00  4.1662449518E+00
            xcart      0.0000000000E+00  0.0000000000E+00  0.0000000000E+00
                       2.2727572214E+00  1.6070820432E+00  3.9365309807E+00
                       4.5455144427E+00  3.2141640864E+00  7.8730619614E+00
             xred      0.0000000000E+00  0.0000000000E+00  0.0000000000E+00
                       2.5000000000E-01  2.5000000000E-01  2.5000000000E-01
                       5.0000000000E-01  5.0000000000E-01  5.0000000000E-01
            znucl       41.00000   26.00000   51.00000

- Timing analysis has been suppressed with timopt=0

 Suggested references for the acknowledgment of ABINIT usage.

 Calculation completed.
.Delivered  14 WARNINGs and   9 COMMENTs to log file.