.Version 9.5.1 of ABINIT

 ABINIT is a project of the Universite Catholique de Louvain,
 Corning Inc. and other collaborators, see ~abinit/doc/developers/contributors.txt .
 acknowledgments of the ABINIT effort.

.Starting date : Fri  7 May 2021.
- ( at 11h47 )

- input  file    -> /scratch/users/j/a/jabreu/flow_simple_7atoms/flow/w122/t1/run.abi
- output file    -> /scratch/users/j/a/jabreu/flow_simple_7atoms/flow/w122/t1/run.abo
- root for input  files -> /scratch/users/j/a/jabreu/flow_simple_7atoms/flow/w122/t1/indata/in
- root for output files -> /scratch/users/j/a/jabreu/flow_simple_7atoms/flow/w122/t1/outdata/out

 Symmetries : space group R-3 m (#166); Bravais hR (rhombohedral)
     intxc =       0      iscf =       7    lmnmax =      18     lnmax =       6
     mgfft =     108  mpssoang =       3    mqgrid =    3001     natom =       7
  nloc_mem =       1    nspden =       1   nspinor =       1    nsppol =       1
      nsym =      12    n1xccc =    2501    ntypat =       3    occopt =       1
   xclevel =       2
-    mband =          34        mffmem =           1         mkmem =           2
-   mkqmem =           2        mk1mem =           2           mpw =       20584
      nfft =     1259712          nkpt =           2
  Rough estimation (10% accuracy) of disk space for files :

------------- Echo of variables that govern the present computation ------------
-
- outvars: echo of selected default values
-   iomode0 =  0 , fftalg0 =512 , wfoptalg0 =  0
-
- outvars: echo of global parameters not present in the input file
-  max_nthreads =    0
-
 -outvars: echo values of preprocessed input variables --------
            acell      1.0000000000E+00  1.0000000000E+00  1.0000000000E+00 Bohr
              amu      3.90983000E+01  9.01218200E+00  3.09737620E+01
        autoparal           1
             ecut      4.40000000E+01 Hartree
-          fftalg         512
           irdden           1
           irdwfk           1
           istwfk        1    1
              ixc     -116133
              kpt      5.00000000E-01  0.00000000E+00  0.00000000E+00
                       0.00000000E+00  0.00000000E+00  0.00000000E+00
           kptopt           0
P           mkmem           2
P          mkqmem           2
P          mk1mem           2
            natom           7
            nband          34
           nbdbuf           4
            ngfft         108     108     108
             nkpt           2
            nstep        2000
             nsym          12
           ntypat           3
              occ      2.000000  2.000000  2.000000  2.000000  2.000000  2.000000
                       2.000000  2.000000  2.000000  2.000000  2.000000  2.000000
                       2.000000  2.000000  2.000000  2.000000  2.000000  2.000000
                       2.000000  2.000000  2.000000  2.000000  2.000000  2.000000
                       2.000000  0.000000  0.000000  0.000000  0.000000  0.000000
                       0.000000  0.000000  0.000000  0.000000
        optdriver           1
            prtwf          -1
            rfdir           1       1       1
           rfelfd           2
            rprim      9.8997669318E+00  0.0000000000E+00  1.3636877843E+01
                       4.4279934255E+00  8.8542791648E+00  1.3636877843E+01
                       0.0000000000E+00  0.0000000000E+00  1.6851404173E+01
          spgroup         166
           symrel      1  0  0   0  1  0   0  0  1      -1  0  0   0 -1  0   0  0 -1
                       0  1  0   1  0  0   0  0  1       0 -1  0  -1  0  0   0  0 -1
                       0  0  1   1  0  0   0  1  0       0  0 -1  -1  0  0   0 -1  0
                       1  0  0   0  0  1   0  1  0      -1  0  0   0  0 -1   0 -1  0
                       0  1  0   0  0  1   1  0  0       0 -1  0   0  0 -1  -1  0  0
                       0  0  1   0  1  0   1  0  0       0  0 -1   0 -1  0  -1  0  0
           tolwfr      1.00000000E-20
            typat      1  1  1  1  2  3  3
           useylm           1
              wtk        0.50000    0.50000
           xangst      2.8599548935E+00  1.7673968851E+00  8.8077943597E+00
                       4.7219693377E+00  2.9180858474E+00  1.4542234563E+01
                       1.5820215643E+00  9.7765877052E-01  4.8721469848E+00
                       5.9999026669E+00  3.7078239620E+00  1.8477881937E+01
                       0.0000000000E+00  0.0000000000E+00  0.0000000000E+00
                       6.0354391458E-01  3.7297848196E-01  1.8587323523E+00
                       6.9783803166E+00  4.3125042505E+00  2.1491296570E+01
            xcart      5.4045315011E+00  3.3398960809E+00  1.6644319175E+01
                       8.9232288562E+00  5.5143830839E+00  2.7480840684E+01
                       2.9895874929E+00  1.8475073277E+00  9.2070234805E+00
                       1.1338172864E+01  7.0067718371E+00  3.4918136378E+01
                       0.0000000000E+00  0.0000000000E+00  0.0000000000E+00
                       1.1405327077E+00  7.0482718436E-01  3.5124951002E+00
                       1.3187227650E+01  8.1494519804E+00  4.0612664758E+01
             xred      3.7720700000E-01  3.7720700000E-01  3.7720700000E-01
                       6.2279300000E-01  6.2279300000E-01  6.2279300000E-01
                       2.0865700000E-01  2.0865700000E-01  2.0865700000E-01
                       7.9134300000E-01  7.9134300000E-01  7.9134300000E-01
                       0.0000000000E+00  0.0000000000E+00  0.0000000000E+00
                       7.9603000000E-02  7.9603000000E-02  7.9603000000E-02
                       9.2039700000E-01  9.2039700000E-01  9.2039700000E-01
            znucl       19.00000    4.00000   15.00000

 chkinp: Checking input parameters for consistency.

== DATASET  1 ==================================================================
-   mpi_nproc: 1, omp_nthreads: -1 (-1 if OMP is not activated)

--- !DatasetInfo
iteration_state: {dtset: 1, }
dimensions: {natom: 7, nkpt: 2, mband: 34, nsppol: 1, nspinor: 1, nspden: 1, mpw: 20584, }
cutoff_energies: {ecut:  44.0, pawecutdg:  -1.0, }
electrons: {nelect:   5.00000000E+01, charge:   0.00000000E+00, occopt:   1.00000000E+00, tsmear:   1.00000000E-02, }
meta: {optdriver: 1, rfelfd: 2, }
...

 Real(R)+Recip(G) space primitive vectors, cartesian coordinates (Bohr,Bohr^-1):
 R(1)=  9.8997669  0.0000000 13.6368778  G(1)=  0.1010125 -0.0505160  0.0000000
 R(2)=  4.4279934  8.8542792 13.6368778  G(2)=  0.0000000  0.1129397  0.0000000
 R(3)=  0.0000000  0.0000000 16.8514042  G(3)= -0.0817436 -0.0505160  0.0593422
 Unit cell volume ucvol=  1.4771149E+03 bohr^3
 Angles (23,13,12)=  3.59779812E+01  3.59779812E+01  3.59779812E+01 degrees

 getcut: wavevector=  0.0000  0.0000  0.0000  ngfft= 108 108 108
         ecut(hartree)=     44.000   => boxcut(ratio)=   2.14646

--- Pseudopotential description ------------------------------------------------
- pspini: atom type   1  psp file is /scratch/users/j/a/jabreu/pseudos/PBEsol/K.psp8
- pspatm: opening atomic psp file    /scratch/users/j/a/jabreu/pseudos/PBEsol/K.psp8
- K     ONCVPSP-3.3.0  r_core=   1.36296   1.46408   1.61068
- 19.00000   9.00000    180112                znucl, zion, pspdat
    8 -116133    2    4       400   0.00000   pspcod,pspxc,lmax,lloc,mmax,r2well
    3.99000000000000    5.00000000000000    0.00000000000000   rchrg,fchrg,qchrg
     nproj     2     2     2
     extension_switch     1
  pspatm : epsatm=    8.32487830
         --- l  ekb(1:nproj) -->
             0   10.921326    0.816676
             1    4.431000    0.560368
             2   -3.384038   -1.043186
 pspatm: atomic psp has been read  and splines computed

- pspini: atom type   2  psp file is /scratch/users/j/a/jabreu/pseudos/PBEsol/Be.psp8
- pspatm: opening atomic psp file    /scratch/users/j/a/jabreu/pseudos/PBEsol/Be.psp8
- Be    ONCVPSP-3.3.0  r_core=   1.35684   1.10780
-  4.00000   4.00000    180112                znucl, zion, pspdat
    8 -116133    1    4       400   0.00000   pspcod,pspxc,lmax,lloc,mmax,r2well
    3.99000000000000    0.00000000000000    0.00000000000000   rchrg,fchrg,qchrg
     nproj     2     2
     extension_switch     1
  pspatm : epsatm=    3.86293307
         --- l  ekb(1:nproj) -->
             0   -7.966826   -2.672546
             1   -3.431835   -0.651830
 pspatm: atomic psp has been read  and splines computed

- pspini: atom type   3  psp file is /scratch/users/j/a/jabreu/pseudos/PBEsol/P.psp8
- pspatm: opening atomic psp file    /scratch/users/j/a/jabreu/pseudos/PBEsol/P.psp8
- P     ONCVPSP-3.3.0  r_core=   1.46089   1.55067   1.70594
- 15.00000   5.00000    180112                znucl, zion, pspdat
    8 -116133    2    4       600   0.00000   pspcod,pspxc,lmax,lloc,mmax,r2well
    5.99000000000000    5.00000000000000    0.00000000000000   rchrg,fchrg,qchrg
     nproj     2     2     2
     extension_switch     1
  pspatm : epsatm=    7.31221086
         --- l  ekb(1:nproj) -->
             0    6.742364    1.063650
             1    3.449117    0.910422
             2   -3.077645   -0.799176
 pspatm: atomic psp has been read  and splines computed

   2.58934340E+03                                ecore*ucvol(ha*bohr**3)

-inwffil : will read wavefunctions from disk file /scratch/users/j/a/jabreu/flow_simple_7atoms/flow/w122/t1/indata/in_WFK

 ==>  initialize data related to q vector <==

 The list of irreducible perturbations for this q vector is:
    1)    idir= 1    ipert=   8
    2)    idir= 2    ipert=   8
    3)    idir= 3    ipert=   8

 Perturbation wavevector (in red.coord.)   0.000000  0.000000  0.000000
 Perturbation : derivative vs k along direction   1

 dfpt_looppert : COMMENT -
  In a d/dk calculation, iscf is set to -3 automatically.
 The set of symmetries contains only one element for this perturbation.
 symkpt : not enough symmetry to change the number of k points.

[...]

 Initialisation of the first-order wave-functions :
  ireadwf=   0

--- !BeginCycle
iteration_state: {dtset: 1, }
solver: {iscf: 7, nstep: 2000, nline: 4, wfoptalg: 0, }
tolerances: {tolwfr: 1.00E-20, }
...

     iter   2DEtotal(Ha)        deltaE(Ha) residm    vres2
-ETOT  1  -24.079356789096     -2.408E+01 6.123E-02 0.000E+00
 ETOT  2  -24.165142333007     -8.579E-02 5.660E-03 0.000E+00
 ETOT  3  -24.166659852223     -1.518E-03 8.446E-04 0.000E+00
 ETOT  4  -24.166703169907     -4.332E-05 5.668E-05 0.000E+00
 ETOT  5  -24.166704773423     -1.604E-06 1.678E-05 0.000E+00
 ETOT  6  -24.166704838070     -6.465E-08 1.147E-06 0.000E+00
 ETOT  7  -24.166704840799     -2.729E-09 3.534E-07 0.000E+00
 ETOT  8  -24.166704840917     -1.183E-10 2.504E-08 0.000E+00
 ETOT  9  -24.166704840923     -5.272E-12 7.675E-09 0.000E+00
 ETOT 10  -24.166704840923     -2.345E-13 5.588E-10 0.000E+00
 ETOT 11  -24.166704840923      0.000E+00 1.693E-10 0.000E+00
 ETOT 12  -24.166704840923      3.197E-14 1.259E-11 0.000E+00
 ETOT 13  -24.166704840923      0.000E+00 3.773E-12 0.000E+00
 ETOT 14  -24.166704840923      3.553E-15 2.924E-13 0.000E+00
 ETOT 15  -24.166704840923      0.000E+00 8.462E-14 0.000E+00
 ETOT 16  -24.166704840923      7.105E-15 7.150E-15 0.000E+00
 ETOT 17  -24.166704840923     -1.421E-14 1.908E-15 0.000E+00
 ETOT 18  -24.166704840923      7.105E-15 1.756E-16 0.000E+00
 ETOT 19  -24.166704840923      0.000E+00 4.318E-17 0.000E+00
 ETOT 20  -24.166704840923     -7.105E-15 4.326E-18 0.000E+00
 ETOT 21  -24.166704840923      0.000E+00 9.804E-19 0.000E+00
 ETOT 22  -24.166704840923      0.000E+00 1.069E-19 0.000E+00
 ETOT 23  -24.166704840923      7.105E-15 2.232E-20 0.000E+00
 ETOT 24  -24.166704840923      3.553E-15 9.937E-21 0.000E+00

 At SCF step   24   max residual=  9.94E-21 < tolwfr=  1.00E-20 =>converged.

 ----iterations are completed or convergence reached----

 dfpt_looppert: DFPT cycle converged with prtwf=-1. Will skip output of the 1st-order WFK file.
 dfpt_looppert : ek2=    5.0356242399E+01
          f-sum rule ratio=    1.0362833274E+00
 prteigrs : about to open file /scratch/users/j/a/jabreu/flow_simple_7atoms/flow/w122/t1/tmpdata/tmp_1WF1_EIG
 Expectation of eigenvalue derivatives (hartree) for nkpt=   2  k points:
  (in case of degenerate eigenvalues, averaged derivative)
 kpt#   1, nband= 34, wtk=  0.50000, kpt=  0.5000  0.0000  0.0000 (reduced coord)
  -0.00000    0.00000    0.00000    0.00000    0.00000    0.00000   -0.00000   -0.00000
   0.00000   -0.00000   -0.00000    0.00000    0.00000   -0.00000    0.00000    0.00000
   0.00000    0.00000   -0.00000   -0.00000    0.00000   -0.00000    0.00000   -0.00000
  -0.00000    0.00000   -0.00000   -0.00000    0.00000   -0.00000   -0.00000    0.00000
  -0.00000   -0.02606
 prteigrs : prtvol=0 or 1, do not print more k-points.

 Eight components of 2nd-order total energy (hartree) are
 1,2,3: 0th-order hamiltonian combined with 1st-order wavefunctions
     kin0=   3.39261275E+01 eigvalue=   4.69588829E+00  local=  -2.18142361E+01
 4,5,6: 1st-order hamiltonian combined with 1st and 0th-order wfs
     kin1=  -5.21833344E+01  Hartree=   0.00000000E+00     xc=   0.00000000E+00
 7,8,9: eventually, occupation + non-local contributions
    edocc=   6.41111125E+00     enl0=   9.47813920E-01   enl1=   3.84992475E+00
 1-9 gives the relaxation energy (to be shifted if some occ is /=2.0)
   erelax=  -2.41667048E+01
  No Ewald or frozen-wf contrib.: the relaxation energy is the total one
 2DEtotal=   -0.2416670484E+02 Ha. Also 2DEtotal=   -0.657609482058E+03 eV
    (  non-var. 2DEtotal :   -2.4166704840E+01 Ha)

 Perturbation wavevector (in red.coord.)   0.000000  0.000000  0.000000
 Perturbation : derivative vs k along direction   2
 The set of symmetries contains only one element for this perturbation.
 symkpt : not enough symmetry to change the number of k points.

[...]

 Perturbation wavevector (in red.coord.)   0.000000  0.000000  0.000000
 Perturbation : derivative vs k along direction   3
 The set of symmetries contains only one element for this perturbation.
 symkpt : not enough symmetry to change the number of k points.

-inwffil : will read wavefunctions from disk file /scratch/users/j/a/jabreu/flow_simple_7atoms/flow/w122/t1/indata/in_WFK

 Initialisation of the first-order wave-functions :
  ireadwf=   0

--- !BeginCycle
iteration_state: {dtset: 1, }
solver: {iscf: 7, nstep: 2000, nline: 4, wfoptalg: 0, }
tolerances: {tolwfr: 1.00E-20, }
...

     iter   2DEtotal(Ha)        deltaE(Ha) residm    vres2
-ETOT  1  -24.563603645168     -2.456E+01 7.927E-02 0.000E+00
 ETOT  2  -24.648083799826     -8.448E-02 1.361E-02 0.000E+00
 ETOT  3  -24.649711593046     -1.628E-03 1.434E-03 0.000E+00
 ETOT  4  -24.649762456372     -5.086E-05 1.654E-04 0.000E+00
 ETOT  5  -24.649764491828     -2.035E-06 3.183E-05 0.000E+00
 ETOT  6  -24.649764580542     -8.871E-08 3.781E-06 0.000E+00
 ETOT  7  -24.649764584568     -4.026E-09 7.651E-07 0.000E+00
 ETOT  8  -24.649764584755     -1.871E-10 9.532E-08 0.000E+00
 ETOT  9  -24.649764584764     -8.768E-12 1.934E-08 0.000E+00
 ETOT 10  -24.649764584764     -4.157E-13 2.674E-09 0.000E+00
 ETOT 11  -24.649764584764     -4.263E-14 5.038E-10 0.000E+00
 ETOT 12  -24.649764584764     -2.487E-14 8.823E-11 0.000E+00
 ETOT 13  -24.649764584764     -1.776E-14 1.678E-11 0.000E+00
 ETOT 14  -24.649764584764      0.000E+00 3.520E-12 0.000E+00
 ETOT 15  -24.649764584764      3.553E-14 6.634E-13 0.000E+00
 ETOT 16  -24.649764584764      1.066E-14 1.604E-13 0.000E+00
 ETOT 17  -24.649764584764      3.553E-15 2.928E-14 0.000E+00
 ETOT 18  -24.649764584764      0.000E+00 7.726E-15 0.000E+00
 ETOT 19  -24.649764584764      7.105E-15 1.367E-15 0.000E+00
 ETOT 20  -24.649764584764     -1.066E-14 3.774E-16 0.000E+00
 ETOT 21  -24.649764584764      0.000E+00 6.541E-17 0.000E+00
 ETOT 22  -24.649764584764      3.553E-15 1.846E-17 0.000E+00
 ETOT 23  -24.649764584764     -7.105E-15 3.166E-18 0.000E+00
 ETOT 24  -24.649764584764      0.000E+00 9.018E-19 0.000E+00
 ETOT 25  -24.649764584764      3.553E-15 1.540E-19 0.000E+00
 ETOT 26  -24.649764584764     -3.553E-15 4.402E-20 0.000E+00
 ETOT 27  -24.649764584764      0.000E+00 9.174E-21 0.000E+00

 At SCF step   27   max residual=  9.17E-21 < tolwfr=  1.00E-20 =>converged.

 ----iterations are completed or convergence reached----

 dfpt_looppert: DFPT cycle converged with prtwf=-1. Will skip output of the 1st-order WFK file.
 dfpt_looppert : ek2=    5.0356242399E+01
          f-sum rule ratio=    1.0546158694E+00
 prteigrs : about to open file /scratch/users/j/a/jabreu/flow_simple_7atoms/flow/w122/t1/tmpdata/tmp_1WF1_EIG
 Expectation of eigenvalue derivatives (hartree) for nkpt=   2  k points:
  (in case of degenerate eigenvalues, averaged derivative)
 kpt#   1, nband= 34, wtk=  0.50000, kpt=  0.5000  0.0000  0.0000 (reduced coord)
   0.00000   -0.00000   -0.00000   -0.00000    0.00000   -0.00000    0.00000   -0.00000
  -0.00000    0.00000   -0.00000    0.00000   -0.00000    0.00000    0.00000   -0.00000
   0.00000   -0.00000    0.00000    0.00000   -0.00000   -0.00000   -0.00000    0.00000
   0.00000   -0.00000    0.00000    0.00000    0.00000    0.00000   -0.00000   -0.00000
   0.00003    0.01323
 prteigrs : prtvol=0 or 1, do not print more k-points.

 Eight components of 2nd-order total energy (hartree) are
 1,2,3: 0th-order hamiltonian combined with 1st-order wavefunctions
     kin0=   3.26051116E+01 eigvalue=   4.69528391E+00  local=  -2.10510347E+01
 4,5,6: 1st-order hamiltonian combined with 1st and 0th-order wfs
     kin1=  -5.31064924E+01  Hartree=   0.00000000E+00     xc=   0.00000000E+00
 7,8,9: eventually, occupation + non-local contributions
    edocc=   7.48768869E+00     enl0=   9.12715069E-01   enl1=   3.80696319E+00
 1-9 gives the relaxation energy (to be shifted if some occ is /=2.0)
   erelax=  -2.46497646E+01
  No Ewald or frozen-wf contrib.: the relaxation energy is the total one
 2DEtotal=   -0.2464976458E+02 Ha. Also 2DEtotal=   -0.670754206175E+03 eV
    (  non-var. 2DEtotal :   -2.4649764584E+01 Ha)

 CALCULATION OF EFFECTIVE MASSES
 NOTE : Additional infos (eff. mass eigenvalues, eigenvectors and, if degenerate, average mass) are available in stdout.

--- !WARNING
src_file: m_efmas.F90
src_line: 0
message: |

    Band(s)    25,
    are not band extrema, but saddle points;
    the transport equivalent formalism breaks down in these conditions.
    The associated tensor(s) will therefore not be printed.
...

 K-point ( 0.500, 0.000, 0.000) | band =    25
 Effective mass tensor:
     *** SADDLE POINT: TRANSPORT EQV. EFF. MASS NOT DEFINED (see WARNING above) ***
 Angular average effective mass 1/(<1/m>)=  -2.4587859599
 Angular average effective mass for Frohlich model (<m**0.5>)**2=  -5.9266508067
 Effective masses along directions: (cart. coord. / red. coord. -> eff. mass)
    1:   1.000000  0.000000  0.000000 /   0.912847  0.408301  0.000000 ->  -4.1619972533
    2:   0.000000  1.000000  0.000000 /   0.000000  1.000000  0.000000 ->  -1.2405145701
    3:   0.000000  0.000000  1.000000 /   0.532472  0.532472  0.657988 ->  -5.7561250882
    4:   0.577350  0.577350  0.577350 /   0.595419  0.680988  0.426299 ->  -2.8779597709
    5:   0.000000  0.707107  0.707107 /   0.436554  0.720003  0.539459 ->  -3.6564587980
    6:   0.707107  0.000000  0.707107 /   0.689787  0.529426  0.493863 -> **************
    7:   0.707107  0.707107  0.000000 /   0.597604  0.801791  0.000000 ->  -1.1704231851

 K-point ( 0.000, 0.000, 0.000) | band =    26
 Effective mass tensor:
              0.2897806246              0.0021484193              0.0107066633
              0.0021484193              0.2876317510              0.0066164564
              0.0107066633              0.0066164564              0.3192772393
 Effective mass tensor eigenvalues:
              0.2863040803              0.2863040805              0.3240814540
 Angular average effective mass 1/(<1/m>)=   0.2978783964
 Angular average effective mass for Frohlich model (<m**0.5>)**2=   0.2981768155
 Effective masses along directions: (cart. coord. / red. coord. -> eff. mass)
    1:   1.000000  0.000000  0.000000 /   0.912847  0.408301  0.000000 ->   0.2894086766
    2:   0.000000  1.000000  0.000000 /   0.000000  1.000000  0.000000 ->   0.2874818126
    3:   0.000000  0.000000  1.000000 /   0.532472  0.532472  0.657988 ->   0.3187330771
    4:   0.577350  0.577350  0.577350 /   0.595419  0.680988  0.426299 ->   0.3108320446
    5:   0.000000  0.707107  0.707107 /   0.436554  0.720003  0.539459 ->   0.3089621616
    6:   0.707107  0.000000  0.707107 /   0.689787  0.529426  0.493863 ->   0.3143684967
    7:   0.707107  0.707107  0.000000 /   0.597604  0.801791  0.000000 ->   0.2903814145

 END OF EFFECTIVE MASSES SECTION

 ---- first-order wavefunction calculations are completed ----

 Total localisation tensor (bohr^2) in cartesian coordinates
  WARNING : still subject to testing - especially symmetries.
      direction              matrix element
   alpha     beta       real part   imaginary part
     1        1       1.9433481211    0.0000000000
     1        2       0.6972113471    0.0000000000
     1        3       3.2704637641    0.0000000000
     2        1       0.6972113471    0.0000000000
     2        2       1.3941538098    0.0000000000
     2        3       2.1471996584    0.0000000000
     3        1       3.2704637641    0.0000000000
     3        2       2.1471996584    0.0000000000
     3        3      11.3827846965    0.0000000000

 respfn : d/dk was computed, but no 2DTE, so no DDB output.

== END DATASET(S) ==============================================================

 -outvars: echo values of variables after computation  --------
            acell      1.0000000000E+00  1.0000000000E+00  1.0000000000E+00 Bohr
              amu      3.90983000E+01  9.01218200E+00  3.09737620E+01
        autoparal           1
             ecut      4.40000000E+01 Hartree
           etotal     -2.4649764585E+01
            fcart      0.0000000000E+00  0.0000000000E+00  0.0000000000E+00
                       0.0000000000E+00  0.0000000000E+00  0.0000000000E+00
                       0.0000000000E+00  0.0000000000E+00  0.0000000000E+00
                       0.0000000000E+00  0.0000000000E+00  0.0000000000E+00
                       0.0000000000E+00  0.0000000000E+00  0.0000000000E+00
                       0.0000000000E+00  0.0000000000E+00  0.0000000000E+00
                       0.0000000000E+00  0.0000000000E+00  0.0000000000E+00
-          fftalg         512
           irdden           1
           irdwfk           1
           istwfk        1    1
              ixc     -116133
              kpt      5.00000000E-01  0.00000000E+00  0.00000000E+00
                       0.00000000E+00  0.00000000E+00  0.00000000E+00
           kptopt           0
P           mkmem           2
P          mkqmem           2
P          mk1mem           2
            natom           7
            nband          34
           nbdbuf           4
            ngfft         108     108     108
             nkpt           2
            nstep        2000
             nsym          12
           ntypat           3
              occ      2.000000  2.000000  2.000000  2.000000  2.000000  2.000000
                       2.000000  2.000000  2.000000  2.000000  2.000000  2.000000
                       2.000000  2.000000  2.000000  2.000000  2.000000  2.000000
                       2.000000  2.000000  2.000000  2.000000  2.000000  2.000000
                       2.000000  0.000000  0.000000  0.000000  0.000000  0.000000
                       0.000000  0.000000  0.000000  0.000000
        optdriver           1
            prtwf          -1
            rfdir           1       1       1
           rfelfd           2
            rprim      9.8997669318E+00  0.0000000000E+00  1.3636877843E+01
                       4.4279934255E+00  8.8542791648E+00  1.3636877843E+01
                       0.0000000000E+00  0.0000000000E+00  1.6851404173E+01
          spgroup         166
           strten      0.0000000000E+00  0.0000000000E+00  0.0000000000E+00
                       0.0000000000E+00  0.0000000000E+00  0.0000000000E+00
           symrel      1  0  0   0  1  0   0  0  1      -1  0  0   0 -1  0   0  0 -1
                       0  1  0   1  0  0   0  0  1       0 -1  0  -1  0  0   0  0 -1
                       0  0  1   1  0  0   0  1  0       0  0 -1  -1  0  0   0 -1  0
                       1  0  0   0  0  1   0  1  0      -1  0  0   0  0 -1   0 -1  0
                       0  1  0   0  0  1   1  0  0       0 -1  0   0  0 -1  -1  0  0
                       0  0  1   0  1  0   1  0  0       0  0 -1   0 -1  0  -1  0  0
           tolwfr      1.00000000E-20
            typat      1  1  1  1  2  3  3
           useylm           1
              wtk        0.50000    0.50000
           xangst      2.8599548935E+00  1.7673968851E+00  8.8077943597E+00
                       4.7219693377E+00  2.9180858474E+00  1.4542234563E+01
                       1.5820215643E+00  9.7765877052E-01  4.8721469848E+00
                       5.9999026669E+00  3.7078239620E+00  1.8477881937E+01
                       0.0000000000E+00  0.0000000000E+00  0.0000000000E+00
                       6.0354391458E-01  3.7297848196E-01  1.8587323523E+00
                       6.9783803166E+00  4.3125042505E+00  2.1491296570E+01
            xcart      5.4045315011E+00  3.3398960809E+00  1.6644319175E+01
                       8.9232288562E+00  5.5143830839E+00  2.7480840684E+01
                       2.9895874929E+00  1.8475073277E+00  9.2070234805E+00
                       1.1338172864E+01  7.0067718371E+00  3.4918136378E+01
                       0.0000000000E+00  0.0000000000E+00  0.0000000000E+00
                       1.1405327077E+00  7.0482718436E-01  3.5124951002E+00
                       1.3187227650E+01  8.1494519804E+00  4.0612664758E+01
             xred      3.7720700000E-01  3.7720700000E-01  3.7720700000E-01
                       6.2279300000E-01  6.2279300000E-01  6.2279300000E-01
                       2.0865700000E-01  2.0865700000E-01  2.0865700000E-01
                       7.9134300000E-01  7.9134300000E-01  7.9134300000E-01
                       0.0000000000E+00  0.0000000000E+00  0.0000000000E+00
                       7.9603000000E-02  7.9603000000E-02  7.9603000000E-02
                       9.2039700000E-01  9.2039700000E-01  9.2039700000E-01
            znucl       19.00000    4.00000   15.00000

- Timing analysis has been suppressed with timopt=0

 Suggested references for the acknowledgment of ABINIT usage.

 Calculation completed.
.Delivered  15 WARNINGs and  11 COMMENTs to log file.