.Version 9.5.1 of ABINIT

 ABINIT is a project of the Universite Catholique de Louvain,
 Corning Inc. and other collaborators, see ~abinit/doc/developers/contributors.txt .
 acknowledgments of the ABINIT effort.

.Starting date : Tue  4 May 2021.
- ( at 19h49 )

- input  file    -> /scratch/users/j/a/jabreu/flow_simple_6atoms/flow/w227/t1/run.abi
- output file    -> /scratch/users/j/a/jabreu/flow_simple_6atoms/flow/w227/t1/run.abo
- root for input  files -> /scratch/users/j/a/jabreu/flow_simple_6atoms/flow/w227/t1/indata/in
- root for output files -> /scratch/users/j/a/jabreu/flow_simple_6atoms/flow/w227/t1/outdata/out

 Symmetries : space group P4/n m m (#129); Bravais tP (primitive tetrag.)
     intxc =       0      iscf =       7    lmnmax =      18     lnmax =       6
     mgfft =      96  mpssoang =       3    mqgrid =    4624     natom =       6
  nloc_mem =       1    nspden =       1   nspinor =       1    nsppol =       1
      nsym =      16    n1xccc =    2501    ntypat =       3    occopt =       1
   xclevel =       2
-    mband =          43        mffmem =           1         mkmem =           2
-   mkqmem =           2        mk1mem =           2           mpw =       20912
      nfft =      345600          nkpt =           2
  Rough estimation (10% accuracy) of disk space for files :

------------- Echo of variables that govern the present computation ------------
-
- outvars: echo of selected default values
-   iomode0 =  0 , fftalg0 =512 , wfoptalg0 =  0
-
- outvars: echo of global parameters not present in the input file
-  max_nthreads =    0
-
 -outvars: echo values of preprocessed input variables --------
            acell      1.0000000000E+00  1.0000000000E+00  1.0000000000E+00 Bohr
              amu      8.54678000E+01  4.00780000E+01  1.21753000E+02
             ecut      4.20000000E+01 Hartree
-          fftalg         512
           irdden           1
           irdwfk           1
           istwfk        0    1
              ixc     -116133
              kpt      2.50000000E-01  2.50000000E-01  5.00000000E-01
                       0.00000000E+00  0.00000000E+00  0.00000000E+00
           kptopt           0
P           mkmem           2
P          mkqmem           2
P          mk1mem           2
            natom           6
            nband          43
           nbdbuf           4
            ngfft          60      60      96
             nkpt           2
            nstep        1000
             nsym          16
           ntypat           3
              occ      2.000000  2.000000  2.000000  2.000000  2.000000  2.000000
                       2.000000  2.000000  2.000000  2.000000  2.000000  2.000000
                       2.000000  2.000000  2.000000  2.000000  2.000000  2.000000
                       2.000000  2.000000  2.000000  2.000000  2.000000  2.000000
                       2.000000  2.000000  2.000000  2.000000  2.000000  2.000000
                       2.000000  2.000000  2.000000  2.000000  0.000000  0.000000
                       0.000000  0.000000  0.000000  0.000000  0.000000  0.000000
                       0.000000
        optdriver           1
            prtwf          -1
            rfdir           1       1       1
           rfelfd           2
            rprim      1.0066067454E+01  0.0000000000E+00  0.0000000000E+00
                       0.0000000000E+00  1.0066067454E+01  0.0000000000E+00
                       0.0000000000E+00  0.0000000000E+00  1.5849354653E+01
          spgroup         129
           symrel      1  0  0   0  1  0   0  0  1      -1  0  0   0 -1  0   0  0 -1
                      -1  0  0   0  1  0   0  0 -1       1  0  0   0 -1  0   0  0  1
                      -1  0  0   0 -1  0   0  0  1       1  0  0   0  1  0   0  0 -1
                       1  0  0   0 -1  0   0  0 -1      -1  0  0   0  1  0   0  0  1
                       0  1  0   1  0  0   0  0  1       0 -1  0  -1  0  0   0  0 -1
                       0 -1  0   1  0  0   0  0 -1       0  1  0  -1  0  0   0  0  1
                       0 -1  0  -1  0  0   0  0  1       0  1  0   1  0  0   0  0 -1
                       0  1  0  -1  0  0   0  0 -1       0 -1  0   1  0  0   0  0  1
            tnons      0.0000000  0.0000000  0.0000000     0.5000000  0.5000000 -0.0000000
                       0.5000000  0.5000000 -0.0000000     0.0000000  0.0000000  0.0000000
                       0.0000000  0.0000000  0.0000000     0.5000000  0.5000000 -0.0000000
                       0.5000000  0.5000000 -0.0000000     0.0000000  0.0000000  0.0000000
                       0.5000000  0.5000000  0.0000000     0.0000000  0.0000000 -0.0000000
                       0.0000000  0.0000000 -0.0000000     0.5000000  0.5000000  0.0000000
                       0.5000000  0.5000000  0.0000000     0.0000000  0.0000000 -0.0000000
                       0.0000000  0.0000000 -0.0000000     0.5000000  0.5000000  0.0000000
           tolwfr      1.00000000E-20
            typat      1  1  2  2  3  3
           useylm           1
              wtk        0.50000    0.50000
           xangst      2.6633667384E+00  0.0000000000E+00  5.3318162447E+00
                       0.0000000000E+00  2.6633667384E+00  3.0553010086E+00
                       2.6633667384E+00  2.6633667384E+00  0.0000000000E+00
                       0.0000000000E+00  0.0000000000E+00  0.0000000000E+00
                       0.0000000000E+00  2.6633667384E+00  6.7364319325E+00
                       2.6633667384E+00  0.0000000000E+00  1.6506853209E+00
            xcart      5.0330337270E+00  0.0000000000E+00  1.0075672493E+01
                       0.0000000000E+00  5.0330337270E+00  5.7736821598E+00
                       5.0330337270E+00  5.0330337270E+00  0.0000000000E+00
                       0.0000000000E+00  0.0000000000E+00  0.0000000000E+00
                       0.0000000000E+00  5.0330337270E+00  1.2730011465E+01
                       5.0330337270E+00  0.0000000000E+00  3.1193431880E+00
             xred      5.0000000000E-01  0.0000000000E+00  6.3571500000E-01
                       0.0000000000E+00  5.0000000000E-01  3.6428500000E-01
                       5.0000000000E-01  5.0000000000E-01  0.0000000000E+00
                       0.0000000000E+00  0.0000000000E+00  0.0000000000E+00
                       0.0000000000E+00  5.0000000000E-01  8.0318800000E-01
                       5.0000000000E-01  0.0000000000E+00  1.9681200000E-01
            znucl       37.00000   20.00000   51.00000

 chkinp: Checking input parameters for consistency.

== DATASET  1 ==================================================================
-   mpi_nproc: 1, omp_nthreads: -1 (-1 if OMP is not activated)

--- !DatasetInfo
iteration_state: {dtset: 1, }
dimensions: {natom: 6, nkpt: 2, mband: 43, nsppol: 1, nspinor: 1, nspden: 1, mpw: 20912, }
cutoff_energies: {ecut:  42.0, pawecutdg:  -1.0, }
electrons: {nelect:   6.80000000E+01, charge:   0.00000000E+00, occopt:   1.00000000E+00, tsmear:   1.00000000E-02, }
meta: {optdriver: 1, rfelfd: 2, }
...

 Real(R)+Recip(G) space primitive vectors, cartesian coordinates (Bohr,Bohr^-1):
 R(1)= 10.0660675  0.0000000  0.0000000  G(1)=  0.0993437  0.0000000  0.0000000
 R(2)=  0.0000000 10.0660675  0.0000000  G(2)=  0.0000000  0.0993437  0.0000000
 R(3)=  0.0000000  0.0000000 15.8493547  G(3)=  0.0000000  0.0000000  0.0630941
 Unit cell volume ucvol=  1.6059472E+03 bohr^3
 Angles (23,13,12)=  9.00000000E+01  9.00000000E+01  9.00000000E+01 degrees

 getcut: wavevector=  0.0000  0.0000  0.0000  ngfft=  60  60  96
         ecut(hartree)=     42.000   => boxcut(ratio)=   2.04316

--- Pseudopotential description ------------------------------------------------
- pspini: atom type   1  psp file is /scratch/users/j/a/jabreu/pseudos/PBEsol/Rb.psp8
- pspatm: opening atomic psp file    /scratch/users/j/a/jabreu/pseudos/PBEsol/Rb.psp8
- Rb    ONCVPSP-3.3.0  r_core=   1.71227   1.75361   1.90633
- 37.00000   9.00000    180112                znucl, zion, pspdat
    8 -116133    2    4       600   0.00000   pspcod,pspxc,lmax,lloc,mmax,r2well
    5.99000000000000    7.00000000000000    0.00000000000000   rchrg,fchrg,qchrg
     nproj     2     2     2
     extension_switch     1
  pspatm : epsatm=   34.48400912
         --- l  ekb(1:nproj) -->
             0    8.196957   -0.477221
             1    3.231347   -0.378736
             2   -1.047201    0.996637
 pspatm: atomic psp has been read  and splines computed

- pspini: atom type   2  psp file is /scratch/users/j/a/jabreu/pseudos/PBEsol/Ca.psp8
- pspatm: opening atomic psp file    /scratch/users/j/a/jabreu/pseudos/PBEsol/Ca.psp8
- Ca    ONCVPSP-3.3.0  r_core=   1.45885   1.45885   1.85192
- 20.00000  10.00000    180112                znucl, zion, pspdat
    8 -116133    2    4       400   0.00000   pspcod,pspxc,lmax,lloc,mmax,r2well
    3.99000000000000    6.00000000000000    0.00000000000000   rchrg,fchrg,qchrg
     nproj     2     2     2
     extension_switch     1
  pspatm : epsatm=   12.46045226
         --- l  ekb(1:nproj) -->
             0   10.054847    0.973777
             1    2.998958    0.458102
             2   -3.447298   -1.091650
 pspatm: atomic psp has been read  and splines computed

- pspini: atom type   3  psp file is /scratch/users/j/a/jabreu/pseudos/PBEsol/Sb.psp8
- pspatm: opening atomic psp file    /scratch/users/j/a/jabreu/pseudos/PBEsol/Sb.psp8
- Sb    ONCVPSP-3.3.0  r_core=   1.81962   2.12485   1.81962
- 51.00000  15.00000    180112                znucl, zion, pspdat
    8 -116133    2    4       600   0.00000   pspcod,pspxc,lmax,lloc,mmax,r2well
    5.99000000000000    5.00000000000000    0.00000000000000   rchrg,fchrg,qchrg
     nproj     2     2     2
     extension_switch     1
  pspatm : epsatm=   26.35641246
         --- l  ekb(1:nproj) -->
             0    9.727814    1.485032
             1    5.505335    0.704623
             2   -4.710637   -1.436443
 pspatm: atomic psp has been read  and splines computed

   9.96891884E+03                                ecore*ucvol(ha*bohr**3)

-inwffil : will read wavefunctions from disk file /scratch/users/j/a/jabreu/flow_simple_6atoms/flow/w227/t1/indata/in_WFK

 ==>  initialize data related to q vector <==

 The list of irreducible perturbations for this q vector is:
    1)    idir= 1    ipert=   7
    2)    idir= 2    ipert=   7
    3)    idir= 3    ipert=   7

 Perturbation wavevector (in red.coord.)   0.000000  0.000000  0.000000
 Perturbation : derivative vs k along direction   1

 dfpt_looppert : COMMENT -
  In a d/dk calculation, iscf is set to -3 automatically.
 The set of symmetries contains only one element for this perturbation.
 symkpt : not enough symmetry to change the number of k points.

[...]

 Initialisation of the first-order wave-functions :
  ireadwf=   0

--- !BeginCycle
iteration_state: {dtset: 1, }
solver: {iscf: 7, nstep: 1000, nline: 4, wfoptalg: 0, }
tolerances: {tolwfr: 1.00E-20, }
...

     iter   2DEtotal(Ha)        deltaE(Ha) residm    vres2
-ETOT  1  -40.763379589639     -4.076E+01 1.526E-01 0.000E+00
 ETOT  2  -40.874455839578     -1.111E-01 2.385E-02 0.000E+00
 ETOT  3  -40.881593904571     -7.138E-03 8.912E-03 0.000E+00
[...]
  -0.01133    0.00146   -0.01829   -0.03828   -0.02171    0.01911    0.04690   -0.02126
  -0.02235    0.02821   -0.05400
 prteigrs : prtvol=0 or 1, do not print more k-points.

 Eight components of 2nd-order total energy (hartree) are
 1,2,3: 0th-order hamiltonian combined with 1st-order wavefunctions
     kin0=   5.53426390E+01 eigvalue=   8.35493558E+00  local=  -3.56920045E+01
 4,5,6: 1st-order hamiltonian combined with 1st and 0th-order wfs
     kin1=  -5.57345136E+01  Hartree=   0.00000000E+00     xc=   0.00000000E+00
 7,8,9: eventually, occupation + non-local contributions
    edocc=   7.25398065E+00     enl0=   5.62300409E+00   enl1=  -2.60305961E+01
 1-9 gives the relaxation energy (to be shifted if some occ is /=2.0)
   erelax=  -4.08825548E+01
  No Ewald or frozen-wf contrib.: the relaxation energy is the total one
 2DEtotal=   -0.4088255485E+02 Ha. Also 2DEtotal=   -0.111247089313E+04 eV
    (  non-var. 2DEtotal :   -4.0882554847E+01 Ha)

 Perturbation wavevector (in red.coord.)   0.000000  0.000000  0.000000
 Perturbation : derivative vs k along direction   2
 The set of symmetries contains only one element for this perturbation.
 symkpt : not enough symmetry to change the number of k points.

[...]

 Perturbation wavevector (in red.coord.)   0.000000  0.000000  0.000000
 Perturbation : derivative vs k along direction   3
 The set of symmetries contains only one element for this perturbation.
 symkpt : not enough symmetry to change the number of k points.

-inwffil : will read wavefunctions from disk file /scratch/users/j/a/jabreu/flow_simple_6atoms/flow/w227/t1/indata/in_WFK

 Initialisation of the first-order wave-functions :
  ireadwf=   0

--- !BeginCycle
iteration_state: {dtset: 1, }
solver: {iscf: 7, nstep: 1000, nline: 4, wfoptalg: 0, }
tolerances: {tolwfr: 1.00E-20, }
...

     iter   2DEtotal(Ha)        deltaE(Ha) residm    vres2
-ETOT  1  -16.125530562393     -1.613E+01 8.865E-02 0.000E+00
 ETOT  2  -16.156373893103     -3.084E-02 8.797E-03 0.000E+00
 ETOT  3  -16.157563569661     -1.190E-03 1.200E-03 0.000E+00
 ETOT  4  -16.157659557753     -9.599E-05 5.692E-04 0.000E+00
 ETOT  5  -16.157671454524     -1.190E-05 1.452E-04 0.000E+00
 ETOT  6  -16.157673084606     -1.630E-06 8.026E-05 0.000E+00
 ETOT  7  -16.157673317424     -2.328E-07 2.290E-05 0.000E+00
 ETOT  8  -16.157673351411     -3.399E-08 1.355E-05 0.000E+00
 ETOT  9  -16.157673356418     -5.008E-09 4.009E-06 0.000E+00
 ETOT 10  -16.157673357159     -7.412E-10 2.376E-06 0.000E+00
 ETOT 11  -16.157673357269     -1.102E-10 7.032E-07 0.000E+00
 ETOT 12  -16.157673357286     -1.643E-11 4.168E-07 0.000E+00
 ETOT 13  -16.157673357288     -2.451E-12 1.235E-07 0.000E+00
 ETOT 14  -16.157673357289     -3.766E-13 7.317E-08 0.000E+00
 ETOT 15  -16.157673357289     -4.974E-14 2.171E-08 0.000E+00
 ETOT 16  -16.157673357289     -7.105E-15 1.285E-08 0.000E+00
 ETOT 17  -16.157673357289      3.553E-15 3.816E-09 0.000E+00
 ETOT 18  -16.157673357289     -3.553E-15 2.256E-09 0.000E+00
 ETOT 19  -16.157673357289      0.000E+00 6.711E-10 0.000E+00
 ETOT 20  -16.157673357289      0.000E+00 3.963E-10 0.000E+00
 ETOT 21  -16.157673357289     -1.066E-14 1.180E-10 0.000E+00
 ETOT 22  -16.157673357289      3.553E-15 6.960E-11 0.000E+00
 ETOT 23  -16.157673357289     -7.105E-15 2.076E-11 0.000E+00
 ETOT 24  -16.157673357289      7.105E-15 1.223E-11 0.000E+00
 ETOT 25  -16.157673357289      3.553E-15 3.653E-12 0.000E+00
 ETOT 26  -16.157673357289      0.000E+00 2.148E-12 0.000E+00
 ETOT 27  -16.157673357289     -3.553E-15 6.426E-13 0.000E+00
 ETOT 28  -16.157673357289      0.000E+00 3.773E-13 0.000E+00
 ETOT 29  -16.157673357289      7.105E-15 1.131E-13 0.000E+00
 ETOT 30  -16.157673357289     -7.105E-15 6.629E-14 0.000E+00
 ETOT 31  -16.157673357289      7.105E-15 2.277E-14 0.000E+00
 ETOT 32  -16.157673357289      0.000E+00 1.728E-14 0.000E+00
 ETOT 33  -16.157673357289      0.000E+00 7.385E-15 0.000E+00
 ETOT 34  -16.157673357289      0.000E+00 5.628E-15 0.000E+00
 ETOT 35  -16.157673357289      0.000E+00 2.418E-15 0.000E+00
 ETOT 36  -16.157673357289      0.000E+00 1.848E-15 0.000E+00
 ETOT 37  -16.157673357289      0.000E+00 7.968E-16 0.000E+00
 ETOT 38  -16.157673357289      0.000E+00 6.103E-16 0.000E+00
 ETOT 39  -16.157673357289      0.000E+00 2.640E-16 0.000E+00
 ETOT 40  -16.157673357289      0.000E+00 2.025E-16 0.000E+00
 ETOT 41  -16.157673357289      0.000E+00 8.777E-17 0.000E+00
 ETOT 42  -16.157673357289      0.000E+00 6.738E-17 0.000E+00
 ETOT 43  -16.157673357289      0.000E+00 2.926E-17 0.000E+00
 ETOT 44  -16.157673357289      0.000E+00 2.247E-17 0.000E+00
 ETOT 45  -16.157673357289      0.000E+00 9.772E-18 0.000E+00
 ETOT 46  -16.157673357289      0.000E+00 7.508E-18 0.000E+00
 ETOT 47  -16.157673357289      0.000E+00 3.268E-18 0.000E+00
 ETOT 48  -16.157673357289      3.553E-15 2.511E-18 0.000E+00
 ETOT 49  -16.157673357289     -3.553E-15 1.093E-18 0.000E+00
 ETOT 50  -16.157673357289      0.000E+00 8.402E-19 0.000E+00
 ETOT 51  -16.157673357289      3.553E-15 3.661E-19 0.000E+00
 ETOT 52  -16.157673357289      0.000E+00 2.813E-19 0.000E+00
 ETOT 53  -16.157673357289      0.000E+00 1.226E-19 0.000E+00
 ETOT 54  -16.157673357289      0.000E+00 9.418E-20 0.000E+00
 ETOT 55  -16.157673357289     -3.553E-15 4.105E-20 0.000E+00
 ETOT 56  -16.157673357289      3.553E-15 3.154E-20 0.000E+00
 ETOT 57  -16.157673357289     -3.553E-15 1.374E-20 0.000E+00
 ETOT 58  -16.157673357289      7.105E-15 9.942E-21 0.000E+00

 At SCF step   58   max residual=  9.94E-21 < tolwfr=  1.00E-20 =>converged.

 ----iterations are completed or convergence reached----

 dfpt_looppert: DFPT cycle converged with prtwf=-1. Will skip output of the 1st-order WFK file.
 dfpt_looppert : ek2=    2.1373491759E+01
          f-sum rule ratio=    1.0233481764E+00
 prteigrs : about to open file /scratch/users/j/a/jabreu/flow_simple_6atoms/flow/w227/t1/tmpdata/tmp_1WF1_EIG
 Expectation of eigenvalue derivatives (hartree) for nkpt=   2  k points:
  (in case of degenerate eigenvalues, averaged derivative)
 kpt#   1, nband= 43, wtk=  0.50000, kpt=  0.2500  0.2500  0.5000 (reduced coord)
   0.00000    0.00000   -0.00000    0.00000   -0.00000    0.00000   -0.00000   -0.00000
   0.00000    0.00000    0.00000    0.00000   -0.00000   -0.00000    0.00000   -0.00000
  -0.00000   -0.00000   -0.00000   -0.00000   -0.00000   -0.00000   -0.00000   -0.00000
   0.00000   -0.00000    0.00000    0.00000    0.00000    0.00000   -0.00000    0.00000
  -0.00000    0.00000    0.00000    0.00000    0.00000    0.00000    0.00000    0.00000
   0.00000   -0.00014    0.00020
 prteigrs : prtvol=0 or 1, do not print more k-points.

 Eight components of 2nd-order total energy (hartree) are
 1,2,3: 0th-order hamiltonian combined with 1st-order wavefunctions
     kin0=   2.32346106E+01 eigvalue=   3.22011186E+00  local=  -1.48503399E+01
 4,5,6: 1st-order hamiltonian combined with 1st and 0th-order wfs
     kin1=  -2.18725238E+01  Hartree=   0.00000000E+00     xc=   0.00000000E+00
 7,8,9: eventually, occupation + non-local contributions
    edocc=   2.46495186E+00     enl0=   2.08833893E+00   enl1=  -1.04428229E+01
 1-9 gives the relaxation energy (to be shifted if some occ is /=2.0)
   erelax=  -1.61576734E+01
  No Ewald or frozen-wf contrib.: the relaxation energy is the total one
 2DEtotal=   -0.1615767336E+02 Ha. Also 2DEtotal=   -0.439672652010E+03 eV
    (  non-var. 2DEtotal :   -1.6157673357E+01 Ha)

 CALCULATION OF EFFECTIVE MASSES
 NOTE : Additional infos (eff. mass eigenvalues, eigenvectors and, if degenerate, average mass) are available in stdout.

 K-point ( 0.250, 0.250, 0.500) | band =    34
 Effective mass tensor:
             -2.3396911086              0.7786788330             -0.0042941470
              0.7786788330             -2.3395502666              0.0040738337
             -0.0042941470              0.0040738337             -8.4434125841
 Effective mass tensor eigenvalues:
             -8.4434191625             -3.1182929489             -1.5609418479
 Angular average effective mass 1/(<1/m>)=  -2.7783885914
 Angular average effective mass for Frohlich model (<m**0.5>)**2=  -3.1425990933
 Effective masses along directions: (cart. coord. / red. coord. -> eff. mass)
    1:   1.000000  0.000000  0.000000 /   1.000000  0.000000  0.000000 ->  -2.0805203073
    2:   0.000000  1.000000  0.000000 /   0.000000  1.000000  0.000000 ->  -2.0803952607
    3:   0.000000  0.000000  1.000000 /   0.000000  0.000000  1.000000 ->  -8.4434013409
    4:   0.577350  0.577350  0.577350 /   0.472500  0.472500  0.743967 ->  -2.1433470671
    5:   0.000000  0.707107  0.707107 /   0.000000  0.536121  0.844141 ->  -3.3365882238
    6:   0.707107  0.000000  0.707107 /   0.536121  0.000000  0.844141 ->  -3.3402914084
    7:   0.707107  0.707107  0.000000 /   0.707107  0.707107  0.000000 ->  -1.5609418502

 K-point ( 0.000, 0.000, 0.000) | band =    35
 Effective mass tensor:
              0.1962805464             -0.0000000000             -0.0000000047
             -0.0000000000              0.1962805464              0.0000000060
             -0.0000000047              0.0000000060              0.3286350602
 Effective mass tensor eigenvalues:
              0.1962805464              0.1962805464              0.3286350602
 Angular average effective mass 1/(<1/m>)=   0.2267164857
 Angular average effective mass for Frohlich model (<m**0.5>)**2=   0.2303646097
 Effective masses along directions: (cart. coord. / red. coord. -> eff. mass)
    1:   1.000000  0.000000  0.000000 /   1.000000  0.000000  0.000000 ->   0.1962805464
    2:   0.000000  1.000000  0.000000 /   0.000000  1.000000  0.000000 ->   0.1962805464
    3:   0.000000  0.000000  1.000000 /   0.000000  0.000000  1.000000 ->   0.3286350602
    4:   0.577350  0.577350  0.577350 /   0.472500  0.472500  0.743967 ->   0.2267164864
    5:   0.000000  0.707107  0.707107 /   0.000000  0.536121  0.844141 ->   0.2457715863
    6:   0.707107  0.000000  0.707107 /   0.536121  0.000000  0.844141 ->   0.2457715763
    7:   0.707107  0.707107  0.000000 /   0.707107  0.707107  0.000000 ->   0.1962805464

 END OF EFFECTIVE MASSES SECTION

 ---- first-order wavefunction calculations are completed ----

 Total localisation tensor (bohr^2) in cartesian coordinates
  WARNING : still subject to testing - especially symmetries.
      direction              matrix element
   alpha     beta       real part   imaginary part
     1        1       1.5828982432    0.0000000000
     1        2       0.0000000000    0.0000000000
     1        3       0.0000000000    0.0000000000
     2        1       0.0000000000    0.0000000000
     2        2       1.5826975302    0.0000000000
     2        3       0.0000000000    0.0000000000
     3        1       0.0000000000    0.0000000000
     3        2       0.0000000000    0.0000000000
     3        3       1.2777364712    0.0000000000

 respfn : d/dk was computed, but no 2DTE, so no DDB output.

== END DATASET(S) ==============================================================

 -outvars: echo values of variables after computation  --------
            acell      1.0000000000E+00  1.0000000000E+00  1.0000000000E+00 Bohr
              amu      8.54678000E+01  4.00780000E+01  1.21753000E+02
             ecut      4.20000000E+01 Hartree
           etotal     -1.6157673357E+01
            fcart      0.0000000000E+00  0.0000000000E+00  0.0000000000E+00
                       0.0000000000E+00  0.0000000000E+00  0.0000000000E+00
                       0.0000000000E+00  0.0000000000E+00  0.0000000000E+00
                       0.0000000000E+00  0.0000000000E+00  0.0000000000E+00
                       0.0000000000E+00  0.0000000000E+00  0.0000000000E+00
                       0.0000000000E+00  0.0000000000E+00  0.0000000000E+00
-          fftalg         512
           irdden           1
           irdwfk           1
           istwfk        0    1
              ixc     -116133
              kpt      2.50000000E-01  2.50000000E-01  5.00000000E-01
                       0.00000000E+00  0.00000000E+00  0.00000000E+00
           kptopt           0
P           mkmem           2
P          mkqmem           2
P          mk1mem           2
            natom           6
            nband          43
           nbdbuf           4
            ngfft          60      60      96
             nkpt           2
            nstep        1000
             nsym          16
           ntypat           3
              occ      2.000000  2.000000  2.000000  2.000000  2.000000  2.000000
                       2.000000  2.000000  2.000000  2.000000  2.000000  2.000000
                       2.000000  2.000000  2.000000  2.000000  2.000000  2.000000
                       2.000000  2.000000  2.000000  2.000000  2.000000  2.000000
                       2.000000  2.000000  2.000000  2.000000  2.000000  2.000000
                       2.000000  2.000000  2.000000  2.000000  0.000000  0.000000
                       0.000000  0.000000  0.000000  0.000000  0.000000  0.000000
                       0.000000
        optdriver           1
            prtwf          -1
            rfdir           1       1       1
           rfelfd           2
            rprim      1.0066067454E+01  0.0000000000E+00  0.0000000000E+00
                       0.0000000000E+00  1.0066067454E+01  0.0000000000E+00
                       0.0000000000E+00  0.0000000000E+00  1.5849354653E+01
          spgroup         129
           strten      0.0000000000E+00  0.0000000000E+00  0.0000000000E+00
                       0.0000000000E+00  0.0000000000E+00  0.0000000000E+00
           symrel      1  0  0   0  1  0   0  0  1      -1  0  0   0 -1  0   0  0 -1
                      -1  0  0   0  1  0   0  0 -1       1  0  0   0 -1  0   0  0  1
                      -1  0  0   0 -1  0   0  0  1       1  0  0   0  1  0   0  0 -1
                       1  0  0   0 -1  0   0  0 -1      -1  0  0   0  1  0   0  0  1
                       0  1  0   1  0  0   0  0  1       0 -1  0  -1  0  0   0  0 -1
                       0 -1  0   1  0  0   0  0 -1       0  1  0  -1  0  0   0  0  1
                       0 -1  0  -1  0  0   0  0  1       0  1  0   1  0  0   0  0 -1
                       0  1  0  -1  0  0   0  0 -1       0 -1  0   1  0  0   0  0  1
            tnons      0.0000000  0.0000000  0.0000000     0.5000000  0.5000000 -0.0000000
                       0.5000000  0.5000000 -0.0000000     0.0000000  0.0000000  0.0000000
                       0.0000000  0.0000000  0.0000000     0.5000000  0.5000000 -0.0000000
                       0.5000000  0.5000000 -0.0000000     0.0000000  0.0000000  0.0000000
                       0.5000000  0.5000000  0.0000000     0.0000000  0.0000000 -0.0000000
                       0.0000000  0.0000000 -0.0000000     0.5000000  0.5000000  0.0000000
                       0.5000000  0.5000000  0.0000000     0.0000000  0.0000000 -0.0000000
                       0.0000000  0.0000000 -0.0000000     0.5000000  0.5000000  0.0000000
           tolwfr      1.00000000E-20
            typat      1  1  2  2  3  3
           useylm           1
              wtk        0.50000    0.50000
           xangst      2.6633667384E+00  0.0000000000E+00  5.3318162447E+00
                       0.0000000000E+00  2.6633667384E+00  3.0553010086E+00
                       2.6633667384E+00  2.6633667384E+00  0.0000000000E+00
                       0.0000000000E+00  0.0000000000E+00  0.0000000000E+00
                       0.0000000000E+00  2.6633667384E+00  6.7364319325E+00
                       2.6633667384E+00  0.0000000000E+00  1.6506853209E+00
            xcart      5.0330337270E+00  0.0000000000E+00  1.0075672493E+01
                       0.0000000000E+00  5.0330337270E+00  5.7736821598E+00
                       5.0330337270E+00  5.0330337270E+00  0.0000000000E+00
                       0.0000000000E+00  0.0000000000E+00  0.0000000000E+00
                       0.0000000000E+00  5.0330337270E+00  1.2730011465E+01
                       5.0330337270E+00  0.0000000000E+00  3.1193431880E+00
             xred      5.0000000000E-01  0.0000000000E+00  6.3571500000E-01
                       0.0000000000E+00  5.0000000000E-01  3.6428500000E-01
                       5.0000000000E-01  5.0000000000E-01  0.0000000000E+00
                       0.0000000000E+00  0.0000000000E+00  0.0000000000E+00
                       0.0000000000E+00  5.0000000000E-01  8.0318800000E-01
                       5.0000000000E-01  0.0000000000E+00  1.9681200000E-01
            znucl       37.00000   20.00000   51.00000

- Timing analysis has been suppressed with timopt=0

 Suggested references for the acknowledgment of ABINIT usage.

 Calculation completed.
.Delivered  14 WARNINGs and   9 COMMENTs to log file.