.Version 9.5.2 of ABINIT

 ABINIT is a project of the Universite Catholique de Louvain,
 Corning Inc. and other collaborators, see ~abinit/doc/developers/contributors.txt .
 acknowledgments of the ABINIT effort.

.Starting date : Mon 24 May 2021.
- ( at 20h55 )

- input  file    -> /scratch/users/j/a/jabreu/flow_simple_10atoms/flow/w394/t1/run.abi
- output file    -> /scratch/users/j/a/jabreu/flow_simple_10atoms/flow/w394/t1/run.abo
- root for input  files -> /scratch/users/j/a/jabreu/flow_simple_10atoms/flow/w394/t1/indata/in
- root for output files -> /scratch/users/j/a/jabreu/flow_simple_10atoms/flow/w394/t1/outdata/out

 Symmetries : space group Cm c m (# 63); Bravais oC (1-face-center ortho.)
     intxc =       0      iscf =       7    lmnmax =      18     lnmax =       6
     mgfft =      90  mpssoang =       3    mqgrid =    3415     natom =      10
  nloc_mem =       1    nspden =       1   nspinor =       1    nsppol =       1
      nsym =       8    n1xccc =    2501    ntypat =       3    occopt =       1
   xclevel =       2
-    mband =          55        mffmem =           1         mkmem =           2
-   mkqmem =           2        mk1mem =           2           mpw =       26290
      nfft =      583200          nkpt =           2
  Rough estimation (10% accuracy) of disk space for files :

------------- Echo of variables that govern the present computation ------------
-
- outvars: echo of selected default values
-   iomode0 =  0 , fftalg0 =512 , wfoptalg0 =  0
-
- outvars: echo of global parameters not present in the input file
-  max_nthreads =    0
-
 -outvars: echo values of preprocessed input variables --------
            acell      1.0000000000E+00  1.0000000000E+00  1.0000000000E+00 Bohr
              amu      3.90983000E+01  5.86900000E+01  3.09737620E+01
             ecut      4.90000000E+01 Hartree
-          fftalg         512
           irdden           1
           irdwfk           1
              ixc     -116133
              kpt     -5.00000000E-01  5.00000000E-01  0.00000000E+00
                      -3.03548246E-01  6.96451754E-01  3.33333333E-01
           kptopt           0
P           mkmem           2
P          mkqmem           2
P          mk1mem           2
            natom          10
            nband          55
           nbdbuf           4
            ngfft          90      90      72
             nkpt           2
            nstep        2000
             nsym           8
           ntypat           3
              occ      2.000000  2.000000  2.000000  2.000000  2.000000  2.000000
                       2.000000  2.000000  2.000000  2.000000  2.000000  2.000000
                       2.000000  2.000000  2.000000  2.000000  2.000000  2.000000
                       2.000000  2.000000  2.000000  2.000000  2.000000  2.000000
                       2.000000  2.000000  2.000000  2.000000  2.000000  2.000000
                       2.000000  2.000000  2.000000  2.000000  2.000000  2.000000
                       2.000000  2.000000  2.000000  2.000000  2.000000  2.000000
                       2.000000  2.000000  2.000000  2.000000  0.000000  0.000000
                       0.000000  0.000000  0.000000  0.000000  0.000000  0.000000
                       0.000000
        optdriver           1
            prtwf          -1
            rfdir           1       1       1
           rfelfd           2
            rprim      1.4212024450E+01  0.0000000000E+00  0.0000000000E+00
                      -9.1978035727E+00  1.0834299628E+01  0.0000000000E+00
                       0.0000000000E+00  0.0000000000E+00  1.0403466772E+01
          spgroup          63
           symrel      1  0  0   0  1  0   0  0  1      -1  0  0   0 -1  0   0  0 -1
                       0  1  0   1  0  0   0  0 -1       0 -1  0  -1  0  0   0  0  1
                      -1  0  0   0 -1  0   0  0  1       1  0  0   0  1  0   0  0 -1
                       0 -1  0  -1  0  0   0  0 -1       0  1  0   1  0  0   0  0  1
            tnons      0.0000000  0.0000000  0.0000000     0.0000000  0.0000000  0.0000000
                       0.0000000  0.0000000  0.0000000     0.0000000  0.0000000  0.0000000
                       0.0000000  0.0000000  0.5000000     0.0000000  0.0000000  0.5000000
                       0.0000000  0.0000000  0.5000000     0.0000000  0.0000000  0.5000000
           tolwfr      1.00000000E-20
            typat      1  1  1  1  2  2  3  3  3  3
           useylm           1
              wtk        0.50000    0.50000
           xangst      2.3642334662E+00  2.3864541208E+00  1.3763193765E+00
                      -2.2349159029E+00  4.5149858746E+00  1.3763193765E+00
                       2.8917794116E-01  3.3468103131E+00  4.1289581295E+00
                       4.8883273103E+00  1.2182785594E+00  4.1289581295E+00
                       0.0000000000E+00  0.0000000000E+00  0.0000000000E+00
                       0.0000000000E+00  0.0000000000E+00  2.7526387530E+00
                       9.5278383520E-01  5.3190532784E+00  1.3763193765E+00
                       3.4382644471E+00  4.1687483021E+00  4.1289581295E+00
                       1.7006275722E+00  4.1421115556E-01  4.1289581295E+00
                      -7.8485303973E-01  1.5645161318E+00  1.3763193765E+00
            xcart      4.4677537653E+00  4.5097447170E+00  2.6008666929E+00
                      -4.2233789866E+00  8.5320867968E+00  2.6008666929E+00
                       5.4646711247E-01  6.3245549105E+00  7.8026000789E+00
                       9.2375998644E+00  2.3022128307E+00  7.8026000789E+00
                       0.0000000000E+00  0.0000000000E+00  0.0000000000E+00
                       0.0000000000E+00  0.0000000000E+00  5.2017333859E+00
                       1.8005005124E+00  1.0051553982E+01  2.6008666929E+00
                       6.4973781775E+00  7.8777926079E+00  7.8026000789E+00
                       3.2137203654E+00  7.8274564519E-01  7.8026000789E+00
                      -1.4831572997E+00  2.9565070196E+00  2.6008666929E+00
             xred      5.8375300000E-01  4.1624700000E-01  2.5000000000E-01
                       2.1249300000E-01  7.8750700000E-01  2.5000000000E-01
                       4.1624700000E-01  5.8375300000E-01  7.5000000000E-01
                       7.8750700000E-01  2.1249300000E-01  7.5000000000E-01
                       0.0000000000E+00  0.0000000000E+00  0.0000000000E+00
                       0.0000000000E+00  0.0000000000E+00  5.0000000000E-01
                       7.2711600000E-01  9.2775300000E-01  2.5000000000E-01
                       9.2775300000E-01  7.2711600000E-01  7.5000000000E-01
                       2.7288400000E-01  7.2247000000E-02  7.5000000000E-01
                       7.2247000000E-02  2.7288400000E-01  2.5000000000E-01
            znucl       19.00000   28.00000   15.00000

 chkinp: Checking input parameters for consistency.

== DATASET  1 ==================================================================
-   mpi_nproc: 1, omp_nthreads: -1 (-1 if OMP is not activated)

--- !DatasetInfo
iteration_state: {dtset: 1, }
dimensions: {natom: 10, nkpt: 2, mband: 55, nsppol: 1, nspinor: 1, nspden: 1, mpw: 26290, }
cutoff_energies: {ecut:  49.0, pawecutdg:  -1.0, }
electrons: {nelect:   9.20000000E+01, charge:   0.00000000E+00, occopt:   1.00000000E+00, tsmear:   1.00000000E-02, }
meta: {optdriver: 1, rfelfd: 2, }
...

 Real(R)+Recip(G) space primitive vectors, cartesian coordinates (Bohr,Bohr^-1):
 R(1)= 14.2120245  0.0000000  0.0000000  G(1)=  0.0703630  0.0597348  0.0000000
 R(2)= -9.1978036 10.8342996  0.0000000  G(2)=  0.0000000  0.0922995  0.0000000
 R(3)=  0.0000000  0.0000000 10.4034668  G(3)=  0.0000000  0.0000000  0.0961218
 Unit cell volume ucvol=  1.6018980E+03 bohr^3
 Angles (23,13,12)=  9.00000000E+01  9.00000000E+01  1.30329669E+02 degrees

 getcut: wavevector=  0.0000  0.0000  0.0000  ngfft=  90  90  72
         ecut(hartree)=     49.000   => boxcut(ratio)=   2.00968

--- Pseudopotential description ------------------------------------------------
- pspini: atom type   1  psp file is /scratch/users/j/a/jabreu/pseudos/PBEsol/K.psp8
- pspatm: opening atomic psp file    /scratch/users/j/a/jabreu/pseudos/PBEsol/K.psp8
- K     ONCVPSP-3.3.0  r_core=   1.36296   1.46408   1.61068
- 19.00000   9.00000    180112                znucl, zion, pspdat
    8 -116133    2    4       400   0.00000   pspcod,pspxc,lmax,lloc,mmax,r2well
    3.99000000000000    5.00000000000000    0.00000000000000   rchrg,fchrg,qchrg
     nproj     2     2     2
     extension_switch     1
  pspatm : epsatm=    8.32487830
         --- l  ekb(1:nproj) -->
             0   10.921326    0.816676
             1    4.431000    0.560368
             2   -3.384038   -1.043186
 pspatm: atomic psp has been read  and splines computed

- pspini: atom type   2  psp file is /scratch/users/j/a/jabreu/pseudos/PBEsol/Ni.psp8
- pspatm: opening atomic psp file    /scratch/users/j/a/jabreu/pseudos/PBEsol/Ni.psp8
- Ni    ONCVPSP-3.3.0  r_core=   1.26116   1.35474   1.65929
- 28.00000  18.00000    180112                znucl, zion, pspdat
    8 -116133    2    4       600   0.00000   pspcod,pspxc,lmax,lloc,mmax,r2well
    5.99000000000000    3.00000000000000    0.00000000000000   rchrg,fchrg,qchrg
     nproj     2     2     2
     extension_switch     1
  pspatm : epsatm=   19.57179442
         --- l  ekb(1:nproj) -->
             0    6.241516   -0.251675
             1   -2.865987   -0.396303
             2   -7.254374   -2.547636
 pspatm: atomic psp has been read  and splines computed

- pspini: atom type   3  psp file is /scratch/users/j/a/jabreu/pseudos/PBEsol/P.psp8
- pspatm: opening atomic psp file    /scratch/users/j/a/jabreu/pseudos/PBEsol/P.psp8
- P     ONCVPSP-3.3.0  r_core=   1.46089   1.55067   1.70594
- 15.00000   5.00000    180112                znucl, zion, pspdat
    8 -116133    2    4       600   0.00000   pspcod,pspxc,lmax,lloc,mmax,r2well
    5.99000000000000    5.00000000000000    0.00000000000000   rchrg,fchrg,qchrg
     nproj     2     2     2
     extension_switch     1
  pspatm : epsatm=    7.31221086
         --- l  ekb(1:nproj) -->
             0    6.742364    1.063650
             1    3.449117    0.910422
             2   -3.077645   -0.799176
 pspatm: atomic psp has been read  and splines computed

   9.35565898E+03                                ecore*ucvol(ha*bohr**3)

 ==>  initialize data related to q vector <==

 The list of irreducible perturbations for this q vector is:
    1)    idir= 1    ipert=  11
    2)    idir= 2    ipert=  11
    3)    idir= 3    ipert=  11

 Perturbation wavevector (in red.coord.)   0.000000  0.000000  0.000000
 Perturbation : derivative vs k along direction   1

 dfpt_looppert : COMMENT -
  In a d/dk calculation, iscf is set to -3 automatically.
 The set of symmetries contains only one element for this perturbation.
 symkpt : not enough symmetry to change the number of k points.

 Initialisation of the first-order wave-functions :
  ireadwf=   0

--- !BeginCycle
iteration_state: {dtset: 1, }
solver: {iscf: 7, nstep: 2000, nline: 4, wfoptalg: 0, }
tolerances: {tolwfr: 1.00E-20, }
...

[...]
 At SCF step   32   max residual=  9.88E-21 < tolwfr=  1.00E-20 =>converged.

 ----iterations are completed or convergence reached----

 dfpt_looppert: DFPT cycle converged with prtwf=-1. Will skip output of the 1st-order WFK file.
 dfpt_looppert : ek2=    6.1883643513E+01
          f-sum rule ratio=    9.8133522651E-01
 prteigrs : about to open file /scratch/users/j/a/jabreu/flow_simple_10atoms/flow/w394/t1/tmpdata/tmp_1WF1_EIG
 Expectation of eigenvalue derivatives (hartree) for nkpt=   2  k points:
  (in case of degenerate eigenvalues, averaged derivative)
 kpt#   1, nband= 55, wtk=  0.50000, kpt= -0.5000  0.5000  0.0000 (reduced coord)
  -0.00000    0.00000    0.00000   -0.00000    0.00000    0.00000   -0.00000    0.00000
  -0.00000    0.00000   -0.00000    0.00000    0.00000    0.00000   -0.00000    0.00000
  -0.00000    0.00000   -0.00000    0.00000   -0.00000    0.00000   -0.00000    0.00000
   0.00000   -0.00000   -0.00000   -0.00000   -0.00000   -0.00000    0.00000    0.00000
  -0.00000    0.00000    0.00000   -0.00000   -0.00000    0.00000   -0.00000    0.00000
   0.00000   -0.00000    0.00000   -0.00000   -0.00000   -0.00000   -0.00000    0.00000
   0.00000    0.00000   -0.00000   -0.00000    0.00000    0.00000   -0.00020
 prteigrs : prtvol=0 or 1, do not print more k-points.

 Eight components of 2nd-order total energy (hartree) are
 1,2,3: 0th-order hamiltonian combined with 1st-order wavefunctions
     kin0=   5.12373642E+01 eigvalue=   1.18618153E+00  local=  -2.73178624E+01
 4,5,6: 1st-order hamiltonian combined with 1st and 0th-order wfs
     kin1=  -6.07285993E+01  Hartree=   0.00000000E+00     xc=   0.00000000E+00
 7,8,9: eventually, occupation + non-local contributions
    edocc=   5.18894467E+00     enl0=  -1.00593412E-01   enl1=   3.40530214E-01
 1-9 gives the relaxation energy (to be shifted if some occ is /=2.0)
   erelax=  -3.01940346E+01
  No Ewald or frozen-wf contrib.: the relaxation energy is the total one
 2DEtotal=   -0.3019403456E+02 Ha. Also 2DEtotal=   -0.821621464571E+03 eV
    (  non-var. 2DEtotal :   -3.0194034555E+01 Ha)

 Perturbation wavevector (in red.coord.)   0.000000  0.000000  0.000000
 Perturbation : derivative vs k along direction   2
 The set of symmetries contains only one element for this perturbation.
 symkpt : not enough symmetry to change the number of k points.

[...]

 Perturbation wavevector (in red.coord.)   0.000000  0.000000  0.000000
 Perturbation : derivative vs k along direction   3
 The set of symmetries contains only one element for this perturbation.
 symkpt : not enough symmetry to change the number of k points.

 Initialisation of the first-order wave-functions :
  ireadwf=   0

--- !BeginCycle
iteration_state: {dtset: 1, }
solver: {iscf: 7, nstep: 2000, nline: 4, wfoptalg: 0, }
tolerances: {tolwfr: 1.00E-20, }
...

     iter   2DEtotal(Ha)        deltaE(Ha) residm    vres2
-ETOT  1  -32.997096711072     -3.300E+01 9.711E-02 0.000E+00
 ETOT  2  -33.264204174643     -2.671E-01 9.607E-03 0.000E+00
 ETOT  3  -33.279649262708     -1.545E-02 2.873E-03 0.000E+00
 ETOT  4  -33.281177350781     -1.528E-03 1.947E-04 0.000E+00
 ETOT  5  -33.281357572308     -1.802E-04 2.406E-05 0.000E+00
 ETOT  6  -33.281380441602     -2.287E-05 6.492E-06 0.000E+00
 ETOT  7  -33.281383501574     -3.060E-06 7.679E-07 0.000E+00
 ETOT  8  -33.281383925287     -4.237E-07 2.425E-07 0.000E+00
 ETOT  9  -33.281383985737     -6.045E-08 2.922E-08 0.000E+00
 ETOT 10  -33.281383994567     -8.829E-09 9.508E-09 0.000E+00
 ETOT 11  -33.281383995882     -1.315E-09 1.157E-09 0.000E+00
 ETOT 12  -33.281383996081     -1.993E-10 3.826E-10 0.000E+00
 ETOT 13  -33.281383996112     -3.064E-11 4.697E-11 0.000E+00
 ETOT 14  -33.281383996117     -4.739E-12 1.568E-11 0.000E+00
 ETOT 15  -33.281383996117     -7.745E-13 1.955E-12 0.000E+00
 ETOT 16  -33.281383996118     -1.066E-13 6.555E-13 0.000E+00
 ETOT 17  -33.281383996118     -6.395E-14 8.395E-14 0.000E+00
 ETOT 18  -33.281383996118      4.974E-14 2.822E-14 0.000E+00
 ETOT 19  -33.281383996118     -2.132E-14 3.773E-15 0.000E+00
 ETOT 20  -33.281383996118     -7.105E-15 1.275E-15 0.000E+00
 ETOT 21  -33.281383996118     -1.421E-14 1.812E-16 0.000E+00
 ETOT 22  -33.281383996118      2.132E-14 6.193E-17 0.000E+00
 ETOT 23  -33.281383996118     -1.421E-14 9.493E-18 0.000E+00
 ETOT 24  -33.281383996118      0.000E+00 3.293E-18 0.000E+00
 ETOT 25  -33.281383996118      0.000E+00 5.445E-19 0.000E+00
 ETOT 26  -33.281383996118      2.842E-14 1.916E-19 0.000E+00
 ETOT 27  -33.281383996118     -2.132E-14 3.365E-20 0.000E+00
 ETOT 28  -33.281383996118      0.000E+00 1.195E-20 0.000E+00
 ETOT 29  -33.281383996118      1.421E-14 9.843E-21 0.000E+00

 At SCF step   29   max residual=  9.84E-21 < tolwfr=  1.00E-20 =>converged.

 ----iterations are completed or convergence reached----

 dfpt_looppert: DFPT cycle converged with prtwf=-1. Will skip output of the 1st-order WFK file.
 dfpt_looppert : ek2=    6.7115277615E+01
          f-sum rule ratio=    1.0020532498E+00
 prteigrs : about to open file /scratch/users/j/a/jabreu/flow_simple_10atoms/flow/w394/t1/tmpdata/tmp_1WF1_EIG
 Expectation of eigenvalue derivatives (hartree) for nkpt=   2  k points:
  (in case of degenerate eigenvalues, averaged derivative)
 kpt#   1, nband= 55, wtk=  0.50000, kpt= -0.5000  0.5000  0.0000 (reduced coord)
  -0.00000   -0.00000    0.00000    0.00000   -0.00000    0.00000    0.00000   -0.00000
  -0.00000    0.00000    0.00000   -0.00000    0.00000    0.00000   -0.00000    0.00000
   0.00000    0.00000   -0.00000   -0.00000   -0.00000   -0.00000   -0.00000   -0.00000
  -0.00000   -0.00000   -0.00000   -0.00000   -0.00000    0.00000    0.00000   -0.00000
   0.00000   -0.00000   -0.00000   -0.00000    0.00000    0.00000    0.00000    0.00000
  -0.00000   -0.00000    0.00000    0.00000   -0.00000   -0.00000   -0.00000   -0.00000
   0.00000   -0.00000   -0.00000   -0.00000   -0.00000    0.00000    0.00000
 prteigrs : prtvol=0 or 1, do not print more k-points.

 Eight components of 2nd-order total energy (hartree) are
 1,2,3: 0th-order hamiltonian combined with 1st-order wavefunctions
     kin0=   5.62870878E+01 eigvalue=   1.44969072E+00  local=  -2.98034765E+01
 4,5,6: 1st-order hamiltonian combined with 1st and 0th-order wfs
     kin1=  -6.72530820E+01  Hartree=   0.00000000E+00     xc=   0.00000000E+00
 7,8,9: eventually, occupation + non-local contributions
    edocc=   5.83703050E+00     enl0=  -4.88948555E-01   enl1=   6.90314054E-01
 1-9 gives the relaxation energy (to be shifted if some occ is /=2.0)
   erelax=  -3.32813840E+01
  No Ewald or frozen-wf contrib.: the relaxation energy is the total one
 2DEtotal=   -0.3328138400E+02 Ha. Also 2DEtotal=   -0.905632515310E+03 eV
    (  non-var. 2DEtotal :   -3.3281383996E+01 Ha)

 CALCULATION OF EFFECTIVE MASSES
 NOTE : Additional infos (eff. mass eigenvalues, eigenvectors and, if degenerate, average mass) are available in stdout.

 K-point (-0.500, 0.500, 0.000) | band =    46
 Effective mass tensor:
            -34.8556609834             -8.0160118521              0.0000000091
             -8.0160118521            -48.4660864370              0.0000000204
              0.0000000091              0.0000000204             -0.3610047588
 Effective mass tensor eigenvalues:
            -52.1759755295            -31.1457718909             -0.3610047588
 Angular average effective mass 1/(<1/m>)=  -1.0633322144
 Angular average effective mass for Frohlich model (<m**0.5>)**2=  -3.3679005648
 Effective masses along directions: (cart. coord. / red. coord. -> eff. mass)
    1:   1.000000  0.000000  0.000000 /   0.839522 -0.543326  0.000000 -> -33.5298587424
    2:   0.000000  1.000000  0.000000 /   0.000000  1.000000  0.000000 -> -46.6225854332
    3:   0.000000  0.000000  1.000000 /   0.000000  0.000000  1.000000 ->  -0.3610047588
    4:   0.577350  0.577350  0.577350 /   0.803450  0.092516  0.588140 ->  -1.0670634830
    5:   0.000000  0.707107  0.707107 /   0.000000  0.721303  0.692620 ->  -0.7164618593
    6:   0.707107  0.000000  0.707107 /   0.715254 -0.462901  0.523579 ->  -0.7143186872
    7:   0.707107  0.707107  0.000000 /   0.993436  0.114393  0.000000 -> -48.3004221827

 K-point (-0.304, 0.696, 0.333) | band =    47
 Effective mass tensor:
              1.1906000628             -0.1689758396             -0.1690707080
             -0.1689758396              0.9034602401             -0.3644779071
             -0.1690707080             -0.3644779071              1.5758435455
 Effective mass tensor eigenvalues:
              0.6507902863              1.2687620401              1.7503515220
 Angular average effective mass 1/(<1/m>)=   1.0358840661
 Angular average effective mass for Frohlich model (<m**0.5>)**2=   1.0928246790
 Effective masses along directions: (cart. coord. / red. coord. -> eff. mass)
    1:   1.000000  0.000000  0.000000 /   0.839522 -0.543326  0.000000 ->   1.1196047515
    2:   0.000000  1.000000  0.000000 /   0.000000  1.000000  0.000000 ->   0.7822312258
    3:   0.000000  0.000000  1.000000 /   0.000000  0.000000  1.000000 ->   1.3802426998
    4:   0.577350  0.577350  0.577350 /   0.803450  0.092516  0.588140 ->   0.6998734268
    5:   0.000000  0.707107  0.707107 /   0.000000  0.721303  0.692620 ->   0.7567302730
    6:   0.707107  0.000000  0.707107 /   0.715254 -0.462901  0.523579 ->   1.0447745667
    7:   0.707107  0.707107  0.000000 /   0.993436  0.114393  0.000000 ->   0.7618095284

 END OF EFFECTIVE MASSES SECTION

 ---- first-order wavefunction calculations are completed ----

 Total localisation tensor (bohr^2) in cartesian coordinates
  WARNING : still subject to testing - especially symmetries.
      direction              matrix element
   alpha     beta       real part   imaginary part
     1        1       2.2251537760    0.0000000000
     1        2      -0.7737415367    0.0000000000
     1        3       0.0000000000    0.0000000000
     2        1      -0.7737415367    0.0000000000
     2        2       0.9114075525    0.0000000000
     2        3       0.0000000000    0.0000000000
     3        1       0.0000000000    0.0000000000
     3        2       0.0000000000    0.0000000000
     3        3       1.2027242911    0.0000000000

 respfn : d/dk was computed, but no 2DTE, so no DDB output.

== END DATASET(S) ==============================================================

 -outvars: echo values of variables after computation  --------
            acell      1.0000000000E+00  1.0000000000E+00  1.0000000000E+00 Bohr
              amu      3.90983000E+01  5.86900000E+01  3.09737620E+01
             ecut      4.90000000E+01 Hartree
           etotal     -3.3281383996E+01
            fcart      0.0000000000E+00  0.0000000000E+00  0.0000000000E+00
                       0.0000000000E+00  0.0000000000E+00  0.0000000000E+00
                       0.0000000000E+00  0.0000000000E+00  0.0000000000E+00
                       0.0000000000E+00  0.0000000000E+00  0.0000000000E+00
                       0.0000000000E+00  0.0000000000E+00  0.0000000000E+00
                       0.0000000000E+00  0.0000000000E+00  0.0000000000E+00
                       0.0000000000E+00  0.0000000000E+00  0.0000000000E+00
                       0.0000000000E+00  0.0000000000E+00  0.0000000000E+00
                       0.0000000000E+00  0.0000000000E+00  0.0000000000E+00
                       0.0000000000E+00  0.0000000000E+00  0.0000000000E+00
-          fftalg         512
           irdden           1
           irdwfk           1
              ixc     -116133
              kpt     -5.00000000E-01  5.00000000E-01  0.00000000E+00
                      -3.03548246E-01  6.96451754E-01  3.33333333E-01
           kptopt           0
P           mkmem           2
P          mkqmem           2
P          mk1mem           2
            natom          10
            nband          55
           nbdbuf           4
            ngfft          90      90      72
             nkpt           2
            nstep        2000
             nsym           8
           ntypat           3
              occ      2.000000  2.000000  2.000000  2.000000  2.000000  2.000000
                       2.000000  2.000000  2.000000  2.000000  2.000000  2.000000
                       2.000000  2.000000  2.000000  2.000000  2.000000  2.000000
                       2.000000  2.000000  2.000000  2.000000  2.000000  2.000000
                       2.000000  2.000000  2.000000  2.000000  2.000000  2.000000
                       2.000000  2.000000  2.000000  2.000000  2.000000  2.000000
                       2.000000  2.000000  2.000000  2.000000  2.000000  2.000000
                       2.000000  2.000000  2.000000  2.000000  0.000000  0.000000
                       0.000000  0.000000  0.000000  0.000000  0.000000  0.000000
                       0.000000
        optdriver           1
            prtwf          -1
            rfdir           1       1       1
           rfelfd           2
            rprim      1.4212024450E+01  0.0000000000E+00  0.0000000000E+00
                      -9.1978035727E+00  1.0834299628E+01  0.0000000000E+00
                       0.0000000000E+00  0.0000000000E+00  1.0403466772E+01
          spgroup          63
           strten      0.0000000000E+00  0.0000000000E+00  0.0000000000E+00
                       0.0000000000E+00  0.0000000000E+00  0.0000000000E+00
           symrel      1  0  0   0  1  0   0  0  1      -1  0  0   0 -1  0   0  0 -1
                       0  1  0   1  0  0   0  0 -1       0 -1  0  -1  0  0   0  0  1
                      -1  0  0   0 -1  0   0  0  1       1  0  0   0  1  0   0  0 -1
                       0 -1  0  -1  0  0   0  0 -1       0  1  0   1  0  0   0  0  1
            tnons      0.0000000  0.0000000  0.0000000     0.0000000  0.0000000  0.0000000
                       0.0000000  0.0000000  0.0000000     0.0000000  0.0000000  0.0000000
                       0.0000000  0.0000000  0.5000000     0.0000000  0.0000000  0.5000000
                       0.0000000  0.0000000  0.5000000     0.0000000  0.0000000  0.5000000
           tolwfr      1.00000000E-20
            typat      1  1  1  1  2  2  3  3  3  3
           useylm           1
              wtk        0.50000    0.50000
           xangst      2.3642334662E+00  2.3864541208E+00  1.3763193765E+00
                      -2.2349159029E+00  4.5149858746E+00  1.3763193765E+00
                       2.8917794116E-01  3.3468103131E+00  4.1289581295E+00
                       4.8883273103E+00  1.2182785594E+00  4.1289581295E+00
                       0.0000000000E+00  0.0000000000E+00  0.0000000000E+00
                       0.0000000000E+00  0.0000000000E+00  2.7526387530E+00
                       9.5278383520E-01  5.3190532784E+00  1.3763193765E+00
                       3.4382644471E+00  4.1687483021E+00  4.1289581295E+00
                       1.7006275722E+00  4.1421115556E-01  4.1289581295E+00
                      -7.8485303973E-01  1.5645161318E+00  1.3763193765E+00
            xcart      4.4677537653E+00  4.5097447170E+00  2.6008666929E+00
                      -4.2233789866E+00  8.5320867968E+00  2.6008666929E+00
                       5.4646711247E-01  6.3245549105E+00  7.8026000789E+00
                       9.2375998644E+00  2.3022128307E+00  7.8026000789E+00
                       0.0000000000E+00  0.0000000000E+00  0.0000000000E+00
                       0.0000000000E+00  0.0000000000E+00  5.2017333859E+00
                       1.8005005124E+00  1.0051553982E+01  2.6008666929E+00
                       6.4973781775E+00  7.8777926079E+00  7.8026000789E+00
                       3.2137203654E+00  7.8274564519E-01  7.8026000789E+00
                      -1.4831572997E+00  2.9565070196E+00  2.6008666929E+00
             xred      5.8375300000E-01  4.1624700000E-01  2.5000000000E-01
                       2.1249300000E-01  7.8750700000E-01  2.5000000000E-01
                       4.1624700000E-01  5.8375300000E-01  7.5000000000E-01
                       7.8750700000E-01  2.1249300000E-01  7.5000000000E-01
                       0.0000000000E+00  0.0000000000E+00  0.0000000000E+00
                       0.0000000000E+00  0.0000000000E+00  5.0000000000E-01
                       7.2711600000E-01  9.2775300000E-01  2.5000000000E-01
                       9.2775300000E-01  7.2711600000E-01  7.5000000000E-01
                       2.7288400000E-01  7.2247000000E-02  7.5000000000E-01
                       7.2247000000E-02  2.7288400000E-01  2.5000000000E-01
            znucl       19.00000   28.00000   15.00000

- Timing analysis has been suppressed with timopt=0

 Suggested references for the acknowledgment of ABINIT usage.

 Calculation completed.
.Delivered   2 WARNINGs and   7 COMMENTs to log file.