.Version 9.5.1 of ABINIT

 ABINIT is a project of the Universite Catholique de Louvain,
 Corning Inc. and other collaborators, see ~abinit/doc/developers/contributors.txt .
 acknowledgments of the ABINIT effort.

.Starting date : Tue 27 Apr 2021.
- ( at 15h32 )

- input  file    -> /scratch/users/j/a/jabreu/flow_simple/flow/w142/t1/run.abi
- output file    -> /scratch/users/j/a/jabreu/flow_simple/flow/w142/t1/run.abo
- root for input  files -> /scratch/users/j/a/jabreu/flow_simple/flow/w142/t1/indata/in
- root for output files -> /scratch/users/j/a/jabreu/flow_simple/flow/w142/t1/outdata/out

 Symmetries : space group F-4 3 m (#216); Bravais cF (face-center cubic)
     intxc =       0      iscf =       7    lmnmax =      18     lnmax =       6
     mgfft =      54  mpssoang =       3    mqgrid =    3001     natom =       3
  nloc_mem =       1    nspden =       1   nspinor =       1    nsppol =       1
      nsym =      24    n1xccc =    2501    ntypat =       3    occopt =       1
   xclevel =       2
-    mband =          23        mffmem =           1         mkmem =           2
-   mkqmem =           2        mk1mem =           2           mpw =        6314
      nfft =      157464          nkpt =           2
  Rough estimation (10% accuracy) of disk space for files :

------------- Echo of variables that govern the present computation ------------
-
- outvars: echo of selected default values
-   iomode0 =  0 , fftalg0 =512 , wfoptalg0 =  0
-
- outvars: echo of global parameters not present in the input file
-  max_nthreads =    0
-
 -outvars: echo values of preprocessed input variables --------
            acell      1.0000000000E+00  1.0000000000E+00  1.0000000000E+00 Bohr
              amu      6.94100000E+00  4.00780000E+01  7.49215900E+01
             ecut      4.20000000E+01 Hartree
-          fftalg         512
           irdden           1
           irdwfk           1
           istwfk        0    1
              ixc     -116133
              kpt      1.45161290E-01  1.45161290E-01  2.90322581E-01
                       5.00000000E-01  2.91078898E-17  5.00000000E-01
           kptopt           0
P           mkmem           2
P          mkqmem           2
P          mk1mem           2
            natom           3
            nband          23
           nbdbuf           4
            ngfft          54      54      54
             nkpt           2
            nstep         100
             nsym          24
           ntypat           3
              occ      2.000000  2.000000  2.000000  2.000000  2.000000  2.000000
                       2.000000  2.000000  2.000000  2.000000  2.000000  2.000000
                       2.000000  2.000000  0.000000  0.000000  0.000000  0.000000
                       0.000000  0.000000  0.000000  0.000000  0.000000
        optdriver           1
            prtwf          -1
            rfdir           1       1       1
           rfelfd           2
            rprim      7.6252634376E+00  0.0000000000E+00  4.4024478984E+00
                       2.5417544792E+00  7.1891673134E+00  4.4024478984E+00
                       0.0000000000E+00  0.0000000000E+00  8.8048957967E+00
          spgroup         216
           symrel      1  0  0   0  1  0   0  0  1       0 -1  1   0 -1  0   1 -1  0
                      -1  0  0  -1  0  1  -1  1  0       0  1 -1   1  0 -1   0  0 -1
                      -1  0  0  -1  1  0  -1  0  1       0 -1  1   1 -1  0   0 -1  0
                       1  0  0   0  0  1   0  1  0       0  1 -1   0  0 -1   1  0 -1
                      -1  0  1  -1  1  0  -1  0  0       0 -1  0   1 -1  0   0 -1  1
                       1  0 -1   0  0 -1   0  1 -1       0  1  0   0  0  1   1  0  0
                       1  0 -1   0  1 -1   0  0 -1       0 -1  0   0 -1  1   1 -1  0
                      -1  0  1  -1  0  0  -1  1  0       0  1  0   1  0  0   0  0  1
                       0  0 -1   0  1 -1   1  0 -1       1 -1  0   0 -1  1   0 -1  0
                       0  0  1   1  0  0   0  1  0      -1  1  0  -1  0  0  -1  0  1
                       0  0  1   0  1  0   1  0  0       1 -1  0   0 -1  0   0 -1  1
                       0  0 -1   1  0 -1   0  1 -1      -1  1  0  -1  0  1  -1  0  0
           tolwfr      1.00000000E-20
            typat      1  2  3
           useylm           1
              wtk        0.50000    0.50000
           xangst      4.0351156207E+00  2.8532576182E+00  6.9890252695E+00
                       1.3450385402E+00  9.5108587275E-01  2.3296750898E+00
                       2.6900770804E+00  1.9021717455E+00  4.6593501796E+00
            xcart      7.6252634376E+00  5.3918754850E+00  1.3207343695E+01
                       2.5417544792E+00  1.7972918283E+00  4.4024478984E+00
                       5.0835089584E+00  3.5945836567E+00  8.8048957967E+00
             xred      7.5000000000E-01  7.5000000000E-01  7.5000000000E-01
                       2.5000000000E-01  2.5000000000E-01  2.5000000000E-01
                       5.0000000000E-01  5.0000000000E-01  5.0000000000E-01
            znucl        3.00000   20.00000   33.00000

 chkinp: Checking input parameters for consistency.

== DATASET  1 ==================================================================
-   mpi_nproc: 1, omp_nthreads: -1 (-1 if OMP is not activated)

--- !DatasetInfo
iteration_state: {dtset: 1, }
dimensions: {natom: 3, nkpt: 2, mband: 23, nsppol: 1, nspinor: 1, nspden: 1, mpw: 6314, }
cutoff_energies: {ecut:  42.0, pawecutdg:  -1.0, }
electrons: {nelect:   2.80000000E+01, charge:   0.00000000E+00, occopt:   1.00000000E+00, tsmear:   1.00000000E-02, }
meta: {optdriver: 1, rfelfd: 2, }
...

 Real(R)+Recip(G) space primitive vectors, cartesian coordinates (Bohr,Bohr^-1):
 R(1)=  7.6252634  0.0000000  4.4024479  G(1)=  0.1311430 -0.0463661  0.0000000
 R(2)=  2.5417545  7.1891673  4.4024479  G(2)=  0.0000000  0.1390982  0.0000000
 R(3)=  0.0000000  0.0000000  8.8048958  G(3)= -0.0655715 -0.0463661  0.1135732
 Unit cell volume ucvol=  4.8267818E+02 bohr^3
 Angles (23,13,12)=  6.00000000E+01  6.00000000E+01  6.00000000E+01 degrees

 getcut: wavevector=  0.0000  0.0000  0.0000  ngfft=  54  54  54
         ecut(hartree)=     42.000   => boxcut(ratio)=   2.10295

--- Pseudopotential description ------------------------------------------------
- pspini: atom type   1  psp file is /scratch/users/j/a/jabreu/pseudos/PBEsol/Li.psp8
- pspatm: opening atomic psp file    /scratch/users/j/a/jabreu/pseudos/PBEsol/Li.psp8
- Li    ONCVPSP-3.3.0  r_core=   1.40824   1.10935
-  3.00000   3.00000    180112                znucl, zion, pspdat
    8 -116133    1    4       400   0.00000   pspcod,pspxc,lmax,lloc,mmax,r2well
    3.99000000000000    0.00000000000000    0.00000000000000   rchrg,fchrg,qchrg
     nproj     2     2
     extension_switch     1
  pspatm : epsatm=    2.60859637
         --- l  ekb(1:nproj) -->
             0   -4.855856   -1.482423
             1   -2.171544   -0.427615
 pspatm: atomic psp has been read  and splines computed

- pspini: atom type   2  psp file is /scratch/users/j/a/jabreu/pseudos/PBEsol/Ca.psp8
- pspatm: opening atomic psp file    /scratch/users/j/a/jabreu/pseudos/PBEsol/Ca.psp8
- Ca    ONCVPSP-3.3.0  r_core=   1.45885   1.45885   1.85192
- 20.00000  10.00000    180112                znucl, zion, pspdat
    8 -116133    2    4       400   0.00000   pspcod,pspxc,lmax,lloc,mmax,r2well
    3.99000000000000    6.00000000000000    0.00000000000000   rchrg,fchrg,qchrg
     nproj     2     2     2
     extension_switch     1
  pspatm : epsatm=   12.46045226
         --- l  ekb(1:nproj) -->
             0   10.054847    0.973777
             1    2.998958    0.458102
             2   -3.447298   -1.091650
 pspatm: atomic psp has been read  and splines computed

- pspini: atom type   3  psp file is /scratch/users/j/a/jabreu/pseudos/PBEsol/As.psp8
- pspatm: opening atomic psp file    /scratch/users/j/a/jabreu/pseudos/PBEsol/As.psp8
- As    ONCVPSP-3.3.0  r_core=   1.76603   1.70395   1.80867
- 33.00000  15.00000    180112                znucl, zion, pspdat
    8 -116133    2    4       600   0.00000   pspcod,pspxc,lmax,lloc,mmax,r2well
    5.99000000000000    5.00000000000000    0.00000000000000   rchrg,fchrg,qchrg
     nproj     2     2     2
     extension_switch     1
  pspatm : epsatm=   28.79155382
         --- l  ekb(1:nproj) -->
             0    8.270760    0.868950
             1    4.919053    0.756587
             2  -10.048665   -4.076802
 pspatm: atomic psp has been read  and splines computed

   1.22809687E+03                                ecore*ucvol(ha*bohr**3)

-inwffil : will read wavefunctions from disk file /scratch/users/j/a/jabreu/flow_simple/flow/w142/t1/indata/in_WFK

 ==>  initialize data related to q vector <==

 The list of irreducible perturbations for this q vector is:
    1)    idir= 1    ipert=   4
    2)    idir= 2    ipert=   4
    3)    idir= 3    ipert=   4

 Perturbation wavevector (in red.coord.)   0.000000  0.000000  0.000000
 Perturbation : derivative vs k along direction   1

 dfpt_looppert : COMMENT -
  In a d/dk calculation, iscf is set to -3 automatically.
 The set of symmetries contains only one element for this perturbation.
 symkpt : not enough symmetry to change the number of k points.

[...]

 Initialisation of the first-order wave-functions :
  ireadwf=   0

--- !BeginCycle
iteration_state: {dtset: 1, }
solver: {iscf: 7, nstep: 100, nline: 4, wfoptalg: 0, }
tolerances: {tolwfr: 1.00E-20, }
...

     iter   2DEtotal(Ha)        deltaE(Ha) residm    vres2
-ETOT  1  -39.976570982374     -3.998E+01 1.108E-01 0.000E+00
 ETOT  2  -40.010372015367     -3.380E-02 1.428E-02 0.000E+00
 ETOT  3  -40.010397018369     -2.500E-05 7.278E-04 0.000E+00
 ETOT  4  -40.010397059705     -4.134E-08 1.130E-04 0.000E+00
 ETOT  5  -40.010397059842     -1.371E-10 8.190E-06 0.000E+00
 ETOT  6  -40.010397059843     -7.816E-13 1.420E-06 0.000E+00
 ETOT  7  -40.010397059843      1.421E-14 1.028E-07 0.000E+00
 ETOT  8  -40.010397059843      2.842E-14 1.814E-08 0.000E+00
 ETOT  9  -40.010397059843     -7.105E-15 1.326E-09 0.000E+00
 ETOT 10  -40.010397059843      0.000E+00 2.340E-10 0.000E+00
 ETOT 11  -40.010397059843      7.105E-15 1.724E-11 0.000E+00
 ETOT 12  -40.010397059843      0.000E+00 3.038E-12 0.000E+00
 ETOT 13  -40.010397059843      0.000E+00 2.251E-13 0.000E+00
 ETOT 14  -40.010397059843      0.000E+00 3.961E-14 0.000E+00
 ETOT 15  -40.010397059843      0.000E+00 2.947E-15 0.000E+00
 ETOT 16  -40.010397059843     -7.105E-15 5.177E-16 0.000E+00
 ETOT 17  -40.010397059843      0.000E+00 3.864E-17 0.000E+00
 ETOT 18  -40.010397059843      7.105E-15 6.779E-18 0.000E+00
 ETOT 19  -40.010397059843     -7.105E-15 5.075E-19 0.000E+00
 ETOT 20  -40.010397059843     -7.105E-15 8.891E-20 0.000E+00
 ETOT 21  -40.010397059843      7.105E-15 9.789E-21 0.000E+00

 At SCF step   21   max residual=  9.79E-21 < tolwfr=  1.00E-20 =>converged.

 ----iterations are completed or convergence reached----

 dfpt_looppert: DFPT cycle converged with prtwf=-1. Will skip output of the 1st-order WFK file.
 dfpt_looppert : ek2=    4.2775055490E+01
          f-sum rule ratio=    1.0663696484E+00
 prteigrs : about to open file /scratch/users/j/a/jabreu/flow_simple/flow/w142/t1/tmpdata/tmp_1WF1_EIG
 Expectation of eigenvalue derivatives (hartree) for nkpt=   2  k points:
  (in case of degenerate eigenvalues, averaged derivative)
 kpt#   1, nband= 23, wtk=  0.50000, kpt=  0.1452  0.1452  0.2903 (reduced coord)
   0.00000    0.00000    0.00000   -0.00000    0.00000    0.00000   -0.00000    0.00000
  -0.00000   -0.00000    0.00000    0.00000   -0.00000   -0.00000    0.00000   -0.00000
  -0.00000    0.00000   -0.00000    0.00000    0.00000    0.00000    0.00000
 prteigrs : prtvol=0 or 1, do not print more k-points.

 Eight components of 2nd-order total energy (hartree) are
 1,2,3: 0th-order hamiltonian combined with 1st-order wavefunctions
     kin0=   3.41948086E+01 eigvalue=   5.38647735E+00  local=  -1.29756758E+01
 4,5,6: 1st-order hamiltonian combined with 1st and 0th-order wfs
     kin1=  -4.56140209E+01  Hartree=   0.00000000E+00     xc=   0.00000000E+00
 7,8,9: eventually, occupation + non-local contributions
    edocc=   1.03443050E+01     enl0=   3.06048191E+00   enl1=  -3.44067732E+01
 1-9 gives the relaxation energy (to be shifted if some occ is /=2.0)
   erelax=  -4.00103971E+01
  No Ewald or frozen-wf contrib.: the relaxation energy is the total one
 2DEtotal=   -0.4001039706E+02 Ha. Also 2DEtotal=   -0.108873827279E+04 eV
    (  non-var. 2DEtotal :   -4.0010397060E+01 Ha)

 Perturbation wavevector (in red.coord.)   0.000000  0.000000  0.000000
 Perturbation : derivative vs k along direction   2
 The set of symmetries contains only one element for this perturbation.
 symkpt : not enough symmetry to change the number of k points.

[...]

 Perturbation wavevector (in red.coord.)   0.000000  0.000000  0.000000
 Perturbation : derivative vs k along direction   3
 The set of symmetries contains only one element for this perturbation.
 symkpt : not enough symmetry to change the number of k points.

-inwffil : will read wavefunctions from disk file /scratch/users/j/a/jabreu/flow_simple/flow/w142/t1/indata/in_WFK

 Initialisation of the first-order wave-functions :
  ireadwf=   0

--- !BeginCycle
iteration_state: {dtset: 1, }
solver: {iscf: 7, nstep: 100, nline: 4, wfoptalg: 0, }
tolerances: {tolwfr: 1.00E-20, }
...

     iter   2DEtotal(Ha)        deltaE(Ha) residm    vres2
-ETOT  1  -39.254954869983     -3.925E+01 7.692E-02 0.000E+00
 ETOT  2  -39.287551020808     -3.260E-02 4.789E-03 0.000E+00
 ETOT  3  -39.287574017654     -2.300E-05 1.145E-04 0.000E+00
 ETOT  4  -39.287574054951     -3.730E-08 9.677E-06 0.000E+00
 ETOT  5  -39.287574055066     -1.147E-10 3.840E-07 0.000E+00
 ETOT  6  -39.287574055067     -5.613E-13 3.288E-08 0.000E+00
 ETOT  7  -39.287574055067      0.000E+00 1.396E-09 0.000E+00
 ETOT  8  -39.287574055067     -2.842E-14 1.213E-10 0.000E+00
 ETOT  9  -39.287574055067      2.842E-14 5.250E-12 0.000E+00
 ETOT 10  -39.287574055067     -7.105E-15 4.606E-13 0.000E+00
 ETOT 11  -39.287574055067      0.000E+00 2.005E-14 0.000E+00
 ETOT 12  -39.287574055067      7.105E-15 1.772E-15 0.000E+00
 ETOT 13  -39.287574055067     -7.105E-15 7.731E-17 0.000E+00
 ETOT 14  -39.287574055067      0.000E+00 6.868E-18 0.000E+00
 ETOT 15  -39.287574055067     -7.105E-15 2.999E-19 0.000E+00
 ETOT 16  -39.287574055067      0.000E+00 2.675E-20 0.000E+00
 ETOT 17  -39.287574055067      7.105E-15 9.987E-21 0.000E+00

 At SCF step   17   max residual=  9.99E-21 < tolwfr=  1.00E-20 =>converged.

 ----iterations are completed or convergence reached----

 dfpt_looppert: DFPT cycle converged with prtwf=-1. Will skip output of the 1st-order WFK file.
 dfpt_looppert : ek2=    4.2775055490E+01
          f-sum rule ratio=    1.0365329405E+00
 prteigrs : about to open file /scratch/users/j/a/jabreu/flow_simple/flow/w142/t1/tmpdata/tmp_1WF1_EIG
 Expectation of eigenvalue derivatives (hartree) for nkpt=   2  k points:
  (in case of degenerate eigenvalues, averaged derivative)
 kpt#   1, nband= 23, wtk=  0.50000, kpt=  0.1452  0.1452  0.2903 (reduced coord)
   0.00001    0.00014    0.00002    0.00003    0.00010    0.00000    0.00000   -0.00353
  -0.00150   -0.00051    0.04326   -0.13721   -0.06417   -0.00044   -0.05718    0.20902
   0.01285   -0.18792    0.05703    0.06673   -0.04223    0.22950    0.05636
 prteigrs : prtvol=0 or 1, do not print more k-points.

 Eight components of 2nd-order total energy (hartree) are
 1,2,3: 0th-order hamiltonian combined with 1st-order wavefunctions
     kin0=   3.46930847E+01 eigvalue=   5.31869426E+00  local=  -1.32691003E+01
 4,5,6: 1st-order hamiltonian combined with 1st and 0th-order wfs
     kin1=  -4.43377540E+01  Hartree=   0.00000000E+00     xc=   0.00000000E+00
 7,8,9: eventually, occupation + non-local contributions
    edocc=   9.57626583E+00     enl0=   2.96862963E+00   enl1=  -3.42373941E+01
 1-9 gives the relaxation energy (to be shifted if some occ is /=2.0)
   erelax=  -3.92875741E+01
  No Ewald or frozen-wf contrib.: the relaxation energy is the total one
 2DEtotal=   -0.3928757406E+02 Ha. Also 2DEtotal=   -0.106906925854E+04 eV
    (  non-var. 2DEtotal :   -3.9287574055E+01 Ha)

 CALCULATION OF EFFECTIVE MASSES
 NOTE : Additional infos (eff. mass eigenvalues, eigenvectors and, if degenerate, average mass) are available in stdout.

 K-point ( 0.145, 0.145, 0.290) | band =    14
 Effective mass tensor:
             -2.5992324005             -1.2116502480             -0.0000000956
             -1.2116502480             -1.7424662893             -0.0000000637
             -0.0000000956             -0.0000000637             -5.1447707083
 Effective mass tensor eigenvalues:
             -5.1447707083             -3.4559985058             -0.8857001840
 Angular average effective mass 1/(<1/m>)=  -1.8601486510
 Angular average effective mass for Frohlich model (<m**0.5>)**2=  -2.2380567984
 Effective masses along directions: (cart. coord. / red. coord. -> eff. mass)
    1:   1.000000  0.000000  0.000000 /   0.948683  0.316228  0.000000 ->  -1.7566931029
    2:   0.000000  1.000000  0.000000 /   0.000000  1.000000  0.000000 ->  -1.1776471053
    3:   0.000000  0.000000  1.000000 /   0.408248  0.408248  0.816497 ->  -5.1447707083
    4:   0.577350  0.577350  0.577350 /   0.585539  0.688047  0.428644 ->  -3.6536388965
    5:   0.000000  0.707107  0.707107 /   0.289489  0.762222  0.578977 ->  -1.9165846191
    6:   0.707107  0.000000  0.707107 /   0.731423  0.422287  0.535439 ->  -2.6190917176
    7:   0.707107  0.707107  0.000000 /   0.616798  0.787122  0.000000 ->  -3.1911816039

 K-point ( 0.500, 0.000, 0.500) | band =    15
 Effective mass tensor:
              0.5499912299             -0.1169982749              0.1432934096
             -0.1169982749              0.6327220509             -0.2026479212
              0.1432934096             -0.2026479212              0.7154538017
 Effective mass tensor eigenvalues:
              0.4672611376              0.4672611497              0.9636447952
 Angular average effective mass 1/(<1/m>)=   0.5641230683
 Angular average effective mass for Frohlich model (<m**0.5>)**2=   0.5812913487
 Effective masses along directions: (cart. coord. / red. coord. -> eff. mass)
    1:   1.000000  0.000000  0.000000 /   0.948683  0.316228  0.000000 ->   0.5111434307
    2:   0.000000  1.000000  0.000000 /   0.000000  1.000000  0.000000 ->   0.5641228510
    3:   0.000000  0.000000  1.000000 /   0.408248  0.408248  0.816497 ->   0.6293555464
    4:   0.577350  0.577350  0.577350 /   0.585539  0.688047  0.428644 ->   0.4916983193
    5:   0.000000  0.707107  0.707107 /   0.289489  0.762222  0.578977 ->   0.4692962576
    6:   0.707107  0.000000  0.707107 /   0.731423  0.422287  0.535439 ->   0.6875563216
    7:   0.707107  0.707107  0.000000 /   0.616798  0.787122  0.000000 ->   0.4707280430

 END OF EFFECTIVE MASSES SECTION

 ---- first-order wavefunction calculations are completed ----

 Total localisation tensor (bohr^2) in cartesian coordinates
  WARNING : still subject to testing - especially symmetries.
      direction              matrix element
   alpha     beta       real part   imaginary part
     1        1       1.6258187239    0.0000000000
     1        2       0.4598513335    0.0000000000
     1        3       1.1264003987    0.0000000000
     2        1       0.4598513335    0.0000000000
     2        2       1.3006559851    0.0000000000
     2        3       0.7964858736    0.0000000000
     3        1       1.1264003987    0.0000000000
     3        2       0.7964858736    0.0000000000
     3        3       2.7072846784    0.0000000000

 respfn : d/dk was computed, but no 2DTE, so no DDB output.

== END DATASET(S) ==============================================================

 -outvars: echo values of variables after computation  --------
            acell      1.0000000000E+00  1.0000000000E+00  1.0000000000E+00 Bohr
              amu      6.94100000E+00  4.00780000E+01  7.49215900E+01
             ecut      4.20000000E+01 Hartree
           etotal     -3.9287574055E+01
            fcart      0.0000000000E+00  0.0000000000E+00  0.0000000000E+00
                       0.0000000000E+00  0.0000000000E+00  0.0000000000E+00
                       0.0000000000E+00  0.0000000000E+00  0.0000000000E+00
-          fftalg         512
           irdden           1
           irdwfk           1
           istwfk        0    1
              ixc     -116133
              kpt      1.45161290E-01  1.45161290E-01  2.90322581E-01
                       5.00000000E-01  2.91078898E-17  5.00000000E-01
           kptopt           0
P           mkmem           2
P          mkqmem           2
P          mk1mem           2
            natom           3
            nband          23
           nbdbuf           4
            ngfft          54      54      54
             nkpt           2
            nstep         100
             nsym          24
           ntypat           3
              occ      2.000000  2.000000  2.000000  2.000000  2.000000  2.000000
                       2.000000  2.000000  2.000000  2.000000  2.000000  2.000000
                       2.000000  2.000000  0.000000  0.000000  0.000000  0.000000
                       0.000000  0.000000  0.000000  0.000000  0.000000
        optdriver           1
            prtwf          -1
            rfdir           1       1       1
           rfelfd           2
            rprim      7.6252634376E+00  0.0000000000E+00  4.4024478984E+00
                       2.5417544792E+00  7.1891673134E+00  4.4024478984E+00
                       0.0000000000E+00  0.0000000000E+00  8.8048957967E+00
          spgroup         216
           strten      0.0000000000E+00  0.0000000000E+00  0.0000000000E+00
                       0.0000000000E+00  0.0000000000E+00  0.0000000000E+00
           symrel      1  0  0   0  1  0   0  0  1       0 -1  1   0 -1  0   1 -1  0
                      -1  0  0  -1  0  1  -1  1  0       0  1 -1   1  0 -1   0  0 -1
                      -1  0  0  -1  1  0  -1  0  1       0 -1  1   1 -1  0   0 -1  0
                       1  0  0   0  0  1   0  1  0       0  1 -1   0  0 -1   1  0 -1
                      -1  0  1  -1  1  0  -1  0  0       0 -1  0   1 -1  0   0 -1  1
                       1  0 -1   0  0 -1   0  1 -1       0  1  0   0  0  1   1  0  0
                       1  0 -1   0  1 -1   0  0 -1       0 -1  0   0 -1  1   1 -1  0
                      -1  0  1  -1  0  0  -1  1  0       0  1  0   1  0  0   0  0  1
                       0  0 -1   0  1 -1   1  0 -1       1 -1  0   0 -1  1   0 -1  0
                       0  0  1   1  0  0   0  1  0      -1  1  0  -1  0  0  -1  0  1
                       0  0  1   0  1  0   1  0  0       1 -1  0   0 -1  0   0 -1  1
                       0  0 -1   1  0 -1   0  1 -1      -1  1  0  -1  0  1  -1  0  0
           tolwfr      1.00000000E-20
            typat      1  2  3
           useylm           1
              wtk        0.50000    0.50000
           xangst      4.0351156207E+00  2.8532576182E+00  6.9890252695E+00
                       1.3450385402E+00  9.5108587275E-01  2.3296750898E+00
                       2.6900770804E+00  1.9021717455E+00  4.6593501796E+00
            xcart      7.6252634376E+00  5.3918754850E+00  1.3207343695E+01
                       2.5417544792E+00  1.7972918283E+00  4.4024478984E+00
                       5.0835089584E+00  3.5945836567E+00  8.8048957967E+00
             xred      7.5000000000E-01  7.5000000000E-01  7.5000000000E-01
                       2.5000000000E-01  2.5000000000E-01  2.5000000000E-01
                       5.0000000000E-01  5.0000000000E-01  5.0000000000E-01
            znucl        3.00000   20.00000   33.00000

- Timing analysis has been suppressed with timopt=0

 Suggested references for the acknowledgment of ABINIT usage.

 Calculation completed.
.Delivered  14 WARNINGs and   9 COMMENTs to log file.