.Version 9.5.2 of ABINIT

 ABINIT is a project of the Universite Catholique de Louvain,
 Corning Inc. and other collaborators, see ~abinit/doc/developers/contributors.txt .
 acknowledgments of the ABINIT effort.

.Starting date : Mon 24 May 2021.
- ( at 20h56 )

- input  file    -> /scratch/users/j/a/jabreu/flow_simple_10atoms/flow/w415/t1/run.abi
- output file    -> /scratch/users/j/a/jabreu/flow_simple_10atoms/flow/w415/t1/run.abo
- root for input  files -> /scratch/users/j/a/jabreu/flow_simple_10atoms/flow/w415/t1/indata/in
- root for output files -> /scratch/users/j/a/jabreu/flow_simple_10atoms/flow/w415/t1/outdata/out

 Symmetries : space group P2_1/m (# 11); Bravais mP (primitive monocl.)
     intxc =       0      iscf =       7    lmnmax =      32     lnmax =       8
     mgfft =     100  mpssoang =       4    mqgrid =    4907     natom =      10
  nloc_mem =       1    nspden =       1   nspinor =       1    nsppol =       1
      nsym =       4    n1xccc =    2501    ntypat =       3    occopt =       1
   xclevel =       2
-    mband =          55        mffmem =           1         mkmem =           2
-   mkqmem =           2        mk1mem =           2           mpw =       33604
      nfft =      576000          nkpt =           2
  Rough estimation (10% accuracy) of disk space for files :

------------- Echo of variables that govern the present computation ------------
-
- outvars: echo of selected default values
-   iomode0 =  0 , fftalg0 =512 , wfoptalg0 =  0
-
- outvars: echo of global parameters not present in the input file
-  max_nthreads =    0
-
 -outvars: echo values of preprocessed input variables --------
            acell      1.0000000000E+00  1.0000000000E+00  1.0000000000E+00 Bohr
              amu      1.32905430E+02  7.89600000E+01  7.99040000E+01
             ecut      4.30000000E+01 Hartree
-          fftalg         512
           irdden           1
           irdwfk           1
           istwfk        0    1
              ixc     -116133
              kpt      4.54545455E-01  0.00000000E+00  5.00000000E-01
                       0.00000000E+00  0.00000000E+00  5.00000000E-01
           kptopt           0
P           mkmem           2
P          mkqmem           2
P          mk1mem           2
            natom          10
            nband          55
           nbdbuf           4
            ngfft         100      64      90
             nkpt           2
            nstep        2000
             nsym           4
           ntypat           3
              occ      2.000000  2.000000  2.000000  2.000000  2.000000  2.000000
                       2.000000  2.000000  2.000000  2.000000  2.000000  2.000000
                       2.000000  2.000000  2.000000  2.000000  2.000000  2.000000
                       2.000000  2.000000  2.000000  2.000000  2.000000  2.000000
                       2.000000  2.000000  2.000000  2.000000  2.000000  2.000000
                       2.000000  2.000000  2.000000  2.000000  2.000000  2.000000
                       2.000000  2.000000  2.000000  2.000000  2.000000  2.000000
                       2.000000  2.000000  2.000000  2.000000  0.000000  0.000000
                       0.000000  0.000000  0.000000  0.000000  0.000000  0.000000
                       0.000000
        optdriver           1
            prtwf          -1
            rfdir           1       1       1
           rfelfd           2
            rprim      1.6622185024E+01  0.0000000000E+00  0.0000000000E+00
                       0.0000000000E+00  1.0181208394E+01  2.0390586999E+00
                       0.0000000000E+00  0.0000000000E+00  1.4724957348E+01
          spgroup          11
           symrel      1  0  0   0  1  0   0  0  1      -1  0  0   0 -1  0   0  0 -1
                       1  0  0   0 -1  0   0  0 -1      -1  0  0   0  1  0   0  0  1
            tnons      0.0000000  0.0000000  0.0000000     0.0000000  0.0000000  0.0000000
                       0.5000000  0.0000000  0.0000000     0.5000000  0.0000000  0.0000000
           tolwfr      1.00000000E-20
            typat      1  1  2  2  3  3  3  3  3  3
           useylm           1
              wtk        0.50000    0.50000
           xangst      6.5970611037E+00  4.3322740471E+00  5.9867514919E+00
                       2.1990203679E+00  1.0553893909E+00  2.8843837249E+00
                       0.0000000000E+00  0.0000000000E+00  0.0000000000E+00
                       4.3980407358E+00  0.0000000000E+00  0.0000000000E+00
                       8.7067044877E+00  3.7887503965E+00  3.1059149300E+00
                       4.3086637519E+00  1.5989130415E+00  5.7652202869E+00
                       4.4874177196E+00  3.7887503965E+00  3.1059149300E+00
                       8.9376983833E-02  1.5989130415E+00  5.7652202869E+00
                       6.5970611037E+00  1.1391998833E+00  8.0076630957E-01
                       2.1990203679E+00  4.2484635547E+00  8.0703689073E+00
            xcart      1.2466638768E+01  8.1868114816E+00  1.1313320745E+01
                       4.1555462560E+00  1.9943969123E+00  5.4506953023E+00
                       0.0000000000E+00  0.0000000000E+00  0.0000000000E+00
                       8.3110925119E+00  0.0000000000E+00  0.0000000000E+00
                       1.6453287002E+01  7.1597006352E+00  5.8693286098E+00
                       8.1421944899E+00  3.0215077587E+00  1.0894687438E+01
                       8.4799905339E+00  7.1597006352E+00  5.8693286098E+00
                       1.6889802203E-01  3.0215077587E+00  1.0894687438E+01
                       1.2466638768E+01  2.1527757901E+00  1.5132290215E+00
                       4.1555462560E+00  8.0284326038E+00  1.5250787026E+01
             xred      7.5000000000E-01  8.0411000000E-01  6.5695900000E-01
                       2.5000000000E-01  1.9589000000E-01  3.4304100000E-01
                       0.0000000000E+00  0.0000000000E+00  0.0000000000E+00
                       5.0000000000E-01  0.0000000000E+00  0.0000000000E+00
                       9.8983900000E-01  7.0322700000E-01  3.0121700000E-01
                       4.8983900000E-01  2.9677300000E-01  6.9878300000E-01
                       5.1016100000E-01  7.0322700000E-01  3.0121700000E-01
                       1.0161000000E-02  2.9677300000E-01  6.9878300000E-01
                       7.5000000000E-01  2.1144600000E-01  7.3486000000E-02
                       2.5000000000E-01  7.8855400000E-01  9.2651400000E-01
            znucl       55.00000   34.00000   35.00000

 chkinp: Checking input parameters for consistency.

== DATASET  1 ==================================================================
-   mpi_nproc: 1, omp_nthreads: -1 (-1 if OMP is not activated)

--- !DatasetInfo
iteration_state: {dtset: 1, }
dimensions: {natom: 10, nkpt: 2, mband: 55, nsppol: 1, nspinor: 1, nspden: 1, mpw: 33604, }
cutoff_energies: {ecut:  43.0, pawecutdg:  -1.0, }
electrons: {nelect:   9.20000000E+01, charge:   0.00000000E+00, occopt:   1.00000000E+00, tsmear:   1.00000000E-02, }
meta: {optdriver: 1, rfelfd: 2, }
...

 Real(R)+Recip(G) space primitive vectors, cartesian coordinates (Bohr,Bohr^-1):
 R(1)= 16.6221850  0.0000000  0.0000000  G(1)=  0.0601606  0.0000000  0.0000000
 R(2)=  0.0000000 10.1812084  2.0390587  G(2)=  0.0000000  0.0982202  0.0000000
 R(3)=  0.0000000  0.0000000 14.7249573  G(3)=  0.0000000 -0.0136012  0.0679119
 Unit cell volume ucvol=  2.4919624E+03 bohr^3
 Angles (23,13,12)=  7.86748250E+01  9.00000000E+01  9.00000000E+01 degrees

 getcut: wavevector=  0.0000  0.0000  0.0000  ngfft= 100  64  90
         ecut(hartree)=     43.000   => boxcut(ratio)=   2.03804

--- Pseudopotential description ------------------------------------------------
- pspini: atom type   1  psp file is /scratch/users/j/a/jabreu/pseudos/PBEsol/Cs.psp8
- pspatm: opening atomic psp file    /scratch/users/j/a/jabreu/pseudos/PBEsol/Cs.psp8
- Cs    ONCVPSP-3.3.0  r_core=   2.27353   1.85623   2.01788   1.90105
- 55.00000   9.00000    180112                znucl, zion, pspdat
    8 -116133    3    4       600   0.00000   pspcod,pspxc,lmax,lloc,mmax,r2well
    5.99000000000000    5.00000000000000    0.00000000000000   rchrg,fchrg,qchrg
     nproj     2     2     2     2
     extension_switch     1
  pspatm : epsatm=   22.12462445
         --- l  ekb(1:nproj) -->
             0    6.214110    0.767882
             1    6.311966    0.793598
             2    3.769790    0.913105
             3   -9.247129   -2.432478
 pspatm: atomic psp has been read  and splines computed

- pspini: atom type   2  psp file is /scratch/users/j/a/jabreu/pseudos/PBEsol/Se.psp8
- pspatm: opening atomic psp file    /scratch/users/j/a/jabreu/pseudos/PBEsol/Se.psp8
- Se    ONCVPSP-3.3.0  r_core=   1.81943   1.50330   1.90835
- 34.00000  16.00000    180112                znucl, zion, pspdat
    8 -116133    2    4       600   0.00000   pspcod,pspxc,lmax,lloc,mmax,r2well
    5.99000000000000    5.00000000000000    0.00000000000000   rchrg,fchrg,qchrg
     nproj     2     2     2
     extension_switch     1
  pspatm : epsatm=   29.17862020
         --- l  ekb(1:nproj) -->
             0    8.973804    1.019550
             1    6.849857    1.297308
             2   -9.203962   -3.731027
 pspatm: atomic psp has been read  and splines computed

- pspini: atom type   3  psp file is /scratch/users/j/a/jabreu/pseudos/PBEsol/Br.psp8
- pspatm: opening atomic psp file    /scratch/users/j/a/jabreu/pseudos/PBEsol/Br.psp8
- Br    ONCVPSP-3.3.0  r_core=   1.81012   1.51356   1.92136
- 35.00000   7.00000    180112                znucl, zion, pspdat
    8 -116133    2    4       600   0.00000   pspcod,pspxc,lmax,lloc,mmax,r2well
    5.99000000000000    8.00000000000000    0.00000000000000   rchrg,fchrg,qchrg
     nproj     2     2     2
     extension_switch     1
  pspatm : epsatm=   10.94933070
         --- l  ekb(1:nproj) -->
             0    8.508690    0.897946
             1    5.393311    0.892021
             2    2.527513    0.394763
 pspatm: atomic psp has been read  and splines computed

   1.54838276E+04                                ecore*ucvol(ha*bohr**3)

 ==>  initialize data related to q vector <==

 The list of irreducible perturbations for this q vector is:
    1)    idir= 1    ipert=  11
    2)    idir= 2    ipert=  11
    3)    idir= 3    ipert=  11

 Perturbation wavevector (in red.coord.)   0.000000  0.000000  0.000000
 Perturbation : derivative vs k along direction   1

 dfpt_looppert : COMMENT -
  In a d/dk calculation, iscf is set to -3 automatically.
 The set of symmetries contains only one element for this perturbation.
 symkpt : not enough symmetry to change the number of k points.

 Initialisation of the first-order wave-functions :
  ireadwf=   0

--- !BeginCycle
iteration_state: {dtset: 1, }
solver: {iscf: 7, nstep: 2000, nline: 4, wfoptalg: 0, }
tolerances: {tolwfr: 1.00E-20, }
...

     iter   2DEtotal(Ha)        deltaE(Ha) residm    vres2
-ETOT  1  -21.053834602524     -2.105E+01 5.954E-02 0.000E+00
 ETOT  2  -21.070991106604     -1.716E-02 3.341E-03 0.000E+00
 ETOT  3  -21.071407892470     -4.168E-04 3.165E-04 0.000E+00
[...]
 ETOT 32  -21.071459621973      3.553E-15 1.025E-20 0.000E+00
 ETOT 33  -21.071459621973     -7.105E-15 9.890E-21 0.000E+00

 At SCF step   33   max residual=  9.89E-21 < tolwfr=  1.00E-20 =>converged.

 ----iterations are completed or convergence reached----

 dfpt_looppert: DFPT cycle converged with prtwf=-1. Will skip output of the 1st-order WFK file.
 dfpt_looppert : ek2=    2.6290650713E+01
          f-sum rule ratio=    9.9917304863E-01
 prteigrs : about to open file /scratch/users/j/a/jabreu/flow_simple_10atoms/flow/w415/t1/tmpdata/tmp_1WF1_EIG
 Expectation of eigenvalue derivatives (hartree) for nkpt=   2  k points:
  (in case of degenerate eigenvalues, averaged derivative)
 kpt#   1, nband= 55, wtk=  0.50000, kpt=  0.4545  0.0000  0.5000 (reduced coord)
   0.00000   -0.00000    0.00000   -0.00000    0.00000   -0.00000    0.00000   -0.00000
   0.00000   -0.00000    0.00044   -0.00044    0.03196   -0.03678    0.02985    0.00164
  -0.00112   -0.02469    0.03539   -0.03766    0.00557   -0.00586    0.00264   -0.00315
   0.00140   -0.00085    0.08241   -0.00488   -0.00379   -0.07399    0.01061   -0.00029
   0.02132   -0.04711    0.01621   -0.01676    0.01420   -0.00405    0.02632   -0.02399
   0.01199   -0.01297    0.00077   -0.00356    0.01311    0.00038    0.07018    0.00101
   0.00136   -0.08790    0.04386   -0.04609    0.07483   -0.06156    0.01189
 prteigrs : prtvol=0 or 1, do not print more k-points.

 Eight components of 2nd-order total energy (hartree) are
 1,2,3: 0th-order hamiltonian combined with 1st-order wavefunctions
     kin0=   2.41418894E+01 eigvalue=   3.17924864E+00  local=  -1.27771658E+01
 4,5,6: 1st-order hamiltonian combined with 1st and 0th-order wfs
     kin1=  -2.62689096E+01  Hartree=   0.00000000E+00     xc=   0.00000000E+00
 7,8,9: eventually, occupation + non-local contributions
    edocc=   3.07396329E+00     enl0=   3.45352418E+00   enl1=  -1.58740096E+01
 1-9 gives the relaxation energy (to be shifted if some occ is /=2.0)
   erelax=  -2.10714596E+01
  No Ewald or frozen-wf contrib.: the relaxation energy is the total one
 2DEtotal=   -0.2107145962E+02 Ha. Also 2DEtotal=   -0.573383576264E+03 eV
    (  non-var. 2DEtotal :   -2.1071459622E+01 Ha)

 Perturbation wavevector (in red.coord.)   0.000000  0.000000  0.000000
 Perturbation : derivative vs k along direction   2
 The set of symmetries contains only one element for this perturbation.
 symkpt : not enough symmetry to change the number of k points.

[...]

 Perturbation wavevector (in red.coord.)   0.000000  0.000000  0.000000
 Perturbation : derivative vs k along direction   3
 The set of symmetries contains only one element for this perturbation.
 symkpt : not enough symmetry to change the number of k points.

 Initialisation of the first-order wave-functions :
  ireadwf=   0

--- !BeginCycle
iteration_state: {dtset: 1, }
solver: {iscf: 7, nstep: 2000, nline: 4, wfoptalg: 0, }
tolerances: {tolwfr: 1.00E-20, }
...

     iter   2DEtotal(Ha)        deltaE(Ha) residm    vres2
-ETOT  1  -31.505520160658     -3.151E+01 1.766E-02 0.000E+00
 ETOT  2  -31.528835361810     -2.332E-02 3.514E-03 0.000E+00
 ETOT  3  -31.529275149986     -4.398E-04 3.077E-04 0.000E+00
 ETOT  4  -31.529318676635     -4.353E-05 1.208E-04 0.000E+00
 ETOT  5  -31.529323559130     -4.882E-06 2.002E-05 0.000E+00
 ETOT  6  -31.529324161287     -6.022E-07 7.618E-06 0.000E+00
 ETOT  7  -31.529324239524     -7.824E-08 1.311E-06 0.000E+00
 ETOT  8  -31.529324250172     -1.065E-08 5.125E-07 0.000E+00
 ETOT  9  -31.529324251684     -1.512E-09 8.750E-08 0.000E+00
 ETOT 10  -31.529324251908     -2.236E-10 3.484E-08 0.000E+00
 ETOT 11  -31.529324251942     -3.394E-11 5.947E-09 0.000E+00
 ETOT 12  -31.529324251947     -5.254E-12 2.404E-09 0.000E+00
 ETOT 13  -31.529324251948     -7.780E-13 4.155E-10 0.000E+00
 ETOT 14  -31.529324251948     -1.670E-13 1.686E-10 0.000E+00
 ETOT 15  -31.529324251948      3.197E-14 2.960E-11 0.000E+00
 ETOT 16  -31.529324251948     -2.842E-14 1.198E-11 0.000E+00
 ETOT 17  -31.529324251948      4.263E-14 2.135E-12 0.000E+00
 ETOT 18  -31.529324251948     -1.421E-14 8.584E-13 0.000E+00
 ETOT 19  -31.529324251948      0.000E+00 1.552E-13 0.000E+00
 ETOT 20  -31.529324251948      2.487E-14 6.189E-14 0.000E+00
 ETOT 21  -31.529324251948      3.553E-15 1.134E-14 0.000E+00
 ETOT 22  -31.529324251948     -1.776E-14 4.482E-15 0.000E+00
 ETOT 23  -31.529324251948      3.553E-15 8.319E-16 0.000E+00
 ETOT 24  -31.529324251948      3.553E-15 3.258E-16 0.000E+00
 ETOT 25  -31.529324251948      0.000E+00 6.116E-17 0.000E+00
 ETOT 26  -31.529324251948     -3.553E-15 2.375E-17 0.000E+00
 ETOT 27  -31.529324251948      7.105E-15 4.504E-18 0.000E+00
 ETOT 28  -31.529324251948     -7.105E-15 1.735E-18 0.000E+00
 ETOT 29  -31.529324251948      7.105E-15 3.322E-19 0.000E+00
 ETOT 30  -31.529324251948      0.000E+00 1.270E-19 0.000E+00
 ETOT 31  -31.529324251948     -3.553E-15 2.452E-20 0.000E+00
 ETOT 32  -31.529324251948      0.000E+00 9.794E-21 0.000E+00

 At SCF step   32   max residual=  9.79E-21 < tolwfr=  1.00E-20 =>converged.

 ----iterations are completed or convergence reached----

 dfpt_looppert: DFPT cycle converged with prtwf=-1. Will skip output of the 1st-order WFK file.
 dfpt_looppert : ek2=    3.4845688868E+01
          f-sum rule ratio=    1.1992513521E+00
 prteigrs : about to open file /scratch/users/j/a/jabreu/flow_simple_10atoms/flow/w415/t1/tmpdata/tmp_1WF1_EIG
 Expectation of eigenvalue derivatives (hartree) for nkpt=   2  k points:
  (in case of degenerate eigenvalues, averaged derivative)
 kpt#   1, nband= 55, wtk=  0.50000, kpt=  0.4545  0.0000  0.5000 (reduced coord)
   0.00000    0.00000    0.00000   -0.00000   -0.00000   -0.00000    0.00000   -0.00000
   0.00000    0.00000    0.00000    0.00000    0.00000   -0.00000   -0.00000   -0.00000
   0.00000    0.00000    0.00000   -0.00000    0.00000   -0.00000    0.00000   -0.00000
   0.00000    0.00000   -0.00000   -0.00000   -0.00000   -0.00000    0.00000    0.00000
  -0.00000   -0.00000    0.00000    0.00000    0.00000   -0.00000    0.00000   -0.00000
   0.00000    0.00000    0.00000   -0.00000    0.00000   -0.00000    0.00000    0.00000
   0.00000   -0.00000   -0.00000    0.00000    0.00000    0.00009    0.00022
 prteigrs : prtvol=0 or 1, do not print more k-points.

 Eight components of 2nd-order total energy (hartree) are
 1,2,3: 0th-order hamiltonian combined with 1st-order wavefunctions
     kin0=   3.25647942E+01 eigvalue=   4.34735985E+00  local=  -1.74897011E+01
 4,5,6: 1st-order hamiltonian combined with 1st and 0th-order wfs
     kin1=  -4.17887395E+01  Hartree=   0.00000000E+00     xc=   0.00000000E+00
 7,8,9: eventually, occupation + non-local contributions
    edocc=   7.49955922E+00     enl0=   4.60731211E+00   enl1=  -2.12699090E+01
 1-9 gives the relaxation energy (to be shifted if some occ is /=2.0)
   erelax=  -3.15293243E+01
  No Ewald or frozen-wf contrib.: the relaxation energy is the total one
 2DEtotal=   -0.3152932425E+02 Ha. Also 2DEtotal=   -0.857956545066E+03 eV
    (  non-var. 2DEtotal :   -3.1529324252E+01 Ha)

 CALCULATION OF EFFECTIVE MASSES
 NOTE : Additional infos (eff. mass eigenvalues, eigenvectors and, if degenerate, average mass) are available in stdout.

--- !WARNING
src_file: m_efmas.F90
src_line: 0
message: |

    Band(s)    46,
    are not band extrema, but saddle points;
    the transport equivalent formalism breaks down in these conditions.
    The associated tensor(s) will therefore not be printed.
...

 K-point ( 0.455, 0.000, 0.500) | band =    46
 Effective mass tensor:
     *** SADDLE POINT: TRANSPORT EQV. EFF. MASS NOT DEFINED (see WARNING above) ***
 Angular average effective mass 1/(<1/m>)=  -1.1823656655
 Angular average effective mass for Frohlich model (<m**0.5>)**2=  -2.3079164793
 Effective masses along directions: (cart. coord. / red. coord. -> eff. mass)
    1:   1.000000  0.000000  0.000000 /   1.000000  0.000000  0.000000 ->  -0.7782613887
    2:   0.000000  1.000000  0.000000 /   0.000000  1.000000  0.000000 ->  -1.7769521063
    3:   0.000000  0.000000  1.000000 /   0.000000  0.137167  0.990548 ->  -1.4500962137
    4:   0.577350  0.577350  0.577350 /   0.655792  0.482124  0.580941 ->  -2.4834594639
    5:   0.000000  0.707107  0.707107 /   0.000000  0.638625  0.769518 ->  25.9875560044
    6:   0.707107  0.000000  0.707107 /   0.745398  0.091439  0.660319 ->  -1.0129581844
    7:   0.707107  0.707107  0.000000 /   0.852752  0.522317  0.000000 ->  -1.0823546263

 K-point ( 0.000, 0.000, 0.500) | band =    47
 Effective mass tensor:
              2.4124227571              0.0000000240              0.0000000074
              0.0000000240              4.2481094253             -1.4822095487
              0.0000000074             -1.4822095487              5.2112533423
 Effective mass tensor eigenvalues:
              2.4124227571              3.1712024145              6.2881603531
 Angular average effective mass 1/(<1/m>)=   3.3750038695
 Angular average effective mass for Frohlich model (<m**0.5>)**2=   3.5224630113
 Effective masses along directions: (cart. coord. / red. coord. -> eff. mass)
    1:   1.000000  0.000000  0.000000 /   1.000000  0.000000  0.000000 ->   2.4124227571
    2:   0.000000  1.000000  0.000000 /   0.000000  1.000000  0.000000 ->   3.8265323109
    3:   0.000000  0.000000  1.000000 /   0.000000  0.137167  0.990548 ->   4.6940950193
    4:   0.577350  0.577350  0.577350 /   0.655792  0.482124  0.580941 ->   2.8914348801
    5:   0.000000  0.707107  0.707107 /   0.000000  0.638625  0.769518 ->   3.2101383477
    6:   0.707107  0.000000  0.707107 /   0.745398  0.091439  0.660319 ->   3.1869734391
    7:   0.707107  0.707107  0.000000 /   0.852752  0.522317  0.000000 ->   2.9592178832

 END OF EFFECTIVE MASSES SECTION

 ---- first-order wavefunction calculations are completed ----

 Total localisation tensor (bohr^2) in cartesian coordinates
  WARNING : still subject to testing - especially symmetries.
      direction              matrix element
   alpha     beta       real part   imaginary part
     1        1       1.2964968301    0.0000000000
     1        2       0.0000000000    0.0000000000
     1        3       0.0000000000    0.0000000000
     2        1       0.0000000000    0.0000000000
     2        2       1.7898781649    0.0000000000
     2        3       0.3584708713    0.0000000000
     3        1       0.0000000000    0.0000000000
     3        2       0.3584708713    0.0000000000
     3        3       2.6954278556    0.0000000000

 respfn : d/dk was computed, but no 2DTE, so no DDB output.

== END DATASET(S) ==============================================================

 -outvars: echo values of variables after computation  --------
            acell      1.0000000000E+00  1.0000000000E+00  1.0000000000E+00 Bohr
              amu      1.32905430E+02  7.89600000E+01  7.99040000E+01
             ecut      4.30000000E+01 Hartree
           etotal     -3.1529324252E+01
            fcart      0.0000000000E+00  0.0000000000E+00  0.0000000000E+00
                       0.0000000000E+00  0.0000000000E+00  0.0000000000E+00
                       0.0000000000E+00  0.0000000000E+00  0.0000000000E+00
                       0.0000000000E+00  0.0000000000E+00  0.0000000000E+00
                       0.0000000000E+00  0.0000000000E+00  0.0000000000E+00
                       0.0000000000E+00  0.0000000000E+00  0.0000000000E+00
                       0.0000000000E+00  0.0000000000E+00  0.0000000000E+00
                       0.0000000000E+00  0.0000000000E+00  0.0000000000E+00
                       0.0000000000E+00  0.0000000000E+00  0.0000000000E+00
                       0.0000000000E+00  0.0000000000E+00  0.0000000000E+00
-          fftalg         512
           irdden           1
           irdwfk           1
           istwfk        0    1
              ixc     -116133
              kpt      4.54545455E-01  0.00000000E+00  5.00000000E-01
                       0.00000000E+00  0.00000000E+00  5.00000000E-01
           kptopt           0
P           mkmem           2
P          mkqmem           2
P          mk1mem           2
            natom          10
            nband          55
           nbdbuf           4
            ngfft         100      64      90
             nkpt           2
            nstep        2000
             nsym           4
           ntypat           3
              occ      2.000000  2.000000  2.000000  2.000000  2.000000  2.000000
                       2.000000  2.000000  2.000000  2.000000  2.000000  2.000000
                       2.000000  2.000000  2.000000  2.000000  2.000000  2.000000
                       2.000000  2.000000  2.000000  2.000000  2.000000  2.000000
                       2.000000  2.000000  2.000000  2.000000  2.000000  2.000000
                       2.000000  2.000000  2.000000  2.000000  2.000000  2.000000
                       2.000000  2.000000  2.000000  2.000000  2.000000  2.000000
                       2.000000  2.000000  2.000000  2.000000  0.000000  0.000000
                       0.000000  0.000000  0.000000  0.000000  0.000000  0.000000
                       0.000000
        optdriver           1
            prtwf          -1
            rfdir           1       1       1
           rfelfd           2
            rprim      1.6622185024E+01  0.0000000000E+00  0.0000000000E+00
                       0.0000000000E+00  1.0181208394E+01  2.0390586999E+00
                       0.0000000000E+00  0.0000000000E+00  1.4724957348E+01
          spgroup          11
           strten      0.0000000000E+00  0.0000000000E+00  0.0000000000E+00
                       0.0000000000E+00  0.0000000000E+00  0.0000000000E+00
           symrel      1  0  0   0  1  0   0  0  1      -1  0  0   0 -1  0   0  0 -1
                       1  0  0   0 -1  0   0  0 -1      -1  0  0   0  1  0   0  0  1
            tnons      0.0000000  0.0000000  0.0000000     0.0000000  0.0000000  0.0000000
                       0.5000000  0.0000000  0.0000000     0.5000000  0.0000000  0.0000000
           tolwfr      1.00000000E-20
            typat      1  1  2  2  3  3  3  3  3  3
           useylm           1
              wtk        0.50000    0.50000
           xangst      6.5970611037E+00  4.3322740471E+00  5.9867514919E+00
                       2.1990203679E+00  1.0553893909E+00  2.8843837249E+00
                       0.0000000000E+00  0.0000000000E+00  0.0000000000E+00
                       4.3980407358E+00  0.0000000000E+00  0.0000000000E+00
                       8.7067044877E+00  3.7887503965E+00  3.1059149300E+00
                       4.3086637519E+00  1.5989130415E+00  5.7652202869E+00
                       4.4874177196E+00  3.7887503965E+00  3.1059149300E+00
                       8.9376983833E-02  1.5989130415E+00  5.7652202869E+00
                       6.5970611037E+00  1.1391998833E+00  8.0076630957E-01
                       2.1990203679E+00  4.2484635547E+00  8.0703689073E+00
            xcart      1.2466638768E+01  8.1868114816E+00  1.1313320745E+01
                       4.1555462560E+00  1.9943969123E+00  5.4506953023E+00
                       0.0000000000E+00  0.0000000000E+00  0.0000000000E+00
                       8.3110925119E+00  0.0000000000E+00  0.0000000000E+00
                       1.6453287002E+01  7.1597006352E+00  5.8693286098E+00
                       8.1421944899E+00  3.0215077587E+00  1.0894687438E+01
                       8.4799905339E+00  7.1597006352E+00  5.8693286098E+00
                       1.6889802203E-01  3.0215077587E+00  1.0894687438E+01
                       1.2466638768E+01  2.1527757901E+00  1.5132290215E+00
                       4.1555462560E+00  8.0284326038E+00  1.5250787026E+01
             xred      7.5000000000E-01  8.0411000000E-01  6.5695900000E-01
                       2.5000000000E-01  1.9589000000E-01  3.4304100000E-01
                       0.0000000000E+00  0.0000000000E+00  0.0000000000E+00
                       5.0000000000E-01  0.0000000000E+00  0.0000000000E+00
                       9.8983900000E-01  7.0322700000E-01  3.0121700000E-01
                       4.8983900000E-01  2.9677300000E-01  6.9878300000E-01
                       5.1016100000E-01  7.0322700000E-01  3.0121700000E-01
                       1.0161000000E-02  2.9677300000E-01  6.9878300000E-01
                       7.5000000000E-01  2.1144600000E-01  7.3486000000E-02
                       2.5000000000E-01  7.8855400000E-01  9.2651400000E-01
            znucl       55.00000   34.00000   35.00000

- Timing analysis has been suppressed with timopt=0

 Suggested references for the acknowledgment of ABINIT usage.

 Calculation completed.
.Delivered   3 WARNINGs and   7 COMMENTs to log file.