.Version 9.5.1 of ABINIT

 ABINIT is a project of the Universite Catholique de Louvain,
 Corning Inc. and other collaborators, see ~abinit/doc/developers/contributors.txt .
 acknowledgments of the ABINIT effort.

.Starting date : Mon 26 Apr 2021.
- ( at 00h50 )

- input  file    -> /scratch/users/j/a/jabreu/flow_simple/flow/w123/t1/run.abi
- output file    -> /scratch/users/j/a/jabreu/flow_simple/flow/w123/t1/run.abo
- root for input  files -> /scratch/users/j/a/jabreu/flow_simple/flow/w123/t1/indata/in
- root for output files -> /scratch/users/j/a/jabreu/flow_simple/flow/w123/t1/outdata/out

 Symmetries : space group F-4 3 m (#216); Bravais cF (face-center cubic)
     intxc =       0      iscf =       7    lmnmax =      18     lnmax =       6
     mgfft =      50  mpssoang =       3    mqgrid =    3001     natom =       3
  nloc_mem =       1    nspden =       1   nspinor =       1    nsppol =       1
      nsym =      24    n1xccc =    2501    ntypat =       3    occopt =       1
   xclevel =       2
-    mband =          26        mffmem =           1         mkmem =           2
-   mkqmem =           2        mk1mem =           2           mpw =        5673
      nfft =      125000          nkpt =           2
  Rough estimation (10% accuracy) of disk space for files :

------------- Echo of variables that govern the present computation ------------
-
- outvars: echo of selected default values
-   iomode0 =  0 , fftalg0 =512 , wfoptalg0 =  0
-
- outvars: echo of global parameters not present in the input file
-  max_nthreads =    0
-
 -outvars: echo values of preprocessed input variables --------
            acell      1.0000000000E+00  1.0000000000E+00  1.0000000000E+00 Bohr
              amu      8.89058500E+01  5.86900000E+01  3.09737620E+01
             ecut      4.90000000E+01 Hartree
-          fftalg         512
           irdden           1
           irdwfk           1
           istwfk        1    0
              ixc     -116133
              kpt      0.00000000E+00  0.00000000E+00  0.00000000E+00
                       3.78787879E-01  4.93038066E-32  3.78787879E-01
           kptopt           0
P           mkmem           2
P          mkqmem           2
P          mk1mem           2
            natom           3
            nband          26
           nbdbuf           4
            ngfft          50      50      50
             nkpt           2
            nstep         100
             nsym          24
           ntypat           3
              occ      2.000000  2.000000  2.000000  2.000000  2.000000  2.000000
                       2.000000  2.000000  2.000000  2.000000  2.000000  2.000000
                       2.000000  2.000000  2.000000  2.000000  2.000000  0.000000
                       0.000000  0.000000  0.000000  0.000000  0.000000  0.000000
                       0.000000  0.000000
        optdriver           1
            prtwf          -1
            rfdir           1       1       1
           rfelfd           2
            rprim      6.8122772076E+00  0.0000000000E+00  3.9330700796E+00
                       2.2707590692E+00  6.4226765451E+00  3.9330700796E+00
                       0.0000000000E+00  0.0000000000E+00  7.8661401592E+00
          spgroup         216
           symrel      1  0  0   0  1  0   0  0  1       0 -1  1   0 -1  0   1 -1  0
                      -1  0  0  -1  0  1  -1  1  0       0  1 -1   1  0 -1   0  0 -1
                      -1  0  0  -1  1  0  -1  0  1       0 -1  1   1 -1  0   0 -1  0
                       1  0  0   0  0  1   0  1  0       0  1 -1   0  0 -1   1  0 -1
                      -1  0  1  -1  1  0  -1  0  0       0 -1  0   1 -1  0   0 -1  1
                       1  0 -1   0  0 -1   0  1 -1       0  1  0   0  0  1   1  0  0
                       1  0 -1   0  1 -1   0  0 -1       0 -1  0   0 -1  1   1 -1  0
                      -1  0  1  -1  0  0  -1  1  0       0  1  0   1  0  0   0  0  1
                       0  0 -1   0  1 -1   1  0 -1       1 -1  0   0 -1  1   0 -1  0
                       0  0  1   1  0  0   0  1  0      -1  1  0  -1  0  0  -1  0  1
                       0  0  1   0  1  0   1  0  0       1 -1  0   0 -1  0   0 -1  1
                       0  0 -1   1  0 -1   0  1 -1      -1  1  0  -1  0  1  -1  0  0
           tolwfr      1.00000000E-20
            typat      1  2  3
           useylm           1
              wtk        0.50000    0.50000
           xangst      2.4032678912E+00  1.6993670229E+00  4.1625820918E+00
                       3.6049018369E+00  2.5490505344E+00  6.2438731377E+00
                       0.0000000000E+00  0.0000000000E+00  0.0000000000E+00
            xcart      4.5415181384E+00  3.2113382725E+00  7.8661401592E+00
                       6.8122772076E+00  4.8170074088E+00  1.1799210239E+01
                       0.0000000000E+00  0.0000000000E+00  0.0000000000E+00
             xred      5.0000000000E-01  5.0000000000E-01  5.0000000000E-01
                       7.5000000000E-01  7.5000000000E-01  7.5000000000E-01
                       0.0000000000E+00  0.0000000000E+00  0.0000000000E+00
            znucl       39.00000   28.00000   15.00000

 chkinp: Checking input parameters for consistency.

== DATASET  1 ==================================================================
-   mpi_nproc: 1, omp_nthreads: -1 (-1 if OMP is not activated)

--- !DatasetInfo
iteration_state: {dtset: 1, }
dimensions: {natom: 3, nkpt: 2, mband: 26, nsppol: 1, nspinor: 1, nspden: 1, mpw: 5673, }
cutoff_energies: {ecut:  49.0, pawecutdg:  -1.0, }
electrons: {nelect:   3.40000000E+01, charge:   0.00000000E+00, occopt:   1.00000000E+00, tsmear:   1.00000000E-02, }
meta: {optdriver: 1, rfelfd: 2, }
...

 Real(R)+Recip(G) space primitive vectors, cartesian coordinates (Bohr,Bohr^-1):
 R(1)=  6.8122772  0.0000000  3.9330701  G(1)=  0.1467938 -0.0518994  0.0000000
 R(2)=  2.2707591  6.4226765  3.9330701  G(2)=  0.0000000  0.1556983  0.0000000
 R(3)=  0.0000000  0.0000000  7.8661402  G(3)= -0.0733969 -0.0518994  0.1271272
 Unit cell volume ucvol=  3.4416765E+02 bohr^3
 Angles (23,13,12)=  6.00000000E+01  6.00000000E+01  6.00000000E+01 degrees

 getcut: wavevector=  0.0000  0.0000  0.0000  ngfft=  50  50  50
         ecut(hartree)=     49.000   => boxcut(ratio)=   2.01799

--- Pseudopotential description ------------------------------------------------
- pspini: atom type   1  psp file is /scratch/users/j/a/jabreu/pseudos/PBEsol/Y.psp8
- pspatm: opening atomic psp file    /scratch/users/j/a/jabreu/pseudos/PBEsol/Y.psp8
- Y     ONCVPSP-3.3.0  r_core=   1.60520   1.51226   1.56736
- 39.00000  11.00000    180112                znucl, zion, pspdat
    8 -116133    2    4       600   0.00000   pspcod,pspxc,lmax,lloc,mmax,r2well
    5.99000000000000    4.00000000000000    0.00000000000000   rchrg,fchrg,qchrg
     nproj     2     2     2
     extension_switch     1
  pspatm : epsatm=   18.54790046
         --- l  ekb(1:nproj) -->
             0   10.130768    0.866504
             1    5.598307    0.427135
             2    1.217602    0.315447
 pspatm: atomic psp has been read  and splines computed

- pspini: atom type   2  psp file is /scratch/users/j/a/jabreu/pseudos/PBEsol/Ni.psp8
- pspatm: opening atomic psp file    /scratch/users/j/a/jabreu/pseudos/PBEsol/Ni.psp8
- Ni    ONCVPSP-3.3.0  r_core=   1.26116   1.35474   1.65929
- 28.00000  18.00000    180112                znucl, zion, pspdat
    8 -116133    2    4       600   0.00000   pspcod,pspxc,lmax,lloc,mmax,r2well
    5.99000000000000    3.00000000000000    0.00000000000000   rchrg,fchrg,qchrg
     nproj     2     2     2
     extension_switch     1
  pspatm : epsatm=   19.57179442
         --- l  ekb(1:nproj) -->
             0    6.241516   -0.251675
             1   -2.865987   -0.396303
             2   -7.254374   -2.547636
 pspatm: atomic psp has been read  and splines computed

- pspini: atom type   3  psp file is /scratch/users/j/a/jabreu/pseudos/PBEsol/P.psp8
- pspatm: opening atomic psp file    /scratch/users/j/a/jabreu/pseudos/PBEsol/P.psp8
- P     ONCVPSP-3.3.0  r_core=   1.46089   1.55067   1.70594
- 15.00000   5.00000    180112                znucl, zion, pspdat
    8 -116133    2    4       600   0.00000   pspcod,pspxc,lmax,lloc,mmax,r2well
    5.99000000000000    5.00000000000000    0.00000000000000   rchrg,fchrg,qchrg
     nproj     2     2     2
     extension_switch     1
  pspatm : epsatm=    7.31221086
         --- l  ekb(1:nproj) -->
             0    6.742364    1.063650
             1    3.449117    0.910422
             2   -3.077645   -0.799176
 pspatm: atomic psp has been read  and splines computed

   1.54468480E+03                                ecore*ucvol(ha*bohr**3)

-inwffil : will read wavefunctions from disk file /scratch/users/j/a/jabreu/flow_simple/flow/w123/t1/indata/in_WFK

 ==>  initialize data related to q vector <==

 The list of irreducible perturbations for this q vector is:
    1)    idir= 1    ipert=   4
    2)    idir= 2    ipert=   4
    3)    idir= 3    ipert=   4

 Perturbation wavevector (in red.coord.)   0.000000  0.000000  0.000000
 Perturbation : derivative vs k along direction   1

 dfpt_looppert : COMMENT -
  In a d/dk calculation, iscf is set to -3 automatically.
 The set of symmetries contains only one element for this perturbation.
 symkpt : not enough symmetry to change the number of k points.

[...]

 Initialisation of the first-order wave-functions :
  ireadwf=   0

--- !BeginCycle
iteration_state: {dtset: 1, }
solver: {iscf: 7, nstep: 100, nline: 4, wfoptalg: 0, }
tolerances: {tolwfr: 1.00E-20, }
...

     iter   2DEtotal(Ha)        deltaE(Ha) residm    vres2
-ETOT  1  -47.450714003647     -4.745E+01 5.945E-02 0.000E+00
 ETOT  2  -47.481129458943     -3.042E-02 3.023E-04 0.000E+00
 ETOT  3  -47.481315013539     -1.856E-04 1.157E-05 0.000E+00
 ETOT  4  -47.481317021907     -2.008E-06 2.659E-07 0.000E+00
 ETOT  5  -47.481317051038     -2.913E-08 1.758E-08 0.000E+00
 ETOT  6  -47.481317051541     -5.030E-10 5.370E-10 0.000E+00
 ETOT  7  -47.481317051551     -9.685E-12 3.517E-11 0.000E+00
 ETOT  8  -47.481317051551     -2.061E-13 1.185E-12 0.000E+00
 ETOT  9  -47.481317051551     -2.842E-14 7.268E-14 0.000E+00
 ETOT 10  -47.481317051551     -2.132E-14 2.657E-15 0.000E+00
 ETOT 11  -47.481317051551      2.132E-14 1.525E-16 0.000E+00
 ETOT 12  -47.481317051551      1.421E-14 5.999E-18 0.000E+00
 ETOT 13  -47.481317051551     -7.105E-15 3.351E-19 0.000E+00
 ETOT 14  -47.481317051551      0.000E+00 1.359E-20 0.000E+00
 ETOT 15  -47.481317051551      0.000E+00 9.438E-21 0.000E+00

 At SCF step   15   max residual=  9.44E-21 < tolwfr=  1.00E-20 =>converged.

 ----iterations are completed or convergence reached----

 dfpt_looppert: DFPT cycle converged with prtwf=-1. Will skip output of the 1st-order WFK file.
 dfpt_looppert : ek2=    6.5078352152E+01
          f-sum rule ratio=    1.4973492935E+00
 prteigrs : about to open file /scratch/users/j/a/jabreu/flow_simple/flow/w123/t1/tmpdata/tmp_1WF1_EIG
 Expectation of eigenvalue derivatives (hartree) for nkpt=   2  k points:
  (in case of degenerate eigenvalues, averaged derivative)
 kpt#   1, nband= 26, wtk=  0.50000, kpt=  0.0000  0.0000  0.0000 (reduced coord)
   0.00000    0.00000    0.00000    0.00000    0.00000    0.00000    0.00000    0.00000
   0.00000    0.00000    0.00000    0.00000   -0.00000   -0.00000    0.00000    0.00000
   0.00000   -0.00000   -0.00000   -0.00000    0.00000   -0.00000   -0.00000   -0.00000
   0.00002    0.00002
 prteigrs : prtvol=0 or 1, do not print more k-points.

 Eight components of 2nd-order total energy (hartree) are
 1,2,3: 0th-order hamiltonian combined with 1st-order wavefunctions
     kin0=   3.07736582E+01 eigvalue=  -1.03981691E+00  local=  -1.22768476E+01
 4,5,6: 1st-order hamiltonian combined with 1st and 0th-order wfs
     kin1=  -9.74450246E+01  Hartree=   0.00000000E+00     xc=   0.00000000E+00
 7,8,9: eventually, occupation + non-local contributions
    edocc=   2.91760431E+01     enl0=   8.48280235E-01   enl1=   2.48239051E+00
 1-9 gives the relaxation energy (to be shifted if some occ is /=2.0)
   erelax=  -4.74813171E+01
  No Ewald or frozen-wf contrib.: the relaxation energy is the total one
 2DEtotal=   -0.4748131705E+02 Ha. Also 2DEtotal=   -0.129203234447E+04 eV
    (  non-var. 2DEtotal :   -4.7481317051E+01 Ha)

 Perturbation wavevector (in red.coord.)   0.000000  0.000000  0.000000
 Perturbation : derivative vs k along direction   2
 The set of symmetries contains only one element for this perturbation.
 symkpt : not enough symmetry to change the number of k points.

[...]

 Perturbation wavevector (in red.coord.)   0.000000  0.000000  0.000000
 Perturbation : derivative vs k along direction   3
 The set of symmetries contains only one element for this perturbation.
 symkpt : not enough symmetry to change the number of k points.

-inwffil : will read wavefunctions from disk file /scratch/users/j/a/jabreu/flow_simple/flow/w123/t1/indata/in_WFK

 Initialisation of the first-order wave-functions :
  ireadwf=   0

--- !BeginCycle
iteration_state: {dtset: 1, }
solver: {iscf: 7, nstep: 100, nline: 4, wfoptalg: 0, }
tolerances: {tolwfr: 1.00E-20, }
...

     iter   2DEtotal(Ha)        deltaE(Ha) residm    vres2
-ETOT  1  -47.449934119349     -4.745E+01 5.945E-02 0.000E+00
 ETOT  2  -47.481126036493     -3.119E-02 3.023E-04 0.000E+00
 ETOT  3  -47.481316809474     -1.908E-04 1.158E-05 0.000E+00
 ETOT  4  -47.481318854892     -2.045E-06 2.659E-07 0.000E+00
 ETOT  5  -47.481318884221     -2.933E-08 1.758E-08 0.000E+00
 ETOT  6  -47.481318884724     -5.032E-10 5.370E-10 0.000E+00
 ETOT  7  -47.481318884734     -9.791E-12 3.517E-11 0.000E+00
 ETOT  8  -47.481318884734     -1.776E-13 1.185E-12 0.000E+00
 ETOT  9  -47.481318884734     -5.684E-14 7.268E-14 0.000E+00
 ETOT 10  -47.481318884734      2.132E-14 2.657E-15 0.000E+00
 ETOT 11  -47.481318884734     -1.421E-14 1.525E-16 0.000E+00
 ETOT 12  -47.481318884734      7.105E-15 5.999E-18 0.000E+00
 ETOT 13  -47.481318884734     -1.421E-14 3.351E-19 0.000E+00
 ETOT 14  -47.481318884734      1.421E-14 1.359E-20 0.000E+00
 ETOT 15  -47.481318884734      0.000E+00 9.630E-21 0.000E+00

 At SCF step   15   max residual=  9.63E-21 < tolwfr=  1.00E-20 =>converged.

 ----iterations are completed or convergence reached----

 dfpt_looppert: DFPT cycle converged with prtwf=-1. Will skip output of the 1st-order WFK file.
 dfpt_looppert : ek2=    6.5078352152E+01
          f-sum rule ratio=    1.4973493396E+00
 prteigrs : about to open file /scratch/users/j/a/jabreu/flow_simple/flow/w123/t1/tmpdata/tmp_1WF1_EIG
 Expectation of eigenvalue derivatives (hartree) for nkpt=   2  k points:
  (in case of degenerate eigenvalues, averaged derivative)
 kpt#   1, nband= 26, wtk=  0.50000, kpt=  0.0000  0.0000  0.0000 (reduced coord)
  -0.00000    0.00000    0.00000    0.00000    0.00000    0.00000    0.00000    0.00000
  -0.00000   -0.00000   -0.00000   -0.00000   -0.00000   -0.00000    0.00000    0.00000
   0.00000    0.00000    0.00000    0.00000   -0.00000   -0.00000   -0.00000   -0.00000
  -0.00002   -0.00002
 prteigrs : prtvol=0 or 1, do not print more k-points.

 Eight components of 2nd-order total energy (hartree) are
 1,2,3: 0th-order hamiltonian combined with 1st-order wavefunctions
     kin0=   3.13672661E+01 eigvalue=  -1.01419401E+00  local=  -1.26257757E+01
 4,5,6: 1st-order hamiltonian combined with 1st and 0th-order wfs
     kin1=  -9.74450276E+01  Hartree=   0.00000000E+00     xc=   0.00000000E+00
 7,8,9: eventually, occupation + non-local contributions
    edocc=   2.88933275E+01     enl0=   8.60694997E-01   enl1=   2.48238985E+00
 1-9 gives the relaxation energy (to be shifted if some occ is /=2.0)
   erelax=  -4.74813189E+01
  No Ewald or frozen-wf contrib.: the relaxation energy is the total one
 2DEtotal=   -0.4748131888E+02 Ha. Also 2DEtotal=   -0.129203239435E+04 eV
    (  non-var. 2DEtotal :   -4.7481318885E+01 Ha)

 CALCULATION OF EFFECTIVE MASSES
 NOTE : Additional infos (eff. mass eigenvalues, eigenvectors and, if degenerate, average mass) are available in stdout.

 COMMENTS:
 - At k-point ( 0.000, 0.000, 0.000), bands    15 through    17
   are DEGENERATE (effective mass tensor is therefore not defined).
   See Section IIIB Eqs. (67)-(70) and Appendix E of PRB 93 205147 (2016).
 - Angular average effective mass for Frohlich model is to be averaged over degenerate bands. See later.
 - Associated theta integrals calculated with ntheta=   1000 points.

 K-point ( 0.000, 0.000, 0.000) | band =    15
 Transport equivalent effective mass tensor:
             -0.1821018232             -0.0000000113              0.0000000039
             -0.0000000113             -0.1821018275             -0.0000000085
              0.0000000039             -0.0000000085             -0.1821018082
 Transport equivalent effective mass tensor eigenvalues:
             -0.1821018375             -0.1821018196             -0.1821018018
 Angular average effective mass 1/(<1/m>)=  -0.1401419888
 Angular average effective mass for Frohlich model (<m**0.5>)**2=  -0.1422573524
 Effective masses along directions: (cart. coord. / red. coord. -> eff. mass)
    1:   1.000000  0.000000  0.000000 /   0.948683  0.316228  0.000000 ->  -0.1281546339
    2:   0.000000  1.000000  0.000000 /   0.000000  1.000000  0.000000 ->  -0.1174307737
    3:   0.000000  0.000000  1.000000 /   0.408248  0.408248  0.816497 ->  -0.1349625198
    4:   0.577350  0.577350  0.577350 /   0.585539  0.688047  0.428644 ->  -0.1286590580
    5:   0.000000  0.707107  0.707107 /   0.289489  0.762222  0.578977 ->  -0.1506007062
    6:   0.707107  0.000000  0.707107 /   0.731423  0.422287  0.535439 ->  -0.1312180031
    7:   0.707107  0.707107  0.000000 /   0.616798  0.787122  0.000000 ->  -0.1941599308

[...]

 K-point ( 0.000, 0.000, 0.000) | band =    17
 Transport equivalent effective mass tensor:
             -5.9520966309              0.0000064777             -0.0000002869
              0.0000064777             -5.9520948652             -0.0000002896
             -0.0000002869             -0.0000002896             -5.9520866935
 Transport equivalent effective mass tensor eigenvalues:
             -5.9521022857             -5.9520892746             -5.9520866293
 Angular average effective mass 1/(<1/m>)=  -0.7667276330
 Angular average effective mass for Frohlich model (<m**0.5>)**2=  -0.8993241552
 Effective masses along directions: (cart. coord. / red. coord. -> eff. mass)
    1:   1.000000  0.000000  0.000000 /   0.948683  0.316228  0.000000 ->  -0.8390506516
    2:   0.000000  1.000000  0.000000 /   0.000000  1.000000  0.000000 ->  -0.6307431511
    3:   0.000000  0.000000  1.000000 /   0.408248  0.408248  0.816497 ->  -2.0866362875
    4:   0.577350  0.577350  0.577350 /   0.585539  0.688047  0.428644 ->  -0.9815288069
    5:   0.000000  0.707107  0.707107 /   0.289489  0.762222  0.578977 ->  -0.7393959709
    6:   0.707107  0.000000  0.707107 /   0.731423  0.422287  0.535439 ->  -1.3057592800
    7:   0.707107  0.707107  0.000000 /   0.616798  0.787122  0.000000 ->  -0.3529570143

 Angular average effective mass for Frohlich model, averaged over degenerate bands.
 Value of     (<<m**0.5>>)**2 =     3.958319E-01
 Absolute Value of <<m**0.5>> =     6.291517E-01

 K-point ( 0.379, 0.000, 0.379) | band =    18
 Effective mass tensor:
              2.1355020677             -2.3513264902              2.8797751084
             -2.3513264902              3.7981408997             -4.0726169312
              2.8797751084             -4.0726169312              5.4607798801
 Effective mass tensor eigenvalues:
              0.4728631169              0.4728631415             10.4486965890
 Angular average effective mass 1/(<1/m>)=   0.6936000150
 Angular average effective mass for Frohlich model (<m**0.5>)**2=   0.9112540997
 Effective masses along directions: (cart. coord. / red. coord. -> eff. mass)
    1:   1.000000  0.000000  0.000000 /   0.948683  0.316228  0.000000 ->   0.5623458817
    2:   0.000000  1.000000  0.000000 /   0.000000  1.000000  0.000000 ->   0.6936000231
    3:   0.000000  0.000000  1.000000 /   0.408248  0.408248  0.816497 ->   0.9047798002
    4:   0.577350  0.577350  0.577350 /   0.585539  0.688047  0.428644 ->   0.5208412968
    5:   0.000000  0.707107  0.707107 /   0.289489  0.762222  0.578977 ->   0.4766945144
    6:   0.707107  0.000000  0.707107 /   0.731423  0.422287  0.535439 ->   1.1642833143
    7:   0.707107  0.707107  0.000000 /   0.616798  0.787122  0.000000 ->   0.4794073776

 END OF EFFECTIVE MASSES SECTION

 ---- first-order wavefunction calculations are completed ----

 Total localisation tensor (bohr^2) in cartesian coordinates
  WARNING : still subject to testing - especially symmetries.
      direction              matrix element
   alpha     beta       real part   imaginary part
     1        1       6.1367474245    0.0000000000
     1        2       1.7357342730    0.0000000000
     1        3       4.2516633271    0.0000000000
     2        1       1.7357342730    0.0000000000
     2        2       4.9093978991    0.0000000000
     2        3       3.0063799492    0.0000000000
     3        1       4.2516633271    0.0000000000
     3        2       3.0063799492    0.0000000000
     3        3      11.0461454863    0.0000000000

 respfn : d/dk was computed, but no 2DTE, so no DDB output.

== END DATASET(S) ==============================================================

 -outvars: echo values of variables after computation  --------
            acell      1.0000000000E+00  1.0000000000E+00  1.0000000000E+00 Bohr
              amu      8.89058500E+01  5.86900000E+01  3.09737620E+01
             ecut      4.90000000E+01 Hartree
           etotal     -4.7481318885E+01
            fcart      0.0000000000E+00  0.0000000000E+00  0.0000000000E+00
                       0.0000000000E+00  0.0000000000E+00  0.0000000000E+00
                       0.0000000000E+00  0.0000000000E+00  0.0000000000E+00
-          fftalg         512
           irdden           1
           irdwfk           1
           istwfk        1    0
              ixc     -116133
              kpt      0.00000000E+00  0.00000000E+00  0.00000000E+00
                       3.78787879E-01  4.93038066E-32  3.78787879E-01
           kptopt           0
P           mkmem           2
P          mkqmem           2
P          mk1mem           2
            natom           3
            nband          26
           nbdbuf           4
            ngfft          50      50      50
             nkpt           2
            nstep         100
             nsym          24
           ntypat           3
              occ      2.000000  2.000000  2.000000  2.000000  2.000000  2.000000
                       2.000000  2.000000  2.000000  2.000000  2.000000  2.000000
                       2.000000  2.000000  2.000000  2.000000  2.000000  0.000000
                       0.000000  0.000000  0.000000  0.000000  0.000000  0.000000
                       0.000000  0.000000
        optdriver           1
            prtwf          -1
            rfdir           1       1       1
           rfelfd           2
            rprim      6.8122772076E+00  0.0000000000E+00  3.9330700796E+00
                       2.2707590692E+00  6.4226765451E+00  3.9330700796E+00
                       0.0000000000E+00  0.0000000000E+00  7.8661401592E+00
          spgroup         216
           strten      0.0000000000E+00  0.0000000000E+00  0.0000000000E+00
                       0.0000000000E+00  0.0000000000E+00  0.0000000000E+00
           symrel      1  0  0   0  1  0   0  0  1       0 -1  1   0 -1  0   1 -1  0
                      -1  0  0  -1  0  1  -1  1  0       0  1 -1   1  0 -1   0  0 -1
                      -1  0  0  -1  1  0  -1  0  1       0 -1  1   1 -1  0   0 -1  0
                       1  0  0   0  0  1   0  1  0       0  1 -1   0  0 -1   1  0 -1
                      -1  0  1  -1  1  0  -1  0  0       0 -1  0   1 -1  0   0 -1  1
                       1  0 -1   0  0 -1   0  1 -1       0  1  0   0  0  1   1  0  0
                       1  0 -1   0  1 -1   0  0 -1       0 -1  0   0 -1  1   1 -1  0
                      -1  0  1  -1  0  0  -1  1  0       0  1  0   1  0  0   0  0  1
                       0  0 -1   0  1 -1   1  0 -1       1 -1  0   0 -1  1   0 -1  0
                       0  0  1   1  0  0   0  1  0      -1  1  0  -1  0  0  -1  0  1
                       0  0  1   0  1  0   1  0  0       1 -1  0   0 -1  0   0 -1  1
                       0  0 -1   1  0 -1   0  1 -1      -1  1  0  -1  0  1  -1  0  0
           tolwfr      1.00000000E-20
            typat      1  2  3
           useylm           1
              wtk        0.50000    0.50000
           xangst      2.4032678912E+00  1.6993670229E+00  4.1625820918E+00
                       3.6049018369E+00  2.5490505344E+00  6.2438731377E+00
                       0.0000000000E+00  0.0000000000E+00  0.0000000000E+00
            xcart      4.5415181384E+00  3.2113382725E+00  7.8661401592E+00
                       6.8122772076E+00  4.8170074088E+00  1.1799210239E+01
                       0.0000000000E+00  0.0000000000E+00  0.0000000000E+00
             xred      5.0000000000E-01  5.0000000000E-01  5.0000000000E-01
                       7.5000000000E-01  7.5000000000E-01  7.5000000000E-01
                       0.0000000000E+00  0.0000000000E+00  0.0000000000E+00
            znucl       39.00000   28.00000   15.00000

- Timing analysis has been suppressed with timopt=0

 Suggested references for the acknowledgment of ABINIT usage.

 Calculation completed.
.Delivered  14 WARNINGs and   9 COMMENTs to log file.