.Version 9.5.1 of ABINIT

 ABINIT is a project of the Universite Catholique de Louvain,
 Corning Inc. and other collaborators, see ~abinit/doc/developers/contributors.txt .
 acknowledgments of the ABINIT effort.

.Starting date : Tue 11 May 2021.
- ( at 21h45 )

- input  file    -> /scratch/users/j/a/jabreu/flow_simple_8atoms/flow/w352/t1/run.abi
- output file    -> /scratch/users/j/a/jabreu/flow_simple_8atoms/flow/w352/t1/run.abo
- root for input  files -> /scratch/users/j/a/jabreu/flow_simple_8atoms/flow/w352/t1/indata/in
- root for output files -> /scratch/users/j/a/jabreu/flow_simple_8atoms/flow/w352/t1/outdata/out

 Symmetries : space group P4/m m m (#123); Bravais tP (primitive tetrag.)
     intxc =       0      iscf =       7    lmnmax =      18     lnmax =       6
     mgfft =      72  mpssoang =       3    mqgrid =    3259     natom =       8
  nloc_mem =       1    nspden =       1   nspinor =       1    nsppol =       1
      nsym =      16    n1xccc =    2501    ntypat =       3    occopt =       1
   xclevel =       2
-    mband =          37        mffmem =           1         mkmem =           2
-   mkqmem =           2        mk1mem =           2           mpw =       11329
      nfft =      233280          nkpt =           2
  Rough estimation (10% accuracy) of disk space for files :

------------- Echo of variables that govern the present computation ------------
-
- outvars: echo of selected default values
-   iomode0 =  0 , fftalg0 =512 , wfoptalg0 =  0
-
- outvars: echo of global parameters not present in the input file
-  max_nthreads =    0
-
 -outvars: echo values of preprocessed input variables --------
            acell      1.0000000000E+00  1.0000000000E+00  1.0000000000E+00 Bohr
              amu      3.90983000E+01  2.69815390E+01  1.89984032E+01
             ecut      4.20000000E+01 Hartree
-          fftalg         512
           irdden           1
           irdwfk           1
           istwfk        1    1
              ixc     -116133
              kpt      6.16297582E-33  6.16297582E-33  5.00000000E-01
                       0.00000000E+00  0.00000000E+00  0.00000000E+00
           kptopt           0
P           mkmem           2
P          mkqmem           2
P          mk1mem           2
            natom           8
            nband          37
           nbdbuf           4
            ngfft          72      72      45
             nkpt           2
            nstep        2000
             nsym          16
           ntypat           3
              occ      2.000000  2.000000  2.000000  2.000000  2.000000  2.000000
                       2.000000  2.000000  2.000000  2.000000  2.000000  2.000000
                       2.000000  2.000000  2.000000  2.000000  2.000000  2.000000
                       2.000000  2.000000  2.000000  2.000000  2.000000  2.000000
                       2.000000  2.000000  2.000000  2.000000  0.000000  0.000000
                       0.000000  0.000000  0.000000  0.000000  0.000000  0.000000
                       0.000000
        optdriver           1
            prtwf          -1
            rfdir           1       1       1
           rfelfd           2
            rprim      1.1168708475E+01  0.0000000000E+00  0.0000000000E+00
                       0.0000000000E+00  1.1168708475E+01  0.0000000000E+00
                       0.0000000000E+00  0.0000000000E+00  6.9819675222E+00
          spgroup         123
           symrel      1  0  0   0  1  0   0  0  1      -1  0  0   0 -1  0   0  0 -1
                      -1  0  0   0  1  0   0  0 -1       1  0  0   0 -1  0   0  0  1
                      -1  0  0   0 -1  0   0  0  1       1  0  0   0  1  0   0  0 -1
                       1  0  0   0 -1  0   0  0 -1      -1  0  0   0  1  0   0  0  1
                       0  1  0   1  0  0   0  0  1       0 -1  0  -1  0  0   0  0 -1
                       0 -1  0   1  0  0   0  0 -1       0  1  0  -1  0  0   0  0  1
                       0 -1  0  -1  0  0   0  0  1       0  1  0   1  0  0   0  0 -1
                       0  1  0  -1  0  0   0  0 -1       0 -1  0   1  0  0   0  0  1
           tolwfr      1.00000000E-20
            typat      1  1  2  3  3  3  3  3
           useylm           1
              wtk        0.50000    0.50000
           xangst      2.9551129871E+00  0.0000000000E+00  1.8473490419E+00
                       0.0000000000E+00  2.9551129871E+00  1.8473490419E+00
                       0.0000000000E+00  0.0000000000E+00  0.0000000000E+00
                       4.6431799094E+00  4.6431799094E+00  0.0000000000E+00
                       1.2670460648E+00  4.6431799094E+00  0.0000000000E+00
                       4.6431799094E+00  1.2670460648E+00  0.0000000000E+00
                       0.0000000000E+00  0.0000000000E+00  1.8473490419E+00
                       1.2670460648E+00  1.2670460648E+00  0.0000000000E+00
            xcart      5.5843542373E+00  0.0000000000E+00  3.4909837611E+00
                       0.0000000000E+00  5.5843542373E+00  3.4909837611E+00
                       0.0000000000E+00  0.0000000000E+00  0.0000000000E+00
                       8.7743384144E+00  8.7743384144E+00  0.0000000000E+00
                       2.3943700602E+00  8.7743384144E+00  0.0000000000E+00
                       8.7743384144E+00  2.3943700602E+00  0.0000000000E+00
                       0.0000000000E+00  0.0000000000E+00  3.4909837611E+00
                       2.3943700602E+00  2.3943700602E+00  0.0000000000E+00
             xred      5.0000000000E-01  0.0000000000E+00  5.0000000000E-01
                       0.0000000000E+00  5.0000000000E-01  5.0000000000E-01
                       0.0000000000E+00  0.0000000000E+00  0.0000000000E+00
                       7.8561800000E-01  7.8561800000E-01  0.0000000000E+00
                       2.1438200000E-01  7.8561800000E-01  0.0000000000E+00
                       7.8561800000E-01  2.1438200000E-01  0.0000000000E+00
                       0.0000000000E+00  0.0000000000E+00  5.0000000000E-01
                       2.1438200000E-01  2.1438200000E-01  0.0000000000E+00
            znucl       19.00000   13.00000    9.00000

 chkinp: Checking input parameters for consistency.

== DATASET  1 ==================================================================
-   mpi_nproc: 1, omp_nthreads: -1 (-1 if OMP is not activated)

--- !DatasetInfo
iteration_state: {dtset: 1, }
dimensions: {natom: 8, nkpt: 2, mband: 37, nsppol: 1, nspinor: 1, nspden: 1, mpw: 11329, }
cutoff_energies: {ecut:  42.0, pawecutdg:  -1.0, }
electrons: {nelect:   5.60000000E+01, charge:   0.00000000E+00, occopt:   1.00000000E+00, tsmear:   1.00000000E-02, }
meta: {optdriver: 1, rfelfd: 2, }
...

 Real(R)+Recip(G) space primitive vectors, cartesian coordinates (Bohr,Bohr^-1):
 R(1)= 11.1687085  0.0000000  0.0000000  G(1)=  0.0895359  0.0000000  0.0000000
 R(2)=  0.0000000 11.1687085  0.0000000  G(2)=  0.0000000  0.0895359  0.0000000
 R(3)=  0.0000000  0.0000000  6.9819675  G(3)=  0.0000000  0.0000000  0.1432261
 Unit cell volume ucvol=  8.7093097E+02 bohr^3
 Angles (23,13,12)=  9.00000000E+01  9.00000000E+01  9.00000000E+01 degrees

 getcut: wavevector=  0.0000  0.0000  0.0000  ngfft=  72  72  45
         ecut(hartree)=     42.000   => boxcut(ratio)=   2.16016

--- Pseudopotential description ------------------------------------------------
- pspini: atom type   1  psp file is /scratch/users/j/a/jabreu/pseudos/PBEsol/K.psp8
- pspatm: opening atomic psp file    /scratch/users/j/a/jabreu/pseudos/PBEsol/K.psp8
- K     ONCVPSP-3.3.0  r_core=   1.36296   1.46408   1.61068
- 19.00000   9.00000    180112                znucl, zion, pspdat
    8 -116133    2    4       400   0.00000   pspcod,pspxc,lmax,lloc,mmax,r2well
    3.99000000000000    5.00000000000000    0.00000000000000   rchrg,fchrg,qchrg
     nproj     2     2     2
     extension_switch     1
  pspatm : epsatm=    8.32487830
         --- l  ekb(1:nproj) -->
             0   10.921326    0.816676
             1    4.431000    0.560368
             2   -3.384038   -1.043186
 pspatm: atomic psp has been read  and splines computed

- pspini: atom type   2  psp file is /scratch/users/j/a/jabreu/pseudos/PBEsol/Al.psp8
- pspatm: opening atomic psp file    /scratch/users/j/a/jabreu/pseudos/PBEsol/Al.psp8
- Al    ONCVPSP-3.3.0  r_core=   1.76802   1.76802   1.70587
- 13.00000   3.00000    180112                znucl, zion, pspdat
    8 -116133    2    4       600   0.00000   pspcod,pspxc,lmax,lloc,mmax,r2well
    5.99000000000000    5.00000000000000    0.00000000000000   rchrg,fchrg,qchrg
     nproj     2     2     2
     extension_switch     1
  pspatm : epsatm=    0.68509324
         --- l  ekb(1:nproj) -->
             0    5.834965    0.726662
             1    6.225605    0.924840
             2   -2.432733   -0.548689
 pspatm: atomic psp has been read  and splines computed

- pspini: atom type   3  psp file is /scratch/users/j/a/jabreu/pseudos/PBEsol/F.psp8
- pspatm: opening atomic psp file    /scratch/users/j/a/jabreu/pseudos/PBEsol/F.psp8
- F     ONCVPSP-3.3.0  r_core=   1.30942   1.45782   1.60379
-  9.00000   7.00000    180112                znucl, zion, pspdat
    8 -116133    2    4       600   0.00000   pspcod,pspxc,lmax,lloc,mmax,r2well
    5.99000000000000    2.50000000000000    0.00000000000000   rchrg,fchrg,qchrg
     nproj     2     2     1
     extension_switch     1
  pspatm : epsatm=    4.89824824
         --- l  ekb(1:nproj) -->
             0    6.506434    1.065875
             1   -3.978753   -1.295852
             2   -2.394754
 pspatm: atomic psp has been read  and splines computed

   2.34226110E+03                                ecore*ucvol(ha*bohr**3)

-inwffil : will read wavefunctions from disk file /scratch/users/j/a/jabreu/flow_simple_8atoms/flow/w352/t1/indata/in_WFK

 ==>  initialize data related to q vector <==

 The list of irreducible perturbations for this q vector is:
    1)    idir= 1    ipert=   9
    2)    idir= 2    ipert=   9
    3)    idir= 3    ipert=   9

 Perturbation wavevector (in red.coord.)   0.000000  0.000000  0.000000
 Perturbation : derivative vs k along direction   1

 dfpt_looppert : COMMENT -
  In a d/dk calculation, iscf is set to -3 automatically.
 The set of symmetries contains only one element for this perturbation.
 symkpt : not enough symmetry to change the number of k points.

[...]

 Initialisation of the first-order wave-functions :
  ireadwf=   0

--- !BeginCycle
iteration_state: {dtset: 1, }
solver: {iscf: 7, nstep: 2000, nline: 4, wfoptalg: 0, }
tolerances: {tolwfr: 1.00E-20, }
...

     iter   2DEtotal(Ha)        deltaE(Ha) residm    vres2
-ETOT  1  -18.079355912398     -1.808E+01 6.650E-02 0.000E+00
 ETOT  2  -18.097261423972     -1.791E-02 2.864E-03 0.000E+00
 ETOT  3  -18.097345531109     -8.411E-05 9.631E-05 0.000E+00
 ETOT  4  -18.097346314528     -7.834E-07 4.346E-06 0.000E+00
 ETOT  5  -18.097346325033     -1.051E-08 1.691E-07 0.000E+00
 ETOT  6  -18.097346325195     -1.619E-10 1.504E-08 0.000E+00
 ETOT  7  -18.097346325198     -2.771E-12 8.600E-10 0.000E+00
 ETOT  8  -18.097346325198     -1.421E-14 9.106E-11 0.000E+00
 ETOT  9  -18.097346325198     -7.105E-15 5.481E-12 0.000E+00
 ETOT 10  -18.097346325198      7.105E-15 5.868E-13 0.000E+00
 ETOT 11  -18.097346325198     -1.066E-14 3.714E-14 0.000E+00
 ETOT 12  -18.097346325198      0.000E+00 3.816E-15 0.000E+00
 ETOT 13  -18.097346325198      0.000E+00 5.308E-16 0.000E+00
 ETOT 14  -18.097346325198      0.000E+00 3.725E-17 0.000E+00
 ETOT 15  -18.097346325198      3.553E-15 4.852E-18 0.000E+00
 ETOT 16  -18.097346325198     -7.105E-15 1.077E-18 0.000E+00
 ETOT 17  -18.097346325198      0.000E+00 1.919E-19 0.000E+00
 ETOT 18  -18.097346325198     -3.553E-15 1.017E-19 0.000E+00
 ETOT 19  -18.097346325198      3.553E-15 1.816E-20 0.000E+00
 ETOT 20  -18.097346325198      7.105E-15 9.954E-21 0.000E+00

 At SCF step   20   max residual=  9.95E-21 < tolwfr=  1.00E-20 =>converged.

 ----iterations are completed or convergence reached----

 dfpt_looppert: DFPT cycle converged with prtwf=-1. Will skip output of the 1st-order WFK file.
 dfpt_looppert : ek2=    3.5446376745E+01
          f-sum rule ratio=    1.0244786594E+00
 prteigrs : about to open file /scratch/users/j/a/jabreu/flow_simple_8atoms/flow/w352/t1/tmpdata/tmp_1WF1_EIG
 Expectation of eigenvalue derivatives (hartree) for nkpt=   2  k points:
  (in case of degenerate eigenvalues, averaged derivative)
 kpt#   1, nband= 37, wtk=  0.50000, kpt=  0.0000  0.0000  0.5000 (reduced coord)
  -0.00000    0.00000    0.00000    0.00000    0.00000    0.00000    0.00000   -0.00000
  -0.00000   -0.00000    0.00000    0.00000    0.00000    0.00000    0.00000    0.00000
  -0.00000   -0.00000   -0.00000   -0.00000   -0.00000    0.00000   -0.00000   -0.00000
  -0.00000    0.00000    0.00000   -0.00000   -0.00000   -0.00000   -0.00000   -0.00000
  -0.00000   -0.00000   -0.00000    0.00000    0.00000
 prteigrs : prtvol=0 or 1, do not print more k-points.

 Eight components of 2nd-order total energy (hartree) are
 1,2,3: 0th-order hamiltonian combined with 1st-order wavefunctions
     kin0=   2.33441745E+01 eigvalue=   1.60414476E+00  local=  -1.06490099E+01
 4,5,6: 1st-order hamiltonian combined with 1st and 0th-order wfs
     kin1=  -3.63140565E+01  Hartree=   0.00000000E+00     xc=   0.00000000E+00
 7,8,9: eventually, occupation + non-local contributions
    edocc=   3.41202322E+00     enl0=   3.86013801E-01   enl1=   1.19363876E-01
 1-9 gives the relaxation energy (to be shifted if some occ is /=2.0)
   erelax=  -1.80973463E+01
  No Ewald or frozen-wf contrib.: the relaxation energy is the total one
 2DEtotal=   -0.1809734633E+02 Ha. Also 2DEtotal=   -0.492453837702E+03 eV
    (  non-var. 2DEtotal :   -1.8097346325E+01 Ha)

 Perturbation wavevector (in red.coord.)   0.000000  0.000000  0.000000
 Perturbation : derivative vs k along direction   2
 The set of symmetries contains only one element for this perturbation.
 symkpt : not enough symmetry to change the number of k points.

[...]

 Perturbation wavevector (in red.coord.)   0.000000  0.000000  0.000000
 Perturbation : derivative vs k along direction   3
 The set of symmetries contains only one element for this perturbation.
 symkpt : not enough symmetry to change the number of k points.

-inwffil : will read wavefunctions from disk file /scratch/users/j/a/jabreu/flow_simple_8atoms/flow/w352/t1/indata/in_WFK

 Initialisation of the first-order wave-functions :
  ireadwf=   0

--- !BeginCycle
iteration_state: {dtset: 1, }
solver: {iscf: 7, nstep: 2000, nline: 4, wfoptalg: 0, }
tolerances: {tolwfr: 1.00E-20, }
...

     iter   2DEtotal(Ha)        deltaE(Ha) residm    vres2
-ETOT  1  -45.504032568546     -4.550E+01 5.026E-01 0.000E+00
 ETOT  2  -45.553390016585     -4.936E-02 4.930E-03 0.000E+00
 ETOT  3  -45.553654742239     -2.647E-04 4.964E-04 0.000E+00
 ETOT  4  -45.553657517432     -2.775E-06 2.642E-05 0.000E+00
 ETOT  5  -45.553657556402     -3.897E-08 2.048E-06 0.000E+00
 ETOT  6  -45.553657557030     -6.273E-10 1.854E-07 0.000E+00
 ETOT  7  -45.553657557040     -1.074E-11 2.169E-08 0.000E+00
 ETOT  8  -45.553657557041     -1.776E-13 1.592E-09 0.000E+00
 ETOT  9  -45.553657557041     -7.105E-15 2.220E-10 0.000E+00
 ETOT 10  -45.553657557041      7.105E-14 1.569E-11 0.000E+00
 ETOT 11  -45.553657557041     -7.105E-15 2.626E-12 0.000E+00
 ETOT 12  -45.553657557041     -7.105E-15 1.796E-13 0.000E+00
 ETOT 13  -45.553657557041      0.000E+00 3.526E-14 0.000E+00
 ETOT 14  -45.553657557041      0.000E+00 3.057E-15 0.000E+00
 ETOT 15  -45.553657557041     -1.421E-14 4.864E-16 0.000E+00
 ETOT 16  -45.553657557041      0.000E+00 4.772E-17 0.000E+00
 ETOT 17  -45.553657557041      1.421E-14 7.001E-18 0.000E+00
 ETOT 18  -45.553657557041     -1.421E-14 7.590E-19 0.000E+00
 ETOT 19  -45.553657557041      1.421E-14 1.120E-19 0.000E+00
 ETOT 20  -45.553657557041     -1.421E-14 1.236E-20 0.000E+00
 ETOT 21  -45.553657557041      1.421E-14 9.816E-21 0.000E+00

 At SCF step   21   max residual=  9.82E-21 < tolwfr=  1.00E-20 =>converged.

 ----iterations are completed or convergence reached----

 dfpt_looppert: DFPT cycle converged with prtwf=-1. Will skip output of the 1st-order WFK file.
 dfpt_looppert : ek2=    9.0703095911E+01
          f-sum rule ratio=    1.0053856915E+00
 prteigrs : about to open file /scratch/users/j/a/jabreu/flow_simple_8atoms/flow/w352/t1/tmpdata/tmp_1WF1_EIG
 Expectation of eigenvalue derivatives (hartree) for nkpt=   2  k points:
  (in case of degenerate eigenvalues, averaged derivative)
 kpt#   1, nband= 37, wtk=  0.50000, kpt=  0.0000  0.0000  0.5000 (reduced coord)
  -0.00000   -0.00000    0.00000    0.00000   -0.00000   -0.00000    0.00000    0.00000
  -0.00000   -0.00000   -0.00000    0.00000    0.00000    0.00000    0.00000    0.00000
  -0.00000   -0.00000   -0.00000    0.00000   -0.00000    0.00000    0.00000   -0.00000
  -0.00000   -0.00000   -0.00000   -0.00000    0.00000    0.00000   -0.00000    0.00000
   0.00000   -0.00000    0.00000   -0.00000   -0.00000
 prteigrs : prtvol=0 or 1, do not print more k-points.

 Eight components of 2nd-order total energy (hartree) are
 1,2,3: 0th-order hamiltonian combined with 1st-order wavefunctions
     kin0=   5.97470094E+01 eigvalue=   4.28937264E+00  local=  -2.72569520E+01
 4,5,6: 1st-order hamiltonian combined with 1st and 0th-order wfs
     kin1=  -9.11915948E+01  Hartree=   0.00000000E+00     xc=   0.00000000E+00
 7,8,9: eventually, occupation + non-local contributions
    edocc=   8.05459206E+00     enl0=   7.19635503E-01   enl1=   8.42796919E-02
 1-9 gives the relaxation energy (to be shifted if some occ is /=2.0)
   erelax=  -4.55536576E+01
  No Ewald or frozen-wf contrib.: the relaxation energy is the total one
 2DEtotal=   -0.4555365756E+02 Ha. Also 2DEtotal=   -0.123957806201E+04 eV
    (  non-var. 2DEtotal :   -4.5553657557E+01 Ha)

 CALCULATION OF EFFECTIVE MASSES
 NOTE : Additional infos (eff. mass eigenvalues, eigenvectors and, if degenerate, average mass) are available in stdout.

 K-point ( 0.000, 0.000, 0.500) | band =    28
 Effective mass tensor:
             -2.9029699496              0.0000000674             -0.0000845776
              0.0000000674             -2.9029680413              0.0000110009
             -0.0000845776              0.0000110009            -26.4580237786
 Effective mass tensor eigenvalues:
            -26.4580237789             -2.9029699517             -2.9029680389
 Angular average effective mass 1/(<1/m>)=  -4.1279922569
 Angular average effective mass for Frohlich model (<m**0.5>)**2=  -4.9587017157
 Effective masses along directions: (cart. coord. / red. coord. -> eff. mass)
    1:   1.000000  0.000000  0.000000 /   1.000000  0.000000  0.000000 ->  -2.9029699494
    2:   0.000000  1.000000  0.000000 /   0.000000  1.000000  0.000000 ->  -2.9029680413
    3:   0.000000  0.000000  1.000000 /   0.000000  0.000000  1.000000 -> -26.4580237761
    4:   0.577350  0.577350  0.577350 /   0.646739  0.646739  0.404300 ->  -4.1280030486
    5:   0.000000  0.707107  0.707107 /   0.000000  0.847946  0.530082 ->  -5.2318900110
    6:   0.707107  0.000000  0.707107 /   0.847946  0.000000  0.530082 ->  -5.2319271727
    7:   0.707107  0.707107  0.000000 /   0.707107  0.707107  0.000000 ->  -2.9029689279

 K-point ( 0.000, 0.000, 0.000) | band =    29
 Effective mass tensor:
              0.6004966615              0.0000000023              0.0000000011
              0.0000000023              0.6004966585              0.0000000000
              0.0000000011              0.0000000000              0.6254556579
 Effective mass tensor eigenvalues:
              0.6004966573              0.6004966628              0.6254556579
 Angular average effective mass 1/(<1/m>)=   0.6085920097
 Angular average effective mass for Frohlich model (<m**0.5>)**2=   0.6086588160
 Effective masses along directions: (cart. coord. / red. coord. -> eff. mass)
    1:   1.000000  0.000000  0.000000 /   1.000000  0.000000  0.000000 ->   0.6004966615
    2:   0.000000  1.000000  0.000000 /   0.000000  1.000000  0.000000 ->   0.6004966585
    3:   0.000000  0.000000  1.000000 /   0.000000  0.000000  1.000000 ->   0.6254556579
    4:   0.577350  0.577350  0.577350 /   0.646739  0.646739  0.404300 ->   0.6085920120
    5:   0.000000  0.707107  0.707107 /   0.000000  0.847946  0.530082 ->   0.6127220898
    6:   0.707107  0.000000  0.707107 /   0.847946  0.000000  0.530082 ->   0.6127220924
    7:   0.707107  0.707107  0.000000 /   0.707107  0.707107  0.000000 ->   0.6004966623

 END OF EFFECTIVE MASSES SECTION

 ---- first-order wavefunction calculations are completed ----

 Total localisation tensor (bohr^2) in cartesian coordinates
  WARNING : still subject to testing - especially symmetries.
      direction              matrix element
   alpha     beta       real part   imaginary part
     1        1       0.4774293656    0.0000000000
     1        2       0.0000000000    0.0000000000
     1        3       0.0000000000    0.0000000000
     2        1       0.0000000000    0.0000000000
     2        2       0.4774294105    0.0000000000
     2        3       0.0000000000    0.0000000000
     3        1       0.0000000000    0.0000000000
     3        2       0.0000000000    0.0000000000
     3        3       0.4611999082    0.0000000000

 respfn : d/dk was computed, but no 2DTE, so no DDB output.

== END DATASET(S) ==============================================================

 -outvars: echo values of variables after computation  --------
            acell      1.0000000000E+00  1.0000000000E+00  1.0000000000E+00 Bohr
              amu      3.90983000E+01  2.69815390E+01  1.89984032E+01
             ecut      4.20000000E+01 Hartree
           etotal     -4.5553657557E+01
            fcart      0.0000000000E+00  0.0000000000E+00  0.0000000000E+00
                       0.0000000000E+00  0.0000000000E+00  0.0000000000E+00
                       0.0000000000E+00  0.0000000000E+00  0.0000000000E+00
                       0.0000000000E+00  0.0000000000E+00  0.0000000000E+00
                       0.0000000000E+00  0.0000000000E+00  0.0000000000E+00
                       0.0000000000E+00  0.0000000000E+00  0.0000000000E+00
                       0.0000000000E+00  0.0000000000E+00  0.0000000000E+00
                       0.0000000000E+00  0.0000000000E+00  0.0000000000E+00
-          fftalg         512
           irdden           1
           irdwfk           1
           istwfk        1    1
              ixc     -116133
              kpt      6.16297582E-33  6.16297582E-33  5.00000000E-01
                       0.00000000E+00  0.00000000E+00  0.00000000E+00
           kptopt           0
P           mkmem           2
P          mkqmem           2
P          mk1mem           2
            natom           8
            nband          37
           nbdbuf           4
            ngfft          72      72      45
             nkpt           2
            nstep        2000
             nsym          16
           ntypat           3
              occ      2.000000  2.000000  2.000000  2.000000  2.000000  2.000000
                       2.000000  2.000000  2.000000  2.000000  2.000000  2.000000
                       2.000000  2.000000  2.000000  2.000000  2.000000  2.000000
                       2.000000  2.000000  2.000000  2.000000  2.000000  2.000000
                       2.000000  2.000000  2.000000  2.000000  0.000000  0.000000
                       0.000000  0.000000  0.000000  0.000000  0.000000  0.000000
                       0.000000
        optdriver           1
            prtwf          -1
            rfdir           1       1       1
           rfelfd           2
            rprim      1.1168708475E+01  0.0000000000E+00  0.0000000000E+00
                       0.0000000000E+00  1.1168708475E+01  0.0000000000E+00
                       0.0000000000E+00  0.0000000000E+00  6.9819675222E+00
          spgroup         123
           strten      0.0000000000E+00  0.0000000000E+00  0.0000000000E+00
                       0.0000000000E+00  0.0000000000E+00  0.0000000000E+00
           symrel      1  0  0   0  1  0   0  0  1      -1  0  0   0 -1  0   0  0 -1
                      -1  0  0   0  1  0   0  0 -1       1  0  0   0 -1  0   0  0  1
                      -1  0  0   0 -1  0   0  0  1       1  0  0   0  1  0   0  0 -1
                       1  0  0   0 -1  0   0  0 -1      -1  0  0   0  1  0   0  0  1
                       0  1  0   1  0  0   0  0  1       0 -1  0  -1  0  0   0  0 -1
                       0 -1  0   1  0  0   0  0 -1       0  1  0  -1  0  0   0  0  1
                       0 -1  0  -1  0  0   0  0  1       0  1  0   1  0  0   0  0 -1
                       0  1  0  -1  0  0   0  0 -1       0 -1  0   1  0  0   0  0  1
           tolwfr      1.00000000E-20
            typat      1  1  2  3  3  3  3  3
           useylm           1
              wtk        0.50000    0.50000
           xangst      2.9551129871E+00  0.0000000000E+00  1.8473490419E+00
                       0.0000000000E+00  2.9551129871E+00  1.8473490419E+00
                       0.0000000000E+00  0.0000000000E+00  0.0000000000E+00
                       4.6431799094E+00  4.6431799094E+00  0.0000000000E+00
                       1.2670460648E+00  4.6431799094E+00  0.0000000000E+00
                       4.6431799094E+00  1.2670460648E+00  0.0000000000E+00
                       0.0000000000E+00  0.0000000000E+00  1.8473490419E+00
                       1.2670460648E+00  1.2670460648E+00  0.0000000000E+00
            xcart      5.5843542373E+00  0.0000000000E+00  3.4909837611E+00
                       0.0000000000E+00  5.5843542373E+00  3.4909837611E+00
                       0.0000000000E+00  0.0000000000E+00  0.0000000000E+00
                       8.7743384144E+00  8.7743384144E+00  0.0000000000E+00
                       2.3943700602E+00  8.7743384144E+00  0.0000000000E+00
                       8.7743384144E+00  2.3943700602E+00  0.0000000000E+00
                       0.0000000000E+00  0.0000000000E+00  3.4909837611E+00
                       2.3943700602E+00  2.3943700602E+00  0.0000000000E+00
             xred      5.0000000000E-01  0.0000000000E+00  5.0000000000E-01
                       0.0000000000E+00  5.0000000000E-01  5.0000000000E-01
                       0.0000000000E+00  0.0000000000E+00  0.0000000000E+00
                       7.8561800000E-01  7.8561800000E-01  0.0000000000E+00
                       2.1438200000E-01  7.8561800000E-01  0.0000000000E+00
                       7.8561800000E-01  2.1438200000E-01  0.0000000000E+00
                       0.0000000000E+00  0.0000000000E+00  5.0000000000E-01
                       2.1438200000E-01  2.1438200000E-01  0.0000000000E+00
            znucl       19.00000   13.00000    9.00000

- Timing analysis has been suppressed with timopt=0

 Suggested references for the acknowledgment of ABINIT usage.

 Calculation completed.
.Delivered  14 WARNINGs and   9 COMMENTs to log file.