.Version 9.5.2 of ABINIT

 ABINIT is a project of the Universite Catholique de Louvain,
 Corning Inc. and other collaborators, see ~abinit/doc/developers/contributors.txt .
 acknowledgments of the ABINIT effort.

.Starting date : Mon 31 May 2021.
- ( at 22h45 )

- input  file    -> /scratch/users/j/a/jabreu/flow_simple_11atoms/flow/w380/t1/run.abi
- output file    -> /scratch/users/j/a/jabreu/flow_simple_11atoms/flow/w380/t1/run.abo
- root for input  files -> /scratch/users/j/a/jabreu/flow_simple_11atoms/flow/w380/t1/indata/in
- root for output files -> /scratch/users/j/a/jabreu/flow_simple_11atoms/flow/w380/t1/outdata/out

 Symmetries : space group R3 2 (#155); Bravais hR (rhombohedral)
     intxc =       0      iscf =       7    lmnmax =      18     lnmax =       6
     mgfft =     100  mpssoang =       3    mqgrid =    3001     natom =      12
  nloc_mem =       1    nspden =       1   nspinor =       1    nsppol =       1
      nsym =       6    n1xccc =    2501    ntypat =       4    occopt =       1
   xclevel =       2
-    mband =          41        mffmem =           1         mkmem =           2
-   mkqmem =           2        mk1mem =           2           mpw =       16769
      nfft =     1000000          nkpt =           2
  Rough estimation (10% accuracy) of disk space for files :

------------- Echo of variables that govern the present computation ------------
-
- outvars: echo of selected default values
-   iomode0 =  0 , fftalg0 =512 , wfoptalg0 =  0
-
- outvars: echo of global parameters not present in the input file
-  max_nthreads =    0
-
 -outvars: echo values of preprocessed input variables --------
            acell      1.0000000000E+00  1.0000000000E+00  1.0000000000E+00 Bohr
              amu      1.37327000E+02  2.69815390E+01  1.08110000E+01
                       1.59994000E+01
             ecut      4.40000000E+01 Hartree
-          fftalg         512
           irdden           1
           irdwfk           1
           istwfk        0    1
              ixc     -116133
              kpt      2.39130435E-01  0.00000000E+00  0.00000000E+00
                       0.00000000E+00  0.00000000E+00  0.00000000E+00
           kptopt           0
P           mkmem           2
P          mkqmem           2
P          mk1mem           2
            natom          12
            nband          41
           nbdbuf           4
            ngfft         100     100     100
             nkpt           2
            nstep        2000
             nsym           6
           ntypat           4
              occ      2.000000  2.000000  2.000000  2.000000  2.000000  2.000000
                       2.000000  2.000000  2.000000  2.000000  2.000000  2.000000
                       2.000000  2.000000  2.000000  2.000000  2.000000  2.000000
                       2.000000  2.000000  2.000000  2.000000  2.000000  2.000000
                       2.000000  2.000000  2.000000  2.000000  2.000000  2.000000
                       2.000000  2.000000  0.000000  0.000000  0.000000  0.000000
                       0.000000  0.000000  0.000000  0.000000  0.000000
        optdriver           1
            prtwf          -1
            rfdir           1       1       1
           rfelfd           2
            rprim      9.0725639714E+00  0.0000000000E+00  1.3660102769E+01
                       4.1230219540E+00  8.0815906220E+00  1.3660102769E+01
                       0.0000000000E+00  0.0000000000E+00  1.6398470193E+01
          spgroup         155
           symrel      1  0  0   0  1  0   0  0  1       0 -1  0  -1  0  0   0  0 -1
                       0  0  1   1  0  0   0  1  0      -1  0  0   0  0 -1   0 -1  0
                       0  1  0   0  0  1   1  0  0       0  0 -1   0 -1  0  -1  0  0
           tolwfr      1.00000000E-20
            typat      1  2  2  3  3  4  4  4  4  4  4  4
           useylm           1
              wtk        0.50000    0.50000
           xangst      0.0000000000E+00  0.0000000000E+00  0.0000000000E+00
                       3.9709107672E+00  2.4319704634E+00  1.3156138816E+01
                       3.0118925585E+00  1.8446231030E+00  9.9787879711E+00
                       5.1425204232E+00  3.1495187149E+00  1.7037832507E+01
                       1.8402829025E+00  1.1270748514E+00  6.0970942801E+00
                       2.7531545933E+00  2.0811785995E+00  1.4396536671E+01
                       5.3784602893E+00  1.5066439134E+00  1.3710347251E+01
                       4.4313002024E+00  4.1062910573E+00  1.3515671829E+01
                       3.4914016629E+00  2.1382967832E+00  1.1567463394E+01
                       3.1964878717E+00  1.7030250900E-01  9.4245795361E+00
                       3.8777769658E+00  2.7699496529E+00  8.7383901157E+00
                       1.3112300548E+00  2.1954149668E+00  9.6192549585E+00
            xcart      0.0000000000E+00  0.0000000000E+00  0.0000000000E+00
                       7.5039338482E+00  4.5957581390E+00  2.4861499329E+01
                       5.6916520772E+00  3.4858324830E+00  1.8857176403E+01
                       9.7179552327E+00  5.9517278215E+00  3.2196837336E+01
                       3.4776306927E+00  2.1298628005E+00  1.1521838396E+01
                       5.2027081829E+00  3.9328575867E+00  2.7205511571E+01
                       1.0163816963E+01  2.8471443761E+00  2.5908801491E+01
                       8.3739437950E+00  7.7597655203E+00  2.5540918258E+01
                       6.5977929627E+00  4.0407953110E+00  2.1859337866E+01
                       6.0404866645E+00  3.2182510175E-01  1.7809874241E+01
                       7.3279364697E+00  5.2344462459E+00  1.6513164161E+01
                       2.4778657007E+00  4.1487330353E+00  1.8177757474E+01
             xred      0.0000000000E+00  0.0000000000E+00  0.0000000000E+00
                       5.6867000000E-01  5.6867000000E-01  5.6867000000E-01
                       4.3133000000E-01  4.3133000000E-01  4.3133000000E-01
                       7.3645500000E-01  7.3645500000E-01  7.3645500000E-01
                       2.6354500000E-01  2.6354500000E-01  2.6354500000E-01
                       3.5230000000E-01  4.8664400000E-01  9.6017800000E-01
                       9.6017800000E-01  3.5230000000E-01  4.8664400000E-01
                       4.8664400000E-01  9.6017800000E-01  3.5230000000E-01
                       5.0000000000E-01  5.0000000000E-01  5.0000000000E-01
                       6.4770000000E-01  3.9822000000E-02  5.1335600000E-01
                       5.1335600000E-01  6.4770000000E-01  3.9822000000E-02
                       3.9822000000E-02  5.1335600000E-01  6.4770000000E-01
            znucl       56.00000   13.00000    5.00000    8.00000

 chkinp: Checking input parameters for consistency.

== DATASET  1 ==================================================================
-   mpi_nproc: 1, omp_nthreads: -1 (-1 if OMP is not activated)

--- !DatasetInfo
iteration_state: {dtset: 1, }
dimensions: {natom: 12, nkpt: 2, mband: 41, nsppol: 1, nspinor: 1, nspden: 1, mpw: 16769, }
cutoff_energies: {ecut:  44.0, pawecutdg:  -1.0, }
electrons: {nelect:   6.40000000E+01, charge:   0.00000000E+00, occopt:   1.00000000E+00, tsmear:   1.00000000E-02, }
meta: {optdriver: 1, rfelfd: 2, }
...

 Real(R)+Recip(G) space primitive vectors, cartesian coordinates (Bohr,Bohr^-1):
 R(1)=  9.0725640  0.0000000 13.6601028  G(1)=  0.1102224 -0.0562327  0.0000000
 R(2)=  4.1230220  8.0815906 13.6601028  G(2)=  0.0000000  0.1237380  0.0000000
 R(3)=  0.0000000  0.0000000 16.3984702  G(3)= -0.0918165 -0.0562327  0.0609813
 Unit cell volume ucvol=  1.2023481E+03 bohr^3
 Angles (23,13,12)=  3.35907263E+01  3.35907263E+01  3.35907263E+01 degrees

 getcut: wavevector=  0.0000  0.0000  0.0000  ngfft= 100 100 100
         ecut(hartree)=     44.000   => boxcut(ratio)=   2.04246

--- Pseudopotential description ------------------------------------------------
- pspini: atom type   1  psp file is /scratch/users/j/a/jabreu/pseudos/PBEsol/Ba.psp8
- pspatm: opening atomic psp file    /scratch/users/j/a/jabreu/pseudos/PBEsol/Ba.psp8
- Ba    ONCVPSP-3.3.0  r_core=   2.15444   1.91218   2.15444
- 56.00000  10.00000    180112                znucl, zion, pspdat
    8 -116133    2    4       600   0.00000   pspcod,pspxc,lmax,lloc,mmax,r2well
    5.99000000000000    5.00000000000000    0.00000000000000   rchrg,fchrg,qchrg
     nproj     2     2     2
     extension_switch     1
  pspatm : epsatm=   26.37418029
         --- l  ekb(1:nproj) -->
             0    6.652372    0.677024
             1    5.027722    0.408462
             2    2.543237    0.416854
 pspatm: atomic psp has been read  and splines computed

- pspini: atom type   2  psp file is /scratch/users/j/a/jabreu/pseudos/PBEsol/Al.psp8
- pspatm: opening atomic psp file    /scratch/users/j/a/jabreu/pseudos/PBEsol/Al.psp8
- Al    ONCVPSP-3.3.0  r_core=   1.76802   1.76802   1.70587
- 13.00000   3.00000    180112                znucl, zion, pspdat
    8 -116133    2    4       600   0.00000   pspcod,pspxc,lmax,lloc,mmax,r2well
    5.99000000000000    5.00000000000000    0.00000000000000   rchrg,fchrg,qchrg
     nproj     2     2     2
     extension_switch     1
  pspatm : epsatm=    0.68509324
         --- l  ekb(1:nproj) -->
             0    5.834965    0.726662
             1    6.225605    0.924840
             2   -2.432733   -0.548689
 pspatm: atomic psp has been read  and splines computed

[...]

- pspini: atom type   4  psp file is /scratch/users/j/a/jabreu/pseudos/PBEsol/O.psp8
- pspatm: opening atomic psp file    /scratch/users/j/a/jabreu/pseudos/PBEsol/O.psp8
- O     ONCVPSP-3.3.0  r_core=   1.35509   1.45563   1.26150
-  8.00000   6.00000    180112                znucl, zion, pspdat
    8 -116133    2    4       600   0.00000   pspcod,pspxc,lmax,lloc,mmax,r2well
    5.99000000000000    4.00000000000000    0.00000000000000   rchrg,fchrg,qchrg
     nproj     2     2     1
     extension_switch     1
  pspatm : epsatm=    6.22910522
         --- l  ekb(1:nproj) -->
             0    6.050032    0.820363
             1   -4.739617   -1.153841
             2   -1.335834
 pspatm: atomic psp has been read  and splines computed

   4.97607645E+03                                ecore*ucvol(ha*bohr**3)

 ==>  initialize data related to q vector <==

 The list of irreducible perturbations for this q vector is:
    1)    idir= 1    ipert=  13
    2)    idir= 2    ipert=  13
    3)    idir= 3    ipert=  13

 Perturbation wavevector (in red.coord.)   0.000000  0.000000  0.000000
 Perturbation : derivative vs k along direction   1

 dfpt_looppert : COMMENT -
  In a d/dk calculation, iscf is set to -3 automatically.
 The set of symmetries contains only one element for this perturbation.
 symkpt : not enough symmetry to change the number of k points.

 Initialisation of the first-order wave-functions :
  ireadwf=   0

--- !BeginCycle
iteration_state: {dtset: 1, }
solver: {iscf: 7, nstep: 2000, nline: 4, wfoptalg: 0, }
tolerances: {tolwfr: 1.00E-20, }
...

     iter   2DEtotal(Ha)        deltaE(Ha) residm    vres2
-ETOT  1  -41.066559159873     -4.107E+01 1.128E-01 0.000E+00
[...]
 ETOT 30  -41.132897695281     -1.421E-14 1.267E-20 0.000E+00
 ETOT 31  -41.132897695281      7.105E-15 9.987E-21 0.000E+00

 At SCF step   31   max residual=  9.99E-21 < tolwfr=  1.00E-20 =>converged.

 ----iterations are completed or convergence reached----

 dfpt_looppert: DFPT cycle converged with prtwf=-1. Will skip output of the 1st-order WFK file.
 dfpt_looppert : ek2=    7.7370608404E+01
          f-sum rule ratio=    1.0396618645E+00
 prteigrs : about to open file /scratch/users/j/a/jabreu/flow_simple_11atoms/flow/w380/t1/tmpdata/tmp_1WF1_EIG
 Expectation of eigenvalue derivatives (hartree) for nkpt=   2  k points:
  (in case of degenerate eigenvalues, averaged derivative)
 kpt#   1, nband= 41, wtk=  0.50000, kpt=  0.2391  0.0000  0.0000 (reduced coord)
   0.00251    0.01927    0.03076   -0.04234   -0.04501   -0.00163   -0.00461    0.00269
   0.00808    0.01005   -0.01051    0.08737    0.08583   -0.02244   -0.05758    0.06586
   0.03640    0.07311    0.02421   -0.08785   -0.06882   -0.02485   -0.04837   -0.00491
  -0.02207   -0.03665   -0.02157   -0.02348   -0.01712   -0.04689   -0.03485    0.00011
   0.20008    0.01730    0.04892   -0.02499    0.01103    0.00310    0.08393   -0.04650
  -0.00725
 prteigrs : prtvol=0 or 1, do not print more k-points.

 Eight components of 2nd-order total energy (hartree) are
 1,2,3: 0th-order hamiltonian combined with 1st-order wavefunctions
     kin0=   6.01286165E+01 eigvalue=   2.66072946E+00  local=  -2.89180380E+01
 4,5,6: 1st-order hamiltonian combined with 1st and 0th-order wfs
     kin1=  -8.04392710E+01  Hartree=   0.00000000E+00     xc=   0.00000000E+00
 7,8,9: eventually, occupation + non-local contributions
    edocc=   8.11245228E+00     enl0=  -8.50862573E-01   enl1=  -1.82652440E+00
 1-9 gives the relaxation energy (to be shifted if some occ is /=2.0)
   erelax=  -4.11328977E+01
  No Ewald or frozen-wf contrib.: the relaxation energy is the total one
 2DEtotal=   -0.4113289770E+02 Ha. Also 2DEtotal=   -0.111928306846E+04 eV
    (  non-var. 2DEtotal :   -4.1132897695E+01 Ha)

 Perturbation wavevector (in red.coord.)   0.000000  0.000000  0.000000
 Perturbation : derivative vs k along direction   2
 The set of symmetries contains only one element for this perturbation.
 symkpt : not enough symmetry to change the number of k points.

[...]

 Perturbation wavevector (in red.coord.)   0.000000  0.000000  0.000000
 Perturbation : derivative vs k along direction   3
 The set of symmetries contains only one element for this perturbation.
 symkpt : not enough symmetry to change the number of k points.

 Initialisation of the first-order wave-functions :
  ireadwf=   0

--- !BeginCycle
iteration_state: {dtset: 1, }
solver: {iscf: 7, nstep: 2000, nline: 4, wfoptalg: 0, }
tolerances: {tolwfr: 1.00E-20, }
...

     iter   2DEtotal(Ha)        deltaE(Ha) residm    vres2
-ETOT  1  -41.676105569121     -4.168E+01 6.275E-02 0.000E+00
 ETOT  2  -41.743645290174     -6.754E-02 5.950E-03 0.000E+00
 ETOT  3  -41.744146325818     -5.010E-04 5.480E-04 0.000E+00
 ETOT  4  -41.744152151570     -5.826E-06 1.190E-04 0.000E+00
 ETOT  5  -41.744152234717     -8.315E-08 2.589E-05 0.000E+00
 ETOT  6  -41.744152236071     -1.355E-09 6.968E-06 0.000E+00
 ETOT  7  -41.744152236095     -2.386E-11 1.554E-06 0.000E+00
 ETOT  8  -41.744152236096     -4.974E-13 4.320E-07 0.000E+00
 ETOT  9  -41.744152236096      2.132E-14 9.622E-08 0.000E+00
 ETOT 10  -41.744152236096     -4.974E-14 2.703E-08 0.000E+00
 ETOT 11  -41.744152236096      7.105E-15 6.039E-09 0.000E+00
 ETOT 12  -41.744152236096     -7.105E-15 1.708E-09 0.000E+00
 ETOT 13  -41.744152236096     -1.421E-14 3.827E-10 0.000E+00
 ETOT 14  -41.744152236096      0.000E+00 1.087E-10 0.000E+00
 ETOT 15  -41.744152236096      0.000E+00 2.441E-11 0.000E+00
 ETOT 16  -41.744152236096      0.000E+00 6.950E-12 0.000E+00
 ETOT 17  -41.744152236096      0.000E+00 1.565E-12 0.000E+00
 ETOT 18  -41.744152236096      0.000E+00 4.464E-13 0.000E+00
 ETOT 19  -41.744152236096      0.000E+00 1.008E-13 0.000E+00
 ETOT 20  -41.744152236096      0.000E+00 2.876E-14 0.000E+00
 ETOT 21  -41.744152236096      0.000E+00 6.510E-15 0.000E+00
 ETOT 22  -41.744152236096      1.421E-14 1.857E-15 0.000E+00
 ETOT 23  -41.744152236096     -7.105E-15 4.216E-16 0.000E+00
 ETOT 24  -41.744152236096      0.000E+00 1.202E-16 0.000E+00
 ETOT 25  -41.744152236096      0.000E+00 2.736E-17 0.000E+00
 ETOT 26  -41.744152236096      7.105E-15 7.790E-18 0.000E+00
 ETOT 27  -41.744152236096      7.105E-15 1.779E-18 0.000E+00
 ETOT 28  -41.744152236096      0.000E+00 5.056E-19 0.000E+00
 ETOT 29  -41.744152236096      7.105E-15 1.158E-19 0.000E+00
 ETOT 30  -41.744152236096     -2.842E-14 3.285E-20 0.000E+00
 ETOT 31  -41.744152236096      7.105E-15 9.917E-21 0.000E+00

 At SCF step   31   max residual=  9.92E-21 < tolwfr=  1.00E-20 =>converged.

 ----iterations are completed or convergence reached----

 dfpt_looppert: DFPT cycle converged with prtwf=-1. Will skip output of the 1st-order WFK file.
 dfpt_looppert : ek2=    7.7370608404E+01
          f-sum rule ratio=    1.0596651157E+00
 prteigrs : about to open file /scratch/users/j/a/jabreu/flow_simple_11atoms/flow/w380/t1/tmpdata/tmp_1WF1_EIG
 Expectation of eigenvalue derivatives (hartree) for nkpt=   2  k points:
  (in case of degenerate eigenvalues, averaged derivative)
 kpt#   1, nband= 41, wtk=  0.50000, kpt=  0.2391  0.0000  0.0000 (reduced coord)
  -0.00126   -0.00911   -0.01592    0.02077    0.02296    0.00083    0.00230   -0.00139
  -0.00400   -0.00504    0.00530   -0.04191   -0.04493    0.01126    0.02810   -0.03296
  -0.01798   -0.04505   -0.00051    0.04233    0.02994    0.01732    0.02796   -0.00639
   0.01282    0.01599    0.01730    0.01265    0.00771    0.02466    0.01238    0.00050
  -0.09163   -0.00717   -0.02811    0.00861   -0.00300   -0.00784   -0.04555   -0.00064
  -0.01068
 prteigrs : prtvol=0 or 1, do not print more k-points.

 Eight components of 2nd-order total energy (hartree) are
 1,2,3: 0th-order hamiltonian combined with 1st-order wavefunctions
     kin0=   5.91396274E+01 eigvalue=   2.39093717E+00  local=  -2.81501304E+01
 4,5,6: 1st-order hamiltonian combined with 1st and 0th-order wfs
     kin1=  -8.19869347E+01  Hartree=   0.00000000E+00     xc=   0.00000000E+00
 7,8,9: eventually, occupation + non-local contributions
    edocc=   9.18395770E+00     enl0=  -8.20239645E-01   enl1=  -1.50136977E+00
 1-9 gives the relaxation energy (to be shifted if some occ is /=2.0)
   erelax=  -4.17441522E+01
  No Ewald or frozen-wf contrib.: the relaxation energy is the total one
 2DEtotal=   -0.4174415224E+02 Ha. Also 2DEtotal=   -0.113591615041E+04 eV
    (  non-var. 2DEtotal :   -4.1744152236E+01 Ha)

 CALCULATION OF EFFECTIVE MASSES
 NOTE : Additional infos (eff. mass eigenvalues, eigenvectors and, if degenerate, average mass) are available in stdout.

 K-point ( 0.239, 0.000, 0.000) | band =    32
 Effective mass tensor:
            -12.1259864178              3.4204868640              0.1156781995
              3.4204868640             -6.9517658148              0.8526032513
              0.1156781995              0.8526032513             -2.8052814632
 Effective mass tensor eigenvalues:
            -13.8345315482             -5.4961257870             -2.5523763606
 Angular average effective mass 1/(<1/m>)=  -4.6438119567
 Angular average effective mass for Frohlich model (<m**0.5>)**2=  -5.2733065335
 Effective masses along directions: (cart. coord. / red. coord. -> eff. mass)
    1:   1.000000  0.000000  0.000000 /   0.910399  0.413731  0.000000 -> -10.3369447187
    2:   0.000000  1.000000  0.000000 /   0.000000  1.000000  0.000000 ->  -5.7074641362
    3:   0.000000  0.000000  1.000000 /   0.539076  0.539076  0.647142 ->  -2.6732861071
    4:   0.577350  0.577350  0.577350 /   0.596031  0.678150  0.429953 ->  -3.3523883420
    5:   0.000000  0.707107  0.707107 /   0.448364  0.713626  0.538245 ->  -3.0307530194
    6:   0.707107  0.000000  0.707107 /   0.684817  0.535713  0.494001 ->  -3.9280933835
    7:   0.707107  0.707107  0.000000 /   0.596590  0.802546  0.000000 ->  -5.3785054691

 K-point ( 0.000, 0.000, 0.000) | band =    33
 Effective mass tensor:
              0.5439879631             -0.0010484744             -0.0056718923
             -0.0010484744              0.5450577730             -0.0034737307
             -0.0056718923             -0.0034737307              0.5269081977
 Effective mass tensor eigenvalues:
              0.5245541188              0.5456999075              0.5456999075
 Angular average effective mass 1/(<1/m>)=   0.5384643945
 Angular average effective mass for Frohlich model (<m**0.5>)**2=   0.5385208485
 Effective masses along directions: (cart. coord. / red. coord. -> eff. mass)
    1:   1.000000  0.000000  0.000000 /   0.910399  0.413731  0.000000 ->   0.5439247447
    2:   0.000000  1.000000  0.000000 /   0.000000  1.000000  0.000000 ->   0.5450327040
    3:   0.000000  0.000000  1.000000 /   0.539076  0.539076  0.647142 ->   0.5268267814
    4:   0.577350  0.577350  0.577350 /   0.596031  0.678150  0.429953 ->   0.5316675014
    5:   0.000000  0.707107  0.707107 /   0.448364  0.713626  0.538245 ->   0.5323141185
    6:   0.707107  0.000000  0.707107 /   0.684817  0.535713  0.494001 ->   0.5296223339
    7:   0.707107  0.707107  0.000000 /   0.596590  0.802546  0.000000 ->   0.5433944601

 END OF EFFECTIVE MASSES SECTION

 ---- first-order wavefunction calculations are completed ----

 Total localisation tensor (bohr^2) in cartesian coordinates
  WARNING : still subject to testing - especially symmetries.
      direction              matrix element
   alpha     beta       real part   imaginary part
     1        1       1.1039596333    0.0000000000
     1        2       0.3820257086    0.0000000000
     1        3       2.0144537571    0.0000000000
     2        1       0.3820257086    0.0000000000
     2        2       0.7488137143    0.0000000000
     2        3       1.2657003765    0.0000000000
     3        1       2.0144537571    0.0000000000
     3        2       1.2657003765    0.0000000000
     3        3       7.2833140359    0.0000000000

 respfn : d/dk was computed, but no 2DTE, so no DDB output.

== END DATASET(S) ==============================================================

 -outvars: echo values of variables after computation  --------
            acell      1.0000000000E+00  1.0000000000E+00  1.0000000000E+00 Bohr
              amu      1.37327000E+02  2.69815390E+01  1.08110000E+01
                       1.59994000E+01
             ecut      4.40000000E+01 Hartree
           etotal     -4.1744152236E+01
            fcart      0.0000000000E+00  0.0000000000E+00  0.0000000000E+00
                       0.0000000000E+00  0.0000000000E+00  0.0000000000E+00
                       0.0000000000E+00  0.0000000000E+00  0.0000000000E+00
                       0.0000000000E+00  0.0000000000E+00  0.0000000000E+00
                       0.0000000000E+00  0.0000000000E+00  0.0000000000E+00
                       0.0000000000E+00  0.0000000000E+00  0.0000000000E+00
                       0.0000000000E+00  0.0000000000E+00  0.0000000000E+00
                       0.0000000000E+00  0.0000000000E+00  0.0000000000E+00
                       0.0000000000E+00  0.0000000000E+00  0.0000000000E+00
                       0.0000000000E+00  0.0000000000E+00  0.0000000000E+00
                       0.0000000000E+00  0.0000000000E+00  0.0000000000E+00
                       0.0000000000E+00  0.0000000000E+00  0.0000000000E+00
-          fftalg         512
           irdden           1
           irdwfk           1
           istwfk        0    1
              ixc     -116133
              kpt      2.39130435E-01  0.00000000E+00  0.00000000E+00
                       0.00000000E+00  0.00000000E+00  0.00000000E+00
           kptopt           0
P           mkmem           2
P          mkqmem           2
P          mk1mem           2
            natom          12
            nband          41
           nbdbuf           4
            ngfft         100     100     100
             nkpt           2
            nstep        2000
             nsym           6
           ntypat           4
              occ      2.000000  2.000000  2.000000  2.000000  2.000000  2.000000
                       2.000000  2.000000  2.000000  2.000000  2.000000  2.000000
                       2.000000  2.000000  2.000000  2.000000  2.000000  2.000000
                       2.000000  2.000000  2.000000  2.000000  2.000000  2.000000
                       2.000000  2.000000  2.000000  2.000000  2.000000  2.000000
                       2.000000  2.000000  0.000000  0.000000  0.000000  0.000000
                       0.000000  0.000000  0.000000  0.000000  0.000000
        optdriver           1
            prtwf          -1
            rfdir           1       1       1
           rfelfd           2
            rprim      9.0725639714E+00  0.0000000000E+00  1.3660102769E+01
                       4.1230219540E+00  8.0815906220E+00  1.3660102769E+01
                       0.0000000000E+00  0.0000000000E+00  1.6398470193E+01
          spgroup         155
           strten      0.0000000000E+00  0.0000000000E+00  0.0000000000E+00
                       0.0000000000E+00  0.0000000000E+00  0.0000000000E+00
           symrel      1  0  0   0  1  0   0  0  1       0 -1  0  -1  0  0   0  0 -1
                       0  0  1   1  0  0   0  1  0      -1  0  0   0  0 -1   0 -1  0
                       0  1  0   0  0  1   1  0  0       0  0 -1   0 -1  0  -1  0  0
           tolwfr      1.00000000E-20
            typat      1  2  2  3  3  4  4  4  4  4  4  4
           useylm           1
              wtk        0.50000    0.50000
           xangst      0.0000000000E+00  0.0000000000E+00  0.0000000000E+00
                       3.9709107672E+00  2.4319704634E+00  1.3156138816E+01
                       3.0118925585E+00  1.8446231030E+00  9.9787879711E+00
                       5.1425204232E+00  3.1495187149E+00  1.7037832507E+01
                       1.8402829025E+00  1.1270748514E+00  6.0970942801E+00
                       2.7531545933E+00  2.0811785995E+00  1.4396536671E+01
                       5.3784602893E+00  1.5066439134E+00  1.3710347251E+01
                       4.4313002024E+00  4.1062910573E+00  1.3515671829E+01
                       3.4914016629E+00  2.1382967832E+00  1.1567463394E+01
                       3.1964878717E+00  1.7030250900E-01  9.4245795361E+00
                       3.8777769658E+00  2.7699496529E+00  8.7383901157E+00
                       1.3112300548E+00  2.1954149668E+00  9.6192549585E+00
            xcart      0.0000000000E+00  0.0000000000E+00  0.0000000000E+00
                       7.5039338482E+00  4.5957581390E+00  2.4861499329E+01
                       5.6916520772E+00  3.4858324830E+00  1.8857176403E+01
                       9.7179552327E+00  5.9517278215E+00  3.2196837336E+01
                       3.4776306927E+00  2.1298628005E+00  1.1521838396E+01
                       5.2027081829E+00  3.9328575867E+00  2.7205511571E+01
                       1.0163816963E+01  2.8471443761E+00  2.5908801491E+01
                       8.3739437950E+00  7.7597655203E+00  2.5540918258E+01
                       6.5977929627E+00  4.0407953110E+00  2.1859337866E+01
                       6.0404866645E+00  3.2182510175E-01  1.7809874241E+01
                       7.3279364697E+00  5.2344462459E+00  1.6513164161E+01
                       2.4778657007E+00  4.1487330353E+00  1.8177757474E+01
             xred      0.0000000000E+00  0.0000000000E+00  0.0000000000E+00
                       5.6867000000E-01  5.6867000000E-01  5.6867000000E-01
                       4.3133000000E-01  4.3133000000E-01  4.3133000000E-01
                       7.3645500000E-01  7.3645500000E-01  7.3645500000E-01
                       2.6354500000E-01  2.6354500000E-01  2.6354500000E-01
                       3.5230000000E-01  4.8664400000E-01  9.6017800000E-01
                       9.6017800000E-01  3.5230000000E-01  4.8664400000E-01
                       4.8664400000E-01  9.6017800000E-01  3.5230000000E-01
                       5.0000000000E-01  5.0000000000E-01  5.0000000000E-01
                       6.4770000000E-01  3.9822000000E-02  5.1335600000E-01
                       5.1335600000E-01  6.4770000000E-01  3.9822000000E-02
                       3.9822000000E-02  5.1335600000E-01  6.4770000000E-01
            znucl       56.00000   13.00000    5.00000    8.00000

- Timing analysis has been suppressed with timopt=0

 Suggested references for the acknowledgment of ABINIT usage.

 Calculation completed.
.Delivered   2 WARNINGs and   5 COMMENTs to log file.