.Version 9.5.2 of ABINIT

 ABINIT is a project of the Universite Catholique de Louvain,
 Corning Inc. and other collaborators, see ~abinit/doc/developers/contributors.txt .
 acknowledgments of the ABINIT effort.

.Starting date : Mon 24 May 2021.
- ( at 10h54 )

- input  file    -> /scratch/users/j/a/jabreu/flow_simple_10atoms/flow/w269/t1/run.abi
- output file    -> /scratch/users/j/a/jabreu/flow_simple_10atoms/flow/w269/t1/run.abo
- root for input  files -> /scratch/users/j/a/jabreu/flow_simple_10atoms/flow/w269/t1/indata/in
- root for output files -> /scratch/users/j/a/jabreu/flow_simple_10atoms/flow/w269/t1/outdata/out

 Symmetries : space group Fm -3 m (#225); Bravais cF (face-center cubic)
     intxc =       0      iscf =       7    lmnmax =      18     lnmax =       6
     mgfft =      72  mpssoang =       3    mqgrid =    3001     natom =      10
  nloc_mem =       1    nspden =       1   nspinor =       1    nsppol =       1
      nsym =      48    n1xccc =    2501    ntypat =       4    occopt =       1
   xclevel =       2
-    mband =          52        mffmem =           1         mkmem =           2
-   mkqmem =           2        mk1mem =           2           mpw =       15644
      nfft =      373248          nkpt =           2
  Rough estimation (10% accuracy) of disk space for files :

------------- Echo of variables that govern the present computation ------------
-
- outvars: echo of selected default values
-   iomode0 =  0 , fftalg0 =512 , wfoptalg0 =  0
-
- outvars: echo of global parameters not present in the input file
-  max_nthreads =    0
-
 -outvars: echo values of preprocessed input variables --------
            acell      1.0000000000E+00  1.0000000000E+00  1.0000000000E+00 Bohr
              amu      8.54678000E+01  1.14820000E+02  6.97230000E+01
                       1.89984032E+01
             ecut      4.20000000E+01 Hartree
-          fftalg         512
           irdden           1
           irdwfk           1
           istwfk        1    1
              ixc     -116133
              kpt      5.00000000E-01  0.00000000E+00  5.00000000E-01
                       5.00000000E-01  5.00000000E-01  5.00000000E-01
           kptopt           0
P           mkmem           2
P          mkqmem           2
P          mk1mem           2
            natom          10
            nband          52
           nbdbuf           4
            ngfft          72      72      72
             nkpt           2
            nstep        2000
             nsym          48
           ntypat           4
              occ      2.000000  2.000000  2.000000  2.000000  2.000000  2.000000
                       2.000000  2.000000  2.000000  2.000000  2.000000  2.000000
                       2.000000  2.000000  2.000000  2.000000  2.000000  2.000000
                       2.000000  2.000000  2.000000  2.000000  2.000000  2.000000
                       2.000000  2.000000  2.000000  2.000000  2.000000  2.000000
                       2.000000  2.000000  2.000000  2.000000  2.000000  2.000000
                       2.000000  2.000000  2.000000  2.000000  2.000000  2.000000
                       2.000000  0.000000  0.000000  0.000000  0.000000  0.000000
                       0.000000  0.000000  0.000000  0.000000
        optdriver           1
            prtwf          -1
            rfdir           1       1       1
           rfelfd           2
            rprim      1.0331739845E+01  0.0000000000E+00  5.9650327810E+00
                       3.4439132818E+00  9.7408577416E+00  5.9650327810E+00
                       0.0000000000E+00  0.0000000000E+00  1.1930065562E+01
          spgroup         225
           symrel      1  0  0   0  1  0   0  0  1      -1  0  0   0 -1  0   0  0 -1
                       0 -1  1   0 -1  0   1 -1  0       0  1 -1   0  1  0  -1  1  0
                      -1  0  0  -1  0  1  -1  1  0       1  0  0   1  0 -1   1 -1  0
                       0  1 -1   1  0 -1   0  0 -1       0 -1  1  -1  0  1   0  0  1
                      -1  0  0  -1  1  0  -1  0  1       1  0  0   1 -1  0   1  0 -1
                       0 -1  1   1 -1  0   0 -1  0       0  1 -1  -1  1  0   0  1  0
                       1  0  0   0  0  1   0  1  0      -1  0  0   0  0 -1   0 -1  0
                       0  1 -1   0  0 -1   1  0 -1       0 -1  1   0  0  1  -1  0  1
                      -1  0  1  -1  1  0  -1  0  0       1  0 -1   1 -1  0   1  0  0
                       0 -1  0   1 -1  0   0 -1  1       0  1  0  -1  1  0   0  1 -1
                       1  0 -1   0  0 -1   0  1 -1      -1  0  1   0  0  1   0 -1  1
                       0  1  0   0  0  1   1  0  0       0 -1  0   0  0 -1  -1  0  0
                       1  0 -1   0  1 -1   0  0 -1      -1  0  1   0 -1  1   0  0  1
                       0 -1  0   0 -1  1   1 -1  0       0  1  0   0  1 -1  -1  1  0
                      -1  0  1  -1  0  0  -1  1  0       1  0 -1   1  0  0   1 -1  0
                       0  1  0   1  0  0   0  0  1       0 -1  0  -1  0  0   0  0 -1
                       0  0 -1   0  1 -1   1  0 -1       0  0  1   0 -1  1  -1  0  1
                       1 -1  0   0 -1  1   0 -1  0      -1  1  0   0  1 -1   0  1  0
                       0  0  1   1  0  0   0  1  0       0  0 -1  -1  0  0   0 -1  0
                      -1  1  0  -1  0  0  -1  0  1       1 -1  0   1  0  0   1  0 -1
                       0  0  1   0  1  0   1  0  0       0  0 -1   0 -1  0  -1  0  0
                       1 -1  0   0 -1  0   0 -1  1      -1  1  0   0  1  0   0  1 -1
                       0  0 -1   1  0 -1   0  1 -1       0  0  1  -1  0  1   0 -1  1
                      -1  1  0  -1  0  1  -1  0  0       1 -1  0   1  0 -1   1  0  0
           tolwfr      1.00000000E-20
            typat      1  1  2  3  4  4  4  4  4  4
           useylm           1
              wtk        0.50000    0.50000
           xangst      1.8224404171E+00  1.2886599772E+00  3.1565593962E+00
                       5.4673212513E+00  3.8659799317E+00  9.4696781886E+00
                       0.0000000000E+00  0.0000000000E+00  0.0000000000E+00
                       3.6448808342E+00  2.5773199545E+00  6.3131187924E+00
                       2.8654376473E+00  3.6796190805E+00  7.6631539937E+00
                       4.4243240211E+00  1.4750208285E+00  7.6631539937E+00
                       2.8654376473E+00  3.6796190805E+00  4.9630835911E+00
                       2.0859944605E+00  1.4750208285E+00  6.3131187924E+00
                       5.2037672079E+00  3.6796190805E+00  6.3131187924E+00
                       4.4243240211E+00  1.4750208285E+00  4.9630835911E+00
            xcart      3.4439132818E+00  2.4352144354E+00  5.9650327810E+00
                       1.0331739845E+01  7.3056433062E+00  1.7895098343E+01
                       0.0000000000E+00  0.0000000000E+00  0.0000000000E+00
                       6.8878265637E+00  4.8704288708E+00  1.1930065562E+01
                       5.4148924043E+00  6.9534723354E+00  1.4481262362E+01
                       8.3607607230E+00  2.7873854062E+00  1.4481262362E+01
                       5.4148924043E+00  6.9534723354E+00  9.3788687618E+00
                       3.9419582450E+00  2.7873854062E+00  1.1930065562E+01
                       9.8336948823E+00  6.9534723354E+00  1.1930065562E+01
                       8.3607607230E+00  2.7873854062E+00  9.3788687618E+00
             xred      2.5000000000E-01  2.5000000000E-01  2.5000000000E-01
                       7.5000000000E-01  7.5000000000E-01  7.5000000000E-01
                       0.0000000000E+00  0.0000000000E+00  0.0000000000E+00
                       5.0000000000E-01  5.0000000000E-01  5.0000000000E-01
                       2.8615400000E-01  7.1384600000E-01  7.1384600000E-01
                       7.1384600000E-01  2.8615400000E-01  7.1384600000E-01
                       2.8615400000E-01  7.1384600000E-01  2.8615400000E-01
                       2.8615400000E-01  2.8615400000E-01  7.1384600000E-01
                       7.1384600000E-01  7.1384600000E-01  2.8615400000E-01
                       7.1384600000E-01  2.8615400000E-01  2.8615400000E-01
            znucl       37.00000   49.00000   31.00000    9.00000

 chkinp: Checking input parameters for consistency.

== DATASET  1 ==================================================================
-   mpi_nproc: 1, omp_nthreads: -1 (-1 if OMP is not activated)

--- !DatasetInfo
iteration_state: {dtset: 1, }
dimensions: {natom: 10, nkpt: 2, mband: 52, nsppol: 1, nspinor: 1, nspden: 1, mpw: 15644, }
cutoff_energies: {ecut:  42.0, pawecutdg:  -1.0, }
electrons: {nelect:   8.60000000E+01, charge:   0.00000000E+00, occopt:   1.00000000E+00, tsmear:   1.00000000E-02, }
meta: {optdriver: 1, rfelfd: 2, }
...

 Real(R)+Recip(G) space primitive vectors, cartesian coordinates (Bohr,Bohr^-1):
 R(1)= 10.3317398  0.0000000  5.9650328  G(1)=  0.0967891 -0.0342201  0.0000000
 R(2)=  3.4439133  9.7408577  5.9650328  G(2)=  0.0000000  0.1026604  0.0000000
 R(3)=  0.0000000  0.0000000 11.9300656  G(3)= -0.0483946 -0.0342201  0.0838218
 Unit cell volume ucvol=  1.2006419E+03 bohr^3
 Angles (23,13,12)=  6.00000000E+01  6.00000000E+01  6.00000000E+01 degrees

 getcut: wavevector=  0.0000  0.0000  0.0000  ngfft=  72  72  72
         ecut(hartree)=     42.000   => boxcut(ratio)=   2.06871

--- Pseudopotential description ------------------------------------------------
- pspini: atom type   1  psp file is /scratch/users/j/a/jabreu/pseudos/PBEsol/Rb.psp8
- pspatm: opening atomic psp file    /scratch/users/j/a/jabreu/pseudos/PBEsol/Rb.psp8
- Rb    ONCVPSP-3.3.0  r_core=   1.71227   1.75361   1.90633
- 37.00000   9.00000    180112                znucl, zion, pspdat
    8 -116133    2    4       600   0.00000   pspcod,pspxc,lmax,lloc,mmax,r2well
    5.99000000000000    7.00000000000000    0.00000000000000   rchrg,fchrg,qchrg
     nproj     2     2     2
     extension_switch     1
  pspatm : epsatm=   34.48400912
         --- l  ekb(1:nproj) -->
             0    8.196957   -0.477221
             1    3.231347   -0.378736
             2   -1.047201    0.996637
 pspatm: atomic psp has been read  and splines computed

- pspini: atom type   2  psp file is /scratch/users/j/a/jabreu/pseudos/PBEsol/In.psp8
- pspatm: opening atomic psp file    /scratch/users/j/a/jabreu/pseudos/PBEsol/In.psp8
- In    ONCVPSP-3.3.0  r_core=   2.10853   2.37566   1.87143
- 49.00000  13.00000    180112                znucl, zion, pspdat
    8 -116133    2    4       600   0.00000   pspcod,pspxc,lmax,lloc,mmax,r2well
    5.99000000000000    5.00000000000000    0.00000000000000   rchrg,fchrg,qchrg
     nproj     2     2     2
     extension_switch     1
  pspatm : epsatm=   25.17984752
         --- l  ekb(1:nproj) -->
             0   12.999887    1.931740
             1    5.981707    1.012544
             2   -4.048011   -1.239028
 pspatm: atomic psp has been read  and splines computed

[...]

- pspini: atom type   4  psp file is /scratch/users/j/a/jabreu/pseudos/PBEsol/F.psp8
- pspatm: opening atomic psp file    /scratch/users/j/a/jabreu/pseudos/PBEsol/F.psp8
- F     ONCVPSP-3.3.0  r_core=   1.30942   1.45782   1.60379
[...]
 ETOT 15  -52.185454336541     -2.132E-14 3.806E-06 0.000E+00
 ETOT 16  -52.185454336541     -1.421E-14 3.862E-06 0.000E+00
 ETOT 17  -52.185454336541      3.553E-14 1.046E-06 0.000E+00
 ETOT 18  -52.185454336541     -2.132E-14 1.069E-06 0.000E+00
 ETOT 19  -52.185454336541     -1.421E-14 2.876E-07 0.000E+00
 ETOT 20  -52.185454336541      0.000E+00 2.961E-07 0.000E+00
 ETOT 21  -52.185454336541      7.105E-15 7.916E-08 0.000E+00
 ETOT 22  -52.185454336541      7.105E-15 8.210E-08 0.000E+00
 ETOT 23  -52.185454336541      0.000E+00 2.181E-08 0.000E+00
 ETOT 24  -52.185454336541     -1.421E-14 2.277E-08 0.000E+00
 ETOT 25  -52.185454336541      7.105E-15 6.010E-09 0.000E+00
 ETOT 26  -52.185454336541     -7.105E-15 6.317E-09 0.000E+00
 ETOT 27  -52.185454336541      1.421E-14 1.657E-09 0.000E+00
 ETOT 28  -52.185454336541      7.105E-15 1.753E-09 0.000E+00
 ETOT 29  -52.185454336541     -7.105E-15 4.571E-10 0.000E+00
 ETOT 30  -52.185454336541      7.105E-15 4.864E-10 0.000E+00
 ETOT 31  -52.185454336541      0.000E+00 1.261E-10 0.000E+00
 ETOT 32  -52.185454336541     -1.421E-14 1.350E-10 0.000E+00
 ETOT 33  -52.185454336541      7.105E-15 3.481E-11 0.000E+00
 ETOT 34  -52.185454336541     -7.105E-15 3.745E-11 0.000E+00
 ETOT 35  -52.185454336541     -7.105E-15 9.607E-12 0.000E+00
 ETOT 36  -52.185454336541      0.000E+00 1.039E-11 0.000E+00
 ETOT 37  -52.185454336541      1.421E-14 2.652E-12 0.000E+00
 ETOT 38  -52.185454336541      0.000E+00 2.883E-12 0.000E+00
 ETOT 39  -52.185454336541     -1.421E-14 7.322E-13 0.000E+00
 ETOT 40  -52.185454336541      0.000E+00 7.999E-13 0.000E+00
 ETOT 41  -52.185454336541      7.105E-15 2.021E-13 0.000E+00
 ETOT 42  -52.185454336541     -7.105E-15 2.219E-13 0.000E+00
 ETOT 43  -52.185454336541      7.105E-15 5.581E-14 0.000E+00
 ETOT 44  -52.185454336541     -7.105E-15 6.153E-14 0.000E+00
 ETOT 45  -52.185454336541      0.000E+00 1.541E-14 0.000E+00
 ETOT 46  -52.185454336541      0.000E+00 1.706E-14 0.000E+00
 ETOT 47  -52.185454336541      0.000E+00 4.255E-15 0.000E+00
 ETOT 48  -52.185454336541      0.000E+00 4.730E-15 0.000E+00
 ETOT 49  -52.185454336541      0.000E+00 1.175E-15 0.000E+00
 ETOT 50  -52.185454336541      0.000E+00 1.311E-15 0.000E+00
 ETOT 51  -52.185454336541      0.000E+00 3.244E-16 0.000E+00
 ETOT 52  -52.185454336541      1.421E-14 3.634E-16 0.000E+00
 ETOT 53  -52.185454336541     -1.421E-14 8.956E-17 0.000E+00
 ETOT 54  -52.185454336541      0.000E+00 1.007E-16 0.000E+00
 ETOT 55  -52.185454336541      0.000E+00 2.473E-17 0.000E+00
 ETOT 56  -52.185454336541     -1.421E-14 2.790E-17 0.000E+00
 ETOT 57  -52.185454336541      1.421E-14 6.827E-18 0.000E+00
 ETOT 58  -52.185454336541      0.000E+00 7.728E-18 0.000E+00
 ETOT 59  -52.185454336541      0.000E+00 1.885E-18 0.000E+00
 ETOT 60  -52.185454336541      0.000E+00 2.141E-18 0.000E+00
 ETOT 61  -52.185454336541      0.000E+00 5.204E-19 0.000E+00
 ETOT 62  -52.185454336541      1.421E-14 5.928E-19 0.000E+00
 ETOT 63  -52.185454336541      1.421E-14 1.437E-19 0.000E+00
 ETOT 64  -52.185454336541     -1.421E-14 1.642E-19 0.000E+00
 ETOT 65  -52.185454336541      2.842E-14 3.967E-20 0.000E+00
 ETOT 66  -52.185454336541      0.000E+00 4.545E-20 0.000E+00
 ETOT 67  -52.185454336541      0.000E+00 1.095E-20 0.000E+00
 ETOT 68  -52.185454336541     -7.105E-15 9.977E-21 0.000E+00

 At SCF step   68   max residual=  9.98E-21 < tolwfr=  1.00E-20 =>converged.

 ----iterations are completed or convergence reached----

 dfpt_looppert: DFPT cycle converged with prtwf=-1. Will skip output of the 1st-order WFK file.
 dfpt_looppert : ek2=    7.1563864044E+01
          f-sum rule ratio=    1.0020967856E+00
 prteigrs : about to open file /scratch/users/j/a/jabreu/flow_simple_10atoms/flow/w269/t1/tmpdata/tmp_1WF1_EIG
 Expectation of eigenvalue derivatives (hartree) for nkpt=   2  k points:
  (in case of degenerate eigenvalues, averaged derivative)
 kpt#   1, nband= 52, wtk=  0.50000, kpt=  0.5000  0.0000  0.5000 (reduced coord)
   0.00000    0.00000   -0.00000   -0.00000   -0.00000    0.00000    0.00000   -0.00000
  -0.00000   -0.00000    0.00000   -0.00000   -0.00000    0.00000   -0.00000   -0.00000
  -0.00000   -0.00000    0.00000    0.00000    0.00000    0.00000    0.00000   -0.00000
  -0.00000    0.00000    0.00000    0.00000    0.00000    0.00000    0.00000    0.00000
  -0.00000   -0.00000   -0.00000   -0.00000    0.00000    0.00000    0.00000    0.00000
   0.00000   -0.00000   -0.00000   -0.00000   -0.00000   -0.00000   -0.00000   -0.00000
   0.00000    0.00180    0.00154   -0.00092
 prteigrs : prtvol=0 or 1, do not print more k-points.

 Eight components of 2nd-order total energy (hartree) are
 1,2,3: 0th-order hamiltonian combined with 1st-order wavefunctions
     kin0=   6.72736986E+01 eigvalue=   5.73909637E+00  local=  -3.06383996E+01
 4,5,6: 1st-order hamiltonian combined with 1st and 0th-order wfs
     kin1=  -7.17139181E+01  Hartree=   0.00000000E+00     xc=   0.00000000E+00
 7,8,9: eventually, occupation + non-local contributions
    edocc=   5.29384999E+00     enl0=   4.51720891E+00   enl1=  -3.26569906E+01
 1-9 gives the relaxation energy (to be shifted if some occ is /=2.0)
   erelax=  -5.21854543E+01
  No Ewald or frozen-wf contrib.: the relaxation energy is the total one
 2DEtotal=   -0.5218545434E+02 Ha. Also 2DEtotal=   -0.142003842986E+04 eV
    (  non-var. 2DEtotal :   -5.2185454337E+01 Ha)

 CALCULATION OF EFFECTIVE MASSES
 NOTE : Additional infos (eff. mass eigenvalues, eigenvectors and, if degenerate, average mass) are available in stdout.

 K-point ( 0.500, 0.000, 0.500) | band =    43
 Effective mass tensor:
             -8.8895287064             -2.3608001939              2.8912501827
             -2.3608001939             -7.2200675056             -4.0889607755
              2.8912501827             -4.0889607755             -5.5509728374
 Effective mass tensor eigenvalues:
            -10.5588259504            -10.5587578440             -0.5429852551
 Angular average effective mass 1/(<1/m>)=  -1.4770421528
 Angular average effective mass for Frohlich model (<m**0.5>)**2=  -2.6802253674
 Effective masses along directions: (cart. coord. / red. coord. -> eff. mass)
    1:   1.000000  0.000000  0.000000 /   0.948683  0.316228  0.000000 ->  -2.5915882315
    2:   0.000000  1.000000  0.000000 /   0.000000  1.000000  0.000000 ->  -1.4769942066
    3:   0.000000  0.000000  1.000000 /   0.408248  0.408248  0.816497 ->  -1.0328745896
    4:   0.577350  0.577350  0.577350 /   0.585539  0.688047  0.428644 ->  -3.7987178181
    5:   0.000000  0.707107  0.707107 /   0.289489  0.762222  0.578977 ->  -9.1398937300
    6:   0.707107  0.000000  0.707107 /   0.731423  0.422287  0.535439 ->  -0.8465153552
    7:   0.707107  0.707107  0.000000 /   0.616798  0.787122  0.000000 ->  -8.3549686700

 K-point ( 0.500, 0.500, 0.500) | band =    44
 Effective mass tensor:
              0.6287752610              0.0297866028              0.0729621413
              0.0297866028              0.6077130905              0.0515919003
              0.0729621413              0.0515919003              0.7130245132
 Effective mass tensor eigenvalues:
              0.5866505048              0.5866507899              0.7762115702
 Angular average effective mass 1/(<1/m>)=   0.6386385866
 Angular average effective mass for Frohlich model (<m**0.5>)**2=   0.6418116557
 Effective masses along directions: (cart. coord. / red. coord. -> eff. mass)
    1:   1.000000  0.000000  0.000000 /   0.948683  0.316228  0.000000 ->   0.6203147963
    2:   0.000000  1.000000  0.000000 /   0.000000  1.000000  0.000000 ->   0.6030134026
    3:   0.000000  0.000000  1.000000 /   0.408248  0.408248  0.816497 ->   0.7007365231
    4:   0.577350  0.577350  0.577350 /   0.585539  0.688047  0.428644 ->   0.7463399587
    5:   0.000000  0.707107  0.707107 /   0.289489  0.762222  0.578977 ->   0.6995912803
    6:   0.707107  0.000000  0.707107 /   0.731423  0.422287  0.535439 ->   0.7356460146
    7:   0.707107  0.707107  0.000000 /   0.616798  0.787122  0.000000 ->   0.6370243254

 END OF EFFECTIVE MASSES SECTION

 ---- first-order wavefunction calculations are completed ----

 Total localisation tensor (bohr^2) in cartesian coordinates
  WARNING : still subject to testing - especially symmetries.
      direction              matrix element
   alpha     beta       real part   imaginary part
     1        1       0.7283868389    0.0000000000
     1        2       0.2060226280    0.0000000000
     1        3       0.5046427232    0.0000000000
     2        1       0.2060226280    0.0000000000
     2        2       0.5827199893    0.0000000000
     2        3       0.3568416592    0.0000000000
     3        1       0.5046427232    0.0000000000
     3        2       0.3568416592    0.0000000000
     3        3       1.3111106382    0.0000000000

 respfn : d/dk was computed, but no 2DTE, so no DDB output.

== END DATASET(S) ==============================================================

 -outvars: echo values of variables after computation  --------
            acell      1.0000000000E+00  1.0000000000E+00  1.0000000000E+00 Bohr
              amu      8.54678000E+01  1.14820000E+02  6.97230000E+01
                       1.89984032E+01
             ecut      4.20000000E+01 Hartree
           etotal     -5.2185454337E+01
            fcart      0.0000000000E+00  0.0000000000E+00  0.0000000000E+00
                       0.0000000000E+00  0.0000000000E+00  0.0000000000E+00
                       0.0000000000E+00  0.0000000000E+00  0.0000000000E+00
                       0.0000000000E+00  0.0000000000E+00  0.0000000000E+00
                       0.0000000000E+00  0.0000000000E+00  0.0000000000E+00
                       0.0000000000E+00  0.0000000000E+00  0.0000000000E+00
                       0.0000000000E+00  0.0000000000E+00  0.0000000000E+00
                       0.0000000000E+00  0.0000000000E+00  0.0000000000E+00
                       0.0000000000E+00  0.0000000000E+00  0.0000000000E+00
                       0.0000000000E+00  0.0000000000E+00  0.0000000000E+00
-          fftalg         512
           irdden           1
           irdwfk           1
           istwfk        1    1
              ixc     -116133
              kpt      5.00000000E-01  0.00000000E+00  5.00000000E-01
                       5.00000000E-01  5.00000000E-01  5.00000000E-01
           kptopt           0
P           mkmem           2
P          mkqmem           2
P          mk1mem           2
            natom          10
            nband          52
           nbdbuf           4
            ngfft          72      72      72
             nkpt           2
            nstep        2000
             nsym          48
           ntypat           4
              occ      2.000000  2.000000  2.000000  2.000000  2.000000  2.000000
                       2.000000  2.000000  2.000000  2.000000  2.000000  2.000000
                       2.000000  2.000000  2.000000  2.000000  2.000000  2.000000
                       2.000000  2.000000  2.000000  2.000000  2.000000  2.000000
                       2.000000  2.000000  2.000000  2.000000  2.000000  2.000000
                       2.000000  2.000000  2.000000  2.000000  2.000000  2.000000
                       2.000000  2.000000  2.000000  2.000000  2.000000  2.000000
                       2.000000  0.000000  0.000000  0.000000  0.000000  0.000000
                       0.000000  0.000000  0.000000  0.000000
        optdriver           1
            prtwf          -1
            rfdir           1       1       1
           rfelfd           2
            rprim      1.0331739845E+01  0.0000000000E+00  5.9650327810E+00
                       3.4439132818E+00  9.7408577416E+00  5.9650327810E+00
                       0.0000000000E+00  0.0000000000E+00  1.1930065562E+01
          spgroup         225
           strten      0.0000000000E+00  0.0000000000E+00  0.0000000000E+00
                       0.0000000000E+00  0.0000000000E+00  0.0000000000E+00
           symrel      1  0  0   0  1  0   0  0  1      -1  0  0   0 -1  0   0  0 -1
                       0 -1  1   0 -1  0   1 -1  0       0  1 -1   0  1  0  -1  1  0
                      -1  0  0  -1  0  1  -1  1  0       1  0  0   1  0 -1   1 -1  0
                       0  1 -1   1  0 -1   0  0 -1       0 -1  1  -1  0  1   0  0  1
                      -1  0  0  -1  1  0  -1  0  1       1  0  0   1 -1  0   1  0 -1
                       0 -1  1   1 -1  0   0 -1  0       0  1 -1  -1  1  0   0  1  0
                       1  0  0   0  0  1   0  1  0      -1  0  0   0  0 -1   0 -1  0
                       0  1 -1   0  0 -1   1  0 -1       0 -1  1   0  0  1  -1  0  1
                      -1  0  1  -1  1  0  -1  0  0       1  0 -1   1 -1  0   1  0  0
                       0 -1  0   1 -1  0   0 -1  1       0  1  0  -1  1  0   0  1 -1
                       1  0 -1   0  0 -1   0  1 -1      -1  0  1   0  0  1   0 -1  1
                       0  1  0   0  0  1   1  0  0       0 -1  0   0  0 -1  -1  0  0
                       1  0 -1   0  1 -1   0  0 -1      -1  0  1   0 -1  1   0  0  1
                       0 -1  0   0 -1  1   1 -1  0       0  1  0   0  1 -1  -1  1  0
                      -1  0  1  -1  0  0  -1  1  0       1  0 -1   1  0  0   1 -1  0
                       0  1  0   1  0  0   0  0  1       0 -1  0  -1  0  0   0  0 -1
                       0  0 -1   0  1 -1   1  0 -1       0  0  1   0 -1  1  -1  0  1
                       1 -1  0   0 -1  1   0 -1  0      -1  1  0   0  1 -1   0  1  0
                       0  0  1   1  0  0   0  1  0       0  0 -1  -1  0  0   0 -1  0
                      -1  1  0  -1  0  0  -1  0  1       1 -1  0   1  0  0   1  0 -1
                       0  0  1   0  1  0   1  0  0       0  0 -1   0 -1  0  -1  0  0
                       1 -1  0   0 -1  0   0 -1  1      -1  1  0   0  1  0   0  1 -1
                       0  0 -1   1  0 -1   0  1 -1       0  0  1  -1  0  1   0 -1  1
                      -1  1  0  -1  0  1  -1  0  0       1 -1  0   1  0 -1   1  0  0
           tolwfr      1.00000000E-20
            typat      1  1  2  3  4  4  4  4  4  4
           useylm           1
              wtk        0.50000    0.50000
           xangst      1.8224404171E+00  1.2886599772E+00  3.1565593962E+00
                       5.4673212513E+00  3.8659799317E+00  9.4696781886E+00
                       0.0000000000E+00  0.0000000000E+00  0.0000000000E+00
                       3.6448808342E+00  2.5773199545E+00  6.3131187924E+00
                       2.8654376473E+00  3.6796190805E+00  7.6631539937E+00
                       4.4243240211E+00  1.4750208285E+00  7.6631539937E+00
                       2.8654376473E+00  3.6796190805E+00  4.9630835911E+00
                       2.0859944605E+00  1.4750208285E+00  6.3131187924E+00
                       5.2037672079E+00  3.6796190805E+00  6.3131187924E+00
                       4.4243240211E+00  1.4750208285E+00  4.9630835911E+00
            xcart      3.4439132818E+00  2.4352144354E+00  5.9650327810E+00
                       1.0331739845E+01  7.3056433062E+00  1.7895098343E+01
                       0.0000000000E+00  0.0000000000E+00  0.0000000000E+00
                       6.8878265637E+00  4.8704288708E+00  1.1930065562E+01
                       5.4148924043E+00  6.9534723354E+00  1.4481262362E+01
                       8.3607607230E+00  2.7873854062E+00  1.4481262362E+01
                       5.4148924043E+00  6.9534723354E+00  9.3788687618E+00
                       3.9419582450E+00  2.7873854062E+00  1.1930065562E+01
                       9.8336948823E+00  6.9534723354E+00  1.1930065562E+01
                       8.3607607230E+00  2.7873854062E+00  9.3788687618E+00
             xred      2.5000000000E-01  2.5000000000E-01  2.5000000000E-01
                       7.5000000000E-01  7.5000000000E-01  7.5000000000E-01
                       0.0000000000E+00  0.0000000000E+00  0.0000000000E+00
                       5.0000000000E-01  5.0000000000E-01  5.0000000000E-01
                       2.8615400000E-01  7.1384600000E-01  7.1384600000E-01
                       7.1384600000E-01  2.8615400000E-01  7.1384600000E-01
                       2.8615400000E-01  7.1384600000E-01  2.8615400000E-01
                       2.8615400000E-01  2.8615400000E-01  7.1384600000E-01
                       7.1384600000E-01  7.1384600000E-01  2.8615400000E-01
                       7.1384600000E-01  2.8615400000E-01  2.8615400000E-01
            znucl       37.00000   49.00000   31.00000    9.00000

- Timing analysis has been suppressed with timopt=0

 Suggested references for the acknowledgment of ABINIT usage.

 Calculation completed.
.Delivered   2 WARNINGs and   5 COMMENTs to log file.