.Version 9.5.1 of ABINIT

 ABINIT is a project of the Universite Catholique de Louvain,
 Corning Inc. and other collaborators, see ~abinit/doc/developers/contributors.txt .
 acknowledgments of the ABINIT effort.

.Starting date : Mon 26 Apr 2021.
- ( at 00h47 )

- input  file    -> /scratch/users/j/a/jabreu/flow_simple/flow/w104/t1/run.abi
- output file    -> /scratch/users/j/a/jabreu/flow_simple/flow/w104/t1/run.abo
- root for input  files -> /scratch/users/j/a/jabreu/flow_simple/flow/w104/t1/indata/in
- root for output files -> /scratch/users/j/a/jabreu/flow_simple/flow/w104/t1/outdata/out

 Symmetries : space group F-4 3 m (#216); Bravais cF (face-center cubic)
     intxc =       0      iscf =       7    lmnmax =      18     lnmax =       6
     mgfft =      60  mpssoang =       3    mqgrid =    3001     natom =       3
  nloc_mem =       1    nspden =       1   nspinor =       1    nsppol =       1
      nsym =      24    n1xccc =    2501    ntypat =       3    occopt =       1
   xclevel =       2
-    mband =          26        mffmem =           1         mkmem =           2
-   mkqmem =           2        mk1mem =           2           mpw =        7727
      nfft =      216000          nkpt =           2
  Rough estimation (10% accuracy) of disk space for files :

------------- Echo of variables that govern the present computation ------------
-
- outvars: echo of selected default values
-   iomode0 =  0 , fftalg0 =512 , wfoptalg0 =  0
-
- outvars: echo of global parameters not present in the input file
-  max_nthreads =    0
-
 -outvars: echo values of preprocessed input variables --------
            acell      1.0000000000E+00  1.0000000000E+00  1.0000000000E+00 Bohr
              amu      2.29897680E+01  4.00780000E+01  7.49215900E+01
             ecut      4.40000000E+01 Hartree
-          fftalg         512
           irdden           1
           irdwfk           1
           istwfk        0    1
              ixc     -116133
              kpt      2.00000000E-01  2.00000000E-01  4.00000000E-01
                       0.00000000E+00  0.00000000E+00  0.00000000E+00
           kptopt           0
P           mkmem           2
P          mkqmem           2
P          mk1mem           2
            natom           3
            nband          26
           nbdbuf           4
            ngfft          60      60      60
             nkpt           2
            nstep         100
             nsym          24
           ntypat           3
              occ      2.000000  2.000000  2.000000  2.000000  2.000000  2.000000
                       2.000000  2.000000  2.000000  2.000000  2.000000  2.000000
                       2.000000  2.000000  2.000000  2.000000  2.000000  0.000000
                       0.000000  0.000000  0.000000  0.000000  0.000000  0.000000
                       0.000000  0.000000
        optdriver           1
            prtwf          -1
            rfdir           1       1       1
           rfelfd           2
            rprim      7.9552857775E+00  0.0000000000E+00  4.5929863851E+00
                       2.6517619258E+00  7.5003153594E+00  4.5929863851E+00
                       0.0000000000E+00  0.0000000000E+00  9.1859727703E+00
          spgroup         216
           symrel      1  0  0   0  1  0   0  0  1       0 -1  1   0 -1  0   1 -1  0
                      -1  0  0  -1  0  1  -1  1  0       0  1 -1   1  0 -1   0  0 -1
                      -1  0  0  -1  1  0  -1  0  1       0 -1  1   1 -1  0   0 -1  0
                       1  0  0   0  0  1   0  1  0       0  1 -1   0  0 -1   1  0 -1
                      -1  0  1  -1  1  0  -1  0  0       0 -1  0   1 -1  0   0 -1  1
                       1  0 -1   0  0 -1   0  1 -1       0  1  0   0  0  1   1  0  0
                       1  0 -1   0  1 -1   0  0 -1       0 -1  0   0 -1  1   1 -1  0
                      -1  0  1  -1  0  0  -1  1  0       0  1  0   1  0  0   0  0  1
                       0  0 -1   0  1 -1   1  0 -1       1 -1  0   0 -1  1   0 -1  0
                       0  0  1   1  0  0   0  1  0      -1  1  0  -1  0  0  -1  0  1
                       0  0  1   0  1  0   1  0  0       1 -1  0   0 -1  0   0 -1  1
                       0  0 -1   1  0 -1   0  1 -1      -1  1  0  -1  0  1  -1  0  0
           tolwfr      1.00000000E-20
            typat      1  2  3
           useylm           1
              wtk        0.50000    0.50000
           xangst      2.8065039475E+00  1.9844979727E+00  4.8610074287E+00
                       0.0000000000E+00  0.0000000000E+00  0.0000000000E+00
                       1.4032519738E+00  9.9224898636E-01  2.4305037144E+00
            xcart      5.3035238517E+00  3.7501576797E+00  9.1859727703E+00
                       0.0000000000E+00  0.0000000000E+00  0.0000000000E+00
                       2.6517619258E+00  1.8750788399E+00  4.5929863851E+00
             xred      5.0000000000E-01  5.0000000000E-01  5.0000000000E-01
                       0.0000000000E+00  0.0000000000E+00  0.0000000000E+00
                       2.5000000000E-01  2.5000000000E-01  2.5000000000E-01
            znucl       11.00000   20.00000   33.00000

 chkinp: Checking input parameters for consistency.

== DATASET  1 ==================================================================
-   mpi_nproc: 1, omp_nthreads: -1 (-1 if OMP is not activated)

--- !DatasetInfo
iteration_state: {dtset: 1, }
dimensions: {natom: 3, nkpt: 2, mband: 26, nsppol: 1, nspinor: 1, nspden: 1, mpw: 7727, }
cutoff_energies: {ecut:  44.0, pawecutdg:  -1.0, }
electrons: {nelect:   3.40000000E+01, charge:   0.00000000E+00, occopt:   1.00000000E+00, tsmear:   1.00000000E-02, }
meta: {optdriver: 1, rfelfd: 2, }
...

 Real(R)+Recip(G) space primitive vectors, cartesian coordinates (Bohr,Bohr^-1):
 R(1)=  7.9552858  0.0000000  4.5929864  G(1)=  0.1257026 -0.0444426  0.0000000
 R(2)=  2.6517619  7.5003154  4.5929864  G(2)=  0.0000000  0.1333277  0.0000000
 R(3)=  0.0000000  0.0000000  9.1859728  G(3)= -0.0628513 -0.0444426  0.1088616
 Unit cell volume ucvol=  5.4810083E+02 bohr^3
 Angles (23,13,12)=  6.00000000E+01  6.00000000E+01  6.00000000E+01 degrees

 getcut: wavevector=  0.0000  0.0000  0.0000  ngfft=  60  60  60
         ecut(hartree)=     44.000   => boxcut(ratio)=   2.18743

--- Pseudopotential description ------------------------------------------------
- pspini: atom type   1  psp file is /scratch/users/j/a/jabreu/pseudos/PBEsol/Na.psp8
- pspatm: opening atomic psp file    /scratch/users/j/a/jabreu/pseudos/PBEsol/Na.psp8
- Na    ONCVPSP-3.3.0  r_core=   1.20708   1.55069
- 11.00000   9.00000    180112                znucl, zion, pspdat
    8 -116133    1    4       400   0.00000   pspcod,pspxc,lmax,lloc,mmax,r2well
    3.99000000000000    0.00000000000000    0.00000000000000   rchrg,fchrg,qchrg
     nproj     2     2
     extension_switch     1
  pspatm : epsatm=    9.32878306
         --- l  ekb(1:nproj) -->
             0    2.657905   -0.678300
             1   -6.761319   -2.404728
 pspatm: atomic psp has been read  and splines computed

- pspini: atom type   2  psp file is /scratch/users/j/a/jabreu/pseudos/PBEsol/Ca.psp8
- pspatm: opening atomic psp file    /scratch/users/j/a/jabreu/pseudos/PBEsol/Ca.psp8
- Ca    ONCVPSP-3.3.0  r_core=   1.45885   1.45885   1.85192
- 20.00000  10.00000    180112                znucl, zion, pspdat
    8 -116133    2    4       400   0.00000   pspcod,pspxc,lmax,lloc,mmax,r2well
    3.99000000000000    6.00000000000000    0.00000000000000   rchrg,fchrg,qchrg
     nproj     2     2     2
     extension_switch     1
  pspatm : epsatm=   12.46045226
         --- l  ekb(1:nproj) -->
             0   10.054847    0.973777
             1    2.998958    0.458102
             2   -3.447298   -1.091650
 pspatm: atomic psp has been read  and splines computed

- pspini: atom type   3  psp file is /scratch/users/j/a/jabreu/pseudos/PBEsol/As.psp8
- pspatm: opening atomic psp file    /scratch/users/j/a/jabreu/pseudos/PBEsol/As.psp8
- As    ONCVPSP-3.3.0  r_core=   1.76603   1.70395   1.80867
- 33.00000  15.00000    180112                znucl, zion, pspdat
    8 -116133    2    4       600   0.00000   pspcod,pspxc,lmax,lloc,mmax,r2well
    5.99000000000000    5.00000000000000    0.00000000000000   rchrg,fchrg,qchrg
     nproj     2     2     2
     extension_switch     1
  pspatm : epsatm=   28.79155382
         --- l  ekb(1:nproj) -->
             0    8.270760    0.868950
             1    4.919053    0.756587
             2  -10.048665   -4.076802
 pspatm: atomic psp has been read  and splines computed

   1.71974683E+03                                ecore*ucvol(ha*bohr**3)

-inwffil : will read wavefunctions from disk file /scratch/users/j/a/jabreu/flow_simple/flow/w104/t1/indata/in_WFK

 ==>  initialize data related to q vector <==

 The list of irreducible perturbations for this q vector is:
    1)    idir= 1    ipert=   4
    2)    idir= 2    ipert=   4
    3)    idir= 3    ipert=   4

 Perturbation wavevector (in red.coord.)   0.000000  0.000000  0.000000
 Perturbation : derivative vs k along direction   1

 dfpt_looppert : COMMENT -
  In a d/dk calculation, iscf is set to -3 automatically.
 The set of symmetries contains only one element for this perturbation.
 symkpt : not enough symmetry to change the number of k points.

[...]

 Initialisation of the first-order wave-functions :
  ireadwf=   0

--- !BeginCycle
iteration_state: {dtset: 1, }
solver: {iscf: 7, nstep: 100, nline: 4, wfoptalg: 0, }
tolerances: {tolwfr: 1.00E-20, }
...

     iter   2DEtotal(Ha)        deltaE(Ha) residm    vres2
-ETOT  1  -43.579862524352     -4.358E+01 1.183E-01 0.000E+00
 ETOT  2  -43.615275400527     -3.541E-02 1.174E-02 0.000E+00
 ETOT  3  -43.615304556026     -2.916E-05 8.278E-04 0.000E+00
 ETOT  4  -43.615304630219     -7.419E-08 1.768E-04 0.000E+00
 ETOT  5  -43.615304630515     -2.954E-10 1.613E-05 0.000E+00
 ETOT  6  -43.615304630516     -1.336E-12 3.628E-06 0.000E+00
 ETOT  7  -43.615304630516     -8.527E-14 3.288E-07 0.000E+00
 ETOT  8  -43.615304630516      2.132E-14 7.704E-08 0.000E+00
 ETOT  9  -43.615304630516     -7.105E-15 6.962E-09 0.000E+00
 ETOT 10  -43.615304630516      1.421E-14 1.677E-09 0.000E+00
 ETOT 11  -43.615304630516     -2.842E-14 1.508E-10 0.000E+00
 ETOT 12  -43.615304630516      1.421E-14 3.692E-11 0.000E+00
 ETOT 13  -43.615304630516      0.000E+00 3.301E-12 0.000E+00
 ETOT 14  -43.615304630516     -7.105E-15 8.183E-13 0.000E+00
 ETOT 15  -43.615304630516      7.105E-15 7.276E-14 0.000E+00
 ETOT 16  -43.615304630516      0.000E+00 1.820E-14 0.000E+00
 ETOT 17  -43.615304630516      0.000E+00 1.611E-15 0.000E+00
 ETOT 18  -43.615304630516      0.000E+00 4.062E-16 0.000E+00
 ETOT 19  -43.615304630516      1.421E-14 3.576E-17 0.000E+00
 ETOT 20  -43.615304630516     -1.421E-14 9.083E-18 0.000E+00
 ETOT 21  -43.615304630516      1.421E-14 7.958E-19 0.000E+00
 ETOT 22  -43.615304630516      0.000E+00 2.035E-19 0.000E+00
 ETOT 23  -43.615304630516      0.000E+00 1.775E-20 0.000E+00
 ETOT 24  -43.615304630516      0.000E+00 9.930E-21 0.000E+00

 At SCF step   24   max residual=  9.93E-21 < tolwfr=  1.00E-20 =>converged.

 ----iterations are completed or convergence reached----

 dfpt_looppert: DFPT cycle converged with prtwf=-1. Will skip output of the 1st-order WFK file.
 dfpt_looppert : ek2=    4.7721007170E+01
          f-sum rule ratio=    1.1142590573E+00
 prteigrs : about to open file /scratch/users/j/a/jabreu/flow_simple/flow/w104/t1/tmpdata/tmp_1WF1_EIG
 Expectation of eigenvalue derivatives (hartree) for nkpt=   2  k points:
  (in case of degenerate eigenvalues, averaged derivative)
 kpt#   1, nband= 26, wtk=  0.50000, kpt=  0.2000  0.2000  0.4000 (reduced coord)
   0.00000   -0.00000    0.00000   -0.00000    0.00000    0.00000   -0.00000    0.00000
  -0.00000   -0.00000    0.00000   -0.00000   -0.00000    0.00000    0.00000   -0.00000
  -0.00000    0.00000   -0.00000   -0.00000    0.00000   -0.00000   -0.00000   -0.00000
   0.00000    0.00000
 prteigrs : prtvol=0 or 1, do not print more k-points.

 Eight components of 2nd-order total energy (hartree) are
 1,2,3: 0th-order hamiltonian combined with 1st-order wavefunctions
     kin0=   3.88665555E+01 eigvalue=   5.99068288E+00  local=  -1.49645886E+01
 4,5,6: 1st-order hamiltonian combined with 1st and 0th-order wfs
     kin1=  -5.31735645E+01  Hartree=   0.00000000E+00     xc=   0.00000000E+00
 7,8,9: eventually, occupation + non-local contributions
    edocc=   1.08432254E+01     enl0=   2.87942953E+00   enl1=  -3.40570448E+01
 1-9 gives the relaxation energy (to be shifted if some occ is /=2.0)
   erelax=  -4.36153046E+01
  No Ewald or frozen-wf contrib.: the relaxation energy is the total one
 2DEtotal=   -0.4361530463E+02 Ha. Also 2DEtotal=   -0.118683279647E+04 eV
    (  non-var. 2DEtotal :   -4.3615304630E+01 Ha)

 Perturbation wavevector (in red.coord.)   0.000000  0.000000  0.000000
 Perturbation : derivative vs k along direction   2
 The set of symmetries contains only one element for this perturbation.
 symkpt : not enough symmetry to change the number of k points.

[...]

 Perturbation wavevector (in red.coord.)   0.000000  0.000000  0.000000
 Perturbation : derivative vs k along direction   3
 The set of symmetries contains only one element for this perturbation.
 symkpt : not enough symmetry to change the number of k points.

-inwffil : will read wavefunctions from disk file /scratch/users/j/a/jabreu/flow_simple/flow/w104/t1/indata/in_WFK

 Initialisation of the first-order wave-functions :
  ireadwf=   0

--- !BeginCycle
iteration_state: {dtset: 1, }
solver: {iscf: 7, nstep: 100, nline: 4, wfoptalg: 0, }
tolerances: {tolwfr: 1.00E-20, }
...

     iter   2DEtotal(Ha)        deltaE(Ha) residm    vres2
-ETOT  1  -43.178163389772     -4.318E+01 1.844E-01 0.000E+00
 ETOT  2  -43.213193812727     -3.503E-02 3.716E-03 0.000E+00
 ETOT  3  -43.213218849222     -2.504E-05 1.286E-04 0.000E+00
 ETOT  4  -43.213218903876     -5.465E-08 6.831E-06 0.000E+00
 ETOT  5  -43.213218904067     -1.912E-10 4.271E-07 0.000E+00
 ETOT  6  -43.213218904068     -7.745E-13 2.396E-08 0.000E+00
 ETOT  7  -43.213218904068     -1.421E-14 1.719E-09 0.000E+00
 ETOT  8  -43.213218904068      4.263E-14 9.814E-11 0.000E+00
 ETOT  9  -43.213218904068     -7.105E-15 7.423E-12 0.000E+00
 ETOT 10  -43.213218904068     -2.132E-14 4.259E-13 0.000E+00
 ETOT 11  -43.213218904068      0.000E+00 3.306E-14 0.000E+00
 ETOT 12  -43.213218904068      0.000E+00 1.902E-15 0.000E+00
 ETOT 13  -43.213218904068      7.105E-15 1.497E-16 0.000E+00
 ETOT 14  -43.213218904068     -7.105E-15 8.636E-18 0.000E+00
 ETOT 15  -43.213218904068      1.421E-14 6.849E-19 0.000E+00
 ETOT 16  -43.213218904068     -7.105E-15 3.965E-20 0.000E+00
 ETOT 17  -43.213218904068      7.105E-15 9.971E-21 0.000E+00

 At SCF step   17   max residual=  9.97E-21 < tolwfr=  1.00E-20 =>converged.

 ----iterations are completed or convergence reached----

 dfpt_looppert: DFPT cycle converged with prtwf=-1. Will skip output of the 1st-order WFK file.
 dfpt_looppert : ek2=    4.7721007170E+01
          f-sum rule ratio=    1.1006778097E+00
 prteigrs : about to open file /scratch/users/j/a/jabreu/flow_simple/flow/w104/t1/tmpdata/tmp_1WF1_EIG
 Expectation of eigenvalue derivatives (hartree) for nkpt=   2  k points:
  (in case of degenerate eigenvalues, averaged derivative)
 kpt#   1, nband= 26, wtk=  0.50000, kpt=  0.2000  0.2000  0.4000 (reduced coord)
   0.00000    0.00006    0.00001    0.00001    0.00004    0.00000   -0.00000   -0.00030
  -0.00014   -0.00003   -0.00150   -0.00095   -0.00046    0.03680   -0.05727   -0.08363
   0.00044    0.01293   -0.01411    0.04990   -0.00055   -0.05515   -0.10316    0.01017
   0.17800    0.13719
 prteigrs : prtvol=0 or 1, do not print more k-points.

 Eight components of 2nd-order total energy (hartree) are
 1,2,3: 0th-order hamiltonian combined with 1st-order wavefunctions
     kin0=   3.92733259E+01 eigvalue=   5.92344132E+00  local=  -1.51820824E+01
 4,5,6: 1st-order hamiltonian combined with 1st and 0th-order wfs
     kin1=  -5.25254536E+01  Hartree=   0.00000000E+00     xc=   0.00000000E+00
 7,8,9: eventually, occupation + non-local contributions
    edocc=   1.03968938E+01     enl0=   2.80164031E+00   enl1=  -3.39009842E+01
 1-9 gives the relaxation energy (to be shifted if some occ is /=2.0)
   erelax=  -4.32132189E+01
  No Ewald or frozen-wf contrib.: the relaxation energy is the total one
 2DEtotal=   -0.4321321890E+02 Ha. Also 2DEtotal=   -0.117589148742E+04 eV
    (  non-var. 2DEtotal :   -4.3213218904E+01 Ha)

 CALCULATION OF EFFECTIVE MASSES
 NOTE : Additional infos (eff. mass eigenvalues, eigenvectors and, if degenerate, average mass) are available in stdout.

 K-point ( 0.200, 0.200, 0.400) | band =    17
 Effective mass tensor:
             -7.2244547402             -4.2142643405              0.0000000618
             -4.2142643405             -4.2445198277              0.0000000353
              0.0000000618              0.0000000353             -4.9961062268
 Effective mass tensor eigenvalues:
            -10.2043896266             -4.9961062268             -1.2645849414
 Angular average effective mass 1/(<1/m>)=  -2.7550076175
 Angular average effective mass for Frohlich model (<m**0.5>)**2=  -3.4575821492
 Effective masses along directions: (cart. coord. / red. coord. -> eff. mass)
    1:   1.000000  0.000000  0.000000 /   0.948683  0.316228  0.000000 ->  -3.0402302218
    2:   0.000000  1.000000  0.000000 /   0.000000  1.000000  0.000000 ->  -1.7861995018
    3:   0.000000  0.000000  1.000000 /   0.408248  0.408248  0.816497 ->  -4.9961062268
    4:   0.577350  0.577350  0.577350 /   0.585539  0.688047  0.428644 ->  -6.8843577349
    5:   0.000000  0.707107  0.707107 /   0.289489  0.762222  0.578977 ->  -2.6315659636
    6:   0.707107  0.000000  0.707107 /   0.731423  0.422287  0.535439 ->  -3.7801585681
    7:   0.707107  0.707107  0.000000 /   0.616798  0.787122  0.000000 ->  -8.4884375106

 K-point ( 0.000, 0.000, 0.000) | band =    18
 Effective mass tensor:
              0.1790195741              0.0000000000              0.0000000000
              0.0000000000              0.1790195741             -0.0000000000
              0.0000000000             -0.0000000000              0.1790195741
 Effective mass tensor eigenvalues:
              0.1790195741              0.1790195741              0.1790195741
 Angular average effective mass 1/(<1/m>)=   0.1790195741
 Angular average effective mass for Frohlich model (<m**0.5>)**2=   0.1790195741
 Effective masses along directions: (cart. coord. / red. coord. -> eff. mass)
    1:   1.000000  0.000000  0.000000 /   0.948683  0.316228  0.000000 ->   0.1790195741
    2:   0.000000  1.000000  0.000000 /   0.000000  1.000000  0.000000 ->   0.1790195741
    3:   0.000000  0.000000  1.000000 /   0.408248  0.408248  0.816497 ->   0.1790195741
    4:   0.577350  0.577350  0.577350 /   0.585539  0.688047  0.428644 ->   0.1790195741
    5:   0.000000  0.707107  0.707107 /   0.289489  0.762222  0.578977 ->   0.1790195741
    6:   0.707107  0.000000  0.707107 /   0.731423  0.422287  0.535439 ->   0.1790195741
    7:   0.707107  0.707107  0.000000 /   0.616798  0.787122  0.000000 ->   0.1790195741

 END OF EFFECTIVE MASSES SECTION

 ---- first-order wavefunction calculations are completed ----

 Total localisation tensor (bohr^2) in cartesian coordinates
  WARNING : still subject to testing - especially symmetries.
      direction              matrix element
   alpha     beta       real part   imaginary part
     1        1       2.2993563793    0.0000000000
     1        2       0.6503561952    0.0000000000
     1        3       1.5930408294    0.0000000000
     2        1       0.6503561952    0.0000000000
     2        2       1.8394851034    0.0000000000
     2        3       1.1264499732    0.0000000000
     3        1       1.5930408294    0.0000000000
     3        2       1.1264499732    0.0000000000
     3        3       4.0165334490    0.0000000000

 respfn : d/dk was computed, but no 2DTE, so no DDB output.

== END DATASET(S) ==============================================================

 -outvars: echo values of variables after computation  --------
            acell      1.0000000000E+00  1.0000000000E+00  1.0000000000E+00 Bohr
              amu      2.29897680E+01  4.00780000E+01  7.49215900E+01
             ecut      4.40000000E+01 Hartree
           etotal     -4.3213218904E+01
            fcart      0.0000000000E+00  0.0000000000E+00  0.0000000000E+00
                       0.0000000000E+00  0.0000000000E+00  0.0000000000E+00
                       0.0000000000E+00  0.0000000000E+00  0.0000000000E+00
-          fftalg         512
           irdden           1
           irdwfk           1
           istwfk        0    1
              ixc     -116133
              kpt      2.00000000E-01  2.00000000E-01  4.00000000E-01
                       0.00000000E+00  0.00000000E+00  0.00000000E+00
           kptopt           0
P           mkmem           2
P          mkqmem           2
P          mk1mem           2
            natom           3
            nband          26
           nbdbuf           4
            ngfft          60      60      60
             nkpt           2
            nstep         100
             nsym          24
           ntypat           3
              occ      2.000000  2.000000  2.000000  2.000000  2.000000  2.000000
                       2.000000  2.000000  2.000000  2.000000  2.000000  2.000000
                       2.000000  2.000000  2.000000  2.000000  2.000000  0.000000
                       0.000000  0.000000  0.000000  0.000000  0.000000  0.000000
                       0.000000  0.000000
        optdriver           1
            prtwf          -1
            rfdir           1       1       1
           rfelfd           2
            rprim      7.9552857775E+00  0.0000000000E+00  4.5929863851E+00
                       2.6517619258E+00  7.5003153594E+00  4.5929863851E+00
                       0.0000000000E+00  0.0000000000E+00  9.1859727703E+00
          spgroup         216
           strten      0.0000000000E+00  0.0000000000E+00  0.0000000000E+00
                       0.0000000000E+00  0.0000000000E+00  0.0000000000E+00
           symrel      1  0  0   0  1  0   0  0  1       0 -1  1   0 -1  0   1 -1  0
                      -1  0  0  -1  0  1  -1  1  0       0  1 -1   1  0 -1   0  0 -1
                      -1  0  0  -1  1  0  -1  0  1       0 -1  1   1 -1  0   0 -1  0
                       1  0  0   0  0  1   0  1  0       0  1 -1   0  0 -1   1  0 -1
                      -1  0  1  -1  1  0  -1  0  0       0 -1  0   1 -1  0   0 -1  1
                       1  0 -1   0  0 -1   0  1 -1       0  1  0   0  0  1   1  0  0
                       1  0 -1   0  1 -1   0  0 -1       0 -1  0   0 -1  1   1 -1  0
                      -1  0  1  -1  0  0  -1  1  0       0  1  0   1  0  0   0  0  1
                       0  0 -1   0  1 -1   1  0 -1       1 -1  0   0 -1  1   0 -1  0
                       0  0  1   1  0  0   0  1  0      -1  1  0  -1  0  0  -1  0  1
                       0  0  1   0  1  0   1  0  0       1 -1  0   0 -1  0   0 -1  1
                       0  0 -1   1  0 -1   0  1 -1      -1  1  0  -1  0  1  -1  0  0
           tolwfr      1.00000000E-20
            typat      1  2  3
           useylm           1
              wtk        0.50000    0.50000
           xangst      2.8065039475E+00  1.9844979727E+00  4.8610074287E+00
                       0.0000000000E+00  0.0000000000E+00  0.0000000000E+00
                       1.4032519738E+00  9.9224898636E-01  2.4305037144E+00
            xcart      5.3035238517E+00  3.7501576797E+00  9.1859727703E+00
                       0.0000000000E+00  0.0000000000E+00  0.0000000000E+00
                       2.6517619258E+00  1.8750788399E+00  4.5929863851E+00
             xred      5.0000000000E-01  5.0000000000E-01  5.0000000000E-01
                       0.0000000000E+00  0.0000000000E+00  0.0000000000E+00
                       2.5000000000E-01  2.5000000000E-01  2.5000000000E-01
            znucl       11.00000   20.00000   33.00000

- Timing analysis has been suppressed with timopt=0

 Suggested references for the acknowledgment of ABINIT usage.

 Calculation completed.
.Delivered  14 WARNINGs and   9 COMMENTs to log file.