.Version 9.5.2 of ABINIT

 ABINIT is a project of the Universite Catholique de Louvain,
 Corning Inc. and other collaborators, see ~abinit/doc/developers/contributors.txt .
 acknowledgments of the ABINIT effort.

.Starting date : Mon 24 May 2021.
- ( at 10h57 )

- input  file    -> /scratch/users/j/a/jabreu/flow_simple_10atoms/flow/w279/t1/run.abi
- output file    -> /scratch/users/j/a/jabreu/flow_simple_10atoms/flow/w279/t1/run.abo
- root for input  files -> /scratch/users/j/a/jabreu/flow_simple_10atoms/flow/w279/t1/indata/in
- root for output files -> /scratch/users/j/a/jabreu/flow_simple_10atoms/flow/w279/t1/outdata/out

 Symmetries : space group C2/m (# 12); Bravais mC (1-face-center monocl.)
     intxc =       0      iscf =       7    lmnmax =      32     lnmax =       8
     mgfft =      90  mpssoang =       4    mqgrid =    3035     natom =      10
  nloc_mem =       1    nspden =       1   nspinor =       1    nsppol =       1
      nsym =       4    n1xccc =    2501    ntypat =       3    occopt =       1
   xclevel =       2
-    mband =          48        mffmem =           1         mkmem =           2
-   mkqmem =           2        mk1mem =           2           mpw =       12582
      nfft =      518400          nkpt =           2
  Rough estimation (10% accuracy) of disk space for files :

------------- Echo of variables that govern the present computation ------------
-
- outvars: echo of selected default values
-   iomode0 =  0 , fftalg0 =512 , wfoptalg0 =  0
-
- outvars: echo of global parameters not present in the input file
-  max_nthreads =    0
-
 -outvars: echo values of preprocessed input variables --------
            acell      1.0000000000E+00  1.0000000000E+00  1.0000000000E+00 Bohr
              amu      4.00780000E+01  1.83850000E+02  1.40067400E+01
             ecut      4.20000000E+01 Hartree
-          fftalg         512
           irdden           1
           irdwfk           1
           istwfk        0    1
              ixc     -116133
              kpt      7.14443415E-01  2.85556585E-01  0.00000000E+00
                       5.00000000E-01  5.00000000E-01  0.00000000E+00
           kptopt           0
P           mkmem           2
P          mkqmem           2
P          mk1mem           2
            natom          10
            nband          48
           nbdbuf           4
            ngfft          90      90      64
             nkpt           2
            nstep        2000
             nsym           4
           ntypat           3
              occ      2.000000  2.000000  2.000000  2.000000  2.000000  2.000000
                       2.000000  2.000000  2.000000  2.000000  2.000000  2.000000
                       2.000000  2.000000  2.000000  2.000000  2.000000  2.000000
                       2.000000  2.000000  2.000000  2.000000  2.000000  2.000000
                       2.000000  2.000000  2.000000  2.000000  2.000000  2.000000
                       2.000000  2.000000  2.000000  2.000000  2.000000  2.000000
                       2.000000  2.000000  2.000000  0.000000  0.000000  0.000000
                       0.000000  0.000000  0.000000  0.000000  0.000000  0.000000
        optdriver           1
            prtwf          -1
            rfdir           1       1       1
           rfelfd           2
            rprim      1.3520093789E+01  0.0000000000E+00  3.8525495314E+00
                       1.1807034524E+01  6.5868711698E+00  3.8525495314E+00
                       0.0000000000E+00  0.0000000000E+00  1.0841364597E+01
          spgroup          12
           symrel      1  0  0   0  1  0   0  0  1      -1  0  0   0 -1  0   0  0 -1
                       0 -1  0  -1  0  0   0  0 -1       0  1  0   1  0  0   0  0  1
           tolwfr      1.00000000E-20
            typat      1  1  2  2  3  3  3  3  3  3
           useylm           1
              wtk        0.50000    0.50000
           xangst      7.9101785544E+00  2.0572141628E+00  6.4751879954E+00
                       5.4923605076E+00  1.4284079362E+00  3.3391778735E+00
                       2.1032738575E+00  5.4700216161E-01  1.3579595591E+00
                       1.1299265204E+01  2.9386199374E+00  8.4564063097E+00
                       1.7287130984E+00  4.4958948081E-01  3.0942216708E+00
                       1.1673825964E+01  3.0360326182E+00  6.7201441981E+00
                       1.2931426411E+01  3.3630989966E+00  9.3669354307E+00
                       4.1263201163E+00  1.0731393893E+00  1.3858733952E+00
                       4.7111265057E-01  1.2252310240E-01  4.4743043821E-01
                       9.2762189458E+00  2.4124827096E+00  8.4284924736E+00
            xcart      1.4948071130E+01  3.8875713644E+00  1.2236331970E+01
                       1.0379057182E+01  2.6992998054E+00  6.3101316899E+00
                       3.9746115732E+00  1.0336842795E+00  2.5661716663E+00
                       2.1352516739E+01  5.5531868903E+00  1.5980291994E+01
                       3.2667943183E+00  8.4960099097E-01  5.8472315522E+00
                       2.2060333994E+01  5.7372701788E+00  1.2699232108E+01
                       2.4436854425E+01  6.3553360613E+00  1.7700942668E+01
                       7.7976149563E+00  2.0279395483E+00  2.6189211718E+00
                       8.9027388731E-01  2.3153510849E-01  8.4552099173E-01
                       1.7529513356E+01  4.5589316215E+00  1.5927542488E+01
             xred      5.9020000000E-01  5.9020000000E-01  7.0920800000E-01
                       4.0980000000E-01  4.0980000000E-01  2.9079200000E-01
                       1.5693100000E-01  1.5693100000E-01  1.2516900000E-01
                       8.4306900000E-01  8.4306900000E-01  8.7483100000E-01
                       1.2898400000E-01  1.2898400000E-01  4.4767400000E-01
                       8.7101600000E-01  8.7101600000E-01  5.5232600000E-01
                       9.6484900000E-01  9.6484900000E-01  9.4699200000E-01
                       3.0787600000E-01  3.0787600000E-01  2.2756000000E-02
                       3.5151000000E-02  3.5151000000E-02  5.3008000000E-02
                       6.9212400000E-01  6.9212400000E-01  9.7724400000E-01
            znucl       20.00000   74.00000    7.00000

 chkinp: Checking input parameters for consistency.

== DATASET  1 ==================================================================
-   mpi_nproc: 1, omp_nthreads: -1 (-1 if OMP is not activated)

--- !DatasetInfo
iteration_state: {dtset: 1, }
dimensions: {natom: 10, nkpt: 2, mband: 48, nsppol: 1, nspinor: 1, nspden: 1, mpw: 12582, }
cutoff_energies: {ecut:  42.0, pawecutdg:  -1.0, }
electrons: {nelect:   7.80000000E+01, charge:   0.00000000E+00, occopt:   1.00000000E+00, tsmear:   1.00000000E-02, }
meta: {optdriver: 1, rfelfd: 2, }
...

 Real(R)+Recip(G) space primitive vectors, cartesian coordinates (Bohr,Bohr^-1):
 R(1)= 13.5200938  0.0000000  3.8525495  G(1)=  0.0739640 -0.1325812  0.0000000
 R(2)= 11.8070345  6.5868712  3.8525495  G(2)=  0.0000000  0.1518171  0.0000000
 R(3)=  0.0000000  0.0000000 10.8413646  G(3)= -0.0262836 -0.0068356  0.0922393
 Unit cell volume ucvol=  9.6547898E+02 bohr^3
 Angles (23,13,12)=  7.40951024E+01  7.40951024E+01  2.80167059E+01 degrees

 getcut: wavevector=  0.0000  0.0000  0.0000  ngfft=  90  90  64
         ecut(hartree)=     42.000   => boxcut(ratio)=   2.02361

--- Pseudopotential description ------------------------------------------------
- pspini: atom type   1  psp file is /scratch/users/j/a/jabreu/pseudos/PBEsol/Ca.psp8
- pspatm: opening atomic psp file    /scratch/users/j/a/jabreu/pseudos/PBEsol/Ca.psp8
- Ca    ONCVPSP-3.3.0  r_core=   1.45885   1.45885   1.85192
- 20.00000  10.00000    180112                znucl, zion, pspdat
    8 -116133    2    4       400   0.00000   pspcod,pspxc,lmax,lloc,mmax,r2well
    3.99000000000000    6.00000000000000    0.00000000000000   rchrg,fchrg,qchrg
     nproj     2     2     2
     extension_switch     1
  pspatm : epsatm=   12.46045226
         --- l  ekb(1:nproj) -->
             0   10.054847    0.973777
             1    2.998958    0.458102
             2   -3.447298   -1.091650
 pspatm: atomic psp has been read  and splines computed

- pspini: atom type   2  psp file is /scratch/users/j/a/jabreu/pseudos/PBEsol/W.psp8
- pspatm: opening atomic psp file    /scratch/users/j/a/jabreu/pseudos/PBEsol/W.psp8
- W     ONCVPSP-3.3.0  r_core=   1.61105   1.61105   1.61105   2.02088
- 74.00000  14.00000    180112                znucl, zion, pspdat
    8 -116133    3    4       600   0.00000   pspcod,pspxc,lmax,lloc,mmax,r2well
    5.99000000000000    5.00000000000000    0.00000000000000   rchrg,fchrg,qchrg
     nproj     2     2     2     2
     extension_switch     1
  pspatm : epsatm=   11.51367240
         --- l  ekb(1:nproj) -->
             0   13.027742    1.852033
             1    9.109631    1.414397
             2    4.487527    0.514612
             3   47.292176    0.887489
 pspatm: atomic psp has been read  and splines computed

- pspini: atom type   3  psp file is /scratch/users/j/a/jabreu/pseudos/PBEsol/N.psp8
- pspatm: opening atomic psp file    /scratch/users/j/a/jabreu/pseudos/PBEsol/N.psp8
- N     ONCVPSP-3.3.0  r_core=   1.20551   1.35824
-  7.00000   5.00000    180112                znucl, zion, pspdat
    8 -116133    1    4       600   0.00000   pspcod,pspxc,lmax,lloc,mmax,r2well
    5.99000000000000    4.00000000000000    0.00000000000000   rchrg,fchrg,qchrg
     nproj     2     2
     extension_switch     1
  pspatm : epsatm=    5.26508895
         --- l  ekb(1:nproj) -->
             0    7.464189    0.625868
             1   -4.309714   -1.012941
 pspatm: atomic psp has been read  and splines computed

   6.20402508E+03                                ecore*ucvol(ha*bohr**3)

 ==>  initialize data related to q vector <==

 The list of irreducible perturbations for this q vector is:
    1)    idir= 1    ipert=  11
    2)    idir= 2    ipert=  11
    3)    idir= 3    ipert=  11

 Perturbation wavevector (in red.coord.)   0.000000  0.000000  0.000000
 Perturbation : derivative vs k along direction   1

 dfpt_looppert : COMMENT -
  In a d/dk calculation, iscf is set to -3 automatically.
 The set of symmetries contains only one element for this perturbation.
 symkpt : not enough symmetry to change the number of k points.

 Initialisation of the first-order wave-functions :
  ireadwf=   0

--- !BeginCycle
iteration_state: {dtset: 1, }
solver: {iscf: 7, nstep: 2000, nline: 4, wfoptalg: 0, }
tolerances: {tolwfr: 1.00E-20, }
...

     iter   2DEtotal(Ha)        deltaE(Ha) residm    vres2
-ETOT  1  -72.077614419498     -7.208E+01 1.470E-01 0.000E+00
 ETOT  2  -72.500650116687     -4.230E-01 2.608E-01 0.000E+00
 ETOT  3  -72.513058404697     -1.241E-02 6.314E-03 0.000E+00
 ETOT  4  -72.513652984557     -5.946E-04 1.053E-02 0.000E+00
 ETOT  5  -72.513688812427     -3.583E-05 5.164E-04 0.000E+00
 ETOT  6  -72.513691262041     -2.450E-06 8.775E-04 0.000E+00
 ETOT  7  -72.513691445809     -1.838E-07 4.896E-05 0.000E+00
 ETOT  8  -72.513691460328     -1.452E-08 7.768E-05 0.000E+00
 ETOT  9  -72.513691461519     -1.190E-09 4.738E-06 0.000E+00
[...]
 ETOT 36  -72.513691461627      0.000E+00 6.023E-19 0.000E+00
 ETOT 37  -72.513691461627      0.000E+00 4.308E-20 0.000E+00
 ETOT 38  -72.513691461627      2.842E-14 5.997E-20 0.000E+00
 ETOT 39  -72.513691461627     -2.842E-14 9.912E-21 0.000E+00

 At SCF step   39   max residual=  9.91E-21 < tolwfr=  1.00E-20 =>converged.

 ----iterations are completed or convergence reached----

 dfpt_looppert: DFPT cycle converged with prtwf=-1. Will skip output of the 1st-order WFK file.
 dfpt_looppert : ek2=    1.4194692748E+02
          f-sum rule ratio=    1.0142031514E+00
 prteigrs : about to open file /scratch/users/j/a/jabreu/flow_simple_10atoms/flow/w279/t1/tmpdata/tmp_1WF1_EIG
 Expectation of eigenvalue derivatives (hartree) for nkpt=   2  k points:
  (in case of degenerate eigenvalues, averaged derivative)
 kpt#   1, nband= 48, wtk=  0.50000, kpt=  0.7144  0.2856  0.0000 (reduced coord)
   0.00054   -0.00039    0.00100    0.00085    0.00319   -0.00730    0.00091   -0.00081
  -0.00105   -0.00229   -0.01284   -0.01407    0.00834    0.00114    0.00211    0.00298
  -0.00548    0.12585   -0.05027    0.01290   -0.00331   -0.00713    0.03716   -0.05899
   0.01658   -0.06531    0.07242    0.14994    0.09310    0.00096   -0.18779    0.05454
  -0.02680   -0.01500   -0.19436    0.05227   -0.00153    0.00642   -0.00037   -0.04691
   0.01604   -0.17317   -0.06076   -0.01666    0.05524    0.08832   -0.06438    0.04867
 prteigrs : prtvol=0 or 1, do not print more k-points.

 Eight components of 2nd-order total energy (hartree) are
 1,2,3: 0th-order hamiltonian combined with 1st-order wavefunctions
     kin0=   1.23446064E+02 eigvalue=  -6.19621626E-01  local=  -7.24577554E+01
 4,5,6: 1st-order hamiltonian combined with 1st and 0th-order wfs
     kin1=  -1.43963021E+02  Hartree=   0.00000000E+00     xc=   0.00000000E+00
 7,8,9: eventually, occupation + non-local contributions
    edocc=   1.85895396E+01     enl0=   3.55546518E+00   enl1=  -1.06436174E+00
 1-9 gives the relaxation energy (to be shifted if some occ is /=2.0)
   erelax=  -7.25136915E+01
  No Ewald or frozen-wf contrib.: the relaxation energy is the total one
 2DEtotal=   -0.7251369146E+02 Ha. Also 2DEtotal=   -0.197319789347E+04 eV
    (  non-var. 2DEtotal :   -7.2513691461E+01 Ha)

 Perturbation wavevector (in red.coord.)   0.000000  0.000000  0.000000
 Perturbation : derivative vs k along direction   2
 The set of symmetries contains only one element for this perturbation.
 symkpt : not enough symmetry to change the number of k points.

[...]

 Perturbation wavevector (in red.coord.)   0.000000  0.000000  0.000000
 Perturbation : derivative vs k along direction   3
 The set of symmetries contains only one element for this perturbation.
 symkpt : not enough symmetry to change the number of k points.

 Initialisation of the first-order wave-functions :
  ireadwf=   0

--- !BeginCycle
iteration_state: {dtset: 1, }
solver: {iscf: 7, nstep: 2000, nline: 4, wfoptalg: 0, }
tolerances: {tolwfr: 1.00E-20, }
...

     iter   2DEtotal(Ha)        deltaE(Ha) residm    vres2
-ETOT  1  -29.808491880714     -2.981E+01 2.012E-01 0.000E+00
 ETOT  2  -29.974298045979     -1.658E-01 1.875E-02 0.000E+00
 ETOT  3  -29.979335204428     -5.037E-03 7.660E-04 0.000E+00
 ETOT  4  -29.979561588988     -2.264E-04 4.012E-04 0.000E+00
 ETOT  5  -29.979573510105     -1.192E-05 3.194E-05 0.000E+00
 ETOT  6  -29.979574198358     -6.883E-07 1.664E-05 0.000E+00
 ETOT  7  -29.979574241163     -4.280E-08 1.933E-06 0.000E+00
 ETOT  8  -29.979574243978     -2.815E-09 9.205E-07 0.000E+00
 ETOT  9  -29.979574244172     -1.938E-10 1.590E-07 0.000E+00
 ETOT 10  -29.979574244186     -1.390E-11 8.746E-08 0.000E+00
 ETOT 11  -29.979574244187     -1.059E-12 1.567E-08 0.000E+00
 ETOT 12  -29.979574244187     -1.066E-14 9.196E-09 0.000E+00
 ETOT 13  -29.979574244187      2.132E-14 1.658E-09 0.000E+00
 ETOT 14  -29.979574244187     -3.553E-14 9.989E-10 0.000E+00
 ETOT 15  -29.979574244187      2.487E-14 1.797E-10 0.000E+00
 ETOT 16  -29.979574244187      3.553E-15 1.097E-10 0.000E+00
 ETOT 17  -29.979574244187      0.000E+00 1.968E-11 0.000E+00
 ETOT 18  -29.979574244187      0.000E+00 1.211E-11 0.000E+00
 ETOT 19  -29.979574244187      3.553E-15 2.165E-12 0.000E+00
 ETOT 20  -29.979574244187     -3.553E-15 1.340E-12 0.000E+00
 ETOT 21  -29.979574244187      3.553E-15 2.390E-13 0.000E+00
 ETOT 22  -29.979574244187     -1.066E-14 1.485E-13 0.000E+00
 ETOT 23  -29.979574244187      3.553E-15 2.643E-14 0.000E+00
 ETOT 24  -29.979574244187     -3.553E-15 1.647E-14 0.000E+00
 ETOT 25  -29.979574244187     -3.553E-15 2.927E-15 0.000E+00
 ETOT 26  -29.979574244187      1.066E-14 1.829E-15 0.000E+00
 ETOT 27  -29.979574244187     -3.553E-15 3.244E-16 0.000E+00
 ETOT 28  -29.979574244187     -3.553E-15 2.031E-16 0.000E+00
 ETOT 29  -29.979574244187      3.553E-15 3.600E-17 0.000E+00
 ETOT 30  -29.979574244187     -3.553E-15 2.256E-17 0.000E+00
 ETOT 31  -29.979574244187      0.000E+00 3.997E-18 0.000E+00
 ETOT 32  -29.979574244187      0.000E+00 2.508E-18 0.000E+00
 ETOT 33  -29.979574244187      3.553E-15 4.441E-19 0.000E+00
 ETOT 34  -29.979574244187      0.000E+00 2.788E-19 0.000E+00
 ETOT 35  -29.979574244187     -7.105E-15 4.936E-20 0.000E+00
 ETOT 36  -29.979574244187      7.105E-15 3.101E-20 0.000E+00
 ETOT 37  -29.979574244187      0.000E+00 9.812E-21 0.000E+00

 At SCF step   37   max residual=  9.81E-21 < tolwfr=  1.00E-20 =>converged.

 ----iterations are completed or convergence reached----

 dfpt_looppert: DFPT cycle converged with prtwf=-1. Will skip output of the 1st-order WFK file.
 dfpt_looppert : ek2=    5.6940522937E+01
          f-sum rule ratio=    1.0444296589E+00
 prteigrs : about to open file /scratch/users/j/a/jabreu/flow_simple_10atoms/flow/w279/t1/tmpdata/tmp_1WF1_EIG
 Expectation of eigenvalue derivatives (hartree) for nkpt=   2  k points:
  (in case of degenerate eigenvalues, averaged derivative)
 kpt#   1, nband= 48, wtk=  0.50000, kpt=  0.7144  0.2856  0.0000 (reduced coord)
   0.00000   -0.00000   -0.00000   -0.00000   -0.00000   -0.00000   -0.00000    0.00000
   0.00000   -0.00000    0.00000   -0.00000   -0.00000   -0.00000    0.00000    0.00000
   0.00000   -0.00000   -0.00000    0.00000    0.00000   -0.00000   -0.00000   -0.00000
  -0.00000    0.00000    0.00000    0.00000   -0.00000   -0.00000    0.00000   -0.00000
  -0.00000   -0.00000    0.00000    0.00000   -0.00000   -0.00000    0.00000    0.00000
   0.00000   -0.00000   -0.00000   -0.00000    0.00000   -0.00000   -0.00000    0.00000
 prteigrs : prtvol=0 or 1, do not print more k-points.

 Eight components of 2nd-order total energy (hartree) are
 1,2,3: 0th-order hamiltonian combined with 1st-order wavefunctions
     kin0=   5.12950676E+01 eigvalue=  -6.35783846E-01  local=  -3.10431810E+01
 4,5,6: 1st-order hamiltonian combined with 1st and 0th-order wfs
     kin1=  -5.94703709E+01  Hartree=   0.00000000E+00     xc=   0.00000000E+00
 7,8,9: eventually, occupation + non-local contributions
    edocc=   8.82598632E+00     enl0=   1.53748513E+00   enl1=  -4.88777540E-01
 1-9 gives the relaxation energy (to be shifted if some occ is /=2.0)
   erelax=  -2.99795742E+01
  No Ewald or frozen-wf contrib.: the relaxation energy is the total one
 2DEtotal=   -0.2997957424E+02 Ha. Also 2DEtotal=   -0.815785702718E+03 eV
    (  non-var. 2DEtotal :   -2.9979574244E+01 Ha)

 CALCULATION OF EFFECTIVE MASSES
 NOTE : Additional infos (eff. mass eigenvalues, eigenvectors and, if degenerate, average mass) are available in stdout.

 K-point ( 0.714, 0.286, 0.000) | band =    39
 Effective mass tensor:
             -3.6602767959             -0.4709800211             -0.1134717784
             -0.4709800211             -1.9718146902             -0.0295112420
             -0.1134717784             -0.0295112420             -0.4112995604
 Effective mass tensor eigenvalues:
             -3.7868385642             -1.8493253849             -0.4072270973
 Angular average effective mass 1/(<1/m>)=  -0.9201205022
 Angular average effective mass for Frohlich model (<m**0.5>)**2=  -1.1960674556
 Effective masses along directions: (cart. coord. / red. coord. -> eff. mass)
    1:   1.000000  0.000000  0.000000 /   0.753213  0.657777  0.000000 ->  -3.5202140593
    2:   0.000000  1.000000  0.000000 /   0.000000  1.000000  0.000000 ->  -1.9106669231
    3:   0.000000  0.000000  1.000000 /   0.317516  0.317516  0.893514 ->  -0.4076655112
    4:   0.577350  0.577350  0.577350 /   0.574558  0.735747  0.358552 ->  -1.0198876796
    5:   0.000000  0.707107  0.707107 /   0.247980  0.671962  0.697834 ->  -0.6807132941
    6:   0.707107  0.000000  0.707107 /   0.673902  0.607451  0.420547 ->  -0.7722305326
    7:   0.707107  0.707107  0.000000 /   0.592253  0.805752  0.000000 ->  -2.9675871857

 K-point ( 0.500, 0.500, 0.000) | band =    40
 Effective mass tensor:
              1.1291399529              0.1539520183             -0.6702791581
              0.1539520183              0.5771970813             -0.1743957121
             -0.6702791581             -0.1743957121              9.9546099156
 Effective mass tensor eigenvalues:
              0.5371598815              1.1149119486             10.0088751197
 Angular average effective mass 1/(<1/m>)=   1.0495065282
 Angular average effective mass for Frohlich model (<m**0.5>)**2=   1.3685488463
 Effective masses along directions: (cart. coord. / red. coord. -> eff. mass)
    1:   1.000000  0.000000  0.000000 /   0.753213  0.657777  0.000000 ->   1.0487838149
    2:   0.000000  1.000000  0.000000 /   0.000000  1.000000  0.000000 ->   0.5554855980
    3:   0.000000  0.000000  1.000000 /   0.317516  0.317516  0.893514 ->   9.5443316095
    4:   0.577350  0.577350  0.577350 /   0.574558  0.735747  0.358552 ->   1.1822432548
    5:   0.000000  0.707107  0.707107 /   0.247980  0.671962  0.697834 ->   1.0329119872
    6:   0.707107  0.000000  0.707107 /   0.673902  0.607451  0.420547 ->   1.6972342249
    7:   0.707107  0.707107  0.000000 /   0.592253  0.805752  0.000000 ->   0.8766646860

 END OF EFFECTIVE MASSES SECTION

 ---- first-order wavefunction calculations are completed ----

 Total localisation tensor (bohr^2) in cartesian coordinates
  WARNING : still subject to testing - especially symmetries.
      direction              matrix element
   alpha     beta       real part   imaginary part
     1        1       7.7651388435    0.0000000000
     1        2       1.8743279649    0.0000000000
     1        3       2.3515772541    0.0000000000
     2        1       1.8743279649    0.0000000000
     2        2       1.0456441717    0.0000000000
     2        3       0.6115795891    0.0000000000
     3        1       2.3515772541    0.0000000000
     3        2       0.6115795891    0.0000000000
     3        3       1.9703378320    0.0000000000

 respfn : d/dk was computed, but no 2DTE, so no DDB output.

== END DATASET(S) ==============================================================

 -outvars: echo values of variables after computation  --------
            acell      1.0000000000E+00  1.0000000000E+00  1.0000000000E+00 Bohr
              amu      4.00780000E+01  1.83850000E+02  1.40067400E+01
             ecut      4.20000000E+01 Hartree
           etotal     -2.9979574244E+01
            fcart      0.0000000000E+00  0.0000000000E+00  0.0000000000E+00
                       0.0000000000E+00  0.0000000000E+00  0.0000000000E+00
                       0.0000000000E+00  0.0000000000E+00  0.0000000000E+00
                       0.0000000000E+00  0.0000000000E+00  0.0000000000E+00
                       0.0000000000E+00  0.0000000000E+00  0.0000000000E+00
                       0.0000000000E+00  0.0000000000E+00  0.0000000000E+00
                       0.0000000000E+00  0.0000000000E+00  0.0000000000E+00
                       0.0000000000E+00  0.0000000000E+00  0.0000000000E+00
                       0.0000000000E+00  0.0000000000E+00  0.0000000000E+00
                       0.0000000000E+00  0.0000000000E+00  0.0000000000E+00
-          fftalg         512
           irdden           1
           irdwfk           1
           istwfk        0    1
              ixc     -116133
              kpt      7.14443415E-01  2.85556585E-01  0.00000000E+00
                       5.00000000E-01  5.00000000E-01  0.00000000E+00
           kptopt           0
P           mkmem           2
P          mkqmem           2
P          mk1mem           2
            natom          10
            nband          48
           nbdbuf           4
            ngfft          90      90      64
             nkpt           2
            nstep        2000
             nsym           4
           ntypat           3
              occ      2.000000  2.000000  2.000000  2.000000  2.000000  2.000000
                       2.000000  2.000000  2.000000  2.000000  2.000000  2.000000
                       2.000000  2.000000  2.000000  2.000000  2.000000  2.000000
                       2.000000  2.000000  2.000000  2.000000  2.000000  2.000000
                       2.000000  2.000000  2.000000  2.000000  2.000000  2.000000
                       2.000000  2.000000  2.000000  2.000000  2.000000  2.000000
                       2.000000  2.000000  2.000000  0.000000  0.000000  0.000000
                       0.000000  0.000000  0.000000  0.000000  0.000000  0.000000
        optdriver           1
            prtwf          -1
            rfdir           1       1       1
           rfelfd           2
            rprim      1.3520093789E+01  0.0000000000E+00  3.8525495314E+00
                       1.1807034524E+01  6.5868711698E+00  3.8525495314E+00
                       0.0000000000E+00  0.0000000000E+00  1.0841364597E+01
          spgroup          12
           strten      0.0000000000E+00  0.0000000000E+00  0.0000000000E+00
                       0.0000000000E+00  0.0000000000E+00  0.0000000000E+00
           symrel      1  0  0   0  1  0   0  0  1      -1  0  0   0 -1  0   0  0 -1
                       0 -1  0  -1  0  0   0  0 -1       0  1  0   1  0  0   0  0  1
           tolwfr      1.00000000E-20
            typat      1  1  2  2  3  3  3  3  3  3
           useylm           1
              wtk        0.50000    0.50000
           xangst      7.9101785544E+00  2.0572141628E+00  6.4751879954E+00
                       5.4923605076E+00  1.4284079362E+00  3.3391778735E+00
                       2.1032738575E+00  5.4700216161E-01  1.3579595591E+00
                       1.1299265204E+01  2.9386199374E+00  8.4564063097E+00
                       1.7287130984E+00  4.4958948081E-01  3.0942216708E+00
                       1.1673825964E+01  3.0360326182E+00  6.7201441981E+00
                       1.2931426411E+01  3.3630989966E+00  9.3669354307E+00
                       4.1263201163E+00  1.0731393893E+00  1.3858733952E+00
                       4.7111265057E-01  1.2252310240E-01  4.4743043821E-01
                       9.2762189458E+00  2.4124827096E+00  8.4284924736E+00
            xcart      1.4948071130E+01  3.8875713644E+00  1.2236331970E+01
                       1.0379057182E+01  2.6992998054E+00  6.3101316899E+00
                       3.9746115732E+00  1.0336842795E+00  2.5661716663E+00
                       2.1352516739E+01  5.5531868903E+00  1.5980291994E+01
                       3.2667943183E+00  8.4960099097E-01  5.8472315522E+00
                       2.2060333994E+01  5.7372701788E+00  1.2699232108E+01
                       2.4436854425E+01  6.3553360613E+00  1.7700942668E+01
                       7.7976149563E+00  2.0279395483E+00  2.6189211718E+00
                       8.9027388731E-01  2.3153510849E-01  8.4552099173E-01
                       1.7529513356E+01  4.5589316215E+00  1.5927542488E+01
             xred      5.9020000000E-01  5.9020000000E-01  7.0920800000E-01
                       4.0980000000E-01  4.0980000000E-01  2.9079200000E-01
                       1.5693100000E-01  1.5693100000E-01  1.2516900000E-01
                       8.4306900000E-01  8.4306900000E-01  8.7483100000E-01
                       1.2898400000E-01  1.2898400000E-01  4.4767400000E-01
                       8.7101600000E-01  8.7101600000E-01  5.5232600000E-01
                       9.6484900000E-01  9.6484900000E-01  9.4699200000E-01
                       3.0787600000E-01  3.0787600000E-01  2.2756000000E-02
                       3.5151000000E-02  3.5151000000E-02  5.3008000000E-02
                       6.9212400000E-01  6.9212400000E-01  9.7724400000E-01
            znucl       20.00000   74.00000    7.00000

- Timing analysis has been suppressed with timopt=0

 Suggested references for the acknowledgment of ABINIT usage.

 Calculation completed.
.Delivered   2 WARNINGs and   5 COMMENTs to log file.