.Version 9.5.1 of ABINIT

 ABINIT is a project of the Universite Catholique de Louvain,
 Corning Inc. and other collaborators, see ~abinit/doc/developers/contributors.txt .
 acknowledgments of the ABINIT effort.

.Starting date : Tue 11 May 2021.
- ( at 21h35 )

- input  file    -> /scratch/users/j/a/jabreu/flow_simple_8atoms/flow/w326/t1/run.abi
- output file    -> /scratch/users/j/a/jabreu/flow_simple_8atoms/flow/w326/t1/run.abo
- root for input  files -> /scratch/users/j/a/jabreu/flow_simple_8atoms/flow/w326/t1/indata/in
- root for output files -> /scratch/users/j/a/jabreu/flow_simple_8atoms/flow/w326/t1/outdata/out

 Symmetries : space group Cm c m (# 63); Bravais oC (1-face-center ortho.)
     intxc =       0      iscf =       7    lmnmax =      25     lnmax =       7
     mgfft =      72  mpssoang =       4    mqgrid =    3175     natom =       8
  nloc_mem =       1    nspden =       1   nspinor =       1    nsppol =       1
      nsym =       8    n1xccc =    2501    ntypat =       3    occopt =       1
   xclevel =       2
-    mband =          51        mffmem =           1         mkmem =           1
-   mkqmem =           1        mk1mem =           1           mpw =       16421
      nfft =      331776          nkpt =           1
  Rough estimation (10% accuracy) of disk space for files :

------------- Echo of variables that govern the present computation ------------
-
- outvars: echo of selected default values
-   iomode0 =  0 , fftalg0 =512 , wfoptalg0 =  0
-
- outvars: echo of global parameters not present in the input file
-  max_nthreads =    0
-
 -outvars: echo values of preprocessed input variables --------
            acell      1.0000000000E+00  1.0000000000E+00  1.0000000000E+00 Bohr
              amu      3.90983000E+01  3.09737620E+01  1.96966540E+02
             ecut      3.80000000E+01 Hartree
-          fftalg         512
           irdden           1
           irdwfk           1
           istwfk        1
              ixc     -116133
           kptopt           0
P           mkmem           1
P          mkqmem           1
P          mk1mem           1
            natom           8
            nband          51
           nbdbuf           4
            ngfft          72      72      64
             nkpt           1
            nstep        2000
             nsym           8
           ntypat           3
              occ      2.000000  2.000000  2.000000  2.000000  2.000000  2.000000
                       2.000000  2.000000  2.000000  2.000000  2.000000  2.000000
                       2.000000  2.000000  2.000000  2.000000  2.000000  2.000000
                       2.000000  2.000000  2.000000  2.000000  2.000000  2.000000
                       2.000000  2.000000  2.000000  2.000000  2.000000  2.000000
                       2.000000  2.000000  2.000000  2.000000  2.000000  2.000000
                       2.000000  2.000000  2.000000  2.000000  2.000000  2.000000
                       0.000000  0.000000  0.000000  0.000000  0.000000  0.000000
                       0.000000  0.000000  0.000000
        optdriver           1
            prtwf          -1
            rfdir           1       1       1
           rfelfd           2
            rprim      1.1535714075E+01  0.0000000000E+00  0.0000000000E+00
                      -3.0896774878E+00  1.1114251763E+01  0.0000000000E+00
                       0.0000000000E+00  0.0000000000E+00  1.1440563814E+01
          spgroup          63
           symrel      1  0  0   0  1  0   0  0  1      -1  0  0   0 -1  0   0  0 -1
                       0 -1  0  -1  0  0   0  0 -1       0  1  0   1  0  0   0  0  1
                      -1  0  0   0 -1  0   0  0  1       1  0  0   0  1  0   0  0 -1
                       0  1  0   1  0  0   0  0 -1       0 -1  0  -1  0  0   0  0  1
            tnons      0.0000000  0.0000000  0.0000000     0.0000000 -0.0000000  0.0000000
                       0.0000000 -0.0000000  0.0000000     0.0000000 -0.0000000  0.0000000
                       0.0000000 -0.0000000  0.5000000     0.0000000  0.0000000  0.5000000
                       0.0000000 -0.0000000  0.5000000     0.0000000 -0.0000000  0.5000000
           tolwfr      1.00000000E-20
            typat      1  1  1  1  2  2  3  3
           useylm           1
           xangst      5.4197588081E+00  1.8700233106E+00  4.5405642176E+00
                      -9.5030874325E-01  4.0113854127E+00  1.5135214059E+00
                       4.1193544339E+00  1.5880391694E-01  1.5135214059E+00
                       3.5009563092E-01  5.7226048064E+00  4.5405642176E+00
                       1.1138629368E+00  1.4657470378E+00  1.5135214059E+00
                       3.3555871280E+00  4.4156616855E+00  4.5405642176E+00
                       2.2347250324E+00  2.9407043616E+00  3.0270428118E+00
                       2.2347250324E+00  2.9407043616E+00  0.0000000000E+00
            xcart      1.0241859854E+01  3.5338319192E+00  8.5804228601E+00
                      -1.7958232664E+00  7.5804198434E+00  2.8601409534E+00
                       7.7844517244E+00  3.0009591184E-01  2.8601409534E+00
                       6.6158486276E-01  1.0814155851E+01  8.5804228601E+00
                       2.1048959002E+00  2.7698604815E+00  2.8601409534E+00
                       6.3411406870E+00  8.3443912811E+00  8.5804228601E+00
                       4.2230182936E+00  5.5571258813E+00  5.7202819067E+00
                       4.2230182936E+00  5.5571258813E+00  0.0000000000E+00
             xred      9.7299900000E-01  3.1795500000E-01  7.5000000000E-01
                       2.7001000000E-02  6.8204500000E-01  2.5000000000E-01
                       6.8204500000E-01  2.7001000000E-02  2.5000000000E-01
                       3.1795500000E-01  9.7299900000E-01  7.5000000000E-01
                       2.4921700000E-01  2.4921700000E-01  2.5000000000E-01
                       7.5078300000E-01  7.5078300000E-01  7.5000000000E-01
                       5.0000000000E-01  5.0000000000E-01  5.0000000000E-01
                       5.0000000000E-01  5.0000000000E-01  0.0000000000E+00
            znucl       19.00000   15.00000   79.00000

 chkinp: Checking input parameters for consistency.

== DATASET  1 ==================================================================
-   mpi_nproc: 1, omp_nthreads: -1 (-1 if OMP is not activated)

--- !DatasetInfo
iteration_state: {dtset: 1, }
dimensions: {natom: 8, nkpt: 1, mband: 51, nsppol: 1, nspinor: 1, nspden: 1, mpw: 16421, }
cutoff_energies: {ecut:  38.0, pawecutdg:  -1.0, }
electrons: {nelect:   8.40000000E+01, charge:   0.00000000E+00, occopt:   1.00000000E+00, tsmear:   1.00000000E-02, }
meta: {optdriver: 1, rfelfd: 2, }
...

 Real(R)+Recip(G) space primitive vectors, cartesian coordinates (Bohr,Bohr^-1):
 R(1)= 11.5357141  0.0000000  0.0000000  G(1)=  0.0866873  0.0240984  0.0000000
 R(2)= -3.0896775 11.1142518  0.0000000  G(2)=  0.0000000  0.0899746  0.0000000
 R(3)=  0.0000000  0.0000000 11.4405638  G(3)=  0.0000000  0.0000000  0.0874083
 Unit cell volume ucvol=  1.4668042E+03 bohr^3
 Angles (23,13,12)=  9.00000000E+01  9.00000000E+01  1.05535526E+02 degrees

 getcut: wavevector=  0.0000  0.0000  0.0000  ngfft=  72  72  64
         ecut(hartree)=     38.000   => boxcut(ratio)=   2.01593

--- Pseudopotential description ------------------------------------------------
- pspini: atom type   1  psp file is /scratch/users/j/a/jabreu/pseudos/PBEsol/K.psp8
- pspatm: opening atomic psp file    /scratch/users/j/a/jabreu/pseudos/PBEsol/K.psp8
- K     ONCVPSP-3.3.0  r_core=   1.36296   1.46408   1.61068
- 19.00000   9.00000    180112                znucl, zion, pspdat
    8 -116133    2    4       400   0.00000   pspcod,pspxc,lmax,lloc,mmax,r2well
    3.99000000000000    5.00000000000000    0.00000000000000   rchrg,fchrg,qchrg
     nproj     2     2     2
     extension_switch     1
  pspatm : epsatm=    8.32487830
         --- l  ekb(1:nproj) -->
             0   10.921326    0.816676
             1    4.431000    0.560368
             2   -3.384038   -1.043186
 pspatm: atomic psp has been read  and splines computed

- pspini: atom type   2  psp file is /scratch/users/j/a/jabreu/pseudos/PBEsol/P.psp8
- pspatm: opening atomic psp file    /scratch/users/j/a/jabreu/pseudos/PBEsol/P.psp8
- P     ONCVPSP-3.3.0  r_core=   1.46089   1.55067   1.70594
- 15.00000   5.00000    180112                znucl, zion, pspdat
    8 -116133    2    4       600   0.00000   pspcod,pspxc,lmax,lloc,mmax,r2well
    5.99000000000000    5.00000000000000    0.00000000000000   rchrg,fchrg,qchrg
     nproj     2     2     2
     extension_switch     1
  pspatm : epsatm=    7.31221086
         --- l  ekb(1:nproj) -->
             0    6.742364    1.063650
             1    3.449117    0.910422
             2   -3.077645   -0.799176
 pspatm: atomic psp has been read  and splines computed

- pspini: atom type   3  psp file is /scratch/users/j/a/jabreu/pseudos/PBEsol/Au.psp8
- pspatm: opening atomic psp file    /scratch/users/j/a/jabreu/pseudos/PBEsol/Au.psp8
- Au    ONCVPSP-3.3.0  r_core=   1.45604   1.56407   1.56407   1.60183
- 79.00000  19.00000    180112                znucl, zion, pspdat
    8 -116133    3    4       500   0.00000   pspcod,pspxc,lmax,lloc,mmax,r2well
    4.99000000000000    5.00000000000000    0.00000000000000   rchrg,fchrg,qchrg
     nproj     2     2     2     1
     extension_switch     1
  pspatm : epsatm=   32.21965837
         --- l  ekb(1:nproj) -->
             0    9.413866   -0.196587
             1    2.474292   -1.517497
             2    1.503483    0.298081
             3    1.177996
 pspatm: atomic psp has been read  and splines computed

   9.43851314E+03                                ecore*ucvol(ha*bohr**3)

-inwffil : will read wavefunctions from disk file /scratch/users/j/a/jabreu/flow_simple_8atoms/flow/w326/t1/indata/in_WFK

 ==>  initialize data related to q vector <==

 The list of irreducible perturbations for this q vector is:
    1)    idir= 1    ipert=   9
    2)    idir= 2    ipert=   9
    3)    idir= 3    ipert=   9

 Perturbation wavevector (in red.coord.)   0.000000  0.000000  0.000000
 Perturbation : derivative vs k along direction   1

 dfpt_looppert : COMMENT -
  In a d/dk calculation, iscf is set to -3 automatically.
 The set of symmetries contains only one element for this perturbation.
 symkpt : not enough symmetry to change the number of k points.

[...]

 Initialisation of the first-order wave-functions :
  ireadwf=   0

--- !BeginCycle
iteration_state: {dtset: 1, }
solver: {iscf: 7, nstep: 2000, nline: 4, wfoptalg: 0, }
tolerances: {tolwfr: 1.00E-20, }
...

     iter   2DEtotal(Ha)        deltaE(Ha) residm    vres2
-ETOT  1  -27.964673508494     -2.796E+01 4.720E-02 0.000E+00
 ETOT  2  -28.047777676156     -8.310E-02 3.715E-03 0.000E+00
 ETOT  3  -28.049446333939     -1.669E-03 2.148E-04 0.000E+00
 ETOT  4  -28.049500778541     -5.444E-05 1.352E-05 0.000E+00
 ETOT  5  -28.049502944988     -2.166E-06 1.678E-06 0.000E+00
 ETOT  6  -28.049503039233     -9.424E-08 1.349E-07 0.000E+00
 ETOT  7  -28.049503043556     -4.323E-09 1.912E-08 0.000E+00
 ETOT  8  -28.049503043760     -2.040E-10 1.645E-09 0.000E+00
 ETOT  9  -28.049503043770     -9.837E-12 2.696E-10 0.000E+00
 ETOT 10  -28.049503043770     -5.009E-13 2.394E-11 0.000E+00
 ETOT 11  -28.049503043770     -1.066E-14 4.204E-12 0.000E+00
 ETOT 12  -28.049503043770     -1.776E-14 3.735E-13 0.000E+00
 ETOT 13  -28.049503043770      2.132E-14 6.739E-14 0.000E+00
 ETOT 14  -28.049503043770     -3.908E-14 5.945E-15 0.000E+00
 ETOT 15  -28.049503043770      2.842E-14 1.088E-15 0.000E+00
 ETOT 16  -28.049503043770      0.000E+00 9.522E-17 0.000E+00
 ETOT 17  -28.049503043770      0.000E+00 1.758E-17 0.000E+00
 ETOT 18  -28.049503043770      7.105E-15 1.530E-18 0.000E+00
 ETOT 19  -28.049503043770      0.000E+00 2.845E-19 0.000E+00
 ETOT 20  -28.049503043770      0.000E+00 2.463E-20 0.000E+00
 ETOT 21  -28.049503043770      7.105E-15 9.992E-21 0.000E+00

 At SCF step   21   max residual=  9.99E-21 < tolwfr=  1.00E-20 =>converged.

 ----iterations are completed or convergence reached----

 dfpt_looppert: DFPT cycle converged with prtwf=-1. Will skip output of the 1st-order WFK file.
 dfpt_looppert : ek2=    5.3691873443E+01
          f-sum rule ratio=    1.0728328567E+00
 prteigrs : about to open file /scratch/users/j/a/jabreu/flow_simple_8atoms/flow/w326/t1/tmpdata/tmp_1WF1_EIG
 Expectation of eigenvalue derivatives (hartree) for nkpt=   1  k points:
  (in case of degenerate eigenvalues, averaged derivative)
 kpt#   1, nband= 51, wtk=  1.00000, kpt=  0.0000  0.0000  0.0000 (reduced coord)
  -0.00000   -0.00000    0.00000    0.00000    0.00000   -0.00000    0.00000   -0.00000
   0.00000    0.00000    0.00000   -0.00000    0.00000    0.00000   -0.00000    0.00000
   0.00000   -0.00000   -0.00000   -0.00000    0.00000    0.00000   -0.00000    0.00000
   0.00000   -0.00000   -0.00000   -0.00000   -0.00000   -0.00000    0.00000    0.00000
   0.00000    0.00000   -0.00000    0.00000   -0.00000   -0.00000   -0.00000   -0.00000
   0.00000    0.00000   -0.00000   -0.00000    0.00000    0.00000    0.00000    0.00000
   0.00000    0.00001   -0.00469

 Eight components of 2nd-order total energy (hartree) are
 1,2,3: 0th-order hamiltonian combined with 1st-order wavefunctions
     kin0=   4.23951980E+01 eigvalue=   1.56714322E+00  local=  -2.48386413E+01
 4,5,6: 1st-order hamiltonian combined with 1st and 0th-order wfs
     kin1=  -5.76024060E+01  Hartree=   0.00000000E+00     xc=   0.00000000E+00
 7,8,9: eventually, occupation + non-local contributions
    edocc=   6.98177011E+00     enl0=   1.94403298E+00   enl1=   1.50339988E+00
 1-9 gives the relaxation energy (to be shifted if some occ is /=2.0)
   erelax=  -2.80495030E+01
  No Ewald or frozen-wf contrib.: the relaxation energy is the total one
 2DEtotal=   -0.2804950304E+02 Ha. Also 2DEtotal=   -0.763265794406E+03 eV
    (  non-var. 2DEtotal :   -2.8049503043E+01 Ha)

 Perturbation wavevector (in red.coord.)   0.000000  0.000000  0.000000
 Perturbation : derivative vs k along direction   2
 The set of symmetries contains only one element for this perturbation.
 symkpt : not enough symmetry to change the number of k points.

[...]

 Perturbation wavevector (in red.coord.)   0.000000  0.000000  0.000000
 Perturbation : derivative vs k along direction   3
 The set of symmetries contains only one element for this perturbation.
 symkpt : not enough symmetry to change the number of k points.

-inwffil : will read wavefunctions from disk file /scratch/users/j/a/jabreu/flow_simple_8atoms/flow/w326/t1/indata/in_WFK

 Initialisation of the first-order wave-functions :
  ireadwf=   0

--- !BeginCycle
iteration_state: {dtset: 1, }
solver: {iscf: 7, nstep: 2000, nline: 4, wfoptalg: 0, }
tolerances: {tolwfr: 1.00E-20, }
...

     iter   2DEtotal(Ha)        deltaE(Ha) residm    vres2
-ETOT  1  -29.283751824849     -2.928E+01 2.429E-02 0.000E+00
 ETOT  2  -29.349545698232     -6.579E-02 1.860E-03 0.000E+00
 ETOT  3  -29.350829635243     -1.284E-03 3.986E-05 0.000E+00
 ETOT  4  -29.350876699966     -4.706E-05 3.604E-06 0.000E+00
 ETOT  5  -29.350878875527     -2.176E-06 3.067E-07 0.000E+00
 ETOT  6  -29.350878987476     -1.119E-07 3.675E-08 0.000E+00
 ETOT  7  -29.350878993521     -6.045E-09 3.307E-09 0.000E+00
 ETOT  8  -29.350878993857     -3.359E-10 4.708E-10 0.000E+00
 ETOT  9  -29.350878993876     -1.892E-11 4.318E-11 0.000E+00
 ETOT 10  -29.350878993877     -1.133E-12 6.945E-12 0.000E+00
 ETOT 11  -29.350878993877     -8.171E-14 6.329E-13 0.000E+00
 ETOT 12  -29.350878993877      1.066E-14 1.088E-13 0.000E+00
 ETOT 13  -29.350878993877      3.553E-15 9.777E-15 0.000E+00
 ETOT 14  -29.350878993877      1.066E-14 1.735E-15 0.000E+00
 ETOT 15  -29.350878993877      2.132E-14 1.544E-16 0.000E+00
 ETOT 16  -29.350878993877      3.553E-14 2.783E-17 0.000E+00
 ETOT 17  -29.350878993877      3.197E-14 2.461E-18 0.000E+00
 ETOT 18  -29.350878993877      3.553E-15 4.475E-19 0.000E+00
 ETOT 19  -29.350878993877     -7.105E-15 3.943E-20 0.000E+00
 ETOT 20  -29.350878993877      3.553E-15 9.809E-21 0.000E+00

 At SCF step   20   max residual=  9.81E-21 < tolwfr=  1.00E-20 =>converged.

 ----iterations are completed or convergence reached----

 dfpt_looppert: DFPT cycle converged with prtwf=-1. Will skip output of the 1st-order WFK file.
 dfpt_looppert : ek2=    5.0672713677E+01
          f-sum rule ratio=    1.1815086312E+00
 prteigrs : about to open file /scratch/users/j/a/jabreu/flow_simple_8atoms/flow/w326/t1/tmpdata/tmp_1WF1_EIG
 Expectation of eigenvalue derivatives (hartree) for nkpt=   1  k points:
  (in case of degenerate eigenvalues, averaged derivative)
 kpt#   1, nband= 51, wtk=  1.00000, kpt=  0.0000  0.0000  0.0000 (reduced coord)
  -0.00000    0.00000   -0.00000   -0.00000    0.00000   -0.00000    0.00000    0.00000
   0.00000   -0.00000   -0.00000   -0.00000    0.00000   -0.00000   -0.00000    0.00000
   0.00000   -0.00000   -0.00000   -0.00000    0.00000   -0.00000    0.00000   -0.00000
   0.00000    0.00000   -0.00000   -0.00000   -0.00000   -0.00000   -0.00000   -0.00000
   0.00000   -0.00000    0.00000   -0.00000   -0.00000    0.00000   -0.00000   -0.00000
  -0.00000    0.00000   -0.00000    0.00000   -0.00000    0.00000    0.00000    0.00000
  -0.00000   -0.00001    0.00535

 Eight components of 2nd-order total energy (hartree) are
 1,2,3: 0th-order hamiltonian combined with 1st-order wavefunctions
     kin0=   3.91448508E+01 eigvalue=   1.37261755E+00  local=  -2.26282559E+01
 4,5,6: 1st-order hamiltonian combined with 1st and 0th-order wfs
     kin1=  -5.98702486E+01  Hartree=   0.00000000E+00     xc=   0.00000000E+00
 7,8,9: eventually, occupation + non-local contributions
    edocc=   9.76420166E+00     enl0=   1.69746488E+00   enl1=   1.16849059E+00
 1-9 gives the relaxation energy (to be shifted if some occ is /=2.0)
   erelax=  -2.93508790E+01
  No Ewald or frozen-wf contrib.: the relaxation energy is the total one
 2DEtotal=   -0.2935087899E+02 Ha. Also 2DEtotal=   -0.798678034931E+03 eV
    (  non-var. 2DEtotal :   -2.9350878993E+01 Ha)

 CALCULATION OF EFFECTIVE MASSES
 NOTE : Additional infos (eff. mass eigenvalues, eigenvectors and, if degenerate, average mass) are available in stdout.

 K-point ( 0.000, 0.000, 0.000) | band =    42
 Effective mass tensor:
             -1.0224586506              0.1131142729              0.0000182356
              0.1131142729             -0.9595944145              0.0000011409
              0.0000182356              0.0000011409             -4.0813636409
 Effective mass tensor eigenvalues:
             -4.0813636410             -1.1084267743             -0.8736262907
 Angular average effective mass 1/(<1/m>)=  -1.3089862338
 Angular average effective mass for Frohlich model (<m**0.5>)**2=  -1.4473449887
 Effective masses along directions: (cart. coord. / red. coord. -> eff. mass)
    1:   1.000000  0.000000  0.000000 /   0.965953 -0.258717  0.000000 ->  -1.0091250603
    2:   0.000000  1.000000  0.000000 /   0.000000  1.000000  0.000000 ->  -0.9470806188
    3:   0.000000  0.000000  1.000000 /   0.000000  0.000000  1.000000 ->  -4.0813636406
    4:   0.577350  0.577350  0.577350 /   0.636611  0.442845  0.631360 ->  -1.1878915851
    5:   0.000000  0.707107  0.707107 /   0.000000  0.696804  0.717262 ->  -1.5374041541
    6:   0.707107  0.000000  0.707107 /   0.697528 -0.186823  0.691775 ->  -1.6181458584
    7:   0.707107  0.707107  0.000000 /   0.820914  0.571052  0.000000 ->  -0.8770174661

 K-point ( 0.000, 0.000, 0.000) | band =    43
 Effective mass tensor:
              0.5814903751              0.0935582793              0.0000062634
              0.0935582793              0.6335413124             -0.0000055727
              0.0000062634             -0.0000055727              0.1205822807
 Effective mass tensor eigenvalues:
              0.1205822805              0.5104052026              0.7046264850
 Angular average effective mass 1/(<1/m>)=   0.2570361120
 Angular average effective mass for Frohlich model (<m**0.5>)**2=   0.3122939577
 Effective masses along directions: (cart. coord. / red. coord. -> eff. mass)
    1:   1.000000  0.000000  0.000000 /   0.965953 -0.258717  0.000000 ->   0.5676741460
    2:   0.000000  1.000000  0.000000 /   0.000000  1.000000  0.000000 ->   0.6184883515
    3:   0.000000  0.000000  1.000000 /   0.000000  0.000000  1.000000 ->   0.1205822805
    4:   0.577350  0.577350  0.577350 /   0.636611  0.442845  0.631360 ->   0.2690293439
    5:   0.000000  0.707107  0.707107 /   0.000000  0.696804  0.717262 ->   0.2018140206
    6:   0.707107  0.000000  0.707107 /   0.697528 -0.186823  0.691775 ->   0.1989167121
    7:   0.707107  0.707107  0.000000 /   0.820914  0.571052  0.000000 ->   0.6997562613

 END OF EFFECTIVE MASSES SECTION

 ---- first-order wavefunction calculations are completed ----

 Total localisation tensor (bohr^2) in cartesian coordinates
  WARNING : still subject to testing - especially symmetries.
      direction              matrix element
   alpha     beta       real part   imaginary part
     1        1       1.6718064469    0.0000000000
     1        2      -0.4025309009    0.0000000000
     1        3       0.0000000000    0.0000000000
     2        1      -0.4025309009    0.0000000000
     2        2       1.4479924823    0.0000000000
     2        3       0.0000000000    0.0000000000
     3        1       0.0000000000    0.0000000000
     3        2       0.0000000000    0.0000000000
     3        3       2.6856977241    0.0000000000

 respfn : d/dk was computed, but no 2DTE, so no DDB output.

== END DATASET(S) ==============================================================

 -outvars: echo values of variables after computation  --------
            acell      1.0000000000E+00  1.0000000000E+00  1.0000000000E+00 Bohr
              amu      3.90983000E+01  3.09737620E+01  1.96966540E+02
             ecut      3.80000000E+01 Hartree
           etotal     -2.9350878994E+01
            fcart      0.0000000000E+00  0.0000000000E+00  0.0000000000E+00
                       0.0000000000E+00  0.0000000000E+00  0.0000000000E+00
                       0.0000000000E+00  0.0000000000E+00  0.0000000000E+00
                       0.0000000000E+00  0.0000000000E+00  0.0000000000E+00
                       0.0000000000E+00  0.0000000000E+00  0.0000000000E+00
                       0.0000000000E+00  0.0000000000E+00  0.0000000000E+00
                       0.0000000000E+00  0.0000000000E+00  0.0000000000E+00
                       0.0000000000E+00  0.0000000000E+00  0.0000000000E+00
-          fftalg         512
           irdden           1
           irdwfk           1
           istwfk        1
              ixc     -116133
           kptopt           0
P           mkmem           1
P          mkqmem           1
P          mk1mem           1
            natom           8
            nband          51
           nbdbuf           4
            ngfft          72      72      64
             nkpt           1
            nstep        2000
             nsym           8
           ntypat           3
              occ      2.000000  2.000000  2.000000  2.000000  2.000000  2.000000
                       2.000000  2.000000  2.000000  2.000000  2.000000  2.000000
                       2.000000  2.000000  2.000000  2.000000  2.000000  2.000000
                       2.000000  2.000000  2.000000  2.000000  2.000000  2.000000
                       2.000000  2.000000  2.000000  2.000000  2.000000  2.000000
                       2.000000  2.000000  2.000000  2.000000  2.000000  2.000000
                       2.000000  2.000000  2.000000  2.000000  2.000000  2.000000
                       0.000000  0.000000  0.000000  0.000000  0.000000  0.000000
                       0.000000  0.000000  0.000000
        optdriver           1
            prtwf          -1
            rfdir           1       1       1
           rfelfd           2
            rprim      1.1535714075E+01  0.0000000000E+00  0.0000000000E+00
                      -3.0896774878E+00  1.1114251763E+01  0.0000000000E+00
                       0.0000000000E+00  0.0000000000E+00  1.1440563814E+01
          spgroup          63
           strten      0.0000000000E+00  0.0000000000E+00  0.0000000000E+00
                       0.0000000000E+00  0.0000000000E+00  0.0000000000E+00
           symrel      1  0  0   0  1  0   0  0  1      -1  0  0   0 -1  0   0  0 -1
                       0 -1  0  -1  0  0   0  0 -1       0  1  0   1  0  0   0  0  1
                      -1  0  0   0 -1  0   0  0  1       1  0  0   0  1  0   0  0 -1
                       0  1  0   1  0  0   0  0 -1       0 -1  0  -1  0  0   0  0  1
            tnons      0.0000000  0.0000000  0.0000000     0.0000000 -0.0000000  0.0000000
                       0.0000000 -0.0000000  0.0000000     0.0000000 -0.0000000  0.0000000
                       0.0000000 -0.0000000  0.5000000     0.0000000  0.0000000  0.5000000
                       0.0000000 -0.0000000  0.5000000     0.0000000 -0.0000000  0.5000000
           tolwfr      1.00000000E-20
            typat      1  1  1  1  2  2  3  3
           useylm           1
           xangst      5.4197588081E+00  1.8700233106E+00  4.5405642176E+00
                      -9.5030874325E-01  4.0113854127E+00  1.5135214059E+00
                       4.1193544339E+00  1.5880391694E-01  1.5135214059E+00
                       3.5009563092E-01  5.7226048064E+00  4.5405642176E+00
                       1.1138629368E+00  1.4657470378E+00  1.5135214059E+00
                       3.3555871280E+00  4.4156616855E+00  4.5405642176E+00
                       2.2347250324E+00  2.9407043616E+00  3.0270428118E+00
                       2.2347250324E+00  2.9407043616E+00  0.0000000000E+00
            xcart      1.0241859854E+01  3.5338319192E+00  8.5804228601E+00
                      -1.7958232664E+00  7.5804198434E+00  2.8601409534E+00
                       7.7844517244E+00  3.0009591184E-01  2.8601409534E+00
                       6.6158486276E-01  1.0814155851E+01  8.5804228601E+00
                       2.1048959002E+00  2.7698604815E+00  2.8601409534E+00
                       6.3411406870E+00  8.3443912811E+00  8.5804228601E+00
                       4.2230182936E+00  5.5571258813E+00  5.7202819067E+00
                       4.2230182936E+00  5.5571258813E+00  0.0000000000E+00
             xred      9.7299900000E-01  3.1795500000E-01  7.5000000000E-01
                       2.7001000000E-02  6.8204500000E-01  2.5000000000E-01
                       6.8204500000E-01  2.7001000000E-02  2.5000000000E-01
                       3.1795500000E-01  9.7299900000E-01  7.5000000000E-01
                       2.4921700000E-01  2.4921700000E-01  2.5000000000E-01
                       7.5078300000E-01  7.5078300000E-01  7.5000000000E-01
                       5.0000000000E-01  5.0000000000E-01  5.0000000000E-01
                       5.0000000000E-01  5.0000000000E-01  0.0000000000E+00
            znucl       19.00000   15.00000   79.00000

- Timing analysis has been suppressed with timopt=0

 Suggested references for the acknowledgment of ABINIT usage.

 Calculation completed.
.Delivered   6 WARNINGs and   5 COMMENTs to log file.