.Version 9.5.1 of ABINIT

 ABINIT is a project of the Universite Catholique de Louvain,
 Corning Inc. and other collaborators, see ~abinit/doc/developers/contributors.txt .
 acknowledgments of the ABINIT effort.

.Starting date : Tue 27 Apr 2021.
- ( at 15h32 )

- input  file    -> /scratch/users/j/a/jabreu/flow_simple/flow/w149/t1/run.abi
- output file    -> /scratch/users/j/a/jabreu/flow_simple/flow/w149/t1/run.abo
- root for input  files -> /scratch/users/j/a/jabreu/flow_simple/flow/w149/t1/indata/in
- root for output files -> /scratch/users/j/a/jabreu/flow_simple/flow/w149/t1/outdata/out

 Symmetries : space group F-4 3 m (#216); Bravais cF (face-center cubic)
     intxc =       0      iscf =       7    lmnmax =      18     lnmax =       6
     mgfft =      48  mpssoang =       3    mqgrid =    3001     natom =       3
  nloc_mem =       1    nspden =       1   nspinor =       1    nsppol =       1
      nsym =      24    n1xccc =    2501    ntypat =       3    occopt =       1
   xclevel =       2
-    mband =          31        mffmem =           1         mkmem =           2
-   mkqmem =           2        mk1mem =           2           mpw =        4398
      nfft =      110592          nkpt =           2
  Rough estimation (10% accuracy) of disk space for files :

------------- Echo of variables that govern the present computation ------------
-
- outvars: echo of selected default values
-   iomode0 =  0 , fftalg0 =512 , wfoptalg0 =  0
-
- outvars: echo of global parameters not present in the input file
-  max_nthreads =    0
-
 -outvars: echo values of preprocessed input variables --------
            acell      1.0000000000E+00  1.0000000000E+00  1.0000000000E+00 Bohr
              amu      4.78800000E+01  5.58470000E+01  7.89600000E+01
             ecut      4.70000000E+01 Hartree
-          fftalg         512
           irdden           1
           irdwfk           1
           istwfk        1    1
              ixc     -116133
              kpt      5.00000000E-01  5.00000000E-01  5.00000000E-01
                       5.00000000E-01  1.23259516E-32  5.00000000E-01
           kptopt           0
P           mkmem           2
P          mkqmem           2
P          mk1mem           2
            natom           3
            nband          31
           nbdbuf           4
            ngfft          48      48      48
             nkpt           2
            nstep         100
             nsym          24
           ntypat           3
              occ      2.000000  2.000000  2.000000  2.000000  2.000000  2.000000
                       2.000000  2.000000  2.000000  2.000000  2.000000  2.000000
                       2.000000  2.000000  2.000000  2.000000  2.000000  2.000000
                       2.000000  2.000000  2.000000  2.000000  0.000000  0.000000
                       0.000000  0.000000  0.000000  0.000000  0.000000  0.000000
                       0.000000
        optdriver           1
            prtwf          -1
            rfdir           1       1       1
           rfelfd           2
            rprim      6.4052239257E+00  0.0000000000E+00  3.6980577577E+00
                       2.1350746419E+00  6.0389030305E+00  3.6980577577E+00
                       0.0000000000E+00  0.0000000000E+00  7.3961155155E+00
          spgroup         216
           symrel      1  0  0   0  1  0   0  0  1       0 -1  1   0 -1  0   1 -1  0
                      -1  0  0  -1  0  1  -1  1  0       0  1 -1   1  0 -1   0  0 -1
                      -1  0  0  -1  1  0  -1  0  1       0 -1  1   1 -1  0   0 -1  0
                       1  0  0   0  0  1   0  1  0       0  1 -1   0  0 -1   1  0 -1
                      -1  0  1  -1  1  0  -1  0  0       0 -1  0   1 -1  0   0 -1  1
                       1  0 -1   0  0 -1   0  1 -1       0  1  0   0  0  1   1  0  0
                       1  0 -1   0  1 -1   0  0 -1       0 -1  0   0 -1  1   1 -1  0
                      -1  0  1  -1  0  0  -1  1  0       0  1  0   1  0  0   0  0  1
                       0  0 -1   0  1 -1   1  0 -1       1 -1  0   0 -1  1   0 -1  0
                       0  0  1   1  0  0   0  1  0      -1  1  0  -1  0  0  -1  0  1
                       0  0  1   0  1  0   1  0  0       1 -1  0   0 -1  0   0 -1  1
                       0  0 -1   1  0 -1   0  1 -1      -1  1  0  -1  0  1  -1  0  0
           tolwfr      1.00000000E-20
            typat      1  2  3
           useylm           1
              wtk        0.50000    0.50000
           xangst      2.2596656783E+00  1.5978249243E+00  3.9138557629E+00
                       1.1298328391E+00  7.9891246216E-01  1.9569278814E+00
                       0.0000000000E+00  0.0000000000E+00  0.0000000000E+00
            xcart      4.2701492838E+00  3.0194515153E+00  7.3961155154E+00
                       2.1350746419E+00  1.5097257576E+00  3.6980577577E+00
                       0.0000000000E+00  0.0000000000E+00  0.0000000000E+00
             xred      5.0000000000E-01  5.0000000000E-01  5.0000000000E-01
                       2.5000000000E-01  2.5000000000E-01  2.5000000000E-01
                       0.0000000000E+00  0.0000000000E+00  0.0000000000E+00
            znucl       22.00000   26.00000   34.00000

 chkinp: Checking input parameters for consistency.

== DATASET  1 ==================================================================
-   mpi_nproc: 1, omp_nthreads: -1 (-1 if OMP is not activated)

--- !DatasetInfo
iteration_state: {dtset: 1, }
dimensions: {natom: 3, nkpt: 2, mband: 31, nsppol: 1, nspinor: 1, nspden: 1, mpw: 4398, }
cutoff_energies: {ecut:  47.0, pawecutdg:  -1.0, }
electrons: {nelect:   4.40000000E+01, charge:   0.00000000E+00, occopt:   1.00000000E+00, tsmear:   1.00000000E-02, }
meta: {optdriver: 1, rfelfd: 2, }
...

 Real(R)+Recip(G) space primitive vectors, cartesian coordinates (Bohr,Bohr^-1):
 R(1)=  6.4052239  0.0000000  3.6980578  G(1)=  0.1561226 -0.0551977  0.0000000
 R(2)=  2.1350746  6.0389030  3.6980578  G(2)=  0.0000000  0.1655930  0.0000000
 R(3)=  0.0000000  0.0000000  7.3961155  G(3)= -0.0780613 -0.0551977  0.1352061
 Unit cell volume ucvol=  2.8608564E+02 bohr^3
 Angles (23,13,12)=  6.00000000E+01  6.00000000E+01  6.00000000E+01 degrees

 getcut: wavevector=  0.0000  0.0000  0.0000  ngfft=  48  48  48
         ecut(hartree)=     47.000   => boxcut(ratio)=   2.10292

--- Pseudopotential description ------------------------------------------------
- pspini: atom type   1  psp file is /scratch/users/j/a/jabreu/pseudos/PBEsol/Ti.psp8
- pspatm: opening atomic psp file    /scratch/users/j/a/jabreu/pseudos/PBEsol/Ti.psp8
- Ti    ONCVPSP-3.3.0  r_core=   1.35825   1.31050   1.66360
- 22.00000  12.00000    180112                znucl, zion, pspdat
    8 -116133    2    4       600   0.00000   pspcod,pspxc,lmax,lloc,mmax,r2well
    5.99000000000000    2.50000000000000    0.00000000000000   rchrg,fchrg,qchrg
     nproj     2     2     2
     extension_switch     1
  pspatm : epsatm=   14.76919902
         --- l  ekb(1:nproj) -->
             0   11.321950    1.254474
             1    1.946894   -0.084268
             2   -5.237105   -1.488377
 pspatm: atomic psp has been read  and splines computed

- pspini: atom type   2  psp file is /scratch/users/j/a/jabreu/pseudos/PBEsol/Fe.psp8
- pspatm: opening atomic psp file    /scratch/users/j/a/jabreu/pseudos/PBEsol/Fe.psp8
- Fe    ONCVPSP-3.3.0  r_core=   1.26437   1.20546   1.56719
- 26.00000  16.00000    180112                znucl, zion, pspdat
    8 -116133    2    4       600   0.00000   pspcod,pspxc,lmax,lloc,mmax,r2well
    5.99000000000000    3.00000000000000    0.00000000000000   rchrg,fchrg,qchrg
     nproj     2     2     2
     extension_switch     1
  pspatm : epsatm=   15.04792780
         --- l  ekb(1:nproj) -->
             0   10.133364    1.456638
             1    1.580231   -0.508538
             2   -5.545701   -2.037616
 pspatm: atomic psp has been read  and splines computed

- pspini: atom type   3  psp file is /scratch/users/j/a/jabreu/pseudos/PBEsol/Se.psp8
- pspatm: opening atomic psp file    /scratch/users/j/a/jabreu/pseudos/PBEsol/Se.psp8
- Se    ONCVPSP-3.3.0  r_core=   1.81943   1.50330   1.90835
- 34.00000  16.00000    180112                znucl, zion, pspdat
    8 -116133    2    4       600   0.00000   pspcod,pspxc,lmax,lloc,mmax,r2well
    5.99000000000000    5.00000000000000    0.00000000000000   rchrg,fchrg,qchrg
     nproj     2     2     2
     extension_switch     1
  pspatm : epsatm=   29.17862020
         --- l  ekb(1:nproj) -->
             0    8.973804    1.019550
             1    6.849857    1.297308
             2   -9.203962   -3.731027
 pspatm: atomic psp has been read  and splines computed

   2.59581287E+03                                ecore*ucvol(ha*bohr**3)

-inwffil : will read wavefunctions from disk file /scratch/users/j/a/jabreu/flow_simple/flow/w149/t1/indata/in_WFK

 ==>  initialize data related to q vector <==

 The list of irreducible perturbations for this q vector is:
    1)    idir= 1    ipert=   4
    2)    idir= 2    ipert=   4
    3)    idir= 3    ipert=   4

 Perturbation wavevector (in red.coord.)   0.000000  0.000000  0.000000
 Perturbation : derivative vs k along direction   1

 dfpt_looppert : COMMENT -
  In a d/dk calculation, iscf is set to -3 automatically.
 The set of symmetries contains only one element for this perturbation.
 symkpt : not enough symmetry to change the number of k points.

[...]

 Initialisation of the first-order wave-functions :
  ireadwf=   0

--- !BeginCycle
iteration_state: {dtset: 1, }
solver: {iscf: 7, nstep: 100, nline: 4, wfoptalg: 0, }
tolerances: {tolwfr: 1.00E-20, }
...

     iter   2DEtotal(Ha)        deltaE(Ha) residm    vres2
-ETOT  1  -75.674487239824     -7.567E+01 1.683E-01 0.000E+00
 ETOT  2  -75.772566012613     -9.808E-02 5.392E-03 0.000E+00
 ETOT  3  -75.774065720779     -1.500E-03 3.172E-04 0.000E+00
 ETOT  4  -75.774108828433     -4.311E-05 1.471E-05 0.000E+00
 ETOT  5  -75.774110248426     -1.420E-06 1.367E-06 0.000E+00
 ETOT  6  -75.774110297888     -4.946E-08 8.052E-08 0.000E+00
 ETOT  7  -75.774110299673     -1.786E-09 7.754E-09 0.000E+00
 ETOT  8  -75.774110299739     -6.594E-11 4.805E-10 0.000E+00
 ETOT  9  -75.774110299742     -2.487E-12 4.623E-11 0.000E+00
 ETOT 10  -75.774110299742     -1.137E-13 2.919E-12 0.000E+00
 ETOT 11  -75.774110299742      0.000E+00 2.811E-13 0.000E+00
 ETOT 12  -75.774110299742      2.842E-14 1.792E-14 0.000E+00
 ETOT 13  -75.774110299742     -7.105E-14 1.728E-15 0.000E+00
 ETOT 14  -75.774110299742      4.263E-14 1.108E-16 0.000E+00
 ETOT 15  -75.774110299742      0.000E+00 1.070E-17 0.000E+00
 ETOT 16  -75.774110299742      0.000E+00 6.893E-19 0.000E+00
 ETOT 17  -75.774110299742      0.000E+00 6.670E-20 0.000E+00
 ETOT 18  -75.774110299742      0.000E+00 9.822E-21 0.000E+00

 At SCF step   18   max residual=  9.82E-21 < tolwfr=  1.00E-20 =>converged.

 ----iterations are completed or convergence reached----

 dfpt_looppert: DFPT cycle converged with prtwf=-1. Will skip output of the 1st-order WFK file.
 dfpt_looppert : ek2=    9.5263448089E+01
          f-sum rule ratio=    1.0404713711E+00
 prteigrs : about to open file /scratch/users/j/a/jabreu/flow_simple/flow/w149/t1/tmpdata/tmp_1WF1_EIG
 Expectation of eigenvalue derivatives (hartree) for nkpt=   2  k points:
  (in case of degenerate eigenvalues, averaged derivative)
 kpt#   1, nband= 31, wtk=  0.50000, kpt=  0.5000  0.5000  0.5000 (reduced coord)
   0.00000   -0.00000    0.00000    0.00000    0.00000    0.00000   -0.00000   -0.00000
  -0.00000   -0.00000    0.00000    0.00000    0.00000    0.00000   -0.00000    0.00000
   0.00000   -0.00000   -0.00000    0.00000    0.00000    0.00000    0.00000    0.00000
   0.00000    0.00000   -0.00000   -0.00000   -0.00000   -0.00000   -0.00000
 prteigrs : prtvol=0 or 1, do not print more k-points.

 Eight components of 2nd-order total energy (hartree) are
 1,2,3: 0th-order hamiltonian combined with 1st-order wavefunctions
     kin0=   7.70424901E+01 eigvalue=   4.64724335E+00  local=  -2.91305498E+01
 4,5,6: 1st-order hamiltonian combined with 1st and 0th-order wfs
     kin1=  -9.91188905E+01  Hartree=   0.00000000E+00     xc=   0.00000000E+00
 7,8,9: eventually, occupation + non-local contributions
    edocc=   1.86805187E+01     enl0=   4.53440802E+00   enl1=  -5.24293301E+01
 1-9 gives the relaxation energy (to be shifted if some occ is /=2.0)
   erelax=  -7.57741103E+01
  No Ewald or frozen-wf contrib.: the relaxation energy is the total one
 2DEtotal=   -0.7577411030E+02 Ha. Also 2DEtotal=   -0.206191840202E+04 eV
    (  non-var. 2DEtotal :   -7.5774110299E+01 Ha)

 Perturbation wavevector (in red.coord.)   0.000000  0.000000  0.000000
 Perturbation : derivative vs k along direction   2
 The set of symmetries contains only one element for this perturbation.
 symkpt : not enough symmetry to change the number of k points.

[...]

 Perturbation wavevector (in red.coord.)   0.000000  0.000000  0.000000
 Perturbation : derivative vs k along direction   3
 The set of symmetries contains only one element for this perturbation.
 symkpt : not enough symmetry to change the number of k points.

-inwffil : will read wavefunctions from disk file /scratch/users/j/a/jabreu/flow_simple/flow/w149/t1/indata/in_WFK

 Initialisation of the first-order wave-functions :
  ireadwf=   0

--- !BeginCycle
iteration_state: {dtset: 1, }
solver: {iscf: 7, nstep: 100, nline: 4, wfoptalg: 0, }
tolerances: {tolwfr: 1.00E-20, }
...

     iter   2DEtotal(Ha)        deltaE(Ha) residm    vres2
-ETOT  1  -75.673032663496     -7.567E+01 1.683E-01 0.000E+00
 ETOT  2  -75.772537592868     -9.950E-02 7.023E-03 0.000E+00
 ETOT  3  -75.774065053372     -1.527E-03 4.795E-04 0.000E+00
 ETOT  4  -75.774108792024     -4.374E-05 3.537E-05 0.000E+00
 ETOT  5  -75.774110225177     -1.433E-06 2.546E-06 0.000E+00
 ETOT  6  -75.774110274884     -4.971E-08 2.207E-07 0.000E+00
 ETOT  7  -75.774110276672     -1.788E-09 1.685E-08 0.000E+00
 ETOT  8  -75.774110276738     -6.584E-11 1.489E-09 0.000E+00
 ETOT  9  -75.774110276741     -2.487E-12 1.143E-10 0.000E+00
 ETOT 10  -75.774110276741     -1.137E-13 1.013E-11 0.000E+00
 ETOT 11  -75.774110276741      2.842E-14 7.812E-13 0.000E+00
 ETOT 12  -75.774110276741      0.000E+00 6.926E-14 0.000E+00
 ETOT 13  -75.774110276741      1.421E-14 5.360E-15 0.000E+00
 ETOT 14  -75.774110276741      0.000E+00 4.748E-16 0.000E+00
 ETOT 15  -75.774110276741     -2.842E-14 3.685E-17 0.000E+00
 ETOT 16  -75.774110276741      0.000E+00 3.262E-18 0.000E+00
 ETOT 17  -75.774110276741      0.000E+00 2.538E-19 0.000E+00
 ETOT 18  -75.774110276741      0.000E+00 2.244E-20 0.000E+00
 ETOT 19  -75.774110276741      0.000E+00 9.822E-21 0.000E+00

 At SCF step   19   max residual=  9.82E-21 < tolwfr=  1.00E-20 =>converged.

 ----iterations are completed or convergence reached----

 dfpt_looppert: DFPT cycle converged with prtwf=-1. Will skip output of the 1st-order WFK file.
 dfpt_looppert : ek2=    9.5263448087E+01
          f-sum rule ratio=    1.0404713707E+00
 prteigrs : about to open file /scratch/users/j/a/jabreu/flow_simple/flow/w149/t1/tmpdata/tmp_1WF1_EIG
 Expectation of eigenvalue derivatives (hartree) for nkpt=   2  k points:
  (in case of degenerate eigenvalues, averaged derivative)
 kpt#   1, nband= 31, wtk=  0.50000, kpt=  0.5000  0.5000  0.5000 (reduced coord)
  -0.00000    0.00000   -0.00000   -0.00000   -0.00000    0.00000    0.00000    0.00000
  -0.00000   -0.00000    0.00000   -0.00000   -0.00000    0.00000    0.00000   -0.00000
  -0.00000    0.00000    0.00000   -0.00000    0.00000    0.00000   -0.00000   -0.00000
  -0.00000   -0.00000   -0.00000   -0.00000   -0.00000   -0.00000    0.00000
 prteigrs : prtvol=0 or 1, do not print more k-points.

 Eight components of 2nd-order total energy (hartree) are
 1,2,3: 0th-order hamiltonian combined with 1st-order wavefunctions
     kin0=   7.70424903E+01 eigvalue=   4.64724333E+00  local=  -2.91305500E+01
 4,5,6: 1st-order hamiltonian combined with 1st and 0th-order wfs
     kin1=  -9.91188904E+01  Hartree=   0.00000000E+00     xc=   0.00000000E+00
 7,8,9: eventually, occupation + non-local contributions
    edocc=   1.86805184E+01     enl0=   4.53440822E+00   enl1=  -5.24293301E+01
 1-9 gives the relaxation energy (to be shifted if some occ is /=2.0)
   erelax=  -7.57741103E+01
  No Ewald or frozen-wf contrib.: the relaxation energy is the total one
 2DEtotal=   -0.7577411028E+02 Ha. Also 2DEtotal=   -0.206191840139E+04 eV
    (  non-var. 2DEtotal :   -7.5774110276E+01 Ha)

 CALCULATION OF EFFECTIVE MASSES
 NOTE : Additional infos (eff. mass eigenvalues, eigenvectors and, if degenerate, average mass) are available in stdout.

 COMMENTS:
 - At k-point ( 0.500, 0.500, 0.500), bands    21 through    22
   are DEGENERATE (effective mass tensor is therefore not defined).
   See Section IIIB Eqs. (67)-(70) and Appendix E of PRB 93 205147 (2016).
 - Angular average effective mass for Frohlich model is to be averaged over degenerate bands. See later.
 - Associated theta integrals calculated with ntheta=   1000 points.

 K-point ( 0.500, 0.500, 0.500) | band =    21
 Transport equivalent effective mass tensor:
             -0.9509238603             -0.0425078134             -0.1041218873
             -0.0425078134             -0.9208668454             -0.0736255477
             -0.1041218873             -0.0736255477             -1.0711514774
 Transport equivalent effective mass tensor eigenvalues:
             -1.1613245918             -0.8908091128             -0.8908084784
 Angular average effective mass 1/(<1/m>)=  -0.9628007016
 Angular average effective mass for Frohlich model (<m**0.5>)**2=  -0.9672195501
 Effective masses along directions: (cart. coord. / red. coord. -> eff. mass)
    1:   1.000000  0.000000  0.000000 /   0.948683  0.316228  0.000000 ->  -0.9247312209
    2:   0.000000  1.000000  0.000000 /   0.000000  1.000000  0.000000 ->  -0.8969257933
    3:   0.000000  0.000000  1.000000 /   0.408248  0.408248  0.816497 ->  -1.0239834630
    4:   0.577350  0.577350  0.577350 /   0.585539  0.688047  0.428644 ->  -1.1182984597
    5:   0.000000  0.707107  0.707107 /   0.289489  0.762222  0.578977 ->  -1.0576865683
    6:   0.707107  0.000000  0.707107 /   0.731423  0.422287  0.535439 ->  -1.0872358118
    7:   0.707107  0.707107  0.000000 /   0.616798  0.787122  0.000000 ->  -0.9823633139

 K-point ( 0.500, 0.500, 0.500) | band =    22
 Transport equivalent effective mass tensor:
             -1.2845889859              0.0215439029              0.0527713100
              0.0215439029             -1.2998222117              0.0373151874
              0.0527713100              0.0373151874             -1.2236559939
 Transport equivalent effective mass tensor eigenvalues:
             -1.3150571647             -1.3150562390             -1.1779537877
 Angular average effective mass 1/(<1/m>)=  -1.2598241665
 Angular average effective mass for Frohlich model (<m**0.5>)**2=  -1.2612503403
 Effective masses along directions: (cart. coord. / red. coord. -> eff. mass)
    1:   1.000000  0.000000  0.000000 /   0.948683  0.316228  0.000000 ->  -1.2989216385
    2:   0.000000  1.000000  0.000000 /   0.000000  1.000000  0.000000 ->  -1.3241318040
    3:   0.000000  0.000000  1.000000 /   0.408248  0.408248  0.816497 ->  -1.2512197503
    4:   0.577350  0.577350  0.577350 /   0.585539  0.688047  0.428644 ->  -1.1820115846
    5:   0.000000  0.707107  0.707107 /   0.289489  0.762222  0.578977 ->  -1.2029472125
    6:   0.707107  0.000000  0.707107 /   0.731423  0.422287  0.535439 ->  -1.2071286170
    7:   0.707107  0.707107  0.000000 /   0.616798  0.787122  0.000000 ->  -1.2253951629

 Angular average effective mass for Frohlich model, averaged over degenerate bands.
 Value of     (<<m**0.5>>)**2 =     1.109364E+00
 Absolute Value of <<m**0.5>> =     1.053264E+00

 K-point ( 0.500, 0.000, 0.500) | band =    23
 Effective mass tensor:
              0.5868301432             -0.0255932590              0.0313452129
             -0.0255932590              0.6049273101             -0.0443288251
              0.0313452129             -0.0443288251              0.6230244771
 Effective mass tensor eigenvalues:
              0.5687329759              0.5687329762              0.6773159784
 Angular average effective mass 1/(<1/m>)=   0.6008406292
 Angular average effective mass for Frohlich model (<m**0.5>)**2=   0.6020259688
 Effective masses along directions: (cart. coord. / red. coord. -> eff. mass)
    1:   1.000000  0.000000  0.000000 /   0.948683  0.316228  0.000000 ->   0.5843460860
    2:   0.000000  1.000000  0.000000 /   0.000000  1.000000  0.000000 ->   0.6008406291
    3:   0.000000  0.000000  1.000000 /   0.408248  0.408248  0.816497 ->   0.6182934156
    4:   0.577350  0.577350  0.577350 /   0.585539  0.688047  0.428644 ->   0.5776680871
    5:   0.000000  0.707107  0.707107 /   0.289489  0.762222  0.578977 ->   0.5695015643
    6:   0.707107  0.000000  0.707107 /   0.731423  0.422287  0.535439 ->   0.6317265022
    7:   0.707107  0.707107  0.000000 /   0.616798  0.787122  0.000000 ->   0.5700395770

 END OF EFFECTIVE MASSES SECTION

 ---- first-order wavefunction calculations are completed ----

 Total localisation tensor (bohr^2) in cartesian coordinates
  WARNING : still subject to testing - especially symmetries.
      direction              matrix element
   alpha     beta       real part   imaginary part
     1        1       1.2363240008    0.0000000000
     1        2       0.3496852339    0.0000000000
     1        3       0.8565503936    0.0000000000
     2        1       0.3496852339    0.0000000000
     2        2       0.9890592007    0.0000000000
     2        3       0.6056725917    0.0000000000
     3        1       0.8565503936    0.0000000000
     3        2       0.6056725917    0.0000000000
     3        3       2.2253832009    0.0000000000

 respfn : d/dk was computed, but no 2DTE, so no DDB output.

== END DATASET(S) ==============================================================

 -outvars: echo values of variables after computation  --------
            acell      1.0000000000E+00  1.0000000000E+00  1.0000000000E+00 Bohr
              amu      4.78800000E+01  5.58470000E+01  7.89600000E+01
             ecut      4.70000000E+01 Hartree
           etotal     -7.5774110277E+01
            fcart      0.0000000000E+00  0.0000000000E+00  0.0000000000E+00
                       0.0000000000E+00  0.0000000000E+00  0.0000000000E+00
                       0.0000000000E+00  0.0000000000E+00  0.0000000000E+00
-          fftalg         512
           irdden           1
           irdwfk           1
           istwfk        1    1
              ixc     -116133
              kpt      5.00000000E-01  5.00000000E-01  5.00000000E-01
                       5.00000000E-01  1.23259516E-32  5.00000000E-01
           kptopt           0
P           mkmem           2
P          mkqmem           2
P          mk1mem           2
            natom           3
            nband          31
           nbdbuf           4
            ngfft          48      48      48
             nkpt           2
            nstep         100
             nsym          24
           ntypat           3
              occ      2.000000  2.000000  2.000000  2.000000  2.000000  2.000000
                       2.000000  2.000000  2.000000  2.000000  2.000000  2.000000
                       2.000000  2.000000  2.000000  2.000000  2.000000  2.000000
                       2.000000  2.000000  2.000000  2.000000  0.000000  0.000000
                       0.000000  0.000000  0.000000  0.000000  0.000000  0.000000
                       0.000000
        optdriver           1
            prtwf          -1
            rfdir           1       1       1
           rfelfd           2
            rprim      6.4052239257E+00  0.0000000000E+00  3.6980577577E+00
                       2.1350746419E+00  6.0389030305E+00  3.6980577577E+00
                       0.0000000000E+00  0.0000000000E+00  7.3961155155E+00
          spgroup         216
           strten      0.0000000000E+00  0.0000000000E+00  0.0000000000E+00
                       0.0000000000E+00  0.0000000000E+00  0.0000000000E+00
           symrel      1  0  0   0  1  0   0  0  1       0 -1  1   0 -1  0   1 -1  0
                      -1  0  0  -1  0  1  -1  1  0       0  1 -1   1  0 -1   0  0 -1
                      -1  0  0  -1  1  0  -1  0  1       0 -1  1   1 -1  0   0 -1  0
                       1  0  0   0  0  1   0  1  0       0  1 -1   0  0 -1   1  0 -1
                      -1  0  1  -1  1  0  -1  0  0       0 -1  0   1 -1  0   0 -1  1
                       1  0 -1   0  0 -1   0  1 -1       0  1  0   0  0  1   1  0  0
                       1  0 -1   0  1 -1   0  0 -1       0 -1  0   0 -1  1   1 -1  0
                      -1  0  1  -1  0  0  -1  1  0       0  1  0   1  0  0   0  0  1
                       0  0 -1   0  1 -1   1  0 -1       1 -1  0   0 -1  1   0 -1  0
                       0  0  1   1  0  0   0  1  0      -1  1  0  -1  0  0  -1  0  1
                       0  0  1   0  1  0   1  0  0       1 -1  0   0 -1  0   0 -1  1
                       0  0 -1   1  0 -1   0  1 -1      -1  1  0  -1  0  1  -1  0  0
           tolwfr      1.00000000E-20
            typat      1  2  3
           useylm           1
              wtk        0.50000    0.50000
           xangst      2.2596656783E+00  1.5978249243E+00  3.9138557629E+00
                       1.1298328391E+00  7.9891246216E-01  1.9569278814E+00
                       0.0000000000E+00  0.0000000000E+00  0.0000000000E+00
            xcart      4.2701492838E+00  3.0194515153E+00  7.3961155154E+00
                       2.1350746419E+00  1.5097257576E+00  3.6980577577E+00
                       0.0000000000E+00  0.0000000000E+00  0.0000000000E+00
             xred      5.0000000000E-01  5.0000000000E-01  5.0000000000E-01
                       2.5000000000E-01  2.5000000000E-01  2.5000000000E-01
                       0.0000000000E+00  0.0000000000E+00  0.0000000000E+00
            znucl       22.00000   26.00000   34.00000

- Timing analysis has been suppressed with timopt=0

 Suggested references for the acknowledgment of ABINIT usage.

 Calculation completed.
.Delivered  14 WARNINGs and   9 COMMENTs to log file.