.Version 9.5.2 of ABINIT

 ABINIT is a project of the Universite Catholique de Louvain,
 Corning Inc. and other collaborators, see ~abinit/doc/developers/contributors.txt .
 acknowledgments of the ABINIT effort.

.Starting date : Mon 24 May 2021.
- ( at 23h17 )

- input  file    -> /scratch/users/j/a/jabreu/flow_simple_10atoms/flow/w490/t1/run.abi
- output file    -> /scratch/users/j/a/jabreu/flow_simple_10atoms/flow/w490/t1/run.abo
- root for input  files -> /scratch/users/j/a/jabreu/flow_simple_10atoms/flow/w490/t1/indata/in
- root for output files -> /scratch/users/j/a/jabreu/flow_simple_10atoms/flow/w490/t1/outdata/out

 Symmetries : space group R-3 c (#167); Bravais hR (rhombohedral)
     intxc =       0      iscf =       7    lmnmax =      18     lnmax =       6
     mgfft =      64  mpssoang =       3    mqgrid =    3001     natom =      10
  nloc_mem =       1    nspden =       1   nspinor =       1    nsppol =       1
      nsym =      12    n1xccc =    2501    ntypat =       3    occopt =       1
   xclevel =       2
-    mband =          51        mffmem =           1         mkmem =           2
-   mkqmem =           2        mk1mem =           2           mpw =        8754
      nfft =      262144          nkpt =           2
  Rough estimation (10% accuracy) of disk space for files :

------------- Echo of variables that govern the present computation ------------
-
- outvars: echo of selected default values
-   iomode0 =  0 , fftalg0 =512 , wfoptalg0 =  0
-
- outvars: echo of global parameters not present in the input file
-  max_nthreads =    0
-
 -outvars: echo values of preprocessed input variables --------
            acell      1.0000000000E+00  1.0000000000E+00  1.0000000000E+00 Bohr
              amu      6.53900000E+01  1.20110000E+01  1.59994000E+01
             ecut      4.40000000E+01 Hartree
-          fftalg         512
           irdden           1
           irdwfk           1
           istwfk        1    0
              ixc     -116133
              kpt      5.00000000E-01  5.00000000E-01  0.00000000E+00
                       3.25000000E-01  3.25000000E-01  3.25000000E-01
           kptopt           0
P           mkmem           2
P          mkqmem           2
P          mk1mem           2
            natom          10
            nband          51
           nbdbuf           4
            ngfft          64      64      64
             nkpt           2
            nstep        2000
             nsym          12
           ntypat           3
              occ      2.000000  2.000000  2.000000  2.000000  2.000000  2.000000
                       2.000000  2.000000  2.000000  2.000000  2.000000  2.000000
                       2.000000  2.000000  2.000000  2.000000  2.000000  2.000000
                       2.000000  2.000000  2.000000  2.000000  2.000000  2.000000
                       2.000000  2.000000  2.000000  2.000000  2.000000  2.000000
                       2.000000  2.000000  2.000000  2.000000  2.000000  2.000000
                       2.000000  2.000000  2.000000  2.000000  2.000000  2.000000
                       0.000000  0.000000  0.000000  0.000000  0.000000  0.000000
                       0.000000  0.000000  0.000000
        optdriver           1
            prtwf          -1
            rfdir           1       1       1
           rfelfd           2
            rprim      8.0056016941E+00  0.0000000000E+00  7.0181346943E+00
                       3.1806489519E+00  7.3466407785E+00  7.0181346943E+00
                       0.0000000000E+00  0.0000000000E+00  1.0646307955E+01
          spgroup         167
           symrel      1  0  0   0  1  0   0  0  1      -1  0  0   0 -1  0   0  0 -1
                       0  1  0   1  0  0   0  0  1       0 -1  0  -1  0  0   0  0 -1
                       0  0  1   1  0  0   0  1  0       0  0 -1  -1  0  0   0 -1  0
                       1  0  0   0  0  1   0  1  0      -1  0  0   0  0 -1   0 -1  0
                       0  1  0   0  0  1   1  0  0       0 -1  0   0  0 -1  -1  0  0
                       0  0  1   0  1  0   1  0  0       0  0 -1   0 -1  0  -1  0  0
            tnons      0.0000000  0.0000000  0.0000000     0.0000000  0.0000000  0.0000000
                       0.5000000  0.5000000  0.5000000     0.5000000  0.5000000  0.5000000
                       0.0000000 -0.0000000  0.0000000     0.0000000  0.0000000  0.0000000
                       0.5000000  0.5000000  0.5000000     0.5000000  0.5000000  0.5000000
                      -0.0000000  0.0000000  0.0000000     0.0000000  0.0000000  0.0000000
                       0.5000000  0.5000000  0.5000000     0.5000000  0.5000000  0.5000000
           tolwfr      1.00000000E-20
            typat      1  1  2  2  3  3  3  3  3  3
           useylm           1
              wtk        0.50000    0.50000
           xangst      2.9597544457E+00  1.9438374298E+00  6.5307286897E+00
                       0.0000000000E+00  0.0000000000E+00  0.0000000000E+00
                       4.4396316686E+00  2.9157561448E+00  9.7960930346E+00
                       1.4798772229E+00  9.7191871492E-01  3.2653643449E+00
                       3.9731530389E+00  1.8382870574E+00  4.6944227089E+00
                       1.3773629706E+00  2.9157561448E+00  5.5501429078E+00
                       3.8706387865E+00  3.7821244872E+00  6.9792012719E+00
                       1.9463558526E+00  2.0493878023E+00  8.3670346705E+00
                       4.5421459209E+00  9.7191871492E-01  7.5113144716E+00
                       2.0488701049E+00  1.0555037244E-01  6.0822561075E+00
            xcart      5.5931253230E+00  3.6733203893E+00  1.2341288672E+01
                       0.0000000000E+00  0.0000000000E+00  0.0000000000E+00
                       8.3896879845E+00  5.5099805839E+00  1.8511933008E+01
                       2.7965626615E+00  1.8366601946E+00  6.1706443359E+00
                       7.5081711275E+00  3.4738590921E+00  8.8711732719E+00
                       2.6028387999E+00  5.5099805839E+00  1.0488250094E+01
                       7.3144472659E+00  7.1471794814E+00  1.3188779030E+01
                       3.6780795185E+00  3.8727816864E+00  1.5811404072E+01
                       8.5834118461E+00  1.8366601946E+00  1.4194327249E+01
                       3.8718033801E+00  1.9946129714E-01  1.1493798313E+01
             xred      5.0000000000E-01  5.0000000000E-01  5.0000000000E-01
                       0.0000000000E+00  0.0000000000E+00  0.0000000000E+00
                       7.5000000000E-01  7.5000000000E-01  7.5000000000E-01
                       2.5000000000E-01  2.5000000000E-01  2.5000000000E-01
                       7.5000000000E-01  4.7285000000E-01  2.7150000000E-02
                       2.7150000000E-02  7.5000000000E-01  4.7285000000E-01
                       5.2715000000E-01  9.7285000000E-01  2.5000000000E-01
                       2.5000000000E-01  5.2715000000E-01  9.7285000000E-01
                       9.7285000000E-01  2.5000000000E-01  5.2715000000E-01
                       4.7285000000E-01  2.7150000000E-02  7.5000000000E-01
            znucl       30.00000    6.00000    8.00000

 chkinp: Checking input parameters for consistency.

== DATASET  1 ==================================================================
-   mpi_nproc: 1, omp_nthreads: -1 (-1 if OMP is not activated)

--- !DatasetInfo
iteration_state: {dtset: 1, }
dimensions: {natom: 10, nkpt: 2, mband: 51, nsppol: 1, nspinor: 1, nspden: 1, mpw: 8754, }
cutoff_energies: {ecut:  44.0, pawecutdg:  -1.0, }
electrons: {nelect:   8.40000000E+01, charge:   0.00000000E+00, occopt:   1.00000000E+00, tsmear:   1.00000000E-02, }
meta: {optdriver: 1, rfelfd: 2, }
...

 Real(R)+Recip(G) space primitive vectors, cartesian coordinates (Bohr,Bohr^-1):
 R(1)=  8.0056017  0.0000000  7.0181347  G(1)=  0.1249125 -0.0540795  0.0000000
 R(2)=  3.1806490  7.3466408  7.0181347  G(2)=  0.0000000  0.1361166  0.0000000
 R(3)=  0.0000000  0.0000000 10.6463080  G(3)= -0.0823434 -0.0540795  0.0939293
 Unit cell volume ucvol=  6.2615494E+02 bohr^3
 Angles (23,13,12)=  4.87604779E+01  4.87604779E+01  4.87604779E+01 degrees

 getcut: wavevector=  0.0000  0.0000  0.0000  ngfft=  64  64  64
         ecut(hartree)=     44.000   => boxcut(ratio)=   2.01323

--- Pseudopotential description ------------------------------------------------
- pspini: atom type   1  psp file is /scratch/users/j/a/jabreu/pseudos/PBEsol/Zn.psp8
- pspatm: opening atomic psp file    /scratch/users/j/a/jabreu/pseudos/PBEsol/Zn.psp8
- Zn    ONCVPSP-3.3.0  r_core=   1.35823   1.66358   1.85211
- 30.00000  20.00000    180112                znucl, zion, pspdat
    8 -116133    2    4       600   0.00000   pspcod,pspxc,lmax,lloc,mmax,r2well
    5.99000000000000    2.50000000000000    0.00000000000000   rchrg,fchrg,qchrg
     nproj     2     2     2
     extension_switch     1
  pspatm : epsatm=   26.57343589
         --- l  ekb(1:nproj) -->
             0    2.830835   -1.519107
             1   -4.626739   -1.324150
             2   -6.948510   -2.555500
 pspatm: atomic psp has been read  and splines computed

- pspini: atom type   2  psp file is /scratch/users/j/a/jabreu/pseudos/PBEsol/C.psp8
- pspatm: opening atomic psp file    /scratch/users/j/a/jabreu/pseudos/PBEsol/C.psp8
- C     ONCVPSP-3.3.0  r_core=   1.20440   1.26326
-  6.00000   4.00000    180112                znucl, zion, pspdat
    8 -116133    1    4       600   0.00000   pspcod,pspxc,lmax,lloc,mmax,r2well
    5.99000000000000    4.00000000000000    0.00000000000000   rchrg,fchrg,qchrg
     nproj     2     2
     extension_switch     1
  pspatm : epsatm=    4.34909529
         --- l  ekb(1:nproj) -->
             0    6.468939    0.390031
             1   -4.179695   -0.878453
 pspatm: atomic psp has been read  and splines computed

- pspini: atom type   3  psp file is /scratch/users/j/a/jabreu/pseudos/PBEsol/O.psp8
- pspatm: opening atomic psp file    /scratch/users/j/a/jabreu/pseudos/PBEsol/O.psp8
- O     ONCVPSP-3.3.0  r_core=   1.35509   1.45563   1.26150
-  8.00000   6.00000    180112                znucl, zion, pspdat
    8 -116133    2    4       600   0.00000   pspcod,pspxc,lmax,lloc,mmax,r2well
    5.99000000000000    4.00000000000000    0.00000000000000   rchrg,fchrg,qchrg
     nproj     2     2     1
     extension_switch     1
  pspatm : epsatm=    6.22910522
         --- l  ekb(1:nproj) -->
             0    6.050032    0.820363
             1   -4.739617   -1.153841
             2   -1.335834
 pspatm: atomic psp has been read  and splines computed

   8.33445427E+03                                ecore*ucvol(ha*bohr**3)

 ==>  initialize data related to q vector <==

 The list of irreducible perturbations for this q vector is:
    1)    idir= 1    ipert=  11
    2)    idir= 2    ipert=  11
    3)    idir= 3    ipert=  11

 Perturbation wavevector (in red.coord.)   0.000000  0.000000  0.000000
 Perturbation : derivative vs k along direction   1

 dfpt_looppert : COMMENT -
  In a d/dk calculation, iscf is set to -3 automatically.
 The set of symmetries contains only one element for this perturbation.
[...]
 ETOT  7  -70.413693373257     -7.938E-11 7.628E-04 0.000E+00
 ETOT  8  -70.413693373259     -1.648E-12 4.235E-04 0.000E+00
 ETOT  9  -70.413693373259     -5.684E-14 3.098E-04 0.000E+00
 ETOT 10  -70.413693373259     -2.842E-14 1.645E-04 0.000E+00
 ETOT 11  -70.413693373259     -5.684E-14 1.317E-04 0.000E+00
 ETOT 12  -70.413693373259      5.684E-14 6.644E-05 0.000E+00
 ETOT 13  -70.413693373259     -2.842E-14 5.668E-05 0.000E+00
 ETOT 14  -70.413693373259      1.421E-14 2.740E-05 0.000E+00
 ETOT 15  -70.413693373259      0.000E+00 2.446E-05 0.000E+00
 ETOT 16  -70.413693373259     -1.421E-14 1.147E-05 0.000E+00
 ETOT 17  -70.413693373259      1.421E-14 1.057E-05 0.000E+00
 ETOT 18  -70.413693373259     -1.421E-14 4.858E-06 0.000E+00
 ETOT 19  -70.413693373259      1.421E-14 4.564E-06 0.000E+00
 ETOT 20  -70.413693373259     -1.421E-14 2.078E-06 0.000E+00
 ETOT 21  -70.413693373259      2.842E-14 1.969E-06 0.000E+00
 ETOT 22  -70.413693373259      0.000E+00 8.952E-07 0.000E+00
 ETOT 23  -70.413693373259      0.000E+00 8.483E-07 0.000E+00
 ETOT 24  -70.413693373259     -2.842E-14 3.876E-07 0.000E+00
 ETOT 25  -70.413693373259      2.842E-14 3.643E-07 0.000E+00
 ETOT 26  -70.413693373259      0.000E+00 1.681E-07 0.000E+00
 ETOT 27  -70.413693373259     -1.421E-14 1.558E-07 0.000E+00
 ETOT 28  -70.413693373259     -4.263E-14 7.286E-08 0.000E+00
 ETOT 29  -70.413693373259      4.263E-14 6.643E-08 0.000E+00
 ETOT 30  -70.413693373259      0.000E+00 3.152E-08 0.000E+00
 ETOT 31  -70.413693373259     -1.421E-14 2.827E-08 0.000E+00
 ETOT 32  -70.413693373259      1.421E-14 1.361E-08 0.000E+00
 ETOT 33  -70.413693373259      0.000E+00 1.204E-08 0.000E+00
 ETOT 34  -70.413693373259      0.000E+00 5.881E-09 0.000E+00
 ETOT 35  -70.413693373259     -2.842E-14 5.154E-09 0.000E+00
 ETOT 36  -70.413693373259      2.842E-14 2.547E-09 0.000E+00
 ETOT 37  -70.413693373259     -2.842E-14 2.220E-09 0.000E+00
 ETOT 38  -70.413693373259      1.421E-14 1.107E-09 0.000E+00
 ETOT 39  -70.413693373259     -2.842E-14 9.625E-10 0.000E+00
 ETOT 40  -70.413693373259      0.000E+00 4.835E-10 0.000E+00
 ETOT 41  -70.413693373259      0.000E+00 4.201E-10 0.000E+00
 ETOT 42  -70.413693373259      2.842E-14 2.120E-10 0.000E+00
 ETOT 43  -70.413693373259      0.000E+00 1.843E-10 0.000E+00
 ETOT 44  -70.413693373259     -2.842E-14 9.331E-11 0.000E+00
 ETOT 45  -70.413693373259      1.421E-14 8.120E-11 0.000E+00
 ETOT 46  -70.413693373259      1.421E-14 4.117E-11 0.000E+00
 ETOT 47  -70.413693373259     -2.842E-14 3.587E-11 0.000E+00
 ETOT 48  -70.413693373259      1.421E-14 1.820E-11 0.000E+00
 ETOT 49  -70.413693373259     -1.421E-14 1.588E-11 0.000E+00
 ETOT 50  -70.413693373259      4.263E-14 8.060E-12 0.000E+00
 ETOT 51  -70.413693373259     -2.842E-14 7.040E-12 0.000E+00
 ETOT 52  -70.413693373259      0.000E+00 3.573E-12 0.000E+00
 ETOT 53  -70.413693373259      0.000E+00 3.124E-12 0.000E+00
 ETOT 54  -70.413693373259      0.000E+00 1.585E-12 0.000E+00
 ETOT 55  -70.413693373259      0.000E+00 1.387E-12 0.000E+00
 ETOT 56  -70.413693373259      0.000E+00 7.034E-13 0.000E+00
 ETOT 57  -70.413693373259      1.421E-14 6.161E-13 0.000E+00
 ETOT 58  -70.413693373259      0.000E+00 3.123E-13 0.000E+00
 ETOT 59  -70.413693373259      1.421E-14 2.738E-13 0.000E+00
 ETOT 60  -70.413693373259     -1.421E-14 1.387E-13 0.000E+00
 ETOT 61  -70.413693373259     -1.421E-14 1.217E-13 0.000E+00
[...]
 ETOT 88  -70.413693373259      0.000E+00 1.636E-18 0.000E+00
 ETOT 89  -70.413693373259      1.421E-14 1.439E-18 0.000E+00
 ETOT 90  -70.413693373259     -2.842E-14 7.279E-19 0.000E+00
 ETOT 91  -70.413693373259      1.421E-14 6.398E-19 0.000E+00
 ETOT 92  -70.413693373259      0.000E+00 3.238E-19 0.000E+00
 ETOT 93  -70.413693373259      0.000E+00 2.846E-19 0.000E+00
 ETOT 94  -70.413693373259      1.421E-14 1.440E-19 0.000E+00
 ETOT 95  -70.413693373259      0.000E+00 1.266E-19 0.000E+00
 ETOT 96  -70.413693373259      1.421E-14 6.407E-20 0.000E+00
 ETOT 97  -70.413693373259     -1.421E-14 5.631E-20 0.000E+00
 ETOT 98  -70.413693373259      1.421E-14 2.850E-20 0.000E+00
 ETOT 99  -70.413693373259     -1.421E-14 2.505E-20 0.000E+00
 ETOT  100  -70.413693373259      0.000E+00 1.268E-20 0.000E+00
 ETOT  101  -70.413693373259     -1.421E-14 1.114E-20 0.000E+00
 ETOT  102  -70.413693373259      0.000E+00 9.896E-21 0.000E+00

 At SCF step  102   max residual=  9.90E-21 < tolwfr=  1.00E-20 =>converged.

 ----iterations are completed or convergence reached----

 dfpt_looppert: DFPT cycle converged with prtwf=-1. Will skip output of the 1st-order WFK file.
 dfpt_looppert : ek2=    1.2288288761E+02
          f-sum rule ratio=    1.0159479261E+00
 prteigrs : about to open file /scratch/users/j/a/jabreu/flow_simple_10atoms/flow/w490/t1/tmpdata/tmp_1WF1_EIG
 Expectation of eigenvalue derivatives (hartree) for nkpt=   2  k points:
  (in case of degenerate eigenvalues, averaged derivative)
 kpt#   1, nband= 51, wtk=  0.50000, kpt=  0.5000  0.5000  0.0000 (reduced coord)
  -0.00000    0.00000    0.00000   -0.00000    0.00000    0.00000   -0.00000    0.00000
  -0.00000    0.00000    0.00000    0.00000    0.00000   -0.00000    0.00000    0.00000
   0.00000   -0.00000   -0.00000    0.00000   -0.00000    0.00000    0.00000    0.00000
  -0.00000   -0.00000    0.00000    0.00000   -0.00000   -0.00000   -0.00000    0.00000
  -0.00000    0.00000    0.00000    0.00000   -0.00000   -0.00000   -0.00000   -0.00000
   0.00000    0.00000    0.00000    0.00000    0.00000    0.00000    0.00000   -0.00000
  -0.00000   -0.00000   -0.00000
 prteigrs : prtvol=0 or 1, do not print more k-points.

 Eight components of 2nd-order total energy (hartree) are
 1,2,3: 0th-order hamiltonian combined with 1st-order wavefunctions
     kin0=   1.06467146E+02 eigvalue=   1.53139239E+00  local=  -3.99923269E+01
 4,5,6: 1st-order hamiltonian combined with 1st and 0th-order wfs
     kin1=  -1.24842615E+02  Hartree=   0.00000000E+00     xc=   0.00000000E+00
 7,8,9: eventually, occupation + non-local contributions
    edocc=   1.03540512E+01     enl0=  -7.94656977E+00   enl1=  -1.59847719E+01
 1-9 gives the relaxation energy (to be shifted if some occ is /=2.0)
   erelax=  -7.04136934E+01
  No Ewald or frozen-wf contrib.: the relaxation energy is the total one
 2DEtotal=   -0.7041369337E+02 Ha. Also 2DEtotal=   -0.191605403938E+04 eV
    (  non-var. 2DEtotal :   -7.0413693373E+01 Ha)

 CALCULATION OF EFFECTIVE MASSES
 NOTE : Additional infos (eff. mass eigenvalues, eigenvectors and, if degenerate, average mass) are available in stdout.

 K-point ( 0.500, 0.500, 0.000) | band =    42
 Effective mass tensor:
             -3.3618246405              1.9024833837             -1.3292709255
              1.9024833837             -5.0091309228             -0.8730132075
             -1.3292709255             -0.8730132075             -2.5368226808
 Effective mass tensor eigenvalues:
             -6.2586028436             -3.9290056448             -0.7201697557
 Angular average effective mass 1/(<1/m>)=  -1.6640237362
 Angular average effective mass for Frohlich model (<m**0.5>)**2=  -2.1959540366
 Effective masses along directions: (cart. coord. / red. coord. -> eff. mass)
    1:   1.000000  0.000000  0.000000 /   0.929338  0.369229  0.000000 ->  -1.4825325261
    2:   0.000000  1.000000  0.000000 /   0.000000  1.000000  0.000000 ->  -2.6191406549
    3:   0.000000  0.000000  1.000000 /   0.482175  0.482175  0.731446 ->  -1.3395258325
    4:   0.577350  0.577350  0.577350 /   0.590690  0.689836  0.418582 ->  -3.2525623273
    5:   0.000000  0.707107  0.707107 /   0.365377  0.747856  0.554266 ->  -3.9118259824
    6:   0.707107  0.000000  0.707107 /   0.713741  0.484520  0.505780 ->  -4.1537690798
    7:   0.707107  0.707107  0.000000 /   0.605316  0.795985  0.000000 ->  -1.1544357834

 K-point ( 0.325, 0.325, 0.325) | band =    43
 Effective mass tensor:
              0.6520597465              0.0515198891              0.1730918502
              0.0515198891              0.6074497851              0.1136791662
              0.1730918502              0.1136791662              0.9555427243
 Effective mass tensor eigenvalues:
              0.5736137725              0.5736137726              1.0678247109
 Angular average effective mass 1/(<1/m>)=   0.6782496755
 Angular average effective mass for Frohlich model (<m**0.5>)**2=   0.6937837667
 Effective masses along directions: (cart. coord. / red. coord. -> eff. mass)
    1:   1.000000  0.000000  0.000000 /   0.929338  0.369229  0.000000 ->   0.6190945267
    2:   0.000000  1.000000  0.000000 /   0.000000  1.000000  0.000000 ->   0.5923845801
    3:   0.000000  0.000000  1.000000 /   0.482175  0.482175  0.731446 ->   0.8930204811
    4:   0.577350  0.577350  0.577350 /   0.590690  0.689836  0.418582 ->   0.9040063522
    5:   0.000000  0.707107  0.707107 /   0.365377  0.747856  0.554266 ->   0.8207815602
    6:   0.707107  0.000000  0.707107 /   0.713741  0.484520  0.505780 ->   0.9217112373
    7:   0.707107  0.707107  0.000000 /   0.605316  0.795985  0.000000 ->   0.6379317182

 END OF EFFECTIVE MASSES SECTION

 ---- first-order wavefunction calculations are completed ----

 Total localisation tensor (bohr^2) in cartesian coordinates
  WARNING : still subject to testing - especially symmetries.
      direction              matrix element
   alpha     beta       real part   imaginary part
     1        1       0.6867143265    0.0000000000
     1        2       0.2162422873    0.0000000000
     1        3       0.7265111033    0.0000000000
     2        1       0.2162422873    0.0000000000
     2        2       0.4994749278    0.0000000000
     2        3       0.4771408356    0.0000000000
     3        1       0.7265111033    0.0000000000
     3        2       0.4771408356    0.0000000000
     3        3       1.9365796378    0.0000000000

 respfn : d/dk was computed, but no 2DTE, so no DDB output.

== END DATASET(S) ==============================================================

 -outvars: echo values of variables after computation  --------
            acell      1.0000000000E+00  1.0000000000E+00  1.0000000000E+00 Bohr
              amu      6.53900000E+01  1.20110000E+01  1.59994000E+01
             ecut      4.40000000E+01 Hartree
           etotal     -7.0413693373E+01
            fcart      0.0000000000E+00  0.0000000000E+00  0.0000000000E+00
                       0.0000000000E+00  0.0000000000E+00  0.0000000000E+00
                       0.0000000000E+00  0.0000000000E+00  0.0000000000E+00
                       0.0000000000E+00  0.0000000000E+00  0.0000000000E+00
                       0.0000000000E+00  0.0000000000E+00  0.0000000000E+00
                       0.0000000000E+00  0.0000000000E+00  0.0000000000E+00
                       0.0000000000E+00  0.0000000000E+00  0.0000000000E+00
                       0.0000000000E+00  0.0000000000E+00  0.0000000000E+00
                       0.0000000000E+00  0.0000000000E+00  0.0000000000E+00
                       0.0000000000E+00  0.0000000000E+00  0.0000000000E+00
-          fftalg         512
           irdden           1
           irdwfk           1
           istwfk        1    0
              ixc     -116133
              kpt      5.00000000E-01  5.00000000E-01  0.00000000E+00
                       3.25000000E-01  3.25000000E-01  3.25000000E-01
           kptopt           0
P           mkmem           2
P          mkqmem           2
P          mk1mem           2
            natom          10
            nband          51
           nbdbuf           4
            ngfft          64      64      64
             nkpt           2
            nstep        2000
             nsym          12
           ntypat           3
              occ      2.000000  2.000000  2.000000  2.000000  2.000000  2.000000
                       2.000000  2.000000  2.000000  2.000000  2.000000  2.000000
                       2.000000  2.000000  2.000000  2.000000  2.000000  2.000000
                       2.000000  2.000000  2.000000  2.000000  2.000000  2.000000
                       2.000000  2.000000  2.000000  2.000000  2.000000  2.000000
                       2.000000  2.000000  2.000000  2.000000  2.000000  2.000000
                       2.000000  2.000000  2.000000  2.000000  2.000000  2.000000
                       0.000000  0.000000  0.000000  0.000000  0.000000  0.000000
                       0.000000  0.000000  0.000000
        optdriver           1
            prtwf          -1
            rfdir           1       1       1
           rfelfd           2
            rprim      8.0056016941E+00  0.0000000000E+00  7.0181346943E+00
                       3.1806489519E+00  7.3466407785E+00  7.0181346943E+00
                       0.0000000000E+00  0.0000000000E+00  1.0646307955E+01
          spgroup         167
           strten      0.0000000000E+00  0.0000000000E+00  0.0000000000E+00
                       0.0000000000E+00  0.0000000000E+00  0.0000000000E+00
           symrel      1  0  0   0  1  0   0  0  1      -1  0  0   0 -1  0   0  0 -1
                       0  1  0   1  0  0   0  0  1       0 -1  0  -1  0  0   0  0 -1
                       0  0  1   1  0  0   0  1  0       0  0 -1  -1  0  0   0 -1  0
                       1  0  0   0  0  1   0  1  0      -1  0  0   0  0 -1   0 -1  0
                       0  1  0   0  0  1   1  0  0       0 -1  0   0  0 -1  -1  0  0
                       0  0  1   0  1  0   1  0  0       0  0 -1   0 -1  0  -1  0  0
            tnons      0.0000000  0.0000000  0.0000000     0.0000000  0.0000000  0.0000000
                       0.5000000  0.5000000  0.5000000     0.5000000  0.5000000  0.5000000
                       0.0000000 -0.0000000  0.0000000     0.0000000  0.0000000  0.0000000
                       0.5000000  0.5000000  0.5000000     0.5000000  0.5000000  0.5000000
                      -0.0000000  0.0000000  0.0000000     0.0000000  0.0000000  0.0000000
                       0.5000000  0.5000000  0.5000000     0.5000000  0.5000000  0.5000000
           tolwfr      1.00000000E-20
            typat      1  1  2  2  3  3  3  3  3  3
           useylm           1
              wtk        0.50000    0.50000
           xangst      2.9597544457E+00  1.9438374298E+00  6.5307286897E+00
                       0.0000000000E+00  0.0000000000E+00  0.0000000000E+00
                       4.4396316686E+00  2.9157561448E+00  9.7960930346E+00
                       1.4798772229E+00  9.7191871492E-01  3.2653643449E+00
                       3.9731530389E+00  1.8382870574E+00  4.6944227089E+00
                       1.3773629706E+00  2.9157561448E+00  5.5501429078E+00
                       3.8706387865E+00  3.7821244872E+00  6.9792012719E+00
                       1.9463558526E+00  2.0493878023E+00  8.3670346705E+00
                       4.5421459209E+00  9.7191871492E-01  7.5113144716E+00
                       2.0488701049E+00  1.0555037244E-01  6.0822561075E+00
            xcart      5.5931253230E+00  3.6733203893E+00  1.2341288672E+01
                       0.0000000000E+00  0.0000000000E+00  0.0000000000E+00
                       8.3896879845E+00  5.5099805839E+00  1.8511933008E+01
                       2.7965626615E+00  1.8366601946E+00  6.1706443359E+00
                       7.5081711275E+00  3.4738590921E+00  8.8711732719E+00
                       2.6028387999E+00  5.5099805839E+00  1.0488250094E+01
                       7.3144472659E+00  7.1471794814E+00  1.3188779030E+01
                       3.6780795185E+00  3.8727816864E+00  1.5811404072E+01
                       8.5834118461E+00  1.8366601946E+00  1.4194327249E+01
                       3.8718033801E+00  1.9946129714E-01  1.1493798313E+01
             xred      5.0000000000E-01  5.0000000000E-01  5.0000000000E-01
                       0.0000000000E+00  0.0000000000E+00  0.0000000000E+00
                       7.5000000000E-01  7.5000000000E-01  7.5000000000E-01
                       2.5000000000E-01  2.5000000000E-01  2.5000000000E-01
                       7.5000000000E-01  4.7285000000E-01  2.7150000000E-02
                       2.7150000000E-02  7.5000000000E-01  4.7285000000E-01
                       5.2715000000E-01  9.7285000000E-01  2.5000000000E-01
                       2.5000000000E-01  5.2715000000E-01  9.7285000000E-01
                       9.7285000000E-01  2.5000000000E-01  5.2715000000E-01
                       4.7285000000E-01  2.7150000000E-02  7.5000000000E-01
            znucl       30.00000    6.00000    8.00000

- Timing analysis has been suppressed with timopt=0

 Suggested references for the acknowledgment of ABINIT usage.

 Calculation completed.
.Delivered   2 WARNINGs and   5 COMMENTs to log file.