.Version 9.5.2 of ABINIT

 ABINIT is a project of the Universite Catholique de Louvain,
 Corning Inc. and other collaborators, see ~abinit/doc/developers/contributors.txt .
 acknowledgments of the ABINIT effort.

.Starting date : Tue  1 Jun 2021.
- ( at 11h54 )

- input  file    -> /scratch/users/j/a/jabreu/flow_simple_11atoms/flow/w313/t1/run.abi
- output file    -> /scratch/users/j/a/jabreu/flow_simple_11atoms/flow/w313/t1/run.abo
- root for input  files -> /scratch/users/j/a/jabreu/flow_simple_11atoms/flow/w313/t1/indata/in
- root for output files -> /scratch/users/j/a/jabreu/flow_simple_11atoms/flow/w313/t1/outdata/out

 Symmetries : space group P-6 2 m (#189); Bravais hP (primitive hexag.)
     intxc =       0      iscf =       7    lmnmax =      18     lnmax =       6
     mgfft =     108  mpssoang =       3    mqgrid =    4635     natom =      12
  nloc_mem =       1    nspden =       1   nspinor =       1    nsppol =       1
      nsym =      12    n1xccc =    2501    ntypat =       2    occopt =       1
   xclevel =       2
-    mband =          84        mffmem =           1         mkmem =           2
-   mkqmem =           2        mk1mem =           2           mpw =       44566
      nfft =      839808          nkpt =           2
  Rough estimation (10% accuracy) of disk space for files :

------------- Echo of variables that govern the present computation ------------
-
- outvars: echo of selected default values
-   iomode0 =  0 , fftalg0 =512 , wfoptalg0 =  0
-
- outvars: echo of global parameters not present in the input file
-  max_nthreads =    0
-
 -outvars: echo values of preprocessed input variables --------
            acell      1.0000000000E+00  1.0000000000E+00  1.0000000000E+00 Bohr
              amu      8.54678000E+01  1.27600000E+02
             ecut      4.00000000E+01 Hartree
-          fftalg         512
           irdden           1
           irdwfk           1
           istwfk        1    1
              ixc     -116133
              kpt      0.00000000E+00  0.00000000E+00  0.00000000E+00
                       0.00000000E+00  0.00000000E+00  5.00000000E-01
           kptopt           0
P           mkmem           2
P          mkqmem           2
P          mk1mem           2
            natom          12
            nband          84
           nbdbuf           4
            ngfft         108     108      72
             nkpt           2
            nstep        2000
             nsym          12
           ntypat           2
              occ      2.000000  2.000000  2.000000  2.000000  2.000000  2.000000
                       2.000000  2.000000  2.000000  2.000000  2.000000  2.000000
                       2.000000  2.000000  2.000000  2.000000  2.000000  2.000000
                       2.000000  2.000000  2.000000  2.000000  2.000000  2.000000
                       2.000000  2.000000  2.000000  2.000000  2.000000  2.000000
                       2.000000  2.000000  2.000000  2.000000  2.000000  2.000000
                       2.000000  2.000000  2.000000  2.000000  2.000000  2.000000
                       2.000000  2.000000  2.000000  2.000000  2.000000  2.000000
                       2.000000  2.000000  2.000000  2.000000  2.000000  2.000000
                       2.000000  2.000000  2.000000  2.000000  2.000000  2.000000
                       2.000000  2.000000  2.000000  2.000000  2.000000  2.000000
                       2.000000  2.000000  2.000000  2.000000  2.000000  2.000000
                       2.000000  2.000000  2.000000  0.000000  0.000000  0.000000
                       0.000000  0.000000  0.000000  0.000000  0.000000  0.000000
        optdriver           1
            prtwf          -1
            rfdir           1       1       1
           rfelfd           2
            rprim      1.8794899733E+01  0.0000000000E+00  0.0000000000E+00
                      -9.3974498666E+00  1.6276860630E+01  0.0000000000E+00
                       0.0000000000E+00  0.0000000000E+00  1.2001104317E+01
          spgroup         189
           symrel      1  0  0   0  1  0   0  0  1       0  1  0   1  0  0   0  0  1
                      -1 -1  0   1  0  0   0  0 -1       1  0  0  -1 -1  0   0  0 -1
                       0  1  0  -1 -1  0   0  0  1      -1 -1  0   0  1  0   0  0  1
                       1  0  0   0  1  0   0  0 -1       0  1  0   1  0  0   0  0 -1
                      -1 -1  0   1  0  0   0  0  1       1  0  0  -1 -1  0   0  0  1
                       0  1  0  -1 -1  0   0  0 -1      -1 -1  0   0  1  0   0  0 -1
           tolwfr      1.00000000E-20
            typat      1  1  1  1  1  1  2  2  2  2  2  2
           useylm           1
              wtk        0.50000    0.50000
           xangst     -1.7035023120E+00  2.9505525553E+00  0.0000000000E+00
                       3.2694139762E+00  5.6627911178E+00  0.0000000000E+00
                       3.4070046241E+00  0.0000000000E+00  0.0000000000E+00
                      -3.3624174566E+00  5.8238778712E+00  3.1753554411E+00
                       1.6104988316E+00  2.7894658019E+00  3.1753554411E+00
                       6.7248349133E+00  0.0000000000E+00  3.1753554411E+00
                       0.0000000000E+00  0.0000000000E+00  4.9423137299E+00
                       0.0000000000E+00  0.0000000000E+00  1.4083971524E+00
                       0.0000000000E+00  5.7422291154E+00  4.5890427357E+00
                       0.0000000000E+00  5.7422291154E+00  1.7616681466E+00
                       4.9729162883E+00  2.8711145577E+00  1.7616681466E+00
                       4.9729162883E+00  2.8711145577E+00  4.5890427357E+00
            xcart     -3.2191528365E+00  5.5757362701E+00  0.0000000000E+00
                       6.1782970301E+00  1.0701124360E+01  0.0000000000E+00
                       6.4383056730E+00  0.0000000000E+00  0.0000000000E+00
                      -6.3540481375E+00  1.1005534208E+01  6.0005521583E+00
                       3.0434017291E+00  5.2713264226E+00  6.0005521583E+00
                       1.2708096275E+01  0.0000000000E+00  6.0005521583E+00
                       0.0000000000E+00  0.0000000000E+00  9.3396194123E+00
                       0.0000000000E+00  0.0000000000E+00  2.6614849043E+00
                       0.0000000000E+00  1.0851240420E+01  8.6720339825E+00
                       0.0000000000E+00  1.0851240420E+01  3.3290703341E+00
                       9.3974498666E+00  5.4256202102E+00  3.3290703341E+00
                       9.3974498666E+00  5.4256202102E+00  8.6720339825E+00
             xred      0.0000000000E+00  3.4255600000E-01  0.0000000000E+00
                       6.5744400000E-01  6.5744400000E-01  0.0000000000E+00
                       3.4255600000E-01  0.0000000000E+00  0.0000000000E+00
                       0.0000000000E+00  6.7614600000E-01  5.0000000000E-01
                       3.2385400000E-01  3.2385400000E-01  5.0000000000E-01
                       6.7614600000E-01  0.0000000000E+00  5.0000000000E-01
                       0.0000000000E+00  0.0000000000E+00  7.7823000000E-01
                       0.0000000000E+00  0.0000000000E+00  2.2177000000E-01
                       3.3333333333E-01  6.6666666667E-01  7.2260300000E-01
                       3.3333333333E-01  6.6666666667E-01  2.7739700000E-01
                       6.6666666667E-01  3.3333333333E-01  2.7739700000E-01
                       6.6666666667E-01  3.3333333333E-01  7.2260300000E-01
            znucl       37.00000   52.00000

 chkinp: Checking input parameters for consistency.

== DATASET  1 ==================================================================
-   mpi_nproc: 1, omp_nthreads: -1 (-1 if OMP is not activated)

--- !DatasetInfo
iteration_state: {dtset: 1, }
dimensions: {natom: 12, nkpt: 2, mband: 84, nsppol: 1, nspinor: 1, nspden: 1, mpw: 44566, }
cutoff_energies: {ecut:  40.0, pawecutdg:  -1.0, }
electrons: {nelect:   1.50000000E+02, charge:   0.00000000E+00, occopt:   1.00000000E+00, tsmear:   1.00000000E-02, }
meta: {optdriver: 1, rfelfd: 2, }
...

 Real(R)+Recip(G) space primitive vectors, cartesian coordinates (Bohr,Bohr^-1):
 R(1)= 18.7948997  0.0000000  0.0000000  G(1)=  0.0532059  0.0307185  0.0000000
 R(2)= -9.3974499 16.2768606  0.0000000  G(2)=  0.0000000  0.0614369  0.0000000
 R(3)=  0.0000000  0.0000000 12.0011043  G(3)=  0.0000000  0.0000000  0.0833257
 Unit cell volume ucvol=  3.6714014E+03 bohr^3
 Angles (23,13,12)=  9.00000000E+01  9.00000000E+01  1.20000000E+02 degrees

 getcut: wavevector=  0.0000  0.0000  0.0000  ngfft= 108 108  72
         ecut(hartree)=     40.000   => boxcut(ratio)=   2.01831

--- Pseudopotential description ------------------------------------------------
- pspini: atom type   1  psp file is /scratch/users/j/a/jabreu/pseudos/PBEsol/Rb.psp8
- pspatm: opening atomic psp file    /scratch/users/j/a/jabreu/pseudos/PBEsol/Rb.psp8
- Rb    ONCVPSP-3.3.0  r_core=   1.71227   1.75361   1.90633
- 37.00000   9.00000    180112                znucl, zion, pspdat
    8 -116133    2    4       600   0.00000   pspcod,pspxc,lmax,lloc,mmax,r2well
    5.99000000000000    7.00000000000000    0.00000000000000   rchrg,fchrg,qchrg
     nproj     2     2     2
     extension_switch     1
  pspatm : epsatm=   34.48400912
         --- l  ekb(1:nproj) -->
             0    8.196957   -0.477221
             1    3.231347   -0.378736
             2   -1.047201    0.996637
 pspatm: atomic psp has been read  and splines computed

- pspini: atom type   2  psp file is /scratch/users/j/a/jabreu/pseudos/PBEsol/Te.psp8
- pspatm: opening atomic psp file    /scratch/users/j/a/jabreu/pseudos/PBEsol/Te.psp8
- Te    ONCVPSP-3.3.0  r_core=   2.26547   1.91704   1.80604
- 52.00000  16.00000    180112                znucl, zion, pspdat
    8 -116133    2    4       600   0.00000   pspcod,pspxc,lmax,lloc,mmax,r2well
    5.99000000000000    5.00000000000000    0.00000000000000   rchrg,fchrg,qchrg
     nproj     2     2     2
     extension_switch     1
  pspatm : epsatm=   36.82679836
         --- l  ekb(1:nproj) -->
             0    6.345999    0.785432
             1    5.709019    1.070069
             2   -6.035173   -1.870937
 pspatm: atomic psp has been read  and splines computed

   6.41797267E+04                                ecore*ucvol(ha*bohr**3)

 ==>  initialize data related to q vector <==

 The list of irreducible perturbations for this q vector is:
    1)    idir= 1    ipert=  13
    2)    idir= 2    ipert=  13
    3)    idir= 3    ipert=  13

 Perturbation wavevector (in red.coord.)   0.000000  0.000000  0.000000
 Perturbation : derivative vs k along direction   1

 dfpt_looppert : COMMENT -
  In a d/dk calculation, iscf is set to -3 automatically.
 The set of symmetries contains only one element for this perturbation.
 symkpt : not enough symmetry to change the number of k points.

 Initialisation of the first-order wave-functions :
  ireadwf=   0

--- !BeginCycle
iteration_state: {dtset: 1, }
solver: {iscf: 7, nstep: 2000, nline: 4, wfoptalg: 0, }
tolerances: {tolwfr: 1.00E-20, }
...

     iter   2DEtotal(Ha)        deltaE(Ha) residm    vres2
-ETOT  1  -41.766505502211     -4.177E+01 9.493E-03 0.000E+00
[...]
 The set of symmetries contains only one element for this perturbation.
 symkpt : not enough symmetry to change the number of k points.

[...]

 Perturbation wavevector (in red.coord.)   0.000000  0.000000  0.000000
 Perturbation : derivative vs k along direction   3
 The set of symmetries contains only one element for this perturbation.
 symkpt : not enough symmetry to change the number of k points.

 Initialisation of the first-order wave-functions :
  ireadwf=   0

--- !BeginCycle
iteration_state: {dtset: 1, }
solver: {iscf: 7, nstep: 2000, nline: 4, wfoptalg: 0, }
tolerances: {tolwfr: 1.00E-20, }
...

     iter   2DEtotal(Ha)        deltaE(Ha) residm    vres2
-ETOT  1  -84.553465119732     -8.455E+01 1.867E-02 0.000E+00
 ETOT  2  -84.604832950092     -5.137E-02 1.507E-04 0.000E+00
 ETOT  3  -84.604893068655     -6.012E-05 3.785E-06 0.000E+00
 ETOT  4  -84.604893270727     -2.021E-07 3.767E-08 0.000E+00
 ETOT  5  -84.604893271682     -9.549E-10 1.323E-09 0.000E+00
 ETOT  6  -84.604893271688     -6.139E-12 4.400E-11 0.000E+00
 ETOT  7  -84.604893271688     -2.984E-13 2.090E-12 0.000E+00
 ETOT  8  -84.604893271688     -1.421E-14 2.119E-13 0.000E+00
 ETOT  9  -84.604893271688      2.842E-14 1.130E-14 0.000E+00
 ETOT 10  -84.604893271688      0.000E+00 1.045E-15 0.000E+00
 ETOT 11  -84.604893271688      0.000E+00 6.243E-17 0.000E+00
 ETOT 12  -84.604893271688      0.000E+00 5.243E-18 0.000E+00
 ETOT 13  -84.604893271688     -1.421E-14 3.492E-19 0.000E+00
 ETOT 14  -84.604893271688      1.421E-14 2.666E-20 0.000E+00
 ETOT 15  -84.604893271688     -1.421E-14 9.927E-21 0.000E+00

 At SCF step   15   max residual=  9.93E-21 < tolwfr=  1.00E-20 =>converged.

 ----iterations are completed or convergence reached----

 dfpt_looppert: DFPT cycle converged with prtwf=-1. Will skip output of the 1st-order WFK file.
 dfpt_looppert : ek2=    8.2231567698E+01
          f-sum rule ratio=    1.1690977889E+00
 prteigrs : about to open file /scratch/users/j/a/jabreu/flow_simple_11atoms/flow/w313/t1/tmpdata/tmp_1WF1_EIG
 Expectation of eigenvalue derivatives (hartree) for nkpt=   2  k points:
  (in case of degenerate eigenvalues, averaged derivative)
 kpt#   1, nband= 84, wtk=  0.50000, kpt=  0.0000  0.0000  0.0000 (reduced coord)
  -0.00000    0.00000    0.00000    0.00000    0.00000    0.00000   -0.00000    0.00000
  -0.00000   -0.00000   -0.00000   -0.00000   -0.00000   -0.00000   -0.00000   -0.00000
  -0.00000   -0.00000    0.00000    0.00000   -0.00000   -0.00000    0.00000    0.00000
   0.00000    0.00000    0.00000    0.00000    0.00000    0.00000   -0.00000    0.00000
   0.00000   -0.00000    0.00000    0.00000   -0.00000   -0.00000    0.00000    0.00000
  -0.00000   -0.00000    0.00000    0.00000    0.00000    0.00000    0.00000    0.00000
   0.00000    0.00000    0.00000    0.00000    0.00000   -0.00000   -0.00000   -0.00000
   0.00000    0.00000    0.00000   -0.00000    0.00000    0.00000    0.00000   -0.00000
  -0.00000    0.00000    0.00000   -0.00000   -0.00000    0.00000    0.00000    0.00000
   0.00000    0.00000    0.00000    0.00000   -0.00000   -0.00000    0.00000    0.00000
   0.00000    0.00010   -0.00003   -0.00005
 prteigrs : prtvol=0 or 1, do not print more k-points.

 Eight components of 2nd-order total energy (hartree) are
 1,2,3: 0th-order hamiltonian combined with 1st-order wavefunctions
     kin0=   9.99378178E+01 eigvalue=   1.86304489E+01  local=  -5.50711796E+01
 4,5,6: 1st-order hamiltonian combined with 1st and 0th-order wfs
     kin1=  -9.61367440E+01  Hartree=   0.00000000E+00     xc=   0.00000000E+00
 7,8,9: eventually, occupation + non-local contributions
    edocc=   1.41254053E+01     enl0=   6.98240083E+00   enl1=  -7.30730426E+01
 1-9 gives the relaxation energy (to be shifted if some occ is /=2.0)
   erelax=  -8.46048933E+01
  No Ewald or frozen-wf contrib.: the relaxation energy is the total one
 2DEtotal=   -0.8460489327E+02 Ha. Also 2DEtotal=   -0.230221622725E+04 eV
    (  non-var. 2DEtotal :   -8.4604893272E+01 Ha)

 CALCULATION OF EFFECTIVE MASSES
 NOTE : Additional infos (eff. mass eigenvalues, eigenvectors and, if degenerate, average mass) are available in stdout.

 COMMENTS:
 - At k-point ( 0.000, 0.000, 0.000), bands    74 through    75
   are DEGENERATE (effective mass tensor is therefore not defined).
   See Section IIIB Eqs. (67)-(70) and Appendix E of PRB 93 205147 (2016).
 - Angular average effective mass for Frohlich model is to be averaged over degenerate bands. See later.
 - Associated theta integrals calculated with ntheta=   1000 points.

 K-point ( 0.000, 0.000, 0.000) | band =    74
 Transport equivalent effective mass tensor:
             -2.3813305084             -0.0002620680             -0.0001027321
             -0.0002620680             -2.3818752704             -0.0001999132
             -0.0001027321             -0.0001999132             -0.5331243694
 Transport equivalent effective mass tensor eigenvalues:
             -2.3819808994             -2.3812249067             -0.5331243420
 Angular average effective mass 1/(<1/m>)=  -1.1047492802
 Angular average effective mass for Frohlich model (<m**0.5>)**2=  -1.3084520516
 Effective masses along directions: (cart. coord. / red. coord. -> eff. mass)
    1:   1.000000  0.000000  0.000000 /   0.894427 -0.447214  0.000000 ->  -2.3816003264
    2:   0.000000  1.000000  0.000000 /   0.000000  1.000000  0.000000 ->  -2.3815996997
    3:   0.000000  0.000000  1.000000 /   0.000000  0.000000  1.000000 ->  -0.5327522956
    4:   0.577350  0.577350  0.577350 /   0.805380  0.294789  0.514259 ->  -1.1053184514
    5:   0.000000  0.707107  0.707107 /   0.000000  0.804876  0.593443 ->  -0.8715990864
    6:   0.707107  0.000000  0.707107 /   0.776684 -0.388342  0.495936 ->  -0.8710414153
    7:   0.707107  0.707107  0.000000 /   0.939071  0.343724  0.000000 ->  -2.3815780340

 K-point ( 0.000, 0.000, 0.000) | band =    75
 Transport equivalent effective mass tensor:
             -3.0658242430              0.0003618143             -0.0001375938
              0.0003618143             -3.0651305374             -0.0002716358
             -0.0001375938             -0.0002716358             -0.5331469086
 Transport equivalent effective mass tensor eigenvalues:
             -3.0659786053             -3.0649762117             -0.5331468720
 Angular average effective mass 1/(<1/m>)=  -1.1866892146
 Angular average effective mass for Frohlich model (<m**0.5>)**2=  -1.4932833558
 Effective masses along directions: (cart. coord. / red. coord. -> eff. mass)
    1:   1.000000  0.000000  0.000000 /   0.894427 -0.447214  0.000000 ->  -3.0654632618
    2:   0.000000  1.000000  0.000000 /   0.000000  1.000000  0.000000 ->  -3.0654733610
    3:   0.000000  0.000000  1.000000 /   0.000000  0.000000  1.000000 ->  -0.5335197814
    4:   0.577350  0.577350  0.577350 /   0.805380  0.294789  0.514259 ->  -1.1864890167
    5:   0.000000  0.707107  0.707107 /   0.000000  0.804876  0.593443 ->  -0.9081787841
    6:   0.707107  0.000000  0.707107 /   0.776684 -0.388342  0.495936 ->  -0.9086537379
    7:   0.707107  0.707107  0.000000 /   0.939071  0.343724  0.000000 ->  -3.0654813995

 Angular average effective mass for Frohlich model, averaged over degenerate bands.
 Value of     (<<m**0.5>>)**2 =     1.399342E+00
 Absolute Value of <<m**0.5>> =     1.182938E+00

 K-point ( 0.000, 0.000, 0.500) | band =    76
 Effective mass tensor:
              3.1865392665              0.0000000005             -0.0000000000
              0.0000000005              3.1865392662             -0.0000000000
             -0.0000000000             -0.0000000000              0.0647654302
 Effective mass tensor eigenvalues:
              0.0647654302              3.1865392659              3.1865392669
 Angular average effective mass 1/(<1/m>)=   0.1867067751
 Angular average effective mass for Frohlich model (<m**0.5>)**2=   0.4593538524
 Effective masses along directions: (cart. coord. / red. coord. -> eff. mass)
    1:   1.000000  0.000000  0.000000 /   0.894427 -0.447214  0.000000 ->   3.1865392665
    2:   0.000000  1.000000  0.000000 /   0.000000  1.000000  0.000000 ->   3.1865392662
    3:   0.000000  0.000000  1.000000 /   0.000000  0.000000  1.000000 ->   0.0647654302
    4:   0.577350  0.577350  0.577350 /   0.805380  0.294789  0.514259 ->   0.1867067751
    5:   0.000000  0.707107  0.707107 /   0.000000  0.804876  0.593443 ->   0.1269506279
    6:   0.707107  0.000000  0.707107 /   0.776684 -0.388342  0.495936 ->   0.1269506279
    7:   0.707107  0.707107  0.000000 /   0.939071  0.343724  0.000000 ->   3.1865392668

 END OF EFFECTIVE MASSES SECTION

 ---- first-order wavefunction calculations are completed ----

 Total localisation tensor (bohr^2) in cartesian coordinates
  WARNING : still subject to testing - especially symmetries.
      direction              matrix element
   alpha     beta       real part   imaginary part
     1        1       1.6045457323    0.0000000000
     1        2      -0.5558333158    0.0000000000
     1        3       0.0000000000    0.0000000000
     2        1      -0.5558333158    0.0000000000
     2        2       0.9627315435    0.0000000000
     2        3       0.0000000000    0.0000000000
     3        1       0.0000000000    0.0000000000
     3        2       0.0000000000    0.0000000000
     3        3       2.7968298943    0.0000000000

 respfn : d/dk was computed, but no 2DTE, so no DDB output.

== END DATASET(S) ==============================================================

 -outvars: echo values of variables after computation  --------
            acell      1.0000000000E+00  1.0000000000E+00  1.0000000000E+00 Bohr
              amu      8.54678000E+01  1.27600000E+02
             ecut      4.00000000E+01 Hartree
           etotal     -8.4604893272E+01
            fcart      0.0000000000E+00  0.0000000000E+00  0.0000000000E+00
                       0.0000000000E+00  0.0000000000E+00  0.0000000000E+00
                       0.0000000000E+00  0.0000000000E+00  0.0000000000E+00
                       0.0000000000E+00  0.0000000000E+00  0.0000000000E+00
                       0.0000000000E+00  0.0000000000E+00  0.0000000000E+00
                       0.0000000000E+00  0.0000000000E+00  0.0000000000E+00
                       0.0000000000E+00  0.0000000000E+00  0.0000000000E+00
                       0.0000000000E+00  0.0000000000E+00  0.0000000000E+00
                       0.0000000000E+00  0.0000000000E+00  0.0000000000E+00
                       0.0000000000E+00  0.0000000000E+00  0.0000000000E+00
                       0.0000000000E+00  0.0000000000E+00  0.0000000000E+00
                       0.0000000000E+00  0.0000000000E+00  0.0000000000E+00
-          fftalg         512
           irdden           1
           irdwfk           1
           istwfk        1    1
              ixc     -116133
              kpt      0.00000000E+00  0.00000000E+00  0.00000000E+00
                       0.00000000E+00  0.00000000E+00  5.00000000E-01
           kptopt           0
P           mkmem           2
P          mkqmem           2
P          mk1mem           2
            natom          12
            nband          84
           nbdbuf           4
            ngfft         108     108      72
             nkpt           2
            nstep        2000
             nsym          12
           ntypat           2
              occ      2.000000  2.000000  2.000000  2.000000  2.000000  2.000000
                       2.000000  2.000000  2.000000  2.000000  2.000000  2.000000
                       2.000000  2.000000  2.000000  2.000000  2.000000  2.000000
                       2.000000  2.000000  2.000000  2.000000  2.000000  2.000000
                       2.000000  2.000000  2.000000  2.000000  2.000000  2.000000
                       2.000000  2.000000  2.000000  2.000000  2.000000  2.000000
                       2.000000  2.000000  2.000000  2.000000  2.000000  2.000000
                       2.000000  2.000000  2.000000  2.000000  2.000000  2.000000
                       2.000000  2.000000  2.000000  2.000000  2.000000  2.000000
                       2.000000  2.000000  2.000000  2.000000  2.000000  2.000000
                       2.000000  2.000000  2.000000  2.000000  2.000000  2.000000
                       2.000000  2.000000  2.000000  2.000000  2.000000  2.000000
                       2.000000  2.000000  2.000000  0.000000  0.000000  0.000000
                       0.000000  0.000000  0.000000  0.000000  0.000000  0.000000
        optdriver           1
            prtwf          -1
            rfdir           1       1       1
           rfelfd           2
            rprim      1.8794899733E+01  0.0000000000E+00  0.0000000000E+00
                      -9.3974498666E+00  1.6276860630E+01  0.0000000000E+00
                       0.0000000000E+00  0.0000000000E+00  1.2001104317E+01
          spgroup         189
           strten      0.0000000000E+00  0.0000000000E+00  0.0000000000E+00
                       0.0000000000E+00  0.0000000000E+00  0.0000000000E+00
           symrel      1  0  0   0  1  0   0  0  1       0  1  0   1  0  0   0  0  1
                      -1 -1  0   1  0  0   0  0 -1       1  0  0  -1 -1  0   0  0 -1
                       0  1  0  -1 -1  0   0  0  1      -1 -1  0   0  1  0   0  0  1
                       1  0  0   0  1  0   0  0 -1       0  1  0   1  0  0   0  0 -1
                      -1 -1  0   1  0  0   0  0  1       1  0  0  -1 -1  0   0  0  1
                       0  1  0  -1 -1  0   0  0 -1      -1 -1  0   0  1  0   0  0 -1
           tolwfr      1.00000000E-20
            typat      1  1  1  1  1  1  2  2  2  2  2  2
           useylm           1
              wtk        0.50000    0.50000
           xangst     -1.7035023120E+00  2.9505525553E+00  0.0000000000E+00
                       3.2694139762E+00  5.6627911178E+00  0.0000000000E+00
                       3.4070046241E+00  0.0000000000E+00  0.0000000000E+00
                      -3.3624174566E+00  5.8238778712E+00  3.1753554411E+00
                       1.6104988316E+00  2.7894658019E+00  3.1753554411E+00
                       6.7248349133E+00  0.0000000000E+00  3.1753554411E+00
                       0.0000000000E+00  0.0000000000E+00  4.9423137299E+00
                       0.0000000000E+00  0.0000000000E+00  1.4083971524E+00
                       0.0000000000E+00  5.7422291154E+00  4.5890427357E+00
                       0.0000000000E+00  5.7422291154E+00  1.7616681466E+00
                       4.9729162883E+00  2.8711145577E+00  1.7616681466E+00
                       4.9729162883E+00  2.8711145577E+00  4.5890427357E+00
            xcart     -3.2191528365E+00  5.5757362701E+00  0.0000000000E+00
                       6.1782970301E+00  1.0701124360E+01  0.0000000000E+00
                       6.4383056730E+00  0.0000000000E+00  0.0000000000E+00
                      -6.3540481375E+00  1.1005534208E+01  6.0005521583E+00
                       3.0434017291E+00  5.2713264226E+00  6.0005521583E+00
                       1.2708096275E+01  0.0000000000E+00  6.0005521583E+00
                       0.0000000000E+00  0.0000000000E+00  9.3396194123E+00
                       0.0000000000E+00  0.0000000000E+00  2.6614849043E+00
                       0.0000000000E+00  1.0851240420E+01  8.6720339825E+00
                       0.0000000000E+00  1.0851240420E+01  3.3290703341E+00
                       9.3974498666E+00  5.4256202102E+00  3.3290703341E+00
                       9.3974498666E+00  5.4256202102E+00  8.6720339825E+00
             xred      0.0000000000E+00  3.4255600000E-01  0.0000000000E+00
                       6.5744400000E-01  6.5744400000E-01  0.0000000000E+00
                       3.4255600000E-01  0.0000000000E+00  0.0000000000E+00
                       0.0000000000E+00  6.7614600000E-01  5.0000000000E-01
                       3.2385400000E-01  3.2385400000E-01  5.0000000000E-01
                       6.7614600000E-01  0.0000000000E+00  5.0000000000E-01
                       0.0000000000E+00  0.0000000000E+00  7.7823000000E-01
                       0.0000000000E+00  0.0000000000E+00  2.2177000000E-01
                       3.3333333333E-01  6.6666666667E-01  7.2260300000E-01
                       3.3333333333E-01  6.6666666667E-01  2.7739700000E-01
                       6.6666666667E-01  3.3333333333E-01  2.7739700000E-01
                       6.6666666667E-01  3.3333333333E-01  7.2260300000E-01
            znucl       37.00000   52.00000

- Timing analysis has been suppressed with timopt=0

 Suggested references for the acknowledgment of ABINIT usage.

 Calculation completed.
.Delivered   2 WARNINGs and   7 COMMENTs to log file.