.Version 9.5.1 of ABINIT

 ABINIT is a project of the Universite Catholique de Louvain,
 Corning Inc. and other collaborators, see ~abinit/doc/developers/contributors.txt .
 acknowledgments of the ABINIT effort.

.Starting date : Mon 26 Apr 2021.
- ( at 00h46 )

- input  file    -> /scratch/users/j/a/jabreu/flow_simple/flow/w93/t1/run.abi
- output file    -> /scratch/users/j/a/jabreu/flow_simple/flow/w93/t1/run.abo
- root for input  files -> /scratch/users/j/a/jabreu/flow_simple/flow/w93/t1/indata/in
- root for output files -> /scratch/users/j/a/jabreu/flow_simple/flow/w93/t1/outdata/out

 Symmetries : space group F-4 3 m (#216); Bravais cF (face-center cubic)
     intxc =       0      iscf =       7    lmnmax =      18     lnmax =       6
     mgfft =      48  mpssoang =       3    mqgrid =    3001     natom =       3
  nloc_mem =       1    nspden =       1   nspinor =       1    nsppol =       1
      nsym =      24    n1xccc =    2501    ntypat =       3    occopt =       1
   xclevel =       2
-    mband =          26        mffmem =           1         mkmem =           2
-   mkqmem =           2        mk1mem =           2           mpw =        4720
      nfft =      110592          nkpt =           2
  Rough estimation (10% accuracy) of disk space for files :

------------- Echo of variables that govern the present computation ------------
-
- outvars: echo of selected default values
-   iomode0 =  0 , fftalg0 =512 , wfoptalg0 =  0
-
- outvars: echo of global parameters not present in the input file
-  max_nthreads =    0
-
 -outvars: echo values of preprocessed input variables --------
            acell      1.0000000000E+00  1.0000000000E+00  1.0000000000E+00 Bohr
              amu      9.12240000E+01  2.80855000E+01  1.06420000E+02
             ecut      4.10000000E+01 Hartree
-          fftalg         512
           irdden           1
           irdwfk           1
           istwfk        0    1
              ixc     -116133
              kpt      2.20588235E-02  2.20588235E-02  4.41176471E-02
                       5.00000000E-01  0.00000000E+00  5.00000000E-01
           kptopt           0
P           mkmem           2
P          mkqmem           2
P          mk1mem           2
            natom           3
            nband          26
           nbdbuf           4
            ngfft          48      48      48
             nkpt           2
            nstep         100
             nsym          24
           ntypat           3
              occ      2.000000  2.000000  2.000000  2.000000  2.000000  2.000000
                       2.000000  2.000000  2.000000  2.000000  2.000000  2.000000
                       2.000000  2.000000  2.000000  2.000000  2.000000  0.000000
                       0.000000  0.000000  0.000000  0.000000  0.000000  0.000000
                       0.000000  0.000000
        optdriver           1
            prtwf          -1
            rfdir           1       1       1
           rfelfd           2
            rprim      6.9835713334E+00  0.0000000000E+00  4.0319667893E+00
                       2.3278571111E+00  6.5841741957E+00  4.0319667893E+00
                       0.0000000000E+00  0.0000000000E+00  8.0639335785E+00
          spgroup         216
           symrel      1  0  0   0  1  0   0  0  1       0 -1  1   0 -1  0   1 -1  0
                      -1  0  0  -1  0  1  -1  1  0       0  1 -1   1  0 -1   0  0 -1
                      -1  0  0  -1  1  0  -1  0  1       0 -1  1   1 -1  0   0 -1  0
                       1  0  0   0  0  1   0  1  0       0  1 -1   0  0 -1   1  0 -1
                      -1  0  1  -1  1  0  -1  0  0       0 -1  0   1 -1  0   0 -1  1
                       1  0 -1   0  0 -1   0  1 -1       0  1  0   0  0  1   1  0  0
                       1  0 -1   0  1 -1   0  0 -1       0 -1  0   0 -1  1   1 -1  0
                      -1  0  1  -1  0  0  -1  1  0       0  1  0   1  0  0   0  0  1
                       0  0 -1   0  1 -1   1  0 -1       1 -1  0   0 -1  1   0 -1  0
                       0  0  1   1  0  0   0  1  0      -1  1  0  -1  0  0  -1  0  1
                       0  0  1   0  1  0   1  0  0       1 -1  0   0 -1  0   0 -1  1
                       0  0 -1   1  0 -1   0  1 -1      -1  1  0  -1  0  1  -1  0  0
           tolwfr      1.00000000E-20
            typat      1  2  3
           useylm           1
              wtk        0.50000    0.50000
           xangst      2.4636978561E+00  1.7420974609E+00  4.2672498614E+00
                       0.0000000000E+00  0.0000000000E+00  0.0000000000E+00
                       1.2318489281E+00  8.7104873044E-01  2.1336249307E+00
            xcart      4.6557142222E+00  3.2920870979E+00  8.0639335785E+00
                       0.0000000000E+00  0.0000000000E+00  0.0000000000E+00
                       2.3278571111E+00  1.6460435489E+00  4.0319667893E+00
             xred      5.0000000000E-01  5.0000000000E-01  5.0000000000E-01
                       0.0000000000E+00  0.0000000000E+00  0.0000000000E+00
                       2.5000000000E-01  2.5000000000E-01  2.5000000000E-01
            znucl       40.00000   14.00000   46.00000

 chkinp: Checking input parameters for consistency.

== DATASET  1 ==================================================================
-   mpi_nproc: 1, omp_nthreads: -1 (-1 if OMP is not activated)

--- !DatasetInfo
iteration_state: {dtset: 1, }
dimensions: {natom: 3, nkpt: 2, mband: 26, nsppol: 1, nspinor: 1, nspden: 1, mpw: 4720, }
cutoff_energies: {ecut:  41.0, pawecutdg:  -1.0, }
electrons: {nelect:   3.40000000E+01, charge:   0.00000000E+00, occopt:   1.00000000E+00, tsmear:   1.00000000E-02, }
meta: {optdriver: 1, rfelfd: 2, }
...

 Real(R)+Recip(G) space primitive vectors, cartesian coordinates (Bohr,Bohr^-1):
 R(1)=  6.9835713  0.0000000  4.0319668  G(1)=  0.1431932 -0.0506264  0.0000000
 R(2)=  2.3278571  6.5841742  4.0319668  G(2)=  0.0000000  0.1518793  0.0000000
 R(3)=  0.0000000  0.0000000  8.0639336  G(3)= -0.0715966 -0.0506264  0.1240090
 Unit cell volume ucvol=  3.7078813E+02 bohr^3
 Angles (23,13,12)=  6.00000000E+01  6.00000000E+01  6.00000000E+01 degrees

 getcut: wavevector=  0.0000  0.0000  0.0000  ngfft=  48  48  48
         ecut(hartree)=     41.000   => boxcut(ratio)=   2.06508

--- Pseudopotential description ------------------------------------------------
- pspini: atom type   1  psp file is /scratch/users/j/a/jabreu/pseudos/PBEsol/Zr.psp8
- pspatm: opening atomic psp file    /scratch/users/j/a/jabreu/pseudos/PBEsol/Zr.psp8
- Zr    ONCVPSP-3.3.0  r_core=   1.56507   1.56507   1.51006
- 40.00000  12.00000    180112                znucl, zion, pspdat
    8 -116133    2    4       600   0.00000   pspcod,pspxc,lmax,lloc,mmax,r2well
    5.99000000000000    5.00000000000000    0.00000000000000   rchrg,fchrg,qchrg
     nproj     2     2     2
     extension_switch     1
  pspatm : epsatm=   18.88750170
         --- l  ekb(1:nproj) -->
             0   10.584966    0.890424
             1    5.814585    0.741293
             2    1.525459    0.487901
 pspatm: atomic psp has been read  and splines computed

- pspini: atom type   2  psp file is /scratch/users/j/a/jabreu/pseudos/PBEsol/Si.psp8
- pspatm: opening atomic psp file    /scratch/users/j/a/jabreu/pseudos/PBEsol/Si.psp8
- Si    ONCVPSP-3.3.0  r_core=   1.60303   1.72197   1.91712
- 14.00000   4.00000    180112                znucl, zion, pspdat
    8 -116133    2    4       600   0.00000   pspcod,pspxc,lmax,lloc,mmax,r2well
    5.99000000000000    4.00000000000000    0.00000000000000   rchrg,fchrg,qchrg
     nproj     2     2     2
     extension_switch     1
  pspatm : epsatm=    7.86468782
         --- l  ekb(1:nproj) -->
             0    5.384426    0.843824
             1    2.663259    0.615854
             2   -2.267219   -0.458043
 pspatm: atomic psp has been read  and splines computed

- pspini: atom type   3  psp file is /scratch/users/j/a/jabreu/pseudos/PBEsol/Pd.psp8
- pspatm: opening atomic psp file    /scratch/users/j/a/jabreu/pseudos/PBEsol/Pd.psp8
- Pd    ONCVPSP-3.3.0  r_core=   1.41052   1.46191   1.55175
- 46.00000  18.00000    180112                znucl, zion, pspdat
    8 -116133    2    4       600   0.00000   pspcod,pspxc,lmax,lloc,mmax,r2well
    5.99000000000000    7.00000000000000    0.00000000000000   rchrg,fchrg,qchrg
     nproj     2     2     2
     extension_switch     1
  pspatm : epsatm=   26.17262427
         --- l  ekb(1:nproj) -->
             0    7.952303   -2.096627
             1    3.304793   -0.572651
             2   -1.185452   -0.410427
 pspatm: atomic psp has been read  and splines computed

   1.79944367E+03                                ecore*ucvol(ha*bohr**3)

-inwffil : will read wavefunctions from disk file /scratch/users/j/a/jabreu/flow_simple/flow/w93/t1/indata/in_WFK

 ==>  initialize data related to q vector <==

 The list of irreducible perturbations for this q vector is:
    1)    idir= 1    ipert=   4
    2)    idir= 2    ipert=   4
    3)    idir= 3    ipert=   4

 Perturbation wavevector (in red.coord.)   0.000000  0.000000  0.000000
 Perturbation : derivative vs k along direction   1

 dfpt_looppert : COMMENT -
  In a d/dk calculation, iscf is set to -3 automatically.
 The set of symmetries contains only one element for this perturbation.
 symkpt : not enough symmetry to change the number of k points.

[...]

 Initialisation of the first-order wave-functions :
  ireadwf=   0

--- !BeginCycle
iteration_state: {dtset: 1, }
solver: {iscf: 7, nstep: 100, nline: 4, wfoptalg: 0, }
tolerances: {tolwfr: 1.00E-20, }
...

     iter   2DEtotal(Ha)        deltaE(Ha) residm    vres2
-ETOT  1  -38.487756236857     -3.849E+01 4.172E-02 0.000E+00
 ETOT  2  -38.508786861092     -2.103E-02 5.975E-04 0.000E+00
 ETOT  3  -38.508830078893     -4.322E-05 9.685E-06 0.000E+00
 ETOT  4  -38.508830290334     -2.114E-07 1.802E-07 0.000E+00
 ETOT  5  -38.508830291785     -1.450E-09 5.592E-09 0.000E+00
 ETOT  6  -38.508830291796     -1.136E-11 1.239E-10 0.000E+00
 ETOT  7  -38.508830291796     -1.279E-13 3.927E-12 0.000E+00
 ETOT  8  -38.508830291796     -7.105E-15 1.103E-13 0.000E+00
 ETOT  9  -38.508830291796      4.263E-14 2.896E-15 0.000E+00
 ETOT 10  -38.508830291796     -7.105E-15 1.216E-16 0.000E+00
 ETOT 11  -38.508830291796     -1.421E-14 2.288E-18 0.000E+00
 ETOT 12  -38.508830291796      0.000E+00 1.358E-19 0.000E+00
 ETOT 13  -38.508830291796      1.421E-14 9.878E-21 0.000E+00

 At SCF step   13   max residual=  9.88E-21 < tolwfr=  1.00E-20 =>converged.

 ----iterations are completed or convergence reached----

 dfpt_looppert: DFPT cycle converged with prtwf=-1. Will skip output of the 1st-order WFK file.
 dfpt_looppert : ek2=    6.1925001345E+01
          f-sum rule ratio=    1.2576294618E+00
 prteigrs : about to open file /scratch/users/j/a/jabreu/flow_simple/flow/w93/t1/tmpdata/tmp_1WF1_EIG
 Expectation of eigenvalue derivatives (hartree) for nkpt=   2  k points:
  (in case of degenerate eigenvalues, averaged derivative)
 kpt#   1, nband= 26, wtk=  0.50000, kpt=  0.0221  0.0221  0.0441 (reduced coord)
  -0.00000    0.00000   -0.00000   -0.00000   -0.00000    0.00000   -0.00000   -0.00000
  -0.00000   -0.00000    0.00000    0.00000   -0.00000    0.00000    0.00000   -0.00000
   0.00000    0.00000   -0.00000    0.00000   -0.00000   -0.00000   -0.00000    0.00000
   0.00105   -0.01393
 prteigrs : prtvol=0 or 1, do not print more k-points.

 Eight components of 2nd-order total energy (hartree) are
 1,2,3: 0th-order hamiltonian combined with 1st-order wavefunctions
     kin0=   2.76789938E+01 eigvalue=  -1.10936312E+00  local=  -1.28462771E+01
 4,5,6: 1st-order hamiltonian combined with 1st and 0th-order wfs
     kin1=  -7.78787061E+01  Hartree=   0.00000000E+00     xc=   0.00000000E+00
 7,8,9: eventually, occupation + non-local contributions
    edocc=   2.31991425E+01     enl0=   1.58633417E+00   enl1=   8.61045529E-01
 1-9 gives the relaxation energy (to be shifted if some occ is /=2.0)
   erelax=  -3.85088303E+01
  No Ewald or frozen-wf contrib.: the relaxation energy is the total one
 2DEtotal=   -0.3850883029E+02 Ha. Also 2DEtotal=   -0.104787856307E+04 eV
    (  non-var. 2DEtotal :   -3.8508830292E+01 Ha)

 Perturbation wavevector (in red.coord.)   0.000000  0.000000  0.000000
 Perturbation : derivative vs k along direction   2
 The set of symmetries contains only one element for this perturbation.
 symkpt : not enough symmetry to change the number of k points.

[...]

 Perturbation wavevector (in red.coord.)   0.000000  0.000000  0.000000
 Perturbation : derivative vs k along direction   3
 The set of symmetries contains only one element for this perturbation.
 symkpt : not enough symmetry to change the number of k points.

-inwffil : will read wavefunctions from disk file /scratch/users/j/a/jabreu/flow_simple/flow/w93/t1/indata/in_WFK

 Initialisation of the first-order wave-functions :
  ireadwf=   0

--- !BeginCycle
iteration_state: {dtset: 1, }
solver: {iscf: 7, nstep: 100, nline: 4, wfoptalg: 0, }
tolerances: {tolwfr: 1.00E-20, }
...

     iter   2DEtotal(Ha)        deltaE(Ha) residm    vres2
-ETOT  1  -38.382084837233     -3.838E+01 2.620E-02 0.000E+00
 ETOT  2  -38.400337590801     -1.825E-02 4.865E-04 0.000E+00
 ETOT  3  -38.400374581333     -3.699E-05 3.076E-06 0.000E+00
 ETOT  4  -38.400374760026     -1.787E-07 9.505E-08 0.000E+00
 ETOT  5  -38.400374761255     -1.229E-09 1.056E-09 0.000E+00
 ETOT  6  -38.400374761264     -9.422E-12 4.029E-11 0.000E+00
 ETOT  7  -38.400374761264     -2.132E-14 5.757E-13 0.000E+00
 ETOT  8  -38.400374761264     -3.553E-14 3.821E-14 0.000E+00
 ETOT  9  -38.400374761264      2.842E-14 6.571E-16 0.000E+00
 ETOT 10  -38.400374761264     -7.105E-15 4.398E-17 0.000E+00
 ETOT 11  -38.400374761264      0.000E+00 7.618E-19 0.000E+00
 ETOT 12  -38.400374761264      2.132E-14 5.116E-20 0.000E+00
 ETOT 13  -38.400374761264     -7.105E-15 9.421E-21 0.000E+00

 At SCF step   13   max residual=  9.42E-21 < tolwfr=  1.00E-20 =>converged.

 ----iterations are completed or convergence reached----

 dfpt_looppert: DFPT cycle converged with prtwf=-1. Will skip output of the 1st-order WFK file.
 dfpt_looppert : ek2=    6.1925001346E+01
          f-sum rule ratio=    1.2538764794E+00
 prteigrs : about to open file /scratch/users/j/a/jabreu/flow_simple/flow/w93/t1/tmpdata/tmp_1WF1_EIG
 Expectation of eigenvalue derivatives (hartree) for nkpt=   2  k points:
  (in case of degenerate eigenvalues, averaged derivative)
 kpt#   1, nband= 26, wtk=  0.50000, kpt=  0.0221  0.0221  0.0441 (reduced coord)
   0.00000   -0.00033   -0.00002   -0.00001    0.00042   -0.00104   -0.00009    0.00004
   0.02717   -0.05166   -0.02943    0.00597    0.02455    0.04981   -0.09511   -0.03474
  -0.00015   -0.11871   -0.06111   -0.04235    0.06157    0.17514    0.22388    0.05318
  -0.23596   -0.16340
 prteigrs : prtvol=0 or 1, do not print more k-points.

 Eight components of 2nd-order total energy (hartree) are
 1,2,3: 0th-order hamiltonian combined with 1st-order wavefunctions
     kin0=   2.74436191E+01 eigvalue=  -1.17117073E+00  local=  -1.27265509E+01
 4,5,6: 1st-order hamiltonian combined with 1st and 0th-order wfs
     kin1=  -7.76463027E+01  Hartree=   0.00000000E+00     xc=   0.00000000E+00
 7,8,9: eventually, occupation + non-local contributions
    edocc=   2.32701285E+01     enl0=   1.58434877E+00   enl1=   8.45553149E-01
 1-9 gives the relaxation energy (to be shifted if some occ is /=2.0)
   erelax=  -3.84003748E+01
  No Ewald or frozen-wf contrib.: the relaxation energy is the total one
 2DEtotal=   -0.3840037476E+02 Ha. Also 2DEtotal=   -0.104492733800E+04 eV
    (  non-var. 2DEtotal :   -3.8400374761E+01 Ha)

 CALCULATION OF EFFECTIVE MASSES
 NOTE : Additional infos (eff. mass eigenvalues, eigenvectors and, if degenerate, average mass) are available in stdout.

 K-point ( 0.022, 0.022, 0.044) | band =    17
 Effective mass tensor:
             -0.6267723049             -0.2302882928             -0.0003637831
             -0.2302882928             -0.4639408393             -0.0002799948
             -0.0003637831             -0.0002799948            -25.9902704254
 Effective mass tensor eigenvalues:
            -25.9902704338             -0.7896130260             -0.3011001098
 Angular average effective mass 1/(<1/m>)=  -0.6484981091
 Angular average effective mass for Frohlich model (<m**0.5>)**2=  -0.9901265590
 Effective masses along directions: (cart. coord. / red. coord. -> eff. mass)
    1:   1.000000  0.000000  0.000000 /   0.948683  0.316228  0.000000 ->  -0.5124631210
    2:   0.000000  1.000000  0.000000 /   0.000000  1.000000  0.000000 ->  -0.3793284563
    3:   0.000000  0.000000  1.000000 /   0.408248  0.408248  0.816497 -> -25.9902701578
    4:   0.577350  0.577350  0.577350 /   0.585539  0.688047  0.428644 ->  -1.1157391532
    5:   0.000000  0.707107  0.707107 /   0.289489  0.762222  0.578977 ->  -0.7477518808
    6:   0.707107  0.000000  0.707107 /   0.731423  0.422287  0.535439 ->  -1.0051250770
    7:   0.707107  0.707107  0.000000 /   0.616798  0.787122  0.000000 ->  -0.7546064922

 K-point ( 0.500, 0.000, 0.500) | band =    18
 Effective mass tensor:
              0.8777928685             -0.5270566016              0.6455103939
             -0.5270566016              1.2504780325             -0.9128899331
              0.6455103939             -0.9128899331              1.6231657025
 Effective mass tensor eigenvalues:
              0.5051072731              0.5051076834              2.7412216470
 Angular average effective mass 1/(<1/m>)=   0.6937452087
 Angular average effective mass for Frohlich model (<m**0.5>)**2=   0.7866420068
 Effective masses along directions: (cart. coord. / red. coord. -> eff. mass)
    1:   1.000000  0.000000  0.000000 /   0.948683  0.316228  0.000000 ->   0.5845855036
    2:   0.000000  1.000000  0.000000 /   0.000000  1.000000  0.000000 ->   0.6937447139
    3:   0.000000  0.000000  1.000000 /   0.408248  0.408248  0.816497 ->   0.8530326902
    4:   0.577350  0.577350  0.577350 /   0.585539  0.688047  0.428644 ->   0.5482578769
    5:   0.000000  0.707107  0.707107 /   0.289489  0.762222  0.578977 ->   0.5085999768
    6:   0.707107  0.000000  0.707107 /   0.731423  0.422287  0.535439 ->   1.0253802486
    7:   0.707107  0.707107  0.000000 /   0.616798  0.787122  0.000000 ->   0.5110681597

 END OF EFFECTIVE MASSES SECTION

 ---- first-order wavefunction calculations are completed ----

 Total localisation tensor (bohr^2) in cartesian coordinates
  WARNING : still subject to testing - especially symmetries.
      direction              matrix element
   alpha     beta       real part   imaginary part
     1        1       3.2412337892    0.0000000000
     1        2       0.9167596312    0.0000000000
     1        3       2.2455927529    0.0000000000
     2        1       0.9167596312    0.0000000000
     2        2       2.5929878077    0.0000000000
     2        3       1.5878742595    0.0000000000
     3        1       2.2455927529    0.0000000000
     3        2       1.5878742595    0.0000000000
     3        3       5.8222569819    0.0000000000

 respfn : d/dk was computed, but no 2DTE, so no DDB output.

== END DATASET(S) ==============================================================

 -outvars: echo values of variables after computation  --------
            acell      1.0000000000E+00  1.0000000000E+00  1.0000000000E+00 Bohr
              amu      9.12240000E+01  2.80855000E+01  1.06420000E+02
             ecut      4.10000000E+01 Hartree
           etotal     -3.8400374761E+01
            fcart      0.0000000000E+00  0.0000000000E+00  0.0000000000E+00
                       0.0000000000E+00  0.0000000000E+00  0.0000000000E+00
                       0.0000000000E+00  0.0000000000E+00  0.0000000000E+00
-          fftalg         512
           irdden           1
           irdwfk           1
           istwfk        0    1
              ixc     -116133
              kpt      2.20588235E-02  2.20588235E-02  4.41176471E-02
                       5.00000000E-01  0.00000000E+00  5.00000000E-01
           kptopt           0
P           mkmem           2
P          mkqmem           2
P          mk1mem           2
            natom           3
            nband          26
           nbdbuf           4
            ngfft          48      48      48
             nkpt           2
            nstep         100
             nsym          24
           ntypat           3
              occ      2.000000  2.000000  2.000000  2.000000  2.000000  2.000000
                       2.000000  2.000000  2.000000  2.000000  2.000000  2.000000
                       2.000000  2.000000  2.000000  2.000000  2.000000  0.000000
                       0.000000  0.000000  0.000000  0.000000  0.000000  0.000000
                       0.000000  0.000000
        optdriver           1
            prtwf          -1
            rfdir           1       1       1
           rfelfd           2
            rprim      6.9835713334E+00  0.0000000000E+00  4.0319667893E+00
                       2.3278571111E+00  6.5841741957E+00  4.0319667893E+00
                       0.0000000000E+00  0.0000000000E+00  8.0639335785E+00
          spgroup         216
           strten      0.0000000000E+00  0.0000000000E+00  0.0000000000E+00
                       0.0000000000E+00  0.0000000000E+00  0.0000000000E+00
           symrel      1  0  0   0  1  0   0  0  1       0 -1  1   0 -1  0   1 -1  0
                      -1  0  0  -1  0  1  -1  1  0       0  1 -1   1  0 -1   0  0 -1
                      -1  0  0  -1  1  0  -1  0  1       0 -1  1   1 -1  0   0 -1  0
                       1  0  0   0  0  1   0  1  0       0  1 -1   0  0 -1   1  0 -1
                      -1  0  1  -1  1  0  -1  0  0       0 -1  0   1 -1  0   0 -1  1
                       1  0 -1   0  0 -1   0  1 -1       0  1  0   0  0  1   1  0  0
                       1  0 -1   0  1 -1   0  0 -1       0 -1  0   0 -1  1   1 -1  0
                      -1  0  1  -1  0  0  -1  1  0       0  1  0   1  0  0   0  0  1
                       0  0 -1   0  1 -1   1  0 -1       1 -1  0   0 -1  1   0 -1  0
                       0  0  1   1  0  0   0  1  0      -1  1  0  -1  0  0  -1  0  1
                       0  0  1   0  1  0   1  0  0       1 -1  0   0 -1  0   0 -1  1
                       0  0 -1   1  0 -1   0  1 -1      -1  1  0  -1  0  1  -1  0  0
           tolwfr      1.00000000E-20
            typat      1  2  3
           useylm           1
              wtk        0.50000    0.50000
           xangst      2.4636978561E+00  1.7420974609E+00  4.2672498614E+00
                       0.0000000000E+00  0.0000000000E+00  0.0000000000E+00
                       1.2318489281E+00  8.7104873044E-01  2.1336249307E+00
            xcart      4.6557142222E+00  3.2920870979E+00  8.0639335785E+00
                       0.0000000000E+00  0.0000000000E+00  0.0000000000E+00
                       2.3278571111E+00  1.6460435489E+00  4.0319667893E+00
             xred      5.0000000000E-01  5.0000000000E-01  5.0000000000E-01
                       0.0000000000E+00  0.0000000000E+00  0.0000000000E+00
                       2.5000000000E-01  2.5000000000E-01  2.5000000000E-01
            znucl       40.00000   14.00000   46.00000

- Timing analysis has been suppressed with timopt=0

 Suggested references for the acknowledgment of ABINIT usage.

 Calculation completed.
.Delivered  14 WARNINGs and   9 COMMENTs to log file.