.Version 9.5.2 of ABINIT

 ABINIT is a project of the Universite Catholique de Louvain,
 Corning Inc. and other collaborators, see ~abinit/doc/developers/contributors.txt .
 acknowledgments of the ABINIT effort.

.Starting date : Mon 24 May 2021.
- ( at 11h40 )

- input  file    -> /scratch/users/j/a/jabreu/flow_simple_10atoms/flow/w349/t1/run.abi
- output file    -> /scratch/users/j/a/jabreu/flow_simple_10atoms/flow/w349/t1/run.abo
- root for input  files -> /scratch/users/j/a/jabreu/flow_simple_10atoms/flow/w349/t1/indata/in
- root for output files -> /scratch/users/j/a/jabreu/flow_simple_10atoms/flow/w349/t1/outdata/out

 Symmetries : space group Fm -3 m (#225); Bravais cF (face-center cubic)
     intxc =       0      iscf =       7    lmnmax =      32     lnmax =       8
     mgfft =      75  mpssoang =       4    mqgrid =    3001     natom =      10
  nloc_mem =       1    nspden =       1   nspinor =       1    nsppol =       1
      nsym =      48    n1xccc =    2501    ntypat =       4    occopt =       1
   xclevel =       2
-    mband =          52        mffmem =           1         mkmem =           2
-   mkqmem =           2        mk1mem =           2           mpw =       18366
      nfft =      421875          nkpt =           2
  Rough estimation (10% accuracy) of disk space for files :

------------- Echo of variables that govern the present computation ------------
-
- outvars: echo of selected default values
-   iomode0 =  0 , fftalg0 =512 , wfoptalg0 =  0
-
- outvars: echo of global parameters not present in the input file
-  max_nthreads =    0
-
 -outvars: echo values of preprocessed input variables --------
            acell      1.0000000000E+00  1.0000000000E+00  1.0000000000E+00 Bohr
              amu      1.32905430E+02  2.04383300E+02  1.14820000E+02
                       1.89984032E+01
             ecut      4.20000000E+01 Hartree
-          fftalg         512
           irdden           1
           irdwfk           1
           istwfk        1    1
              ixc     -116133
              kpt      5.00000000E-01  0.00000000E+00  5.00000000E-01
                       5.00000000E-01  5.00000000E-01  5.00000000E-01
           kptopt           0
P           mkmem           2
P          mkqmem           2
P          mk1mem           2
            natom          10
            nband          52
           nbdbuf           4
            ngfft          75      75      75
             nkpt           2
            nstep        2000
             nsym          48
           ntypat           4
              occ      2.000000  2.000000  2.000000  2.000000  2.000000  2.000000
                       2.000000  2.000000  2.000000  2.000000  2.000000  2.000000
                       2.000000  2.000000  2.000000  2.000000  2.000000  2.000000
                       2.000000  2.000000  2.000000  2.000000  2.000000  2.000000
                       2.000000  2.000000  2.000000  2.000000  2.000000  2.000000
                       2.000000  2.000000  2.000000  2.000000  2.000000  2.000000
                       2.000000  2.000000  2.000000  2.000000  2.000000  2.000000
                       2.000000  0.000000  0.000000  0.000000  0.000000  0.000000
                       0.000000  0.000000  0.000000  0.000000
        optdriver           1
            prtwf          -1
            rfdir           1       1       1
           rfelfd           2
            rprim      1.0903103093E+01  0.0000000000E+00  6.2949095055E+00
                       3.6343676975E+00  1.0279544177E+01  6.2949095055E+00
                       0.0000000000E+00  0.0000000000E+00  1.2589819011E+01
          spgroup         225
           symrel      1  0  0   0  1  0   0  0  1      -1  0  0   0 -1  0   0  0 -1
                       0 -1  1   0 -1  0   1 -1  0       0  1 -1   0  1  0  -1  1  0
                      -1  0  0  -1  0  1  -1  1  0       1  0  0   1  0 -1   1 -1  0
                       0  1 -1   1  0 -1   0  0 -1       0 -1  1  -1  0  1   0  0  1
                      -1  0  0  -1  1  0  -1  0  1       1  0  0   1 -1  0   1  0 -1
                       0 -1  1   1 -1  0   0 -1  0       0  1 -1  -1  1  0   0  1  0
                       1  0  0   0  0  1   0  1  0      -1  0  0   0  0 -1   0 -1  0
                       0  1 -1   0  0 -1   1  0 -1       0 -1  1   0  0  1  -1  0  1
                      -1  0  1  -1  1  0  -1  0  0       1  0 -1   1 -1  0   1  0  0
                       0 -1  0   1 -1  0   0 -1  1       0  1  0  -1  1  0   0  1 -1
                       1  0 -1   0  0 -1   0  1 -1      -1  0  1   0  0  1   0 -1  1
                       0  1  0   0  0  1   1  0  0       0 -1  0   0  0 -1  -1  0  0
                       1  0 -1   0  1 -1   0  0 -1      -1  0  1   0 -1  1   0  0  1
                       0 -1  0   0 -1  1   1 -1  0       0  1  0   0  1 -1  -1  1  0
                      -1  0  1  -1  0  0  -1  1  0       1  0 -1   1  0  0   1 -1  0
                       0  1  0   1  0  0   0  0  1       0 -1  0  -1  0  0   0  0 -1
                       0  0 -1   0  1 -1   1  0 -1       0  0  1   0 -1  1  -1  0  1
                       1 -1  0   0 -1  1   0 -1  0      -1  1  0   0  1 -1   0  1  0
                       0  0  1   1  0  0   0  1  0       0  0 -1  -1  0  0   0 -1  0
                      -1  1  0  -1  0  0  -1  0  1       1 -1  0   1  0  0   1  0 -1
                       0  0  1   0  1  0   1  0  0       0  0 -1   0 -1  0  -1  0  0
                       1 -1  0   0 -1  0   0 -1  1      -1  1  0   0  1  0   0  1 -1
                       0  0 -1   1  0 -1   0  1 -1       0  0  1  -1  0  1   0 -1  1
                      -1  1  0  -1  0  1  -1  0  0       1 -1  0   1  0 -1   1  0  0
           tolwfr      1.00000000E-20
            typat      1  1  2  3  4  4  4  4  4  4
           useylm           1
              wtk        0.50000    0.50000
           xangst      1.9232245532E+00  1.3599251233E+00  3.3311226404E+00
                       5.7696736595E+00  4.0797753699E+00  9.9933679213E+00
                       0.0000000000E+00  0.0000000000E+00  0.0000000000E+00
                       3.8464491063E+00  2.7198502466E+00  6.6622452809E+00
                       2.9942183030E+00  3.9250866069E+00  8.1383523321E+00
                       4.6986799097E+00  1.5146138862E+00  8.1383523321E+00
                       2.9942183030E+00  3.9250866069E+00  5.1861382297E+00
                       2.1419874996E+00  1.5146138862E+00  6.6622452809E+00
                       5.5509107130E+00  3.9250866069E+00  6.6622452809E+00
                       4.6986799097E+00  1.5146138862E+00  5.1861382297E+00
            xcart      3.6343676975E+00  2.5698860443E+00  6.2949095055E+00
                       1.0903103093E+01  7.7096581328E+00  1.8884728516E+01
                       0.0000000000E+00  0.0000000000E+00  0.0000000000E+00
                       7.2687353951E+00  5.1397720885E+00  1.2589819011E+01
                       5.6582525747E+00  7.4173387350E+00  1.5379257081E+01
                       8.8792182154E+00  2.8622054420E+00  1.5379257081E+01
                       5.6582525747E+00  7.4173387350E+00  9.8003809415E+00
                       4.0477697544E+00  2.8622054420E+00  1.2589819011E+01
                       1.0489701036E+01  7.4173387350E+00  1.2589819011E+01
                       8.8792182154E+00  2.8622054420E+00  9.8003809415E+00
             xred      2.5000000000E-01  2.5000000000E-01  2.5000000000E-01
                       7.5000000000E-01  7.5000000000E-01  7.5000000000E-01
                       0.0000000000E+00  0.0000000000E+00  0.0000000000E+00
                       5.0000000000E-01  5.0000000000E-01  5.0000000000E-01
                       2.7843700000E-01  7.2156300000E-01  7.2156300000E-01
                       7.2156300000E-01  2.7843700000E-01  7.2156300000E-01
                       2.7843700000E-01  7.2156300000E-01  2.7843700000E-01
                       2.7843700000E-01  2.7843700000E-01  7.2156300000E-01
                       7.2156300000E-01  7.2156300000E-01  2.7843700000E-01
                       7.2156300000E-01  2.7843700000E-01  2.7843700000E-01
            znucl       55.00000   81.00000   49.00000    9.00000

 chkinp: Checking input parameters for consistency.

== DATASET  1 ==================================================================
-   mpi_nproc: 1, omp_nthreads: -1 (-1 if OMP is not activated)

--- !DatasetInfo
iteration_state: {dtset: 1, }
dimensions: {natom: 10, nkpt: 2, mband: 52, nsppol: 1, nspinor: 1, nspden: 1, mpw: 18366, }
cutoff_energies: {ecut:  42.0, pawecutdg:  -1.0, }
electrons: {nelect:   8.60000000E+01, charge:   0.00000000E+00, occopt:   1.00000000E+00, tsmear:   1.00000000E-02, }
meta: {optdriver: 1, rfelfd: 2, }
...

 Real(R)+Recip(G) space primitive vectors, cartesian coordinates (Bohr,Bohr^-1):
 R(1)= 10.9031031  0.0000000  6.2949095  G(1)=  0.0917170 -0.0324269  0.0000000
 R(2)=  3.6343677 10.2795442  6.2949095  G(2)=  0.0000000  0.0972806  0.0000000
 R(3)=  0.0000000  0.0000000 12.5898190  G(3)= -0.0458585 -0.0324269  0.0794293
 Unit cell volume ucvol=  1.4110534E+03 bohr^3
 Angles (23,13,12)=  6.00000000E+01  6.00000000E+01  6.00000000E+01 degrees

 getcut: wavevector=  0.0000  0.0000  0.0000  ngfft=  75  75  75
         ecut(hartree)=     42.000   => boxcut(ratio)=   2.01512

--- Pseudopotential description ------------------------------------------------
- pspini: atom type   1  psp file is /scratch/users/j/a/jabreu/pseudos/PBEsol/Cs.psp8
- pspatm: opening atomic psp file    /scratch/users/j/a/jabreu/pseudos/PBEsol/Cs.psp8
- Cs    ONCVPSP-3.3.0  r_core=   2.27353   1.85623   2.01788   1.90105
- 55.00000   9.00000    180112                znucl, zion, pspdat
    8 -116133    3    4       600   0.00000   pspcod,pspxc,lmax,lloc,mmax,r2well
    5.99000000000000    5.00000000000000    0.00000000000000   rchrg,fchrg,qchrg
     nproj     2     2     2     2
     extension_switch     1
  pspatm : epsatm=   22.12462445
         --- l  ekb(1:nproj) -->
             0    6.214110    0.767882
             1    6.311966    0.793598
             2    3.769790    0.913105
             3   -9.247129   -2.432478
 pspatm: atomic psp has been read  and splines computed

- pspini: atom type   2  psp file is /scratch/users/j/a/jabreu/pseudos/PBEsol/Tl.psp8
- pspatm: opening atomic psp file    /scratch/users/j/a/jabreu/pseudos/PBEsol/Tl.psp8
- Tl    ONCVPSP-3.3.0  r_core=   2.10510   2.60929   2.00701
- 81.00000  13.00000    180112                znucl, zion, pspdat
    8 -116133    2    4       600   0.00000   pspcod,pspxc,lmax,lloc,mmax,r2well
    5.99000000000000    7.00000000000000    0.00000000000000   rchrg,fchrg,qchrg
     nproj     2     2     2
     extension_switch     1
  pspatm : epsatm=   37.24354552
         --- l  ekb(1:nproj) -->
             0    6.297242    0.908324
             1    4.393460    0.899003
             2   -2.697741   -0.589563
 pspatm: atomic psp has been read  and splines computed

[...]

- pspini: atom type   4  psp file is /scratch/users/j/a/jabreu/pseudos/PBEsol/F.psp8
- pspatm: opening atomic psp file    /scratch/users/j/a/jabreu/pseudos/PBEsol/F.psp8
[...]
 ETOT 12  -46.360391639965     -2.046E-11 5.199E-06 0.000E+00
 ETOT 13  -46.360391639969     -3.688E-12 1.958E-06 0.000E+00
 ETOT 14  -46.360391639970     -6.395E-13 1.419E-06 0.000E+00
 ETOT 15  -46.360391639970     -1.137E-13 5.300E-07 0.000E+00
 ETOT 16  -46.360391639970     -6.395E-14 3.878E-07 0.000E+00
 ETOT 17  -46.360391639970      0.000E+00 1.440E-07 0.000E+00
 ETOT 18  -46.360391639970      1.421E-14 1.061E-07 0.000E+00
 ETOT 19  -46.360391639970     -6.395E-14 3.918E-08 0.000E+00
 ETOT 20  -46.360391639970      4.263E-14 2.905E-08 0.000E+00
 ETOT 21  -46.360391639970     -7.105E-15 1.068E-08 0.000E+00
 ETOT 22  -46.360391639970      7.105E-15 7.951E-09 0.000E+00
 ETOT 23  -46.360391639970     -1.421E-14 2.912E-09 0.000E+00
 ETOT 24  -46.360391639970     -1.421E-14 2.176E-09 0.000E+00
 ETOT 25  -46.360391639970      0.000E+00 7.946E-10 0.000E+00
 ETOT 26  -46.360391639970      1.421E-14 5.956E-10 0.000E+00
 ETOT 27  -46.360391639970     -2.132E-14 2.169E-10 0.000E+00
 ETOT 28  -46.360391639970      2.132E-14 1.630E-10 0.000E+00
 ETOT 29  -46.360391639970      0.000E+00 5.921E-11 0.000E+00
 ETOT 30  -46.360391639970     -1.421E-14 4.458E-11 0.000E+00
 ETOT 31  -46.360391639970      7.105E-15 1.617E-11 0.000E+00
 ETOT 32  -46.360391639970     -7.105E-15 1.219E-11 0.000E+00
 ETOT 33  -46.360391639970      1.421E-14 4.416E-12 0.000E+00
 ETOT 34  -46.360391639970      0.000E+00 3.334E-12 0.000E+00
 ETOT 35  -46.360391639970     -2.842E-14 1.207E-12 0.000E+00
 ETOT 36  -46.360391639970      2.842E-14 9.118E-13 0.000E+00
 ETOT 37  -46.360391639970      0.000E+00 3.298E-13 0.000E+00
 ETOT 38  -46.360391639970      0.000E+00 2.493E-13 0.000E+00
 ETOT 39  -46.360391639970      0.000E+00 9.019E-14 0.000E+00
 ETOT 40  -46.360391639970     -1.421E-14 6.819E-14 0.000E+00
 ETOT 41  -46.360391639970      1.421E-14 2.468E-14 0.000E+00
 ETOT 42  -46.360391639970      0.000E+00 1.865E-14 0.000E+00
 ETOT 43  -46.360391639970     -1.421E-14 6.760E-15 0.000E+00
 ETOT 44  -46.360391639970      1.421E-14 5.104E-15 0.000E+00
 ETOT 45  -46.360391639970     -7.105E-15 1.854E-15 0.000E+00
 ETOT 46  -46.360391639970      7.105E-15 1.397E-15 0.000E+00
 ETOT 47  -46.360391639970     -1.421E-14 5.090E-16 0.000E+00
 ETOT 48  -46.360391639970      1.421E-14 3.827E-16 0.000E+00
 ETOT 49  -46.360391639970     -7.105E-15 1.400E-16 0.000E+00
 ETOT 50  -46.360391639970      1.421E-14 1.049E-16 0.000E+00
 ETOT 51  -46.360391639970      7.105E-15 3.856E-17 0.000E+00
 ETOT 52  -46.360391639970     -2.132E-14 2.881E-17 0.000E+00
 ETOT 53  -46.360391639970      2.132E-14 1.064E-17 0.000E+00
 ETOT 54  -46.360391639970     -7.105E-15 7.917E-18 0.000E+00
 ETOT 55  -46.360391639970     -1.421E-14 2.940E-18 0.000E+00
 ETOT 56  -46.360391639970      7.105E-15 2.179E-18 0.000E+00
 ETOT 57  -46.360391639970      7.105E-15 8.132E-19 0.000E+00
 ETOT 58  -46.360391639970      7.105E-15 6.004E-19 0.000E+00
 ETOT 59  -46.360391639970     -7.105E-15 2.251E-19 0.000E+00
 ETOT 60  -46.360391639970     -7.105E-15 1.656E-19 0.000E+00
 ETOT 61  -46.360391639970      7.105E-15 6.233E-20 0.000E+00
 ETOT 62  -46.360391639970     -7.105E-15 4.572E-20 0.000E+00
 ETOT 63  -46.360391639970      0.000E+00 1.726E-20 0.000E+00
 ETOT 64  -46.360391639970      0.000E+00 1.263E-20 0.000E+00
 ETOT 65  -46.360391639970      0.000E+00 9.977E-21 0.000E+00

 At SCF step   65   max residual=  9.98E-21 < tolwfr=  1.00E-20 =>converged.

 ----iterations are completed or convergence reached----

 dfpt_looppert: DFPT cycle converged with prtwf=-1. Will skip output of the 1st-order WFK file.
 dfpt_looppert : ek2=    6.4259962689E+01
          f-sum rule ratio=    1.0018283952E+00
 prteigrs : about to open file /scratch/users/j/a/jabreu/flow_simple_10atoms/flow/w349/t1/tmpdata/tmp_1WF1_EIG
 Expectation of eigenvalue derivatives (hartree) for nkpt=   2  k points:
  (in case of degenerate eigenvalues, averaged derivative)
 kpt#   1, nband= 52, wtk=  0.50000, kpt=  0.5000  0.0000  0.5000 (reduced coord)
  -0.00000    0.00000   -0.00000    0.00000    0.00000    0.00000    0.00000   -0.00000
   0.00000    0.00000   -0.00000    0.00000   -0.00000    0.00000   -0.00000   -0.00000
   0.00000   -0.00000   -0.00000   -0.00000   -0.00000   -0.00000   -0.00000    0.00000
   0.00000   -0.00000   -0.00000   -0.00000    0.00000   -0.00000    0.00000   -0.00000
  -0.00000   -0.00000   -0.00000   -0.00000   -0.00000   -0.00000    0.00000    0.00000
  -0.00000   -0.00000   -0.00000   -0.00000   -0.00000    0.00000    0.00000   -0.00000
  -0.00000   -0.00020    0.00058    0.02645
 prteigrs : prtvol=0 or 1, do not print more k-points.

 Eight components of 2nd-order total energy (hartree) are
 1,2,3: 0th-order hamiltonian combined with 1st-order wavefunctions
     kin0=   5.96586006E+01 eigvalue=   4.27126815E+00  local=  -3.04018974E+01
 4,5,6: 1st-order hamiltonian combined with 1st and 0th-order wfs
     kin1=  -6.43774553E+01  Hartree=   0.00000000E+00     xc=   0.00000000E+00
 7,8,9: eventually, occupation + non-local contributions
    edocc=   5.61062548E+00     enl0=   7.22179477E+00   enl1=  -2.83433280E+01
 1-9 gives the relaxation energy (to be shifted if some occ is /=2.0)
   erelax=  -4.63603916E+01
  No Ewald or frozen-wf contrib.: the relaxation energy is the total one
 2DEtotal=   -0.4636039164E+02 Ha. Also 2DEtotal=   -0.126153041282E+04 eV
    (  non-var. 2DEtotal :   -4.6360391640E+01 Ha)

 CALCULATION OF EFFECTIVE MASSES
 NOTE : Additional infos (eff. mass eigenvalues, eigenvectors and, if degenerate, average mass) are available in stdout.

 K-point ( 0.500, 0.000, 0.500) | band =    43
 Effective mass tensor:
             -2.3383198826             -0.5247034688              0.6423539931
             -0.5247034688             -1.9672486135             -0.9087319993
              0.6423539931             -0.9087319993             -1.5962547973
 Effective mass tensor eigenvalues:
             -2.7093669466             -2.7090468474             -0.4834094994
 Angular average effective mass 1/(<1/m>)=  -1.0688088597
 Angular average effective mass for Frohlich model (<m**0.5>)**2=  -1.3362684993
 Effective masses along directions: (cart. coord. / red. coord. -> eff. mass)
    1:   1.000000  0.000000  0.000000 /   0.948683  0.316228  0.000000 ->  -1.5330429149
    2:   0.000000  1.000000  0.000000 /   0.000000  1.000000  0.000000 ->  -1.0687345622
    3:   0.000000  0.000000  1.000000 /   0.408248  0.408248  0.816497 ->  -0.8204256654
    4:   0.577350  0.577350  0.577350 /   0.585539  0.688047  0.428644 ->  -1.8761245189
    5:   0.000000  0.707107  0.707107 /   0.289489  0.762222  0.578977 ->  -2.6081754506
    6:   0.707107  0.000000  0.707107 /   0.731423  0.422287  0.535439 ->  -0.7012011615
    7:   0.707107  0.707107  0.000000 /   0.616798  0.787122  0.000000 ->  -2.5418263494

 K-point ( 0.500, 0.500, 0.500) | band =    44
 Effective mass tensor:
              0.7289520167              0.0994154286              0.2435133774
              0.0994154286              0.6586596535              0.1721873580
              0.2435133774              0.1721873580              1.0101398626
 Effective mass tensor eigenvalues:
              0.5883586987              0.5883656497              1.2210271844
 Angular average effective mass 1/(<1/m>)=   0.7111955061
 Angular average effective mass for Frohlich model (<m**0.5>)**2=   0.7331879850
 Effective masses along directions: (cart. coord. / red. coord. -> eff. mass)
    1:   1.000000  0.000000  0.000000 /   0.948683  0.316228  0.000000 ->   0.6649201893
    2:   0.000000  1.000000  0.000000 /   0.000000  1.000000  0.000000 ->   0.6243059334
    3:   0.000000  0.000000  1.000000 /   0.408248  0.408248  0.816497 ->   0.8988516041
    4:   0.577350  0.577350  0.577350 /   0.585539  0.688047  0.428644 ->   1.0775107771
    5:   0.000000  0.707107  0.707107 /   0.289489  0.762222  0.578977 ->   0.8948722830
    6:   0.707107  0.000000  0.707107 /   0.731423  0.422287  0.535439 ->   1.0317029517
    7:   0.707107  0.707107  0.000000 /   0.616798  0.787122  0.000000 ->   0.7069770900

 END OF EFFECTIVE MASSES SECTION

 ---- first-order wavefunction calculations are completed ----

 Total localisation tensor (bohr^2) in cartesian coordinates
  WARNING : still subject to testing - especially symmetries.
      direction              matrix element
   alpha     beta       real part   imaginary part
     1        1       0.8601503888    0.0000000000
     1        2       0.2432865366    0.0000000000
     1        3       0.5959293712    0.0000000000
     2        1       0.2432865366    0.0000000000
     2        2       0.6881182393    0.0000000000
     2        3       0.4213846422    0.0000000000
     3        1       0.5959293712    0.0000000000
     3        2       0.4213846422    0.0000000000
     3        3       1.5482638241    0.0000000000

 respfn : d/dk was computed, but no 2DTE, so no DDB output.

== END DATASET(S) ==============================================================

 -outvars: echo values of variables after computation  --------
            acell      1.0000000000E+00  1.0000000000E+00  1.0000000000E+00 Bohr
              amu      1.32905430E+02  2.04383300E+02  1.14820000E+02
                       1.89984032E+01
             ecut      4.20000000E+01 Hartree
           etotal     -4.6360391640E+01
            fcart      0.0000000000E+00  0.0000000000E+00  0.0000000000E+00
                       0.0000000000E+00  0.0000000000E+00  0.0000000000E+00
                       0.0000000000E+00  0.0000000000E+00  0.0000000000E+00
                       0.0000000000E+00  0.0000000000E+00  0.0000000000E+00
                       0.0000000000E+00  0.0000000000E+00  0.0000000000E+00
                       0.0000000000E+00  0.0000000000E+00  0.0000000000E+00
                       0.0000000000E+00  0.0000000000E+00  0.0000000000E+00
                       0.0000000000E+00  0.0000000000E+00  0.0000000000E+00
                       0.0000000000E+00  0.0000000000E+00  0.0000000000E+00
                       0.0000000000E+00  0.0000000000E+00  0.0000000000E+00
-          fftalg         512
           irdden           1
           irdwfk           1
           istwfk        1    1
              ixc     -116133
              kpt      5.00000000E-01  0.00000000E+00  5.00000000E-01
                       5.00000000E-01  5.00000000E-01  5.00000000E-01
           kptopt           0
P           mkmem           2
P          mkqmem           2
P          mk1mem           2
            natom          10
            nband          52
           nbdbuf           4
            ngfft          75      75      75
             nkpt           2
            nstep        2000
             nsym          48
           ntypat           4
              occ      2.000000  2.000000  2.000000  2.000000  2.000000  2.000000
                       2.000000  2.000000  2.000000  2.000000  2.000000  2.000000
                       2.000000  2.000000  2.000000  2.000000  2.000000  2.000000
                       2.000000  2.000000  2.000000  2.000000  2.000000  2.000000
                       2.000000  2.000000  2.000000  2.000000  2.000000  2.000000
                       2.000000  2.000000  2.000000  2.000000  2.000000  2.000000
                       2.000000  2.000000  2.000000  2.000000  2.000000  2.000000
                       2.000000  0.000000  0.000000  0.000000  0.000000  0.000000
                       0.000000  0.000000  0.000000  0.000000
        optdriver           1
            prtwf          -1
            rfdir           1       1       1
           rfelfd           2
            rprim      1.0903103093E+01  0.0000000000E+00  6.2949095055E+00
                       3.6343676975E+00  1.0279544177E+01  6.2949095055E+00
                       0.0000000000E+00  0.0000000000E+00  1.2589819011E+01
          spgroup         225
           strten      0.0000000000E+00  0.0000000000E+00  0.0000000000E+00
                       0.0000000000E+00  0.0000000000E+00  0.0000000000E+00
           symrel      1  0  0   0  1  0   0  0  1      -1  0  0   0 -1  0   0  0 -1
                       0 -1  1   0 -1  0   1 -1  0       0  1 -1   0  1  0  -1  1  0
                      -1  0  0  -1  0  1  -1  1  0       1  0  0   1  0 -1   1 -1  0
                       0  1 -1   1  0 -1   0  0 -1       0 -1  1  -1  0  1   0  0  1
                      -1  0  0  -1  1  0  -1  0  1       1  0  0   1 -1  0   1  0 -1
                       0 -1  1   1 -1  0   0 -1  0       0  1 -1  -1  1  0   0  1  0
                       1  0  0   0  0  1   0  1  0      -1  0  0   0  0 -1   0 -1  0
                       0  1 -1   0  0 -1   1  0 -1       0 -1  1   0  0  1  -1  0  1
                      -1  0  1  -1  1  0  -1  0  0       1  0 -1   1 -1  0   1  0  0
                       0 -1  0   1 -1  0   0 -1  1       0  1  0  -1  1  0   0  1 -1
                       1  0 -1   0  0 -1   0  1 -1      -1  0  1   0  0  1   0 -1  1
                       0  1  0   0  0  1   1  0  0       0 -1  0   0  0 -1  -1  0  0
                       1  0 -1   0  1 -1   0  0 -1      -1  0  1   0 -1  1   0  0  1
                       0 -1  0   0 -1  1   1 -1  0       0  1  0   0  1 -1  -1  1  0
                      -1  0  1  -1  0  0  -1  1  0       1  0 -1   1  0  0   1 -1  0
                       0  1  0   1  0  0   0  0  1       0 -1  0  -1  0  0   0  0 -1
                       0  0 -1   0  1 -1   1  0 -1       0  0  1   0 -1  1  -1  0  1
                       1 -1  0   0 -1  1   0 -1  0      -1  1  0   0  1 -1   0  1  0
                       0  0  1   1  0  0   0  1  0       0  0 -1  -1  0  0   0 -1  0
                      -1  1  0  -1  0  0  -1  0  1       1 -1  0   1  0  0   1  0 -1
                       0  0  1   0  1  0   1  0  0       0  0 -1   0 -1  0  -1  0  0
                       1 -1  0   0 -1  0   0 -1  1      -1  1  0   0  1  0   0  1 -1
                       0  0 -1   1  0 -1   0  1 -1       0  0  1  -1  0  1   0 -1  1
                      -1  1  0  -1  0  1  -1  0  0       1 -1  0   1  0 -1   1  0  0
           tolwfr      1.00000000E-20
            typat      1  1  2  3  4  4  4  4  4  4
           useylm           1
              wtk        0.50000    0.50000
           xangst      1.9232245532E+00  1.3599251233E+00  3.3311226404E+00
                       5.7696736595E+00  4.0797753699E+00  9.9933679213E+00
                       0.0000000000E+00  0.0000000000E+00  0.0000000000E+00
                       3.8464491063E+00  2.7198502466E+00  6.6622452809E+00
                       2.9942183030E+00  3.9250866069E+00  8.1383523321E+00
                       4.6986799097E+00  1.5146138862E+00  8.1383523321E+00
                       2.9942183030E+00  3.9250866069E+00  5.1861382297E+00
                       2.1419874996E+00  1.5146138862E+00  6.6622452809E+00
                       5.5509107130E+00  3.9250866069E+00  6.6622452809E+00
                       4.6986799097E+00  1.5146138862E+00  5.1861382297E+00
            xcart      3.6343676975E+00  2.5698860443E+00  6.2949095055E+00
                       1.0903103093E+01  7.7096581328E+00  1.8884728516E+01
                       0.0000000000E+00  0.0000000000E+00  0.0000000000E+00
                       7.2687353951E+00  5.1397720885E+00  1.2589819011E+01
                       5.6582525747E+00  7.4173387350E+00  1.5379257081E+01
                       8.8792182154E+00  2.8622054420E+00  1.5379257081E+01
                       5.6582525747E+00  7.4173387350E+00  9.8003809415E+00
                       4.0477697544E+00  2.8622054420E+00  1.2589819011E+01
                       1.0489701036E+01  7.4173387350E+00  1.2589819011E+01
                       8.8792182154E+00  2.8622054420E+00  9.8003809415E+00
             xred      2.5000000000E-01  2.5000000000E-01  2.5000000000E-01
                       7.5000000000E-01  7.5000000000E-01  7.5000000000E-01
                       0.0000000000E+00  0.0000000000E+00  0.0000000000E+00
                       5.0000000000E-01  5.0000000000E-01  5.0000000000E-01
                       2.7843700000E-01  7.2156300000E-01  7.2156300000E-01
                       7.2156300000E-01  2.7843700000E-01  7.2156300000E-01
                       2.7843700000E-01  7.2156300000E-01  2.7843700000E-01
                       2.7843700000E-01  2.7843700000E-01  7.2156300000E-01
                       7.2156300000E-01  7.2156300000E-01  2.7843700000E-01
                       7.2156300000E-01  2.7843700000E-01  2.7843700000E-01
            znucl       55.00000   81.00000   49.00000    9.00000

- Timing analysis has been suppressed with timopt=0

 Suggested references for the acknowledgment of ABINIT usage.

 Calculation completed.
.Delivered   2 WARNINGs and   5 COMMENTs to log file.