.Version 9.5.2 of ABINIT

 ABINIT is a project of the Universite Catholique de Louvain,
 Corning Inc. and other collaborators, see ~abinit/doc/developers/contributors.txt .
 acknowledgments of the ABINIT effort.

.Starting date : Mon 24 May 2021.
- ( at 11h46 )

- input  file    -> /scratch/users/j/a/jabreu/flow_simple_10atoms/flow/w364/t1/run.abi
- output file    -> /scratch/users/j/a/jabreu/flow_simple_10atoms/flow/w364/t1/run.abo
- root for input  files -> /scratch/users/j/a/jabreu/flow_simple_10atoms/flow/w364/t1/indata/in
- root for output files -> /scratch/users/j/a/jabreu/flow_simple_10atoms/flow/w364/t1/outdata/out

 Symmetries : space group Fm -3 m (#225); Bravais cF (face-center cubic)
     intxc =       0      iscf =       7    lmnmax =      32     lnmax =       8
     mgfft =      72  mpssoang =       4    mqgrid =    3001     natom =      10
  nloc_mem =       1    nspden =       1   nspinor =       1    nsppol =       1
      nsym =      48    n1xccc =    2501    ntypat =       4    occopt =       1
   xclevel =       2
-    mband =          47        mffmem =           1         mkmem =           1
-   mkqmem =           1        mk1mem =           1           mpw =       14553
      nfft =      373248          nkpt =           1
  Rough estimation (10% accuracy) of disk space for files :

------------- Echo of variables that govern the present computation ------------
-
- outvars: echo of selected default values
-   iomode0 =  0 , fftalg0 =512 , wfoptalg0 =  0
-
- outvars: echo of global parameters not present in the input file
-  max_nthreads =    0
-
 -outvars: echo values of preprocessed input variables --------
            acell      1.0000000000E+00  1.0000000000E+00  1.0000000000E+00 Bohr
              amu      1.32905430E+02  6.94100000E+00  2.04383300E+02
                       1.89984032E+01
             ecut      4.20000000E+01 Hartree
-          fftalg         512
           irdden           1
           irdwfk           1
           istwfk        1
              ixc     -116133
           kptopt           0
P           mkmem           1
P          mkqmem           1
P          mk1mem           1
            natom          10
            nband          47
           nbdbuf           4
            ngfft          72      72      72
             nkpt           1
            nstep        2000
             nsym          48
           ntypat           4
              occ      2.000000  2.000000  2.000000  2.000000  2.000000  2.000000
                       2.000000  2.000000  2.000000  2.000000  2.000000  2.000000
                       2.000000  2.000000  2.000000  2.000000  2.000000  2.000000
                       2.000000  2.000000  2.000000  2.000000  2.000000  2.000000
                       2.000000  2.000000  2.000000  2.000000  2.000000  2.000000
                       2.000000  2.000000  2.000000  2.000000  2.000000  2.000000
                       2.000000  2.000000  0.000000  0.000000  0.000000  0.000000
                       0.000000  0.000000  0.000000  0.000000  0.000000
        optdriver           1
            prtwf          -1
            rfdir           1       1       1
           rfelfd           2
            rprim      1.0102261330E+01  0.0000000000E+00  5.8325432982E+00
                       3.3674204433E+00  9.5245033221E+00  5.8325432982E+00
                       0.0000000000E+00  0.0000000000E+00  1.1665086596E+01
          spgroup         225
           symrel      1  0  0   0  1  0   0  0  1      -1  0  0   0 -1  0   0  0 -1
                       0 -1  1   0 -1  0   1 -1  0       0  1 -1   0  1  0  -1  1  0
                      -1  0  0  -1  0  1  -1  1  0       1  0  0   1  0 -1   1 -1  0
                       0  1 -1   1  0 -1   0  0 -1       0 -1  1  -1  0  1   0  0  1
                      -1  0  0  -1  1  0  -1  0  1       1  0  0   1 -1  0   1  0 -1
                       0 -1  1   1 -1  0   0 -1  0       0  1 -1  -1  1  0   0  1  0
                       1  0  0   0  0  1   0  1  0      -1  0  0   0  0 -1   0 -1  0
                       0  1 -1   0  0 -1   1  0 -1       0 -1  1   0  0  1  -1  0  1
                      -1  0  1  -1  1  0  -1  0  0       1  0 -1   1 -1  0   1  0  0
                       0 -1  0   1 -1  0   0 -1  1       0  1  0  -1  1  0   0  1 -1
                       1  0 -1   0  0 -1   0  1 -1      -1  0  1   0  0  1   0 -1  1
                       0  1  0   0  0  1   1  0  0       0 -1  0   0  0 -1  -1  0  0
                       1  0 -1   0  1 -1   0  0 -1      -1  0  1   0 -1  1   0  0  1
                       0 -1  0   0 -1  1   1 -1  0       0  1  0   0  1 -1  -1  1  0
                      -1  0  1  -1  0  0  -1  1  0       1  0 -1   1  0  0   1 -1  0
                       0  1  0   1  0  0   0  0  1       0 -1  0  -1  0  0   0  0 -1
                       0  0 -1   0  1 -1   1  0 -1       0  0  1   0 -1  1  -1  0  1
                       1 -1  0   0 -1  1   0 -1  0      -1  1  0   0  1 -1   0  1  0
                       0  0  1   1  0  0   0  1  0       0  0 -1  -1  0  0   0 -1  0
                      -1  1  0  -1  0  0  -1  0  1       1 -1  0   1  0  0   1  0 -1
                       0  0  1   0  1  0   1  0  0       0  0 -1   0 -1  0  -1  0  0
                       1 -1  0   0 -1  0   0 -1  1      -1  1  0   0  1  0   0  1 -1
                       0  0 -1   1  0 -1   0  1 -1       0  0  1  -1  0  1   0 -1  1
                      -1  1  0  -1  0  1  -1  0  0       1 -1  0   1  0 -1   1  0  0
           tolwfr      1.00000000E-20
            typat      1  1  2  3  4  4  4  4  4  4
           useylm           1
           xangst      5.3458864510E+00  3.7801125609E+00  9.2593469446E+00
                       1.7819621503E+00  1.2600375203E+00  3.0864489815E+00
                       0.0000000000E+00  0.0000000000E+00  0.0000000000E+00
                       3.5639243006E+00  2.5200750406E+00  6.1728979630E+00
                       4.4593674090E+00  1.2537272524E+00  4.6219450040E+00
                       2.6684811923E+00  3.7864228288E+00  4.6219450040E+00
                       4.4593674090E+00  1.2537272524E+00  7.7238509221E+00
                       5.3548105174E+00  3.7864228288E+00  6.1728979630E+00
                       1.7730380839E+00  1.2537272524E+00  6.1728979630E+00
                       2.6684811923E+00  3.7864228288E+00  7.7238509221E+00
            xcart      1.0102261330E+01  7.1433774916E+00  1.7497629895E+01
                       3.3674204433E+00  2.3811258305E+00  5.8325432982E+00
                       0.0000000000E+00  0.0000000000E+00  0.0000000000E+00
                       6.7348408865E+00  4.7622516610E+00  1.1665086596E+01
                       8.4269831290E+00  2.3692011524E+00  8.7342102589E+00
                       5.0426986441E+00  7.1553021697E+00  8.7342102589E+00
                       8.4269831290E+00  2.3692011524E+00  1.4595962934E+01
                       1.0119125371E+01  7.1553021697E+00  1.1665086596E+01
                       3.3505564017E+00  2.3692011524E+00  1.1665086596E+01
                       5.0426986441E+00  7.1553021697E+00  1.4595962934E+01
             xred      7.5000000000E-01  7.5000000000E-01  7.5000000000E-01
                       2.5000000000E-01  2.5000000000E-01  2.5000000000E-01
                       0.0000000000E+00  0.0000000000E+00  0.0000000000E+00
                       5.0000000000E-01  5.0000000000E-01  5.0000000000E-01
                       7.5125200000E-01  2.4874800000E-01  2.4874800000E-01
                       2.4874800000E-01  7.5125200000E-01  2.4874800000E-01
                       7.5125200000E-01  2.4874800000E-01  7.5125200000E-01
                       7.5125200000E-01  7.5125200000E-01  2.4874800000E-01
                       2.4874800000E-01  2.4874800000E-01  7.5125200000E-01
                       2.4874800000E-01  7.5125200000E-01  7.5125200000E-01
            znucl       55.00000    3.00000   81.00000    9.00000

 chkinp: Checking input parameters for consistency.

== DATASET  1 ==================================================================
-   mpi_nproc: 1, omp_nthreads: -1 (-1 if OMP is not activated)

--- !DatasetInfo
iteration_state: {dtset: 1, }
dimensions: {natom: 10, nkpt: 1, mband: 47, nsppol: 1, nspinor: 1, nspden: 1, mpw: 14553, }
cutoff_energies: {ecut:  42.0, pawecutdg:  -1.0, }
electrons: {nelect:   7.60000000E+01, charge:   0.00000000E+00, occopt:   1.00000000E+00, tsmear:   1.00000000E-02, }
meta: {optdriver: 1, rfelfd: 2, }
...

 Real(R)+Recip(G) space primitive vectors, cartesian coordinates (Bohr,Bohr^-1):
 R(1)= 10.1022613  0.0000000  5.8325433  G(1)=  0.0989877 -0.0349975  0.0000000
 R(2)=  3.3674204  9.5245033  5.8325433  G(2)=  0.0000000  0.1049924  0.0000000
 R(3)=  0.0000000  0.0000000 11.6650866  G(3)= -0.0494939 -0.0349975  0.0857259
 Unit cell volume ucvol=  1.1224032E+03 bohr^3
 Angles (23,13,12)=  6.00000000E+01  6.00000000E+01  6.00000000E+01 degrees

 getcut: wavevector=  0.0000  0.0000  0.0000  ngfft=  72  72  72
         ecut(hartree)=     42.000   => boxcut(ratio)=   2.11570

--- Pseudopotential description ------------------------------------------------
- pspini: atom type   1  psp file is /scratch/users/j/a/jabreu/pseudos/PBEsol/Cs.psp8
- pspatm: opening atomic psp file    /scratch/users/j/a/jabreu/pseudos/PBEsol/Cs.psp8
- Cs    ONCVPSP-3.3.0  r_core=   2.27353   1.85623   2.01788   1.90105
- 55.00000   9.00000    180112                znucl, zion, pspdat
    8 -116133    3    4       600   0.00000   pspcod,pspxc,lmax,lloc,mmax,r2well
    5.99000000000000    5.00000000000000    0.00000000000000   rchrg,fchrg,qchrg
     nproj     2     2     2     2
     extension_switch     1
  pspatm : epsatm=   22.12462445
         --- l  ekb(1:nproj) -->
             0    6.214110    0.767882
             1    6.311966    0.793598
             2    3.769790    0.913105
             3   -9.247129   -2.432478
 pspatm: atomic psp has been read  and splines computed

- pspini: atom type   2  psp file is /scratch/users/j/a/jabreu/pseudos/PBEsol/Li.psp8
- pspatm: opening atomic psp file    /scratch/users/j/a/jabreu/pseudos/PBEsol/Li.psp8
- Li    ONCVPSP-3.3.0  r_core=   1.40824   1.10935
-  3.00000   3.00000    180112                znucl, zion, pspdat
    8 -116133    1    4       400   0.00000   pspcod,pspxc,lmax,lloc,mmax,r2well
    3.99000000000000    0.00000000000000    0.00000000000000   rchrg,fchrg,qchrg
     nproj     2     2
     extension_switch     1
  pspatm : epsatm=    2.60859637
         --- l  ekb(1:nproj) -->
             0   -4.855856   -1.482423
             1   -2.171544   -0.427615
 pspatm: atomic psp has been read  and splines computed

[...]

- pspini: atom type   4  psp file is /scratch/users/j/a/jabreu/pseudos/PBEsol/F.psp8
- pspatm: opening atomic psp file    /scratch/users/j/a/jabreu/pseudos/PBEsol/F.psp8
- F     ONCVPSP-3.3.0  r_core=   1.30942   1.45782   1.60379
-  9.00000   7.00000    180112                znucl, zion, pspdat
    8 -116133    2    4       600   0.00000   pspcod,pspxc,lmax,lloc,mmax,r2well
    5.99000000000000    2.50000000000000    0.00000000000000   rchrg,fchrg,qchrg
     nproj     2     2     1
[...]
  ireadwf=   0

--- !BeginCycle
iteration_state: {dtset: 1, }
solver: {iscf: 7, nstep: 2000, nline: 4, wfoptalg: 0, }
tolerances: {tolwfr: 1.00E-20, }
...

     iter   2DEtotal(Ha)        deltaE(Ha) residm    vres2
-ETOT  1  -45.664036478092     -4.566E+01 1.786E-02 0.000E+00
 ETOT  2  -45.688873473596     -2.484E-02 3.506E-04 0.000E+00
 ETOT  3  -45.689019605179     -1.461E-04 5.143E-05 0.000E+00
 ETOT  4  -45.689025366794     -5.762E-06 4.545E-06 0.000E+00
 ETOT  5  -45.689025656455     -2.897E-07 1.059E-06 0.000E+00
 ETOT  6  -45.689025673835     -1.738E-08 1.029E-07 0.000E+00
 ETOT  7  -45.689025674991     -1.157E-09 2.758E-08 0.000E+00
 ETOT  8  -45.689025675075     -8.328E-11 2.758E-09 0.000E+00
 ETOT  9  -45.689025675081     -6.480E-12 7.766E-10 0.000E+00
 ETOT 10  -45.689025675082     -5.045E-13 9.208E-11 0.000E+00
 ETOT 11  -45.689025675082     -1.066E-13 2.893E-11 0.000E+00
 ETOT 12  -45.689025675082      2.132E-14 3.373E-12 0.000E+00
 ETOT 13  -45.689025675082      1.421E-14 1.120E-12 0.000E+00
 ETOT 14  -45.689025675082      1.421E-14 1.298E-13 0.000E+00
 ETOT 15  -45.689025675082     -1.421E-14 4.406E-14 0.000E+00
 ETOT 16  -45.689025675082     -2.132E-14 5.082E-15 0.000E+00
 ETOT 17  -45.689025675082      2.842E-14 1.746E-15 0.000E+00
 ETOT 18  -45.689025675082      7.105E-15 2.003E-16 0.000E+00
 ETOT 19  -45.689025675082      0.000E+00 6.943E-17 0.000E+00
 ETOT 20  -45.689025675082      0.000E+00 7.918E-18 0.000E+00
 ETOT 21  -45.689025675082      0.000E+00 2.767E-18 0.000E+00
 ETOT 22  -45.689025675082      0.000E+00 3.133E-19 0.000E+00
 ETOT 23  -45.689025675082      0.000E+00 1.104E-19 0.000E+00
 ETOT 24  -45.689025675082      0.000E+00 1.241E-20 0.000E+00
 ETOT 25  -45.689025675082      0.000E+00 9.906E-21 0.000E+00

 At SCF step   25   max residual=  9.91E-21 < tolwfr=  1.00E-20 =>converged.

 ----iterations are completed or convergence reached----

 dfpt_looppert: DFPT cycle converged with prtwf=-1. Will skip output of the 1st-order WFK file.
 dfpt_looppert : ek2=    6.6148294219E+01
          f-sum rule ratio=    1.1075465411E+00
 prteigrs : about to open file /scratch/users/j/a/jabreu/flow_simple_10atoms/flow/w364/t1/tmpdata/tmp_1WF1_EIG
 Expectation of eigenvalue derivatives (hartree) for nkpt=   1  k points:
  (in case of degenerate eigenvalues, averaged derivative)
 kpt#   1, nband= 47, wtk=  1.00000, kpt=  0.0000  0.0000  0.0000 (reduced coord)
   0.00000   -0.00000    0.00000    0.00000    0.00000   -0.00000   -0.00000    0.00000
   0.00000   -0.00000   -0.00000   -0.00000   -0.00000   -0.00000    0.00000   -0.00000
  -0.00000   -0.00000    0.00000    0.00000    0.00000   -0.00000   -0.00000   -0.00000
  -0.00000   -0.00000   -0.00000    0.00000    0.00000    0.00000   -0.00000   -0.00000
  -0.00000    0.00000    0.00000    0.00000    0.00000    0.00000    0.00000   -0.00000
  -0.00000   -0.00000    0.00000    0.00000    0.00000   -0.00000   -0.00000

 Eight components of 2nd-order total energy (hartree) are
 1,2,3: 0th-order hamiltonian combined with 1st-order wavefunctions
     kin0=   5.33352620E+01 eigvalue=   2.71566270E+00  local=  -2.48698838E+01
 4,5,6: 1st-order hamiltonian combined with 1st and 0th-order wfs
     kin1=  -7.32623145E+01  Hartree=   0.00000000E+00     xc=   0.00000000E+00
 7,8,9: eventually, occupation + non-local contributions
    edocc=   9.48822013E+00     enl0=   5.01976462E+00   enl1=  -1.81157369E+01
 1-9 gives the relaxation energy (to be shifted if some occ is /=2.0)
   erelax=  -4.56890257E+01
  No Ewald or frozen-wf contrib.: the relaxation energy is the total one
 2DEtotal=   -0.4568902568E+02 Ha. Also 2DEtotal=   -0.124326161583E+04 eV
    (  non-var. 2DEtotal :   -4.5689025675E+01 Ha)

 CALCULATION OF EFFECTIVE MASSES
 NOTE : Additional infos (eff. mass eigenvalues, eigenvectors and, if degenerate, average mass) are available in stdout.

 COMMENTS:
 - At k-point ( 0.000, 0.000, 0.000), bands    37 through    38
   are DEGENERATE (effective mass tensor is therefore not defined).
   See Section IIIB Eqs. (67)-(70) and Appendix E of PRB 93 205147 (2016).
 - Angular average effective mass for Frohlich model is to be averaged over degenerate bands. See later.
 - Associated theta integrals calculated with ntheta=   1000 points.

 K-point ( 0.000, 0.000, 0.000) | band =    37
 Transport equivalent effective mass tensor:
             -2.5270604821             -0.0000011746             -0.0000000035
             -0.0000011746             -2.5270550345             -0.0000000020
             -0.0000000035             -0.0000000020             -2.5270315725
 Transport equivalent effective mass tensor eigenvalues:
             -2.5270607246             -2.5270547920             -2.5270315725
 Angular average effective mass 1/(<1/m>)=  -1.9684411492
 Angular average effective mass for Frohlich model (<m**0.5>)**2=  -1.9973285225
 Effective masses along directions: (cart. coord. / red. coord. -> eff. mass)
    1:   1.000000  0.000000  0.000000 /   0.948683  0.316228  0.000000 ->  -2.0897118628
    2:   0.000000  1.000000  0.000000 /   0.000000  1.000000  0.000000 ->  -3.1211408229
    3:   0.000000  0.000000  1.000000 /   0.408248  0.408248  0.816497 ->  -2.0897118826
    4:   0.577350  0.577350  0.577350 /   0.585539  0.688047  0.428644 ->  -2.1019251398
    5:   0.000000  0.707107  0.707107 /   0.289489  0.762222  0.578977 ->  -1.7933858999
    6:   0.707107  0.000000  0.707107 /   0.731423  0.422287  0.535439 ->  -2.0897118664
    7:   0.707107  0.707107  0.000000 /   0.616798  0.787122  0.000000 ->  -1.6048585416

 K-point ( 0.000, 0.000, 0.000) | band =    38
 Transport equivalent effective mass tensor:
           -703.9010299360              0.0001023879             -0.0000008760
              0.0001023879           -703.9010155092             -0.0000000811
             -0.0000008760             -0.0000000811           -703.9009656096
 Transport equivalent effective mass tensor eigenvalues:
           -703.9011253664           -703.9009656170           -703.9009200714
 Angular average effective mass 1/(<1/m>)=  -7.5315310263
 Angular average effective mass for Frohlich model (<m**0.5>)**2= -11.3100728108
 Effective masses along directions: (cart. coord. / red. coord. -> eff. mass)
    1:   1.000000  0.000000  0.000000 /   0.948683  0.316228  0.000000 ->  -6.1630827410
    2:   0.000000  1.000000  0.000000 /   0.000000  1.000000  0.000000 ->  -3.1211408586
    3:   0.000000  0.000000  1.000000 /   0.408248  0.408248  0.816497 ->  -6.1630827630
    4:   0.577350  0.577350  0.577350 /   0.585539  0.688047  0.428644 ->  -6.0592475410
    5:   0.000000  0.707107  0.707107 /   0.289489  0.762222  0.578977 -> -12.0211296392
    6:   0.707107  0.000000  0.707107 /   0.731423  0.422287  0.535439 ->  -6.1630828287
    7:   0.707107  0.707107  0.000000 /   0.616798  0.787122  0.000000 -> -56.5500381388

 Angular average effective mass for Frohlich model, averaged over degenerate bands.
 Value of     (<<m**0.5>>)**2 =     5.703294E+00
 Absolute Value of <<m**0.5>> =     2.388157E+00

 K-point ( 0.000, 0.000, 0.000) | band =    39
 Effective mass tensor:
              0.8097196588              0.0000000002              0.0000000004
              0.0000000002              0.8097196588              0.0000000003
              0.0000000004              0.0000000003              0.8097196595
 Effective mass tensor eigenvalues:
              0.8097196586              0.8097196587              0.8097196598
 Angular average effective mass 1/(<1/m>)=   0.8097196590
 Angular average effective mass for Frohlich model (<m**0.5>)**2=   0.8097196590
 Effective masses along directions: (cart. coord. / red. coord. -> eff. mass)
    1:   1.000000  0.000000  0.000000 /   0.948683  0.316228  0.000000 ->   0.8097196588
    2:   0.000000  1.000000  0.000000 /   0.000000  1.000000  0.000000 ->   0.8097196588
    3:   0.000000  0.000000  1.000000 /   0.408248  0.408248  0.816497 ->   0.8097196595
    4:   0.577350  0.577350  0.577350 /   0.585539  0.688047  0.428644 ->   0.8097196596
    5:   0.000000  0.707107  0.707107 /   0.289489  0.762222  0.578977 ->   0.8097196594
    6:   0.707107  0.000000  0.707107 /   0.731423  0.422287  0.535439 ->   0.8097196596
    7:   0.707107  0.707107  0.000000 /   0.616798  0.787122  0.000000 ->   0.8097196590

 END OF EFFECTIVE MASSES SECTION

 ---- first-order wavefunction calculations are completed ----

 Total localisation tensor (bohr^2) in cartesian coordinates
  WARNING : still subject to testing - especially symmetries.
      direction              matrix element
   alpha     beta       real part   imaginary part
     1        1       1.0261640327    0.0000000000
     1        2       0.2902430184    0.0000000000
     1        3       0.7109472966    0.0000000000
     2        1       0.2902430184    0.0000000000
     2        2       0.8209312261    0.0000000000
     2        3       0.5027156545    0.0000000000
     3        1       0.7109472966    0.0000000000
     3        2       0.5027156545    0.0000000000
     3        3       1.8470952588    0.0000000000

 respfn : d/dk was computed, but no 2DTE, so no DDB output.

== END DATASET(S) ==============================================================

 -outvars: echo values of variables after computation  --------
            acell      1.0000000000E+00  1.0000000000E+00  1.0000000000E+00 Bohr
              amu      1.32905430E+02  6.94100000E+00  2.04383300E+02
                       1.89984032E+01
             ecut      4.20000000E+01 Hartree
           etotal     -4.5689025675E+01
            fcart      0.0000000000E+00  0.0000000000E+00  0.0000000000E+00
                       0.0000000000E+00  0.0000000000E+00  0.0000000000E+00
                       0.0000000000E+00  0.0000000000E+00  0.0000000000E+00
                       0.0000000000E+00  0.0000000000E+00  0.0000000000E+00
                       0.0000000000E+00  0.0000000000E+00  0.0000000000E+00
                       0.0000000000E+00  0.0000000000E+00  0.0000000000E+00
                       0.0000000000E+00  0.0000000000E+00  0.0000000000E+00
                       0.0000000000E+00  0.0000000000E+00  0.0000000000E+00
                       0.0000000000E+00  0.0000000000E+00  0.0000000000E+00
                       0.0000000000E+00  0.0000000000E+00  0.0000000000E+00
-          fftalg         512
           irdden           1
           irdwfk           1
           istwfk        1
              ixc     -116133
           kptopt           0
P           mkmem           1
P          mkqmem           1
P          mk1mem           1
            natom          10
            nband          47
           nbdbuf           4
            ngfft          72      72      72
             nkpt           1
            nstep        2000
             nsym          48
           ntypat           4
              occ      2.000000  2.000000  2.000000  2.000000  2.000000  2.000000
                       2.000000  2.000000  2.000000  2.000000  2.000000  2.000000
                       2.000000  2.000000  2.000000  2.000000  2.000000  2.000000
                       2.000000  2.000000  2.000000  2.000000  2.000000  2.000000
                       2.000000  2.000000  2.000000  2.000000  2.000000  2.000000
                       2.000000  2.000000  2.000000  2.000000  2.000000  2.000000
                       2.000000  2.000000  0.000000  0.000000  0.000000  0.000000
                       0.000000  0.000000  0.000000  0.000000  0.000000
        optdriver           1
            prtwf          -1
            rfdir           1       1       1
           rfelfd           2
            rprim      1.0102261330E+01  0.0000000000E+00  5.8325432982E+00
                       3.3674204433E+00  9.5245033221E+00  5.8325432982E+00
                       0.0000000000E+00  0.0000000000E+00  1.1665086596E+01
          spgroup         225
           strten      0.0000000000E+00  0.0000000000E+00  0.0000000000E+00
                       0.0000000000E+00  0.0000000000E+00  0.0000000000E+00
           symrel      1  0  0   0  1  0   0  0  1      -1  0  0   0 -1  0   0  0 -1
                       0 -1  1   0 -1  0   1 -1  0       0  1 -1   0  1  0  -1  1  0
                      -1  0  0  -1  0  1  -1  1  0       1  0  0   1  0 -1   1 -1  0
                       0  1 -1   1  0 -1   0  0 -1       0 -1  1  -1  0  1   0  0  1
                      -1  0  0  -1  1  0  -1  0  1       1  0  0   1 -1  0   1  0 -1
                       0 -1  1   1 -1  0   0 -1  0       0  1 -1  -1  1  0   0  1  0
                       1  0  0   0  0  1   0  1  0      -1  0  0   0  0 -1   0 -1  0
                       0  1 -1   0  0 -1   1  0 -1       0 -1  1   0  0  1  -1  0  1
                      -1  0  1  -1  1  0  -1  0  0       1  0 -1   1 -1  0   1  0  0
                       0 -1  0   1 -1  0   0 -1  1       0  1  0  -1  1  0   0  1 -1
                       1  0 -1   0  0 -1   0  1 -1      -1  0  1   0  0  1   0 -1  1
                       0  1  0   0  0  1   1  0  0       0 -1  0   0  0 -1  -1  0  0
                       1  0 -1   0  1 -1   0  0 -1      -1  0  1   0 -1  1   0  0  1
                       0 -1  0   0 -1  1   1 -1  0       0  1  0   0  1 -1  -1  1  0
                      -1  0  1  -1  0  0  -1  1  0       1  0 -1   1  0  0   1 -1  0
                       0  1  0   1  0  0   0  0  1       0 -1  0  -1  0  0   0  0 -1
                       0  0 -1   0  1 -1   1  0 -1       0  0  1   0 -1  1  -1  0  1
                       1 -1  0   0 -1  1   0 -1  0      -1  1  0   0  1 -1   0  1  0
                       0  0  1   1  0  0   0  1  0       0  0 -1  -1  0  0   0 -1  0
                      -1  1  0  -1  0  0  -1  0  1       1 -1  0   1  0  0   1  0 -1
                       0  0  1   0  1  0   1  0  0       0  0 -1   0 -1  0  -1  0  0
                       1 -1  0   0 -1  0   0 -1  1      -1  1  0   0  1  0   0  1 -1
                       0  0 -1   1  0 -1   0  1 -1       0  0  1  -1  0  1   0 -1  1
                      -1  1  0  -1  0  1  -1  0  0       1 -1  0   1  0 -1   1  0  0
           tolwfr      1.00000000E-20
            typat      1  1  2  3  4  4  4  4  4  4
           useylm           1
           xangst      5.3458864510E+00  3.7801125609E+00  9.2593469446E+00
                       1.7819621503E+00  1.2600375203E+00  3.0864489815E+00
                       0.0000000000E+00  0.0000000000E+00  0.0000000000E+00
                       3.5639243006E+00  2.5200750406E+00  6.1728979630E+00
                       4.4593674090E+00  1.2537272524E+00  4.6219450040E+00
                       2.6684811923E+00  3.7864228288E+00  4.6219450040E+00
                       4.4593674090E+00  1.2537272524E+00  7.7238509221E+00
                       5.3548105174E+00  3.7864228288E+00  6.1728979630E+00
                       1.7730380839E+00  1.2537272524E+00  6.1728979630E+00
                       2.6684811923E+00  3.7864228288E+00  7.7238509221E+00
            xcart      1.0102261330E+01  7.1433774916E+00  1.7497629895E+01
                       3.3674204433E+00  2.3811258305E+00  5.8325432982E+00
                       0.0000000000E+00  0.0000000000E+00  0.0000000000E+00
                       6.7348408865E+00  4.7622516610E+00  1.1665086596E+01
                       8.4269831290E+00  2.3692011524E+00  8.7342102589E+00
                       5.0426986441E+00  7.1553021697E+00  8.7342102589E+00
                       8.4269831290E+00  2.3692011524E+00  1.4595962934E+01
                       1.0119125371E+01  7.1553021697E+00  1.1665086596E+01
                       3.3505564017E+00  2.3692011524E+00  1.1665086596E+01
                       5.0426986441E+00  7.1553021697E+00  1.4595962934E+01
             xred      7.5000000000E-01  7.5000000000E-01  7.5000000000E-01
                       2.5000000000E-01  2.5000000000E-01  2.5000000000E-01
                       0.0000000000E+00  0.0000000000E+00  0.0000000000E+00
                       5.0000000000E-01  5.0000000000E-01  5.0000000000E-01
                       7.5125200000E-01  2.4874800000E-01  2.4874800000E-01
                       2.4874800000E-01  7.5125200000E-01  2.4874800000E-01
                       7.5125200000E-01  2.4874800000E-01  7.5125200000E-01
                       7.5125200000E-01  7.5125200000E-01  2.4874800000E-01
                       2.4874800000E-01  2.4874800000E-01  7.5125200000E-01
                       2.4874800000E-01  7.5125200000E-01  7.5125200000E-01
            znucl       55.00000    3.00000   81.00000    9.00000

- Timing analysis has been suppressed with timopt=0

 Suggested references for the acknowledgment of ABINIT usage.

 Calculation completed.
.Delivered   2 WARNINGs and   5 COMMENTs to log file.