.Version 9.5.2 of ABINIT

 ABINIT is a project of the Universite Catholique de Louvain,
 Corning Inc. and other collaborators, see ~abinit/doc/developers/contributors.txt .
 acknowledgments of the ABINIT effort.

.Starting date : Mon 24 May 2021.
- ( at 11h18 )

- input  file    -> /scratch/users/j/a/jabreu/flow_simple_10atoms/flow/w317/t1/run.abi
- output file    -> /scratch/users/j/a/jabreu/flow_simple_10atoms/flow/w317/t1/run.abo
- root for input  files -> /scratch/users/j/a/jabreu/flow_simple_10atoms/flow/w317/t1/indata/in
- root for output files -> /scratch/users/j/a/jabreu/flow_simple_10atoms/flow/w317/t1/outdata/out

 Symmetries : space group Fm -3 m (#225); Bravais cF (face-center cubic)
     intxc =       0      iscf =       7    lmnmax =      18     lnmax =       6
     mgfft =      64  mpssoang =       3    mqgrid =    3001     natom =      10
  nloc_mem =       1    nspden =       1   nspinor =       1    nsppol =       1
      nsym =      48    n1xccc =    2501    ntypat =       4    occopt =       1
   xclevel =       2
-    mband =          29        mffmem =           1         mkmem =           2
-   mkqmem =           2        mk1mem =           2           mpw =       12150
      nfft =      262144          nkpt =           2
  Rough estimation (10% accuracy) of disk space for files :

------------- Echo of variables that govern the present computation ------------
-
- outvars: echo of selected default values
-   iomode0 =  0 , fftalg0 =512 , wfoptalg0 =  0
-
- outvars: echo of global parameters not present in the input file
-  max_nthreads =    0
-
 -outvars: echo values of preprocessed input variables --------
            acell      1.0000000000E+00  1.0000000000E+00  1.0000000000E+00 Bohr
              amu      8.54678000E+01  2.69815390E+01  2.04383300E+02
                       1.00794000E+00
             ecut      3.90000000E+01 Hartree
-          fftalg         512
           irdden           1
           irdwfk           1
           istwfk        1    1
              ixc     -116133
              kpt      5.00000000E-01  0.00000000E+00  5.00000000E-01
                       5.00000000E-01  5.00000000E-01  5.00000000E-01
           kptopt           0
P           mkmem           2
P          mkqmem           2
P          mk1mem           2
            natom          10
            nband          29
           nbdbuf           4
            ngfft          64      64      64
             nkpt           2
            nstep        2000
             nsym          48
           ntypat           4
              occ      2.000000  2.000000  2.000000  2.000000  2.000000  2.000000
                       2.000000  2.000000  2.000000  2.000000  2.000000  2.000000
                       2.000000  2.000000  2.000000  2.000000  2.000000  2.000000
                       2.000000  2.000000  0.000000  0.000000  0.000000  0.000000
                       0.000000  0.000000  0.000000  0.000000  0.000000
        optdriver           1
            prtwf          -1
            rfdir           1       1       1
           rfelfd           2
            rprim      9.8433617051E+00  0.0000000000E+00  5.6830675302E+00
                       3.2811205684E+00  9.2804104152E+00  5.6830675302E+00
                       0.0000000000E+00  0.0000000000E+00  1.1366135060E+01
          spgroup         225
           symrel      1  0  0   0  1  0   0  0  1      -1  0  0   0 -1  0   0  0 -1
                       0 -1  1   0 -1  0   1 -1  0       0  1 -1   0  1  0  -1  1  0
                      -1  0  0  -1  0  1  -1  1  0       1  0  0   1  0 -1   1 -1  0
                       0  1 -1   1  0 -1   0  0 -1       0 -1  1  -1  0  1   0  0  1
                      -1  0  0  -1  1  0  -1  0  1       1  0  0   1 -1  0   1  0 -1
                       0 -1  1   1 -1  0   0 -1  0       0  1 -1  -1  1  0   0  1  0
                       1  0  0   0  0  1   0  1  0      -1  0  0   0  0 -1   0 -1  0
                       0  1 -1   0  0 -1   1  0 -1       0 -1  1   0  0  1  -1  0  1
                      -1  0  1  -1  1  0  -1  0  0       1  0 -1   1 -1  0   1  0  0
                       0 -1  0   1 -1  0   0 -1  1       0  1  0  -1  1  0   0  1 -1
                       1  0 -1   0  0 -1   0  1 -1      -1  0  1   0  0  1   0 -1  1
                       0  1  0   0  0  1   1  0  0       0 -1  0   0  0 -1  -1  0  0
                       1  0 -1   0  1 -1   0  0 -1      -1  0  1   0 -1  1   0  0  1
                       0 -1  0   0 -1  1   1 -1  0       0  1  0   0  1 -1  -1  1  0
                      -1  0  1  -1  0  0  -1  1  0       1  0 -1   1  0  0   1 -1  0
                       0  1  0   1  0  0   0  0  1       0 -1  0  -1  0  0   0  0 -1
                       0  0 -1   0  1 -1   1  0 -1       0  0  1   0 -1  1  -1  0  1
                       1 -1  0   0 -1  1   0 -1  0      -1  1  0   0  1 -1   0  1  0
                       0  0  1   1  0  0   0  1  0       0  0 -1  -1  0  0   0 -1  0
                      -1  1  0  -1  0  0  -1  0  1       1 -1  0   1  0  0   1  0 -1
                       0  0  1   0  1  0   1  0  0       0  0 -1   0 -1  0  -1  0  0
                       1 -1  0   0 -1  0   0 -1  1      -1  1  0   0  1  0   0  1 -1
                       0  0 -1   1  0 -1   0  1 -1       0  0  1  -1  0  1   0 -1  1
                      -1  1  0  -1  0  1  -1  0  0       1 -1  0   1  0 -1   1  0  0
           tolwfr      1.00000000E-20
            typat      1  1  2  3  4  4  4  4  4  4
           useylm           1
              wtk        0.50000    0.50000
           xangst      5.2088826703E+00  3.6832362586E+00  9.0220494356E+00
                       1.7362942234E+00  1.2277454195E+00  3.0073498119E+00
                       0.0000000000E+00  0.0000000000E+00  0.0000000000E+00
                       3.4725884468E+00  2.4554908390E+00  6.0146996237E+00
                       4.4812781582E+00  1.0289881690E+00  4.2675977946E+00
                       2.4638987355E+00  3.8819935090E+00  4.2675977946E+00
                       4.4812781582E+00  1.0289881690E+00  7.7618014528E+00
                       5.4899678695E+00  3.8819935090E+00  6.0146996237E+00
                       1.4552090242E+00  1.0289881690E+00  6.0146996237E+00
                       2.4638987355E+00  3.8819935090E+00  7.7618014528E+00
            xcart      9.8433617051E+00  6.9603078114E+00  1.7049202591E+01
                       3.2811205684E+00  2.3201026038E+00  5.6830675302E+00
                       0.0000000000E+00  0.0000000000E+00  0.0000000000E+00
                       6.5622411367E+00  4.6402052076E+00  1.1366135060E+01
                       8.4683884442E+00  1.9445058335E+00  8.0645910771E+00
                       4.6560938293E+00  7.3359045817E+00  8.0645910771E+00
                       8.4683884442E+00  1.9445058335E+00  1.4667679044E+01
                       1.0374535752E+01  7.3359045817E+00  1.1366135060E+01
                       2.7499465218E+00  1.9445058335E+00  1.1366135060E+01
                       4.6560938293E+00  7.3359045817E+00  1.4667679044E+01
             xred      7.5000000000E-01  7.5000000000E-01  7.5000000000E-01
                       2.5000000000E-01  2.5000000000E-01  2.5000000000E-01
                       0.0000000000E+00  0.0000000000E+00  0.0000000000E+00
                       5.0000000000E-01  5.0000000000E-01  5.0000000000E-01
                       7.9047200000E-01  2.0952800000E-01  2.0952800000E-01
                       2.0952800000E-01  7.9047200000E-01  2.0952800000E-01
                       7.9047200000E-01  2.0952800000E-01  7.9047200000E-01
                       7.9047200000E-01  7.9047200000E-01  2.0952800000E-01
                       2.0952800000E-01  2.0952800000E-01  7.9047200000E-01
                       2.0952800000E-01  7.9047200000E-01  7.9047200000E-01
            znucl       37.00000   13.00000   81.00000    1.00000

 chkinp: Checking input parameters for consistency.

== DATASET  1 ==================================================================
-   mpi_nproc: 1, omp_nthreads: -1 (-1 if OMP is not activated)

--- !DatasetInfo
iteration_state: {dtset: 1, }
dimensions: {natom: 10, nkpt: 2, mband: 29, nsppol: 1, nspinor: 1, nspden: 1, mpw: 12150, }
cutoff_energies: {ecut:  39.0, pawecutdg:  -1.0, }
electrons: {nelect:   4.00000000E+01, charge:   0.00000000E+00, occopt:   1.00000000E+00, tsmear:   1.00000000E-02, }
meta: {optdriver: 1, rfelfd: 2, }
...

 Real(R)+Recip(G) space primitive vectors, cartesian coordinates (Bohr,Bohr^-1):
 R(1)=  9.8433617  0.0000000  5.6830675  G(1)=  0.1015913 -0.0359180  0.0000000
 R(2)=  3.2811206  9.2804104  5.6830675  G(2)=  0.0000000  0.1077539  0.0000000
 R(3)=  0.0000000  0.0000000 11.3661351  G(3)= -0.0507957 -0.0359180  0.0879807
 Unit cell volume ucvol=  1.0383014E+03 bohr^3
 Angles (23,13,12)=  6.00000000E+01  6.00000000E+01  6.00000000E+01 degrees

 getcut: wavevector=  0.0000  0.0000  0.0000  ngfft=  64  64  64
         ecut(hartree)=     39.000   => boxcut(ratio)=   2.00295

--- Pseudopotential description ------------------------------------------------
- pspini: atom type   1  psp file is /scratch/users/j/a/jabreu/pseudos/PBEsol/Rb.psp8
- pspatm: opening atomic psp file    /scratch/users/j/a/jabreu/pseudos/PBEsol/Rb.psp8
- Rb    ONCVPSP-3.3.0  r_core=   1.71227   1.75361   1.90633
- 37.00000   9.00000    180112                znucl, zion, pspdat
    8 -116133    2    4       600   0.00000   pspcod,pspxc,lmax,lloc,mmax,r2well
    5.99000000000000    7.00000000000000    0.00000000000000   rchrg,fchrg,qchrg
     nproj     2     2     2
     extension_switch     1
  pspatm : epsatm=   34.48400912
         --- l  ekb(1:nproj) -->
             0    8.196957   -0.477221
             1    3.231347   -0.378736
             2   -1.047201    0.996637
 pspatm: atomic psp has been read  and splines computed

- pspini: atom type   2  psp file is /scratch/users/j/a/jabreu/pseudos/PBEsol/Al.psp8
- pspatm: opening atomic psp file    /scratch/users/j/a/jabreu/pseudos/PBEsol/Al.psp8
- Al    ONCVPSP-3.3.0  r_core=   1.76802   1.76802   1.70587
- 13.00000   3.00000    180112                znucl, zion, pspdat
    8 -116133    2    4       600   0.00000   pspcod,pspxc,lmax,lloc,mmax,r2well
    5.99000000000000    5.00000000000000    0.00000000000000   rchrg,fchrg,qchrg
     nproj     2     2     2
     extension_switch     1
  pspatm : epsatm=    0.68509324
         --- l  ekb(1:nproj) -->
             0    5.834965    0.726662
             1    6.225605    0.924840
             2   -2.432733   -0.548689
 pspatm: atomic psp has been read  and splines computed

[...]

- pspini: atom type   4  psp file is /scratch/users/j/a/jabreu/pseudos/PBEsol/H.psp8
- pspatm: opening atomic psp file    /scratch/users/j/a/jabreu/pseudos/PBEsol/H.psp8
- H     ONCVPSP-3.3.0  r_core=   1.00957   0.70586
-  1.00000   1.00000    180112                znucl, zion, pspdat
    8 -116133    1    4       300   0.00000   pspcod,pspxc,lmax,lloc,mmax,r2well
    2.99000000000000    0.00000000000000    0.00000000000000   rchrg,fchrg,qchrg
     nproj     2     1
     extension_switch     1
  pspatm : epsatm=    0.35627032
         --- l  ekb(1:nproj) -->
[...]
 ETOT 14  -27.527206254605      0.000E+00 1.721E-17 0.000E+00
 ETOT 15  -27.527206254605      1.066E-14 1.703E-18 0.000E+00
 ETOT 16  -27.527206254605     -7.105E-15 8.309E-20 0.000E+00
 ETOT 17  -27.527206254605      0.000E+00 9.953E-21 0.000E+00

 At SCF step   17   max residual=  9.95E-21 < tolwfr=  1.00E-20 =>converged.

 ----iterations are completed or convergence reached----

 dfpt_looppert: DFPT cycle converged with prtwf=-1. Will skip output of the 1st-order WFK file.
 dfpt_looppert : ek2=    3.6670375585E+01
          f-sum rule ratio=    1.0782425697E+00
 prteigrs : about to open file /scratch/users/j/a/jabreu/flow_simple_10atoms/flow/w317/t1/tmpdata/tmp_1WF1_EIG
 Expectation of eigenvalue derivatives (hartree) for nkpt=   2  k points:
  (in case of degenerate eigenvalues, averaged derivative)
 kpt#   1, nband= 29, wtk=  0.50000, kpt=  0.5000  0.0000  0.5000 (reduced coord)
   0.00000   -0.00000    0.00000   -0.00000   -0.00000   -0.00000   -0.00000    0.00000
  -0.00000   -0.00000    0.00000   -0.00000   -0.00000    0.00000    0.00000   -0.00000
  -0.00000   -0.00000    0.00000    0.00000    0.00000    0.00000    0.00000   -0.00000
   0.00000    0.00000    0.00000    0.00000    0.00000
 prteigrs : prtvol=0 or 1, do not print more k-points.

 Eight components of 2nd-order total energy (hartree) are
 1,2,3: 0th-order hamiltonian combined with 1st-order wavefunctions
     kin0=   2.71633509E+01 eigvalue=   3.59119514E+00  local=  -1.47061533E+01
 4,5,6: 1st-order hamiltonian combined with 1st and 0th-order wfs
     kin1=  -3.95395600E+01  Hartree=   0.00000000E+00     xc=   0.00000000E+00
 7,8,9: eventually, occupation + non-local contributions
    edocc=   8.89988093E+00     enl0=   2.57893258E+00   enl1=  -1.55148525E+01
 1-9 gives the relaxation energy (to be shifted if some occ is /=2.0)
   erelax=  -2.75272063E+01
  No Ewald or frozen-wf contrib.: the relaxation energy is the total one
 2DEtotal=   -0.2752720625E+02 Ha. Also 2DEtotal=   -0.749053375987E+03 eV
    (  non-var. 2DEtotal :   -2.7527206254E+01 Ha)

 Perturbation wavevector (in red.coord.)   0.000000  0.000000  0.000000
 Perturbation : derivative vs k along direction   2
 The set of symmetries contains only one element for this perturbation.
 symkpt : not enough symmetry to change the number of k points.

[...]

 Perturbation wavevector (in red.coord.)   0.000000  0.000000  0.000000
 Perturbation : derivative vs k along direction   3
 The set of symmetries contains only one element for this perturbation.
 symkpt : not enough symmetry to change the number of k points.

 Initialisation of the first-order wave-functions :
  ireadwf=   0

--- !BeginCycle
iteration_state: {dtset: 1, }
solver: {iscf: 7, nstep: 2000, nline: 4, wfoptalg: 0, }
tolerances: {tolwfr: 1.00E-20, }
...

     iter   2DEtotal(Ha)        deltaE(Ha) residm    vres2
-ETOT  1  -27.510555603578     -2.751E+01 2.008E-01 0.000E+00
 ETOT  2  -27.527166409491     -1.661E-02 5.024E-03 0.000E+00
 ETOT  3  -27.527208196518     -4.179E-05 2.917E-04 0.000E+00
 ETOT  4  -27.527208415231     -2.187E-07 7.302E-06 0.000E+00
 ETOT  5  -27.527208416841     -1.610E-09 7.211E-07 0.000E+00
 ETOT  6  -27.527208416855     -1.362E-11 3.253E-08 0.000E+00
 ETOT  7  -27.527208416855     -1.492E-13 3.161E-09 0.000E+00
 ETOT  8  -27.527208416855     -1.776E-14 1.489E-10 0.000E+00
 ETOT  9  -27.527208416855      2.132E-14 1.457E-11 0.000E+00
 ETOT 10  -27.527208416855      3.553E-15 6.956E-13 0.000E+00
 ETOT 11  -27.527208416855     -7.105E-15 6.819E-14 0.000E+00
 ETOT 12  -27.527208416855      1.066E-14 3.289E-15 0.000E+00
 ETOT 13  -27.527208416855     -3.553E-15 3.222E-16 0.000E+00
 ETOT 14  -27.527208416855     -3.553E-15 1.566E-17 0.000E+00
 ETOT 15  -27.527208416855      3.553E-15 1.531E-18 0.000E+00
 ETOT 16  -27.527208416855      3.553E-15 7.486E-20 0.000E+00
 ETOT 17  -27.527208416855      0.000E+00 9.191E-21 0.000E+00

 At SCF step   17   max residual=  9.19E-21 < tolwfr=  1.00E-20 =>converged.

 ----iterations are completed or convergence reached----

 dfpt_looppert: DFPT cycle converged with prtwf=-1. Will skip output of the 1st-order WFK file.
 dfpt_looppert : ek2=    3.6670375584E+01
          f-sum rule ratio=    1.0782426735E+00
 prteigrs : about to open file /scratch/users/j/a/jabreu/flow_simple_10atoms/flow/w317/t1/tmpdata/tmp_1WF1_EIG
 Expectation of eigenvalue derivatives (hartree) for nkpt=   2  k points:
  (in case of degenerate eigenvalues, averaged derivative)
 kpt#   1, nband= 29, wtk=  0.50000, kpt=  0.5000  0.0000  0.5000 (reduced coord)
  -0.00000    0.00000   -0.00000    0.00000    0.00000    0.00000    0.00000   -0.00000
  -0.00000    0.00000    0.00000    0.00000    0.00000    0.00000   -0.00000   -0.00000
   0.00000    0.00000   -0.00000   -0.00000   -0.00000   -0.00000    0.00000   -0.00000
   0.00000    0.00000    0.00000   -0.00000   -0.00000
 prteigrs : prtvol=0 or 1, do not print more k-points.

 Eight components of 2nd-order total energy (hartree) are
 1,2,3: 0th-order hamiltonian combined with 1st-order wavefunctions
     kin0=   2.71633388E+01 eigvalue=   3.59120102E+00  local=  -1.47061536E+01
 4,5,6: 1st-order hamiltonian combined with 1st and 0th-order wfs
     kin1=  -3.95395638E+01  Hartree=   0.00000000E+00     xc=   0.00000000E+00
 7,8,9: eventually, occupation + non-local contributions
    edocc=   8.89988729E+00     enl0=   2.57893492E+00   enl1=  -1.55148530E+01
 1-9 gives the relaxation energy (to be shifted if some occ is /=2.0)
   erelax=  -2.75272084E+01
  No Ewald or frozen-wf contrib.: the relaxation energy is the total one
 2DEtotal=   -0.2752720842E+02 Ha. Also 2DEtotal=   -0.749053434825E+03 eV
    (  non-var. 2DEtotal :   -2.7527208417E+01 Ha)

 CALCULATION OF EFFECTIVE MASSES
 NOTE : Additional infos (eff. mass eigenvalues, eigenvectors and, if degenerate, average mass) are available in stdout.

 K-point ( 0.500, 0.000, 0.500) | band =    20
 Effective mass tensor:
             -0.4746016348             -0.0939391238              0.1150513991
             -0.0939391238             -0.4081762164             -0.1627075975
              0.1150513991             -0.1627075975             -0.3417512943
 Effective mass tensor eigenvalues:
             -0.5410264841             -0.5410264839             -0.1424761774
 Angular average effective mass 1/(<1/m>)=  -0.2799710417
 Angular average effective mass for Frohlich model (<m**0.5>)**2=  -0.3202585962
 Effective masses along directions: (cart. coord. / red. coord. -> eff. mass)
    1:   1.000000  0.000000  0.000000 /   0.948683  0.316228  0.000000 ->  -0.3689947655
    2:   0.000000  1.000000  0.000000 /   0.000000  1.000000  0.000000 ->  -0.2799708735
    3:   0.000000  0.000000  1.000000 /   0.408248  0.408248  0.816497 ->  -0.2255539925
    4:   0.577350  0.577350  0.577350 /   0.585539  0.688047  0.428644 ->  -0.4260412412
    5:   0.000000  0.707107  0.707107 /   0.289489  0.762222  0.578977 ->  -0.5285791239
    6:   0.707107  0.000000  0.707107 /   0.731423  0.422287  0.535439 ->  -0.1974585276
    7:   0.707107  0.707107  0.000000 /   0.616798  0.787122  0.000000 ->  -0.5202199236

 K-point ( 0.500, 0.500, 0.500) | band =    21
 Effective mass tensor:
              0.4107156593              0.0535203423              0.1310975295
              0.0535203423              0.3728710623              0.0926999521
              0.1310975295              0.0926999521              0.5620940472
 Effective mass tensor eigenvalues:
              0.3350264653              0.3350264653              0.6756278382
 Angular average effective mass 1/(<1/m>)=   0.4026963239
 Angular average effective mass for Frohlich model (<m**0.5>)**2=   0.4142579547
 Effective masses along directions: (cart. coord. / red. coord. -> eff. mass)
    1:   1.000000  0.000000  0.000000 /   0.948683  0.316228  0.000000 ->   0.3772939261
    2:   0.000000  1.000000  0.000000 /   0.000000  1.000000  0.000000 ->   0.3549061685
    3:   0.000000  0.000000  1.000000 /   0.408248  0.408248  0.816497 ->   0.5046216274
    4:   0.577350  0.577350  0.577350 /   0.585539  0.688047  0.428644 ->   0.6000633795
    5:   0.000000  0.707107  0.707107 /   0.289489  0.762222  0.578977 ->   0.5024803066
    6:   0.707107  0.000000  0.707107 /   0.731423  0.422287  0.535439 ->   0.5757397957
    7:   0.707107  0.707107  0.000000 /   0.616798  0.787122  0.000000 ->   0.4003837798

 END OF EFFECTIVE MASSES SECTION

 ---- first-order wavefunction calculations are completed ----

 Total localisation tensor (bohr^2) in cartesian coordinates
  WARNING : still subject to testing - especially symmetries.
      direction              matrix element
   alpha     beta       real part   imaginary part
     1        1       2.2457926438    0.0000000000
     1        2       0.6352062218    0.0000000000
     1        3       1.5559308416    0.0000000000
     2        1       0.6352062218    0.0000000000
     2        2       1.7966345074    0.0000000000
     2        3       1.1002094494    0.0000000000
     3        1       1.5559308416    0.0000000000
     3        2       1.1002094494    0.0000000000
     3        3       4.0424275611    0.0000000000

 respfn : d/dk was computed, but no 2DTE, so no DDB output.

== END DATASET(S) ==============================================================

 -outvars: echo values of variables after computation  --------
            acell      1.0000000000E+00  1.0000000000E+00  1.0000000000E+00 Bohr
              amu      8.54678000E+01  2.69815390E+01  2.04383300E+02
                       1.00794000E+00
             ecut      3.90000000E+01 Hartree
           etotal     -2.7527208417E+01
            fcart      0.0000000000E+00  0.0000000000E+00  0.0000000000E+00
                       0.0000000000E+00  0.0000000000E+00  0.0000000000E+00
                       0.0000000000E+00  0.0000000000E+00  0.0000000000E+00
                       0.0000000000E+00  0.0000000000E+00  0.0000000000E+00
                       0.0000000000E+00  0.0000000000E+00  0.0000000000E+00
                       0.0000000000E+00  0.0000000000E+00  0.0000000000E+00
                       0.0000000000E+00  0.0000000000E+00  0.0000000000E+00
                       0.0000000000E+00  0.0000000000E+00  0.0000000000E+00
                       0.0000000000E+00  0.0000000000E+00  0.0000000000E+00
                       0.0000000000E+00  0.0000000000E+00  0.0000000000E+00
-          fftalg         512
           irdden           1
           irdwfk           1
           istwfk        1    1
              ixc     -116133
              kpt      5.00000000E-01  0.00000000E+00  5.00000000E-01
                       5.00000000E-01  5.00000000E-01  5.00000000E-01
           kptopt           0
P           mkmem           2
P          mkqmem           2
P          mk1mem           2
            natom          10
            nband          29
           nbdbuf           4
            ngfft          64      64      64
             nkpt           2
            nstep        2000
             nsym          48
           ntypat           4
              occ      2.000000  2.000000  2.000000  2.000000  2.000000  2.000000
                       2.000000  2.000000  2.000000  2.000000  2.000000  2.000000
                       2.000000  2.000000  2.000000  2.000000  2.000000  2.000000
                       2.000000  2.000000  0.000000  0.000000  0.000000  0.000000
                       0.000000  0.000000  0.000000  0.000000  0.000000
        optdriver           1
            prtwf          -1
            rfdir           1       1       1
           rfelfd           2
            rprim      9.8433617051E+00  0.0000000000E+00  5.6830675302E+00
                       3.2811205684E+00  9.2804104152E+00  5.6830675302E+00
                       0.0000000000E+00  0.0000000000E+00  1.1366135060E+01
          spgroup         225
           strten      0.0000000000E+00  0.0000000000E+00  0.0000000000E+00
                       0.0000000000E+00  0.0000000000E+00  0.0000000000E+00
           symrel      1  0  0   0  1  0   0  0  1      -1  0  0   0 -1  0   0  0 -1
                       0 -1  1   0 -1  0   1 -1  0       0  1 -1   0  1  0  -1  1  0
                      -1  0  0  -1  0  1  -1  1  0       1  0  0   1  0 -1   1 -1  0
                       0  1 -1   1  0 -1   0  0 -1       0 -1  1  -1  0  1   0  0  1
                      -1  0  0  -1  1  0  -1  0  1       1  0  0   1 -1  0   1  0 -1
                       0 -1  1   1 -1  0   0 -1  0       0  1 -1  -1  1  0   0  1  0
                       1  0  0   0  0  1   0  1  0      -1  0  0   0  0 -1   0 -1  0
                       0  1 -1   0  0 -1   1  0 -1       0 -1  1   0  0  1  -1  0  1
                      -1  0  1  -1  1  0  -1  0  0       1  0 -1   1 -1  0   1  0  0
                       0 -1  0   1 -1  0   0 -1  1       0  1  0  -1  1  0   0  1 -1
                       1  0 -1   0  0 -1   0  1 -1      -1  0  1   0  0  1   0 -1  1
                       0  1  0   0  0  1   1  0  0       0 -1  0   0  0 -1  -1  0  0
                       1  0 -1   0  1 -1   0  0 -1      -1  0  1   0 -1  1   0  0  1
                       0 -1  0   0 -1  1   1 -1  0       0  1  0   0  1 -1  -1  1  0
                      -1  0  1  -1  0  0  -1  1  0       1  0 -1   1  0  0   1 -1  0
                       0  1  0   1  0  0   0  0  1       0 -1  0  -1  0  0   0  0 -1
                       0  0 -1   0  1 -1   1  0 -1       0  0  1   0 -1  1  -1  0  1
                       1 -1  0   0 -1  1   0 -1  0      -1  1  0   0  1 -1   0  1  0
                       0  0  1   1  0  0   0  1  0       0  0 -1  -1  0  0   0 -1  0
                      -1  1  0  -1  0  0  -1  0  1       1 -1  0   1  0  0   1  0 -1
                       0  0  1   0  1  0   1  0  0       0  0 -1   0 -1  0  -1  0  0
                       1 -1  0   0 -1  0   0 -1  1      -1  1  0   0  1  0   0  1 -1
                       0  0 -1   1  0 -1   0  1 -1       0  0  1  -1  0  1   0 -1  1
                      -1  1  0  -1  0  1  -1  0  0       1 -1  0   1  0 -1   1  0  0
           tolwfr      1.00000000E-20
            typat      1  1  2  3  4  4  4  4  4  4
           useylm           1
              wtk        0.50000    0.50000
           xangst      5.2088826703E+00  3.6832362586E+00  9.0220494356E+00
                       1.7362942234E+00  1.2277454195E+00  3.0073498119E+00
                       0.0000000000E+00  0.0000000000E+00  0.0000000000E+00
                       3.4725884468E+00  2.4554908390E+00  6.0146996237E+00
                       4.4812781582E+00  1.0289881690E+00  4.2675977946E+00
                       2.4638987355E+00  3.8819935090E+00  4.2675977946E+00
                       4.4812781582E+00  1.0289881690E+00  7.7618014528E+00
                       5.4899678695E+00  3.8819935090E+00  6.0146996237E+00
                       1.4552090242E+00  1.0289881690E+00  6.0146996237E+00
                       2.4638987355E+00  3.8819935090E+00  7.7618014528E+00
            xcart      9.8433617051E+00  6.9603078114E+00  1.7049202591E+01
                       3.2811205684E+00  2.3201026038E+00  5.6830675302E+00
                       0.0000000000E+00  0.0000000000E+00  0.0000000000E+00
                       6.5622411367E+00  4.6402052076E+00  1.1366135060E+01
                       8.4683884442E+00  1.9445058335E+00  8.0645910771E+00
                       4.6560938293E+00  7.3359045817E+00  8.0645910771E+00
                       8.4683884442E+00  1.9445058335E+00  1.4667679044E+01
                       1.0374535752E+01  7.3359045817E+00  1.1366135060E+01
                       2.7499465218E+00  1.9445058335E+00  1.1366135060E+01
                       4.6560938293E+00  7.3359045817E+00  1.4667679044E+01
             xred      7.5000000000E-01  7.5000000000E-01  7.5000000000E-01
                       2.5000000000E-01  2.5000000000E-01  2.5000000000E-01
                       0.0000000000E+00  0.0000000000E+00  0.0000000000E+00
                       5.0000000000E-01  5.0000000000E-01  5.0000000000E-01
                       7.9047200000E-01  2.0952800000E-01  2.0952800000E-01
                       2.0952800000E-01  7.9047200000E-01  2.0952800000E-01
                       7.9047200000E-01  2.0952800000E-01  7.9047200000E-01
                       7.9047200000E-01  7.9047200000E-01  2.0952800000E-01
                       2.0952800000E-01  2.0952800000E-01  7.9047200000E-01
                       2.0952800000E-01  7.9047200000E-01  7.9047200000E-01
            znucl       37.00000   13.00000   81.00000    1.00000

- Timing analysis has been suppressed with timopt=0

 Suggested references for the acknowledgment of ABINIT usage.

 Calculation completed.
.Delivered   2 WARNINGs and   5 COMMENTs to log file.