.Version 9.5.2 of ABINIT

 ABINIT is a project of the Universite Catholique de Louvain,
 Corning Inc. and other collaborators, see ~abinit/doc/developers/contributors.txt .
 acknowledgments of the ABINIT effort.

.Starting date : Wed 26 May 2021.
- ( at 03h02 )

- input  file    -> /scratch/users/j/a/jabreu/flow_simple_11atoms/flow/w277/t1/run.abi
- output file    -> /scratch/users/j/a/jabreu/flow_simple_11atoms/flow/w277/t1/run.abo
- root for input  files -> /scratch/users/j/a/jabreu/flow_simple_11atoms/flow/w277/t1/indata/in
- root for output files -> /scratch/users/j/a/jabreu/flow_simple_11atoms/flow/w277/t1/outdata/out

 Symmetries : space group Cm c m (# 63); Bravais oC (1-face-center ortho.)
     intxc =       0      iscf =       7    lmnmax =      18     lnmax =       6
     mgfft =     120  mpssoang =       3    mqgrid =    5570     natom =      12
  nloc_mem =       1    nspden =       1   nspinor =       1    nsppol =       1
      nsym =       8    n1xccc =    2501    ntypat =       4    occopt =       1
   xclevel =       2
-    mband =          67        mffmem =           1         mkmem =           2
-   mkqmem =           2        mk1mem =           2           mpw =       22896
      nfft =      768000          nkpt =           2
  Rough estimation (10% accuracy) of disk space for files :

------------- Echo of variables that govern the present computation ------------
-
- outvars: echo of selected default values
-   iomode0 =  0 , fftalg0 =512 , wfoptalg0 =  0
-
- outvars: echo of global parameters not present in the input file
-  max_nthreads =    0
-
 -outvars: echo values of preprocessed input variables --------
            acell      1.0000000000E+00  1.0000000000E+00  1.0000000000E+00 Bohr
              amu      2.29897680E+01  9.12240000E+01  6.35460000E+01
                       3.20660000E+01
             ecut      4.60000000E+01 Hartree
-          fftalg         512
           irdden           1
           irdwfk           1
           istwfk        1    0
              ixc     -116133
              kpt      0.00000000E+00  0.00000000E+00  0.00000000E+00
                      -5.00000000E-01  5.00000000E-01  0.00000000E+00
           kptopt           0
P           mkmem           2
P          mkqmem           2
P          mk1mem           2
            natom          12
            nband          67
           nbdbuf           4
            ngfft          80      80     120
             nkpt           2
            nstep        2000
             nsym           8
           ntypat           4
              occ      2.000000  2.000000  2.000000  2.000000  2.000000  2.000000
                       2.000000  2.000000  2.000000  2.000000  2.000000  2.000000
                       2.000000  2.000000  2.000000  2.000000  2.000000  2.000000
                       2.000000  2.000000  2.000000  2.000000  2.000000  2.000000
                       2.000000  2.000000  2.000000  2.000000  2.000000  2.000000
                       2.000000  2.000000  2.000000  2.000000  2.000000  2.000000
                       2.000000  2.000000  2.000000  2.000000  2.000000  2.000000
                       2.000000  2.000000  2.000000  2.000000  2.000000  2.000000
                       2.000000  2.000000  2.000000  2.000000  2.000000  2.000000
                       2.000000  2.000000  2.000000  2.000000  0.000000  0.000000
                       0.000000  0.000000  0.000000  0.000000  0.000000  0.000000
                       0.000000
        optdriver           1
            prtwf          -1
            rfdir           1       1       1
           rfelfd           2
            rprim      1.2651179817E+01  0.0000000000E+00  0.0000000000E+00
                      -1.0759848004E+01  6.6541732539E+00  0.0000000000E+00
                       0.0000000000E+00  0.0000000000E+00  1.8240624334E+01
          spgroup          63
           symrel      1  0  0   0  1  0   0  0  1      -1  0  0   0 -1  0   0  0 -1
                       0  1  0   1  0  0   0  0 -1       0 -1  0  -1  0  0   0  0  1
                      -1  0  0   0 -1  0   0  0  1       1  0  0   0  1  0   0  0 -1
                       0 -1  0  -1  0  0   0  0 -1       0  1  0   1  0  0   0  0  1
            tnons      0.0000000  0.0000000  0.0000000     0.0000000  0.0000000  0.0000000
                       0.0000000  0.0000000  0.0000000     0.0000000  0.0000000  0.0000000
                       0.0000000  0.0000000  0.5000000     0.0000000  0.0000000  0.5000000
                       0.0000000  0.0000000  0.5000000     0.0000000  0.0000000  0.5000000
           tolwfr      1.00000000E-20
            typat      1  1  2  2  3  3  4  4  4  4  4  4
           useylm           1
              wtk        0.50000    0.50000
           xangst      3.5806847949E+00  8.8510865279E-01  2.4131306669E+00
                      -2.5798351056E+00  2.6361281752E+00  7.2393920008E+00
                       5.0042484466E-01  1.7606184140E+00  4.8262613339E+00
                       5.0042484466E-01  1.7606184140E+00  0.0000000000E+00
                      -5.3231008388E+00  3.4158532522E+00  2.4131306669E+00
                       6.3239505281E+00  1.0538357579E-01  7.2393920008E+00
                       1.4642193859E+00  1.4866767525E+00  7.2393920008E+00
                      -4.0587964554E+00  3.0564969489E+00  5.7656448399E-01
                      -4.6336969659E-01  2.0345600755E+00  2.4131306669E+00
                      -4.0587964554E+00  3.0564969489E+00  4.2496968499E+00
                       5.0596461447E+00  4.6473987903E-01  9.0759581838E+00
                       5.0596461447E+00  4.6473987903E-01  5.4028258179E+00
            xcart      6.7665136306E+00  1.6726129516E+00  4.5601560834E+00
                      -4.8751818176E+00  4.9815603023E+00  1.3680468250E+01
                       9.4566590650E-01  3.3270866269E+00  9.1203121668E+00
                       9.4566590650E-01  3.3270866269E+00  0.0000000000E+00
                      -1.0059202763E+01  6.4550271568E+00  4.5601560834E+00
                       1.1950534576E+01  1.9914609714E-01  1.3680468250E+01
                       2.7669736378E+00  2.8094119103E+00  1.3680468250E+01
                      -7.6700137298E+00  5.7759421595E+00  1.0895489727E+00
                      -8.7564182483E-01  3.8447613436E+00  4.5601560834E+00
                      -7.6700137298E+00  5.7759421595E+00  8.0307631941E+00
                       9.5613455428E+00  8.7823109440E-01  1.7151075361E+01
                       9.5613455428E+00  8.7823109440E-01  1.0209861139E+01
             xred      7.4863700000E-01  2.5136300000E-01  2.5000000000E-01
                       2.5136300000E-01  7.4863700000E-01  7.5000000000E-01
                       5.0000000000E-01  5.0000000000E-01  5.0000000000E-01
                       5.0000000000E-01  5.0000000000E-01  0.0000000000E+00
                       2.9928000000E-02  9.7007200000E-01  2.5000000000E-01
                       9.7007200000E-01  2.9928000000E-02  7.5000000000E-01
                       5.7779700000E-01  4.2220300000E-01  7.5000000000E-01
                       1.3198200000E-01  8.6801800000E-01  5.9732000000E-02
                       4.2220300000E-01  5.7779700000E-01  2.5000000000E-01
                       1.3198200000E-01  8.6801800000E-01  4.4026800000E-01
                       8.6801800000E-01  1.3198200000E-01  9.4026800000E-01
                       8.6801800000E-01  1.3198200000E-01  5.5973200000E-01
            znucl       11.00000   40.00000   29.00000   16.00000

 chkinp: Checking input parameters for consistency.

== DATASET  1 ==================================================================
-   mpi_nproc: 1, omp_nthreads: -1 (-1 if OMP is not activated)

--- !DatasetInfo
iteration_state: {dtset: 1, }
dimensions: {natom: 12, nkpt: 2, mband: 67, nsppol: 1, nspinor: 1, nspden: 1, mpw: 22896, }
cutoff_energies: {ecut:  46.0, pawecutdg:  -1.0, }
electrons: {nelect:   1.16000000E+02, charge:   0.00000000E+00, occopt:   1.00000000E+00, tsmear:   1.00000000E-02, }
meta: {optdriver: 1, rfelfd: 2, }
...

 Real(R)+Recip(G) space primitive vectors, cartesian coordinates (Bohr,Bohr^-1):
 R(1)= 12.6511798  0.0000000  0.0000000  G(1)=  0.0790440  0.1278148  0.0000000
 R(2)=-10.7598480  6.6541733  0.0000000  G(2)=  0.0000000  0.1502816  0.0000000
 R(3)=  0.0000000  0.0000000 18.2406243  G(3)=  0.0000000  0.0000000  0.0548227
 Unit cell volume ucvol=  1.5355531E+03 bohr^3
 Angles (23,13,12)=  9.00000000E+01  9.00000000E+01  1.48266262E+02 degrees

 getcut: wavevector=  0.0000  0.0000  0.0000  ngfft=  80  80 120
         ecut(hartree)=     46.000   => boxcut(ratio)=   2.07117

--- Pseudopotential description ------------------------------------------------
- pspini: atom type   1  psp file is /scratch/users/j/a/jabreu/pseudos/PBEsol/Na.psp8
- pspatm: opening atomic psp file    /scratch/users/j/a/jabreu/pseudos/PBEsol/Na.psp8
- Na    ONCVPSP-3.3.0  r_core=   1.20708   1.55069
- 11.00000   9.00000    180112                znucl, zion, pspdat
    8 -116133    1    4       400   0.00000   pspcod,pspxc,lmax,lloc,mmax,r2well
    3.99000000000000    0.00000000000000    0.00000000000000   rchrg,fchrg,qchrg
     nproj     2     2
     extension_switch     1
  pspatm : epsatm=    9.32878306
         --- l  ekb(1:nproj) -->
             0    2.657905   -0.678300
             1   -6.761319   -2.404728
 pspatm: atomic psp has been read  and splines computed

- pspini: atom type   2  psp file is /scratch/users/j/a/jabreu/pseudos/PBEsol/Zr.psp8
- pspatm: opening atomic psp file    /scratch/users/j/a/jabreu/pseudos/PBEsol/Zr.psp8
- Zr    ONCVPSP-3.3.0  r_core=   1.56507   1.56507   1.51006
- 40.00000  12.00000    180112                znucl, zion, pspdat
    8 -116133    2    4       600   0.00000   pspcod,pspxc,lmax,lloc,mmax,r2well
    5.99000000000000    5.00000000000000    0.00000000000000   rchrg,fchrg,qchrg
     nproj     2     2     2
     extension_switch     1
  pspatm : epsatm=   18.88750170
         --- l  ekb(1:nproj) -->
             0   10.584966    0.890424
             1    5.814585    0.741293
             2    1.525459    0.487901
 pspatm: atomic psp has been read  and splines computed

[...]

- pspini: atom type   4  psp file is /scratch/users/j/a/jabreu/pseudos/PBEsol/S.psp8
- pspatm: opening atomic psp file    /scratch/users/j/a/jabreu/pseudos/PBEsol/S.psp8
- S     ONCVPSP-3.3.0  r_core=   1.45376   1.45376   1.61851
- 16.00000   6.00000    180112                znucl, zion, pspdat
    8 -116133    2    4       600   0.00000   pspcod,pspxc,lmax,lloc,mmax,r2well
    5.99000000000000    6.00000000000000    0.00000000000000   rchrg,fchrg,qchrg
     nproj     2     2     2
     extension_switch     1
  pspatm : epsatm=    8.71840985
         --- l  ekb(1:nproj) -->
             0    6.834532    0.579453
             1    3.282851    0.896984
             2   -3.496974   -0.974265
 pspatm: atomic psp has been read  and splines computed

   1.76334851E+04                                ecore*ucvol(ha*bohr**3)

 ==>  initialize data related to q vector <==

 The list of irreducible perturbations for this q vector is:
[...]
  -0.00000   -0.00000   -0.00000   -0.00000    0.00000    0.00000    0.00000    0.00000
  -0.00000    0.00000   -0.00000   -0.00000   -0.00000   -0.00000    0.00000   -0.00000
   0.00000   -0.00000    0.00000   -0.00000   -0.00000   -0.00000   -0.00000    0.00000
   0.00000   -0.00088    0.03037
 prteigrs : prtvol=0 or 1, do not print more k-points.

 Eight components of 2nd-order total energy (hartree) are
 1,2,3: 0th-order hamiltonian combined with 1st-order wavefunctions
     kin0=   2.34205766E+02 eigvalue=  -1.01749531E+01  local=  -1.28858896E+02
 4,5,6: 1st-order hamiltonian combined with 1st and 0th-order wfs
     kin1=  -2.59576679E+02  Hartree=   0.00000000E+00     xc=   0.00000000E+00
 7,8,9: eventually, occupation + non-local contributions
    edocc=   3.41446201E+01     enl0=   4.76844197E+00   enl1=  -8.59327976E+00
 1-9 gives the relaxation energy (to be shifted if some occ is /=2.0)
   erelax=  -1.34084980E+02
  No Ewald or frozen-wf contrib.: the relaxation energy is the total one
 2DEtotal=   -0.1340849796E+03 Ha. Also 2DEtotal=   -0.364863784862E+04 eV
    (  non-var. 2DEtotal :   -1.3408497956E+02 Ha)

 Perturbation wavevector (in red.coord.)   0.000000  0.000000  0.000000
 Perturbation : derivative vs k along direction   2
 The set of symmetries contains only one element for this perturbation.
 symkpt : not enough symmetry to change the number of k points.

[...]

 Perturbation wavevector (in red.coord.)   0.000000  0.000000  0.000000
 Perturbation : derivative vs k along direction   3
 The set of symmetries contains only one element for this perturbation.
 symkpt : not enough symmetry to change the number of k points.

 Initialisation of the first-order wave-functions :
  ireadwf=   0

--- !BeginCycle
iteration_state: {dtset: 1, }
solver: {iscf: 7, nstep: 2000, nline: 4, wfoptalg: 0, }
tolerances: {tolwfr: 1.00E-20, }
...

     iter   2DEtotal(Ha)        deltaE(Ha) residm    vres2
-ETOT  1  -15.239184682912     -1.524E+01 4.147E-02 0.000E+00
 ETOT  2  -15.301210789348     -6.203E-02 3.006E-03 0.000E+00
 ETOT  3  -15.303490324552     -2.280E-03 1.924E-04 0.000E+00
 ETOT  4  -15.303632740560     -1.424E-04 6.669E-05 0.000E+00
 ETOT  5  -15.303644225835     -1.149E-05 7.919E-06 0.000E+00
 ETOT  6  -15.303645255099     -1.029E-06 2.631E-06 0.000E+00
 ETOT  7  -15.303645354126     -9.903E-08 3.320E-07 0.000E+00
 ETOT  8  -15.303645364035     -9.909E-09 1.012E-07 0.000E+00
 ETOT  9  -15.303645365052     -1.017E-09 1.411E-08 0.000E+00
 ETOT 10  -15.303645365158     -1.060E-10 3.801E-09 0.000E+00
 ETOT 11  -15.303645365169     -1.115E-11 6.259E-10 0.000E+00
 ETOT 12  -15.303645365170     -1.176E-12 1.609E-10 0.000E+00
 ETOT 13  -15.303645365171     -1.190E-13 3.000E-11 0.000E+00
 ETOT 14  -15.303645365171     -8.882E-15 7.818E-12 0.000E+00
 ETOT 15  -15.303645365171     -1.066E-14 1.583E-12 0.000E+00
 ETOT 16  -15.303645365171     -1.066E-14 4.001E-13 0.000E+00
 ETOT 17  -15.303645365171      1.243E-14 8.091E-14 0.000E+00
 ETOT 18  -15.303645365171     -3.553E-15 1.934E-14 0.000E+00
 ETOT 19  -15.303645365171      1.776E-15 3.869E-15 0.000E+00
 ETOT 20  -15.303645365171     -8.882E-15 9.100E-16 0.000E+00
 ETOT 21  -15.303645365171     -1.776E-15 1.819E-16 0.000E+00
 ETOT 22  -15.303645365171      5.329E-15 4.271E-17 0.000E+00
 ETOT 23  -15.303645365171     -1.776E-15 8.547E-18 0.000E+00
 ETOT 24  -15.303645365171     -3.553E-15 2.008E-18 0.000E+00
 ETOT 25  -15.303645365171     -1.776E-15 4.023E-19 0.000E+00
 ETOT 26  -15.303645365171      1.776E-15 9.466E-20 0.000E+00
 ETOT 27  -15.303645365171      0.000E+00 1.898E-20 0.000E+00
 ETOT 28  -15.303645365171      7.105E-15 9.990E-21 0.000E+00

 At SCF step   28   max residual=  9.99E-21 < tolwfr=  1.00E-20 =>converged.

 ----iterations are completed or convergence reached----

 dfpt_looppert: DFPT cycle converged with prtwf=-1. Will skip output of the 1st-order WFK file.
 dfpt_looppert : ek2=    2.7527598376E+01
          f-sum rule ratio=    1.0548844516E+00
 prteigrs : about to open file /scratch/users/j/a/jabreu/flow_simple_11atoms/flow/w277/t1/tmpdata/tmp_1WF1_EIG
 Expectation of eigenvalue derivatives (hartree) for nkpt=   2  k points:
  (in case of degenerate eigenvalues, averaged derivative)
 kpt#   1, nband= 67, wtk=  0.50000, kpt=  0.0000  0.0000  0.0000 (reduced coord)
  -0.00000   -0.00000   -0.00000    0.00000   -0.00000   -0.00000   -0.00000   -0.00000
   0.00000   -0.00000    0.00000   -0.00000   -0.00000    0.00000   -0.00000    0.00000
  -0.00000   -0.00000   -0.00000    0.00000   -0.00000    0.00000    0.00000   -0.00000
   0.00000   -0.00000    0.00000    0.00000   -0.00000   -0.00000   -0.00000    0.00000
   0.00000    0.00000   -0.00000    0.00000   -0.00000    0.00000   -0.00000    0.00000
  -0.00000   -0.00000    0.00000    0.00000   -0.00000   -0.00000    0.00000    0.00000
  -0.00000    0.00000    0.00000    0.00000   -0.00000   -0.00000    0.00000   -0.00000
  -0.00000   -0.00000   -0.00000   -0.00000    0.00000    0.00000    0.00000    0.00000
   0.00000   -0.00001    0.00001
 prteigrs : prtvol=0 or 1, do not print more k-points.

 Eight components of 2nd-order total energy (hartree) are
 1,2,3: 0th-order hamiltonian combined with 1st-order wavefunctions
     kin0=   2.29436118E+01 eigvalue=  -4.41097319E-01  local=  -1.12287174E+01
 4,5,6: 1st-order hamiltonian combined with 1st and 0th-order wfs
     kin1=  -2.90384355E+01  Hartree=   0.00000000E+00     xc=   0.00000000E+00
 7,8,9: eventually, occupation + non-local contributions
    edocc=   3.69403192E+00     enl0=   3.35816354E-01   enl1=  -1.56885521E+00
 1-9 gives the relaxation energy (to be shifted if some occ is /=2.0)
   erelax=  -1.53036454E+01
  No Ewald or frozen-wf contrib.: the relaxation energy is the total one
 2DEtotal=   -0.1530364537E+02 Ha. Also 2DEtotal=   -0.416433368489E+03 eV
    (  non-var. 2DEtotal :   -1.5303645365E+01 Ha)

 CALCULATION OF EFFECTIVE MASSES
 NOTE : Additional infos (eff. mass eigenvalues, eigenvectors and, if degenerate, average mass) are available in stdout.

 K-point ( 0.000, 0.000, 0.000) | band =    58
 Effective mass tensor:
             -9.3680367431              2.6061827959              0.0012045165
              2.6061827959             -0.9478150602             -0.0003329420
              0.0012045165             -0.0003329420             -0.8558273183
 Effective mass tensor eigenvalues:
            -10.1094129242             -0.8558271497             -0.2064390477
 Angular average effective mass 1/(<1/m>)=  -0.4908840559
 Angular average effective mass for Frohlich model (<m**0.5>)**2=  -0.7643784997
 Effective masses along directions: (cart. coord. / red. coord. -> eff. mass)
    1:   1.000000  0.000000  0.000000 /   0.761751 -0.647870  0.000000 ->  -2.2018825600
    2:   0.000000  1.000000  0.000000 /   0.000000  1.000000  0.000000 ->  -0.2227764046
    3:   0.000000  0.000000  1.000000 /   0.000000  0.000000  1.000000 ->  -0.8558271635
    4:   0.577350  0.577350  0.577350 /   0.560407 -0.181868  0.808002 ->  -0.3484596240
    5:   0.000000  0.707107  0.707107 /   0.000000  0.342708  0.939442 ->  -0.3535262494
    6:   0.707107  0.000000  0.707107 /   0.512842 -0.436173  0.739422 ->  -1.2323437385
    7:   0.707107  0.707107  0.000000 /   0.951166 -0.308681  0.000000 ->  -0.2687980834

 K-point (-0.500, 0.500, 0.000) | band =    59
 Effective mass tensor:
              1.3566854152             -0.3192302539             -0.0000001535
             -0.3192302539              0.3242899554              0.0000000282
             -0.0000001535              0.0000000282              1.5077944110
 Effective mass tensor eigenvalues:
              0.2335543683              1.4474210024              1.5077944110
 Angular average effective mass 1/(<1/m>)=   0.5323148200
 Angular average effective mass for Frohlich model (<m**0.5>)**2=   0.6866619605
 Effective masses along directions: (cart. coord. / red. coord. -> eff. mass)
    1:   1.000000  0.000000  0.000000 /   0.761751 -0.647870  0.000000 ->   1.0424359194
    2:   0.000000  1.000000  0.000000 /   0.000000  1.000000  0.000000 ->   0.2491745647
    3:   0.000000  0.000000  1.000000 /   0.000000  0.000000  1.000000 ->   1.5077944110
    4:   0.577350  0.577350  0.577350 /   0.560407 -0.181868  0.808002 ->   0.3987022748
    5:   0.000000  0.707107  0.707107 /   0.000000  0.342708  0.939442 ->   0.4276729047
    6:   0.707107  0.000000  0.707107 /   0.512842 -0.436173  0.739422 ->   1.2326564227
    7:   0.707107  0.707107  0.000000 /   0.951166 -0.308681  0.000000 ->   0.2914945836

 END OF EFFECTIVE MASSES SECTION

 ---- first-order wavefunction calculations are completed ----

 Total localisation tensor (bohr^2) in cartesian coordinates
  WARNING : still subject to testing - especially symmetries.
      direction              matrix element
   alpha     beta       real part   imaginary part
     1        1      15.7103549289    0.0000000000
     1        2      -4.0778708163    0.0000000000
     1        3       0.0000000000    0.0000000000
     2        1      -4.0778708163    0.0000000000
     2        2       2.5218626610    0.0000000000
     2        3       0.0000000000    0.0000000000
     3        1       0.0000000000    0.0000000000
     3        2       0.0000000000    0.0000000000
     3        3       1.3511842750    0.0000000000

 respfn : d/dk was computed, but no 2DTE, so no DDB output.

== END DATASET(S) ==============================================================

 -outvars: echo values of variables after computation  --------
            acell      1.0000000000E+00  1.0000000000E+00  1.0000000000E+00 Bohr
              amu      2.29897680E+01  9.12240000E+01  6.35460000E+01
                       3.20660000E+01
             ecut      4.60000000E+01 Hartree
           etotal     -1.5303645365E+01
            fcart      0.0000000000E+00  0.0000000000E+00  0.0000000000E+00
                       0.0000000000E+00  0.0000000000E+00  0.0000000000E+00
                       0.0000000000E+00  0.0000000000E+00  0.0000000000E+00
                       0.0000000000E+00  0.0000000000E+00  0.0000000000E+00
                       0.0000000000E+00  0.0000000000E+00  0.0000000000E+00
                       0.0000000000E+00  0.0000000000E+00  0.0000000000E+00
                       0.0000000000E+00  0.0000000000E+00  0.0000000000E+00
                       0.0000000000E+00  0.0000000000E+00  0.0000000000E+00
                       0.0000000000E+00  0.0000000000E+00  0.0000000000E+00
                       0.0000000000E+00  0.0000000000E+00  0.0000000000E+00
                       0.0000000000E+00  0.0000000000E+00  0.0000000000E+00
                       0.0000000000E+00  0.0000000000E+00  0.0000000000E+00
-          fftalg         512
           irdden           1
           irdwfk           1
           istwfk        1    0
              ixc     -116133
              kpt      0.00000000E+00  0.00000000E+00  0.00000000E+00
                      -5.00000000E-01  5.00000000E-01  0.00000000E+00
           kptopt           0
P           mkmem           2
P          mkqmem           2
P          mk1mem           2
            natom          12
            nband          67
           nbdbuf           4
            ngfft          80      80     120
             nkpt           2
            nstep        2000
             nsym           8
           ntypat           4
              occ      2.000000  2.000000  2.000000  2.000000  2.000000  2.000000
                       2.000000  2.000000  2.000000  2.000000  2.000000  2.000000
                       2.000000  2.000000  2.000000  2.000000  2.000000  2.000000
                       2.000000  2.000000  2.000000  2.000000  2.000000  2.000000
                       2.000000  2.000000  2.000000  2.000000  2.000000  2.000000
                       2.000000  2.000000  2.000000  2.000000  2.000000  2.000000
                       2.000000  2.000000  2.000000  2.000000  2.000000  2.000000
                       2.000000  2.000000  2.000000  2.000000  2.000000  2.000000
                       2.000000  2.000000  2.000000  2.000000  2.000000  2.000000
                       2.000000  2.000000  2.000000  2.000000  0.000000  0.000000
                       0.000000  0.000000  0.000000  0.000000  0.000000  0.000000
                       0.000000
        optdriver           1
            prtwf          -1
            rfdir           1       1       1
           rfelfd           2
            rprim      1.2651179817E+01  0.0000000000E+00  0.0000000000E+00
                      -1.0759848004E+01  6.6541732539E+00  0.0000000000E+00
                       0.0000000000E+00  0.0000000000E+00  1.8240624334E+01
          spgroup          63
           strten      0.0000000000E+00  0.0000000000E+00  0.0000000000E+00
                       0.0000000000E+00  0.0000000000E+00  0.0000000000E+00
           symrel      1  0  0   0  1  0   0  0  1      -1  0  0   0 -1  0   0  0 -1
                       0  1  0   1  0  0   0  0 -1       0 -1  0  -1  0  0   0  0  1
                      -1  0  0   0 -1  0   0  0  1       1  0  0   0  1  0   0  0 -1
                       0 -1  0  -1  0  0   0  0 -1       0  1  0   1  0  0   0  0  1
            tnons      0.0000000  0.0000000  0.0000000     0.0000000  0.0000000  0.0000000
                       0.0000000  0.0000000  0.0000000     0.0000000  0.0000000  0.0000000
                       0.0000000  0.0000000  0.5000000     0.0000000  0.0000000  0.5000000
                       0.0000000  0.0000000  0.5000000     0.0000000  0.0000000  0.5000000
           tolwfr      1.00000000E-20
            typat      1  1  2  2  3  3  4  4  4  4  4  4
           useylm           1
              wtk        0.50000    0.50000
           xangst      3.5806847949E+00  8.8510865279E-01  2.4131306669E+00
                      -2.5798351056E+00  2.6361281752E+00  7.2393920008E+00
                       5.0042484466E-01  1.7606184140E+00  4.8262613339E+00
                       5.0042484466E-01  1.7606184140E+00  0.0000000000E+00
                      -5.3231008388E+00  3.4158532522E+00  2.4131306669E+00
                       6.3239505281E+00  1.0538357579E-01  7.2393920008E+00
                       1.4642193859E+00  1.4866767525E+00  7.2393920008E+00
                      -4.0587964554E+00  3.0564969489E+00  5.7656448399E-01
                      -4.6336969659E-01  2.0345600755E+00  2.4131306669E+00
                      -4.0587964554E+00  3.0564969489E+00  4.2496968499E+00
                       5.0596461447E+00  4.6473987903E-01  9.0759581838E+00
                       5.0596461447E+00  4.6473987903E-01  5.4028258179E+00
            xcart      6.7665136306E+00  1.6726129516E+00  4.5601560834E+00
                      -4.8751818176E+00  4.9815603023E+00  1.3680468250E+01
                       9.4566590650E-01  3.3270866269E+00  9.1203121668E+00
                       9.4566590650E-01  3.3270866269E+00  0.0000000000E+00
                      -1.0059202763E+01  6.4550271568E+00  4.5601560834E+00
                       1.1950534576E+01  1.9914609714E-01  1.3680468250E+01
                       2.7669736378E+00  2.8094119103E+00  1.3680468250E+01
                      -7.6700137298E+00  5.7759421595E+00  1.0895489727E+00
                      -8.7564182483E-01  3.8447613436E+00  4.5601560834E+00
                      -7.6700137298E+00  5.7759421595E+00  8.0307631941E+00
                       9.5613455428E+00  8.7823109440E-01  1.7151075361E+01
                       9.5613455428E+00  8.7823109440E-01  1.0209861139E+01
             xred      7.4863700000E-01  2.5136300000E-01  2.5000000000E-01
                       2.5136300000E-01  7.4863700000E-01  7.5000000000E-01
                       5.0000000000E-01  5.0000000000E-01  5.0000000000E-01
                       5.0000000000E-01  5.0000000000E-01  0.0000000000E+00
                       2.9928000000E-02  9.7007200000E-01  2.5000000000E-01
                       9.7007200000E-01  2.9928000000E-02  7.5000000000E-01
                       5.7779700000E-01  4.2220300000E-01  7.5000000000E-01
                       1.3198200000E-01  8.6801800000E-01  5.9732000000E-02
                       4.2220300000E-01  5.7779700000E-01  2.5000000000E-01
                       1.3198200000E-01  8.6801800000E-01  4.4026800000E-01
                       8.6801800000E-01  1.3198200000E-01  9.4026800000E-01
                       8.6801800000E-01  1.3198200000E-01  5.5973200000E-01
            znucl       11.00000   40.00000   29.00000   16.00000

- Timing analysis has been suppressed with timopt=0

 Suggested references for the acknowledgment of ABINIT usage.

 Calculation completed.
.Delivered   2 WARNINGs and   5 COMMENTs to log file.