.Version 9.5.2 of ABINIT

 ABINIT is a project of the Universite Catholique de Louvain,
 Corning Inc. and other collaborators, see ~abinit/doc/developers/contributors.txt .
 acknowledgments of the ABINIT effort.

.Starting date : Mon 24 May 2021.
- ( at 11h27 )

- input  file    -> /scratch/users/j/a/jabreu/flow_simple_10atoms/flow/w330/t1/run.abi
- output file    -> /scratch/users/j/a/jabreu/flow_simple_10atoms/flow/w330/t1/run.abo
- root for input  files -> /scratch/users/j/a/jabreu/flow_simple_10atoms/flow/w330/t1/indata/in
- root for output files -> /scratch/users/j/a/jabreu/flow_simple_10atoms/flow/w330/t1/outdata/out

 Symmetries : space group Fm -3 m (#225); Bravais cF (face-center cubic)
     intxc =       0      iscf =       7    lmnmax =      18     lnmax =       6
     mgfft =      75  mpssoang =       3    mqgrid =    3001     natom =      10
  nloc_mem =       1    nspden =       1   nspinor =       1    nsppol =       1
      nsym =      48    n1xccc =    2501    ntypat =       4    occopt =       1
   xclevel =       2
-    mband =          59        mffmem =           1         mkmem =           1
-   mkqmem =           1        mk1mem =           1           mpw =       17453
      nfft =      421875          nkpt =           1
  Rough estimation (10% accuracy) of disk space for files :

------------- Echo of variables that govern the present computation ------------
-
- outvars: echo of selected default values
-   iomode0 =  0 , fftalg0 =512 , wfoptalg0 =  0
-
- outvars: echo of global parameters not present in the input file
-  max_nthreads =    0
-
 -outvars: echo values of preprocessed input variables --------
            acell      1.0000000000E+00  1.0000000000E+00  1.0000000000E+00 Bohr
              amu      2.43050000E+01  2.08980370E+02  3.09737620E+01
                       1.40067400E+01
             ecut      4.20000000E+01 Hartree
-          fftalg         512
           irdden           1
           irdwfk           1
           istwfk        1
              ixc     -116133
           kptopt           0
P           mkmem           1
P          mkqmem           1
P          mk1mem           1
            natom          10
            nband          59
           nbdbuf           4
            ngfft          75      75      75
             nkpt           1
            nstep        2000
             nsym          48
           ntypat           4
              occ      2.000000  2.000000  2.000000  2.000000  2.000000  2.000000
                       2.000000  2.000000  2.000000  2.000000  2.000000  2.000000
                       2.000000  2.000000  2.000000  2.000000  2.000000  2.000000
                       2.000000  2.000000  2.000000  2.000000  2.000000  2.000000
                       2.000000  2.000000  2.000000  2.000000  2.000000  2.000000
                       2.000000  2.000000  2.000000  2.000000  2.000000  2.000000
                       2.000000  2.000000  2.000000  2.000000  2.000000  2.000000
                       2.000000  2.000000  2.000000  2.000000  2.000000  2.000000
                       2.000000  2.000000  0.000000  0.000000  0.000000  0.000000
                       0.000000  0.000000  0.000000  0.000000  0.000000
        optdriver           1
            prtwf          -1
            rfdir           1       1       1
           rfelfd           2
            rprim      1.0717159595E+01  0.0000000000E+00  6.1875549769E+00
                       3.5723865316E+00  1.0104234966E+01  6.1875549769E+00
                       0.0000000000E+00  0.0000000000E+00  1.2375109954E+01
          spgroup         225
           symrel      1  0  0   0  1  0   0  0  1      -1  0  0   0 -1  0   0  0 -1
                       0 -1  1   0 -1  0   1 -1  0       0  1 -1   0  1  0  -1  1  0
                      -1  0  0  -1  0  1  -1  1  0       1  0  0   1  0 -1   1 -1  0
                       0  1 -1   1  0 -1   0  0 -1       0 -1  1  -1  0  1   0  0  1
                      -1  0  0  -1  1  0  -1  0  1       1  0  0   1 -1  0   1  0 -1
                       0 -1  1   1 -1  0   0 -1  0       0  1 -1  -1  1  0   0  1  0
                       1  0  0   0  0  1   0  1  0      -1  0  0   0  0 -1   0 -1  0
                       0  1 -1   0  0 -1   1  0 -1       0 -1  1   0  0  1  -1  0  1
                      -1  0  1  -1  1  0  -1  0  0       1  0 -1   1 -1  0   1  0  0
                       0 -1  0   1 -1  0   0 -1  1       0  1  0  -1  1  0   0  1 -1
                       1  0 -1   0  0 -1   0  1 -1      -1  0  1   0  0  1   0 -1  1
                       0  1  0   0  0  1   1  0  0       0 -1  0   0  0 -1  -1  0  0
                       1  0 -1   0  1 -1   0  0 -1      -1  0  1   0 -1  1   0  0  1
                       0 -1  0   0 -1  1   1 -1  0       0  1  0   0  1 -1  -1  1  0
                      -1  0  1  -1  0  0  -1  1  0       1  0 -1   1  0  0   1 -1  0
                       0  1  0   1  0  0   0  0  1       0 -1  0  -1  0  0   0  0 -1
                       0  0 -1   0  1 -1   1  0 -1       0  0  1   0 -1  1  -1  0  1
                       1 -1  0   0 -1  1   0 -1  0      -1  1  0   0  1 -1   0  1  0
                       0  0  1   1  0  0   0  1  0       0  0 -1  -1  0  0   0 -1  0
                      -1  1  0  -1  0  0  -1  0  1       1 -1  0   1  0  0   1  0 -1
                       0  0  1   0  1  0   1  0  0       0  0 -1   0 -1  0  -1  0  0
                       1 -1  0   0 -1  0   0 -1  1      -1  1  0   0  1  0   0  1 -1
                       0  0 -1   1  0 -1   0  1 -1       0  0  1  -1  0  1   0 -1  1
                      -1  1  0  -1  0  1  -1  0  0       1 -1  0   1  0 -1   1  0  0
           tolwfr      1.00000000E-20
            typat      1  1  1  1  1  1  2  2  3  4
           useylm           1
           xangst      4.6511727340E+00  1.4426447199E+00  5.0411847926E+00
                       2.9105293971E+00  3.9042861343E+00  5.0411847926E+00
                       4.6511727340E+00  1.4426447199E+00  8.0560674901E+00
                       5.5214944025E+00  3.9042861343E+00  6.5486261414E+00
                       2.0402077286E+00  1.4426447199E+00  6.5486261414E+00
                       2.9105293971E+00  3.9042861343E+00  8.0560674901E+00
                       5.6712765984E+00  4.0101981406E+00  9.8229392121E+00
                       1.8904255328E+00  1.3367327135E+00  3.2743130707E+00
                       0.0000000000E+00  0.0000000000E+00  0.0000000000E+00
                       3.7808510656E+00  2.6734654271E+00  6.5486261414E+00
            xcart      8.7894426641E+00  2.7262034277E+00  9.5264586433E+00
                       5.5001034622E+00  7.3780315382E+00  9.5264586433E+00
                       8.7894426641E+00  2.7262034277E+00  1.5223761264E+01
                       1.0434112265E+01  7.3780315382E+00  1.2375109954E+01
                       3.8554338612E+00  2.7262034277E+00  1.2375109954E+01
                       5.5001034622E+00  7.3780315382E+00  1.5223761264E+01
                       1.0717159595E+01  7.5781762244E+00  1.8562664931E+01
                       3.5723865316E+00  2.5260587415E+00  6.1875549769E+00
                       0.0000000000E+00  0.0000000000E+00  0.0000000000E+00
                       7.1447730631E+00  5.0521174829E+00  1.2375109954E+01
             xred      7.3019200000E-01  2.6980800000E-01  2.6980800000E-01
                       2.6980800000E-01  7.3019200000E-01  2.6980800000E-01
                       7.3019200000E-01  2.6980800000E-01  7.3019200000E-01
                       7.3019200000E-01  7.3019200000E-01  2.6980800000E-01
                       2.6980800000E-01  2.6980800000E-01  7.3019200000E-01
                       2.6980800000E-01  7.3019200000E-01  7.3019200000E-01
                       7.5000000000E-01  7.5000000000E-01  7.5000000000E-01
                       2.5000000000E-01  2.5000000000E-01  2.5000000000E-01
                       0.0000000000E+00  0.0000000000E+00  0.0000000000E+00
                       5.0000000000E-01  5.0000000000E-01  5.0000000000E-01
            znucl       12.00000   83.00000   15.00000    7.00000

 chkinp: Checking input parameters for consistency.

== DATASET  1 ==================================================================
-   mpi_nproc: 1, omp_nthreads: -1 (-1 if OMP is not activated)

--- !DatasetInfo
iteration_state: {dtset: 1, }
dimensions: {natom: 10, nkpt: 1, mband: 59, nsppol: 1, nspinor: 1, nspden: 1, mpw: 17453, }
cutoff_energies: {ecut:  42.0, pawecutdg:  -1.0, }
electrons: {nelect:   1.00000000E+02, charge:   0.00000000E+00, occopt:   1.00000000E+00, tsmear:   1.00000000E-02, }
meta: {optdriver: 1, rfelfd: 2, }
...

 Real(R)+Recip(G) space primitive vectors, cartesian coordinates (Bohr,Bohr^-1):
 R(1)= 10.7171596  0.0000000  6.1875550  G(1)=  0.0933083 -0.0329895  0.0000000
 R(2)=  3.5723865 10.1042350  6.1875550  G(2)=  0.0000000  0.0989684  0.0000000
 R(3)=  0.0000000  0.0000000 12.3751100  G(3)= -0.0466542 -0.0329895  0.0808074
 Unit cell volume ucvol=  1.3400846E+03 bohr^3
 Angles (23,13,12)=  6.00000000E+01  6.00000000E+01  6.00000000E+01 degrees

 getcut: wavevector=  0.0000  0.0000  0.0000  ngfft=  75  75  75
         ecut(hartree)=     42.000   => boxcut(ratio)=   2.05009

--- Pseudopotential description ------------------------------------------------
- pspini: atom type   1  psp file is /scratch/users/j/a/jabreu/pseudos/PBEsol/Mg.psp8
- pspatm: opening atomic psp file    /scratch/users/j/a/jabreu/pseudos/PBEsol/Mg.psp8
- Mg    ONCVPSP-3.3.0  r_core=   1.16056   1.56380
- 12.00000  10.00000    180112                znucl, zion, pspdat
    8 -116133    1    4       400   0.00000   pspcod,pspxc,lmax,lloc,mmax,r2well
    3.99000000000000    0.00000000000000    0.00000000000000   rchrg,fchrg,qchrg
     nproj     2     2
     extension_switch     1
  pspatm : epsatm=    9.18164846
         --- l  ekb(1:nproj) -->
             0    2.230603   -0.826587
             1   -6.503151   -2.501445
 pspatm: atomic psp has been read  and splines computed

- pspini: atom type   2  psp file is /scratch/users/j/a/jabreu/pseudos/PBEsol/Bi.psp8
- pspatm: opening atomic psp file    /scratch/users/j/a/jabreu/pseudos/PBEsol/Bi.psp8
- Bi    ONCVPSP-3.3.0  r_core=   2.42776   2.51622   2.10397
- 83.00000  15.00000    180112                znucl, zion, pspdat
    8 -116133    2    4       600   0.00000   pspcod,pspxc,lmax,lloc,mmax,r2well
    5.99000000000000    6.00000000000000    0.00000000000000   rchrg,fchrg,qchrg
     nproj     2     2     2
     extension_switch     1
  pspatm : epsatm=   42.90078186
         --- l  ekb(1:nproj) -->
             0    6.017688    0.961606
             1    4.379371    0.528498
             2   -3.458170   -0.753782
 pspatm: atomic psp has been read  and splines computed

[...]

- pspini: atom type   4  psp file is /scratch/users/j/a/jabreu/pseudos/PBEsol/N.psp8
- pspatm: opening atomic psp file    /scratch/users/j/a/jabreu/pseudos/PBEsol/N.psp8
- N     ONCVPSP-3.3.0  r_core=   1.20551   1.35824
-  7.00000   5.00000    180112                znucl, zion, pspdat
    8 -116133    1    4       600   0.00000   pspcod,pspxc,lmax,lloc,mmax,r2well
[...]
 symkpt : not enough symmetry to change the number of k points.

 Initialisation of the first-order wave-functions :
  ireadwf=   0

--- !BeginCycle
iteration_state: {dtset: 1, }
solver: {iscf: 7, nstep: 2000, nline: 4, wfoptalg: 0, }
tolerances: {tolwfr: 1.00E-20, }
...

     iter   2DEtotal(Ha)        deltaE(Ha) residm    vres2
-ETOT  1  -90.424008110050     -9.042E+01 3.748E-01 0.000E+00
 ETOT  2  -90.449898260965     -2.589E-02 7.835E-03 0.000E+00
 ETOT  3  -90.449926499245     -2.824E-05 4.757E-04 0.000E+00
 ETOT  4  -90.449926624384     -1.251E-07 2.719E-05 0.000E+00
 ETOT  5  -90.449926625132     -7.475E-10 2.503E-06 0.000E+00
 ETOT  6  -90.449926625136     -4.292E-12 1.492E-07 0.000E+00
 ETOT  7  -90.449926625136     -1.137E-13 1.400E-08 0.000E+00
 ETOT  8  -90.449926625136      2.842E-14 8.729E-10 0.000E+00
 ETOT  9  -90.449926625136     -1.563E-13 8.055E-11 0.000E+00
 ETOT 10  -90.449926625136      2.132E-13 5.316E-12 0.000E+00
 ETOT 11  -90.449926625136     -1.421E-14 4.818E-13 0.000E+00
 ETOT 12  -90.449926625136      4.263E-14 3.323E-14 0.000E+00
 ETOT 13  -90.449926625136     -4.263E-14 2.985E-15 0.000E+00
 ETOT 14  -90.449926625136      1.421E-14 2.106E-16 0.000E+00
 ETOT 15  -90.449926625136     -1.421E-14 1.888E-17 0.000E+00
 ETOT 16  -90.449926625136      0.000E+00 1.343E-18 0.000E+00
 ETOT 17  -90.449926625136      0.000E+00 1.207E-19 0.000E+00
 ETOT 18  -90.449926625136      1.421E-14 9.399E-21 0.000E+00

 At SCF step   18   max residual=  9.40E-21 < tolwfr=  1.00E-20 =>converged.

 ----iterations are completed or convergence reached----

 dfpt_looppert: DFPT cycle converged with prtwf=-1. Will skip output of the 1st-order WFK file.
 dfpt_looppert : ek2=    7.7336205339E+01
          f-sum rule ratio=    1.8114785383E+00
 prteigrs : about to open file /scratch/users/j/a/jabreu/flow_simple_10atoms/flow/w330/t1/tmpdata/tmp_1WF1_EIG
 Expectation of eigenvalue derivatives (hartree) for nkpt=   1  k points:
  (in case of degenerate eigenvalues, averaged derivative)
 kpt#   1, nband= 59, wtk=  1.00000, kpt=  0.0000  0.0000  0.0000 (reduced coord)
  -0.00000   -0.00000   -0.00000   -0.00000   -0.00000   -0.00000    0.00000    0.00000
   0.00000    0.00000    0.00000    0.00000   -0.00000   -0.00000   -0.00000   -0.00000
  -0.00000   -0.00000    0.00000   -0.00000   -0.00000   -0.00000   -0.00000   -0.00000
   0.00000    0.00000    0.00000    0.00000    0.00000    0.00000    0.00000    0.00000
   0.00000    0.00000   -0.00000   -0.00000    0.00000    0.00000    0.00000    0.00000
   0.00000    0.00000    0.00000    0.00000    0.00000    0.00000    0.00000   -0.00000
  -0.00000   -0.00000    0.00000   -0.00000   -0.00000   -0.00000   -0.00000   -0.00000
   0.00000    0.00000    0.00000

 Eight components of 2nd-order total energy (hartree) are
 1,2,3: 0th-order hamiltonian combined with 1st-order wavefunctions
     kin0=   6.34770911E+01 eigvalue=   1.08378333E+01  local=  -3.03212572E+01
 4,5,6: 1st-order hamiltonian combined with 1st and 0th-order wfs
     kin1=  -1.40092876E+02  Hartree=   0.00000000E+00     xc=   0.00000000E+00
 7,8,9: eventually, occupation + non-local contributions
    edocc=   4.18427094E+01     enl0=   4.61355003E+00   enl1=  -4.08069770E+01
 1-9 gives the relaxation energy (to be shifted if some occ is /=2.0)
   erelax=  -9.04499266E+01
  No Ewald or frozen-wf contrib.: the relaxation energy is the total one
 2DEtotal=   -0.9044992663E+02 Ha. Also 2DEtotal=   -0.246126767351E+04 eV
    (  non-var. 2DEtotal :   -9.0449926625E+01 Ha)

 CALCULATION OF EFFECTIVE MASSES
 NOTE : Additional infos (eff. mass eigenvalues, eigenvectors and, if degenerate, average mass) are available in stdout.

 COMMENTS:
 - At k-point ( 0.000, 0.000, 0.000), bands    48 through    50
   are DEGENERATE (effective mass tensor is therefore not defined).
   See Section IIIB Eqs. (67)-(70) and Appendix E of PRB 93 205147 (2016).
 - Angular average effective mass for Frohlich model is to be averaged over degenerate bands. See later.
 - Associated theta integrals calculated with ntheta=   1000 points.

 K-point ( 0.000, 0.000, 0.000) | band =    48
 Transport equivalent effective mass tensor:
             -0.0245318317             -0.0000000000              0.0000000000
             -0.0000000000             -0.0245318317              0.0000000000
              0.0000000000              0.0000000000             -0.0245318317
 Transport equivalent effective mass tensor eigenvalues:
             -0.0245318318             -0.0245318317             -0.0245318317
 Angular average effective mass 1/(<1/m>)=  -0.0240867208
 Angular average effective mass for Frohlich model (<m**0.5>)**2=  -0.0241176780
 Effective masses along directions: (cart. coord. / red. coord. -> eff. mass)
    1:   1.000000  0.000000  0.000000 /   0.948683  0.316228  0.000000 ->  -0.0246367932
    2:   0.000000  1.000000  0.000000 /   0.000000  1.000000  0.000000 ->  -0.0257643031
    3:   0.000000  0.000000  1.000000 /   0.408248  0.408248  0.816497 ->  -0.0247257409
    4:   0.577350  0.577350  0.577350 /   0.585539  0.688047  0.428644 ->  -0.0246879441
    5:   0.000000  0.707107  0.707107 /   0.289489  0.762222  0.578977 ->  -0.0234527525
    6:   0.707107  0.000000  0.707107 /   0.731423  0.422287  0.535439 ->  -0.0246810118
    7:   0.707107  0.707107  0.000000 /   0.616798  0.787122  0.000000 ->  -0.0222999853

[...]

 K-point ( 0.000, 0.000, 0.000) | band =    50
 Transport equivalent effective mass tensor:
             -4.3608491289              0.0000016123              0.0000000487
              0.0000016123             -4.3608486797             -0.0000000519
              0.0000000487             -0.0000000519             -4.3608488557
 Transport equivalent effective mass tensor eigenvalues:
             -4.3608505352             -4.3608488527             -4.3608472764
 Angular average effective mass 1/(<1/m>)=  -0.5952954447
 Angular average effective mass for Frohlich model (<m**0.5>)**2=  -0.6834630124
 Effective masses along directions: (cart. coord. / red. coord. -> eff. mass)
    1:   1.000000  0.000000  0.000000 /   0.948683  0.316228  0.000000 ->  -0.3914483462
    2:   0.000000  1.000000  0.000000 /   0.000000  1.000000  0.000000 ->  -0.2389540287
    3:   0.000000  0.000000  1.000000 /   0.408248  0.408248  0.816497 ->  -1.0818698880
    4:   0.577350  0.577350  0.577350 /   0.585539  0.688047  0.428644 ->  -0.4671857290
    5:   0.000000  0.707107  0.707107 /   0.289489  0.762222  0.578977 ->  -0.9602910113
    6:   0.707107  0.000000  0.707107 /   0.731423  0.422287  0.535439 ->  -0.6544905536
    7:   0.707107  0.707107  0.000000 /   0.616798  0.787122  0.000000 ->  -0.9396885903

 Angular average effective mass for Frohlich model, averaged over degenerate bands.
 Value of     (<<m**0.5>>)**2 =     2.551455E-01
 Absolute Value of <<m**0.5>> =     5.051193E-01

 K-point ( 0.000, 0.000, 0.000) | band =    51
 Effective mass tensor:
              0.0260674533              0.0000000000             -0.0000000000
              0.0000000000              0.0260674533             -0.0000000000
             -0.0000000000             -0.0000000000              0.0260674533
 Effective mass tensor eigenvalues:
              0.0260674533              0.0260674533              0.0260674533
 Angular average effective mass 1/(<1/m>)=   0.0260674533
 Angular average effective mass for Frohlich model (<m**0.5>)**2=   0.0260674533
 Effective masses along directions: (cart. coord. / red. coord. -> eff. mass)
    1:   1.000000  0.000000  0.000000 /   0.948683  0.316228  0.000000 ->   0.0260674533
    2:   0.000000  1.000000  0.000000 /   0.000000  1.000000  0.000000 ->   0.0260674533
    3:   0.000000  0.000000  1.000000 /   0.408248  0.408248  0.816497 ->   0.0260674533
    4:   0.577350  0.577350  0.577350 /   0.585539  0.688047  0.428644 ->   0.0260674533
    5:   0.000000  0.707107  0.707107 /   0.289489  0.762222  0.578977 ->   0.0260674533
    6:   0.707107  0.000000  0.707107 /   0.731423  0.422287  0.535439 ->   0.0260674533
    7:   0.707107  0.707107  0.000000 /   0.616798  0.787122  0.000000 ->   0.0260674533

 END OF EFFECTIVE MASSES SECTION

 ---- first-order wavefunction calculations are completed ----

 Total localisation tensor (bohr^2) in cartesian coordinates
  WARNING : still subject to testing - especially symmetries.
      direction              matrix element
   alpha     beta       real part   imaginary part
     1        1      40.8664087368    0.0000000000
     1        2      11.5587658912    0.0000000000
     1        3      28.3130784997    0.0000000000
     2        1      11.5587658912    0.0000000000
     2        2      32.6931269748    0.0000000000
     2        3      20.0203697961    0.0000000000
     3        1      28.3130784997    0.0000000000
     3        2      20.0203697961    0.0000000000
     3        3      73.5595356727    0.0000000000

 respfn : d/dk was computed, but no 2DTE, so no DDB output.

== END DATASET(S) ==============================================================

 -outvars: echo values of variables after computation  --------
            acell      1.0000000000E+00  1.0000000000E+00  1.0000000000E+00 Bohr
              amu      2.43050000E+01  2.08980370E+02  3.09737620E+01
                       1.40067400E+01
             ecut      4.20000000E+01 Hartree
           etotal     -9.0449926625E+01
            fcart      0.0000000000E+00  0.0000000000E+00  0.0000000000E+00
                       0.0000000000E+00  0.0000000000E+00  0.0000000000E+00
                       0.0000000000E+00  0.0000000000E+00  0.0000000000E+00
                       0.0000000000E+00  0.0000000000E+00  0.0000000000E+00
                       0.0000000000E+00  0.0000000000E+00  0.0000000000E+00
                       0.0000000000E+00  0.0000000000E+00  0.0000000000E+00
                       0.0000000000E+00  0.0000000000E+00  0.0000000000E+00
                       0.0000000000E+00  0.0000000000E+00  0.0000000000E+00
                       0.0000000000E+00  0.0000000000E+00  0.0000000000E+00
                       0.0000000000E+00  0.0000000000E+00  0.0000000000E+00
-          fftalg         512
           irdden           1
           irdwfk           1
           istwfk        1
              ixc     -116133
           kptopt           0
P           mkmem           1
P          mkqmem           1
P          mk1mem           1
            natom          10
            nband          59
           nbdbuf           4
            ngfft          75      75      75
             nkpt           1
            nstep        2000
             nsym          48
           ntypat           4
              occ      2.000000  2.000000  2.000000  2.000000  2.000000  2.000000
                       2.000000  2.000000  2.000000  2.000000  2.000000  2.000000
                       2.000000  2.000000  2.000000  2.000000  2.000000  2.000000
                       2.000000  2.000000  2.000000  2.000000  2.000000  2.000000
                       2.000000  2.000000  2.000000  2.000000  2.000000  2.000000
                       2.000000  2.000000  2.000000  2.000000  2.000000  2.000000
                       2.000000  2.000000  2.000000  2.000000  2.000000  2.000000
                       2.000000  2.000000  2.000000  2.000000  2.000000  2.000000
                       2.000000  2.000000  0.000000  0.000000  0.000000  0.000000
                       0.000000  0.000000  0.000000  0.000000  0.000000
        optdriver           1
            prtwf          -1
            rfdir           1       1       1
           rfelfd           2
            rprim      1.0717159595E+01  0.0000000000E+00  6.1875549769E+00
                       3.5723865316E+00  1.0104234966E+01  6.1875549769E+00
                       0.0000000000E+00  0.0000000000E+00  1.2375109954E+01
          spgroup         225
           strten      0.0000000000E+00  0.0000000000E+00  0.0000000000E+00
                       0.0000000000E+00  0.0000000000E+00  0.0000000000E+00
           symrel      1  0  0   0  1  0   0  0  1      -1  0  0   0 -1  0   0  0 -1
                       0 -1  1   0 -1  0   1 -1  0       0  1 -1   0  1  0  -1  1  0
                      -1  0  0  -1  0  1  -1  1  0       1  0  0   1  0 -1   1 -1  0
                       0  1 -1   1  0 -1   0  0 -1       0 -1  1  -1  0  1   0  0  1
                      -1  0  0  -1  1  0  -1  0  1       1  0  0   1 -1  0   1  0 -1
                       0 -1  1   1 -1  0   0 -1  0       0  1 -1  -1  1  0   0  1  0
                       1  0  0   0  0  1   0  1  0      -1  0  0   0  0 -1   0 -1  0
                       0  1 -1   0  0 -1   1  0 -1       0 -1  1   0  0  1  -1  0  1
                      -1  0  1  -1  1  0  -1  0  0       1  0 -1   1 -1  0   1  0  0
                       0 -1  0   1 -1  0   0 -1  1       0  1  0  -1  1  0   0  1 -1
                       1  0 -1   0  0 -1   0  1 -1      -1  0  1   0  0  1   0 -1  1
                       0  1  0   0  0  1   1  0  0       0 -1  0   0  0 -1  -1  0  0
                       1  0 -1   0  1 -1   0  0 -1      -1  0  1   0 -1  1   0  0  1
                       0 -1  0   0 -1  1   1 -1  0       0  1  0   0  1 -1  -1  1  0
                      -1  0  1  -1  0  0  -1  1  0       1  0 -1   1  0  0   1 -1  0
                       0  1  0   1  0  0   0  0  1       0 -1  0  -1  0  0   0  0 -1
                       0  0 -1   0  1 -1   1  0 -1       0  0  1   0 -1  1  -1  0  1
                       1 -1  0   0 -1  1   0 -1  0      -1  1  0   0  1 -1   0  1  0
                       0  0  1   1  0  0   0  1  0       0  0 -1  -1  0  0   0 -1  0
                      -1  1  0  -1  0  0  -1  0  1       1 -1  0   1  0  0   1  0 -1
                       0  0  1   0  1  0   1  0  0       0  0 -1   0 -1  0  -1  0  0
                       1 -1  0   0 -1  0   0 -1  1      -1  1  0   0  1  0   0  1 -1
                       0  0 -1   1  0 -1   0  1 -1       0  0  1  -1  0  1   0 -1  1
                      -1  1  0  -1  0  1  -1  0  0       1 -1  0   1  0 -1   1  0  0
           tolwfr      1.00000000E-20
            typat      1  1  1  1  1  1  2  2  3  4
           useylm           1
           xangst      4.6511727340E+00  1.4426447199E+00  5.0411847926E+00
                       2.9105293971E+00  3.9042861343E+00  5.0411847926E+00
                       4.6511727340E+00  1.4426447199E+00  8.0560674901E+00
                       5.5214944025E+00  3.9042861343E+00  6.5486261414E+00
                       2.0402077286E+00  1.4426447199E+00  6.5486261414E+00
                       2.9105293971E+00  3.9042861343E+00  8.0560674901E+00
                       5.6712765984E+00  4.0101981406E+00  9.8229392121E+00
                       1.8904255328E+00  1.3367327135E+00  3.2743130707E+00
                       0.0000000000E+00  0.0000000000E+00  0.0000000000E+00
                       3.7808510656E+00  2.6734654271E+00  6.5486261414E+00
            xcart      8.7894426641E+00  2.7262034277E+00  9.5264586433E+00
                       5.5001034622E+00  7.3780315382E+00  9.5264586433E+00
                       8.7894426641E+00  2.7262034277E+00  1.5223761264E+01
                       1.0434112265E+01  7.3780315382E+00  1.2375109954E+01
                       3.8554338612E+00  2.7262034277E+00  1.2375109954E+01
                       5.5001034622E+00  7.3780315382E+00  1.5223761264E+01
                       1.0717159595E+01  7.5781762244E+00  1.8562664931E+01
                       3.5723865316E+00  2.5260587415E+00  6.1875549769E+00
                       0.0000000000E+00  0.0000000000E+00  0.0000000000E+00
                       7.1447730631E+00  5.0521174829E+00  1.2375109954E+01
             xred      7.3019200000E-01  2.6980800000E-01  2.6980800000E-01
                       2.6980800000E-01  7.3019200000E-01  2.6980800000E-01
                       7.3019200000E-01  2.6980800000E-01  7.3019200000E-01
                       7.3019200000E-01  7.3019200000E-01  2.6980800000E-01
                       2.6980800000E-01  2.6980800000E-01  7.3019200000E-01
                       2.6980800000E-01  7.3019200000E-01  7.3019200000E-01
                       7.5000000000E-01  7.5000000000E-01  7.5000000000E-01
                       2.5000000000E-01  2.5000000000E-01  2.5000000000E-01
                       0.0000000000E+00  0.0000000000E+00  0.0000000000E+00
                       5.0000000000E-01  5.0000000000E-01  5.0000000000E-01
            znucl       12.00000   83.00000   15.00000    7.00000

- Timing analysis has been suppressed with timopt=0

 Suggested references for the acknowledgment of ABINIT usage.

 Calculation completed.
.Delivered   2 WARNINGs and   5 COMMENTs to log file.