.Version 9.7.2 of ABINIT

 ABINIT is a project of the Universite Catholique de Louvain,
 Corning Inc. and other collaborators, see ~abinit/doc/developers/contributors.txt .
 acknowledgments of the ABINIT effort.

.Starting date : Wed  1 Dec 2021.
- ( at 22h00 )

- input  file    -> /scratch/users/j/a/jabreu/flow_simple_remain_atoms/flow/w269/t1/run.abi
- output file    -> /scratch/users/j/a/jabreu/flow_simple_remain_atoms/flow/w269/t1/run.abo
- root for input  files -> /scratch/users/j/a/jabreu/flow_simple_remain_atoms/flow/w269/t1/indata/in
- root for output files -> /scratch/users/j/a/jabreu/flow_simple_remain_atoms/flow/w269/t1/outdata/out

 Symmetries : space group P-3 m 1 (#164); Bravais hP (primitive hexag.)
     intxc =       0      iscf =       7    lmnmax =      18     lnmax =       6
     mgfft =      90  mpssoang =       3    mqgrid =    4450     natom =       5
  nloc_mem =       1    nspden =       1   nspinor =       1    nsppol =       1
      nsym =      12    n1xccc =    2501    ntypat =       3    occopt =       1
   xclevel =       2
-    mband =          39        mffmem =           1         mkmem =           2
-   mkqmem =           2        mk1mem =           2           mpw =       13924
      nfft =      262440          nkpt =           2
  Rough estimation (10% accuracy) of disk space for files :

------------- Echo of variables that govern the present computation ------------
-
- outvars: echo of selected default values
-   iomode0 =  0 , fftalg0 =512 , wfoptalg0 =  0
-
- outvars: echo of global parameters not present in the input file
-  max_nthreads =    0
-
 -outvars: echo values of preprocessed input variables --------
            acell      1.0000000000E+00  1.0000000000E+00  1.0000000000E+00 Bohr
              amu      1.37327000E+02  2.43050000E+01  1.21753000E+02
             ecut      4.20000000E+01 Hartree
-          fftalg         512
           irdden           1
           irdwfk           1
           istwfk        1    1
              ixc     -116133
              kpt      0.00000000E+00  0.00000000E+00  0.00000000E+00
                       5.00000000E-01  0.00000000E+00  0.00000000E+00
           kptopt           0
P           mkmem           2
P          mkqmem           2
P          mk1mem           2
            natom           5
            nband          39
           nbdbuf           4
            ngfft          54      54      90
             nkpt           2
            nstep        2000
             nsym          12
           ntypat           3
              occ      2.000000  2.000000  2.000000  2.000000  2.000000  2.000000
                       2.000000  2.000000  2.000000  2.000000  2.000000  2.000000
                       2.000000  2.000000  2.000000  2.000000  2.000000  2.000000
                       2.000000  2.000000  2.000000  2.000000  2.000000  2.000000
                       2.000000  2.000000  2.000000  2.000000  2.000000  2.000000
                       0.000000  0.000000  0.000000  0.000000  0.000000  0.000000
                       0.000000  0.000000  0.000000
        optdriver           1
            prtwf          -1
            rfdir           1       1       1
           rfelfd           2
            rprim      8.9965302774E+00  0.0000000000E+00  0.0000000000E+00
                      -4.4982651387E+00  7.7912237661E+00  0.0000000000E+00
                       0.0000000000E+00  0.0000000000E+00  1.5252691015E+01
          spgroup         164
           symrel      1  0  0   0  1  0   0  0  1      -1  0  0   0 -1  0   0  0 -1
                      -1  0  0   1  1  0   0  0  1       1  0  0  -1 -1  0   0  0 -1
                       0  1  0  -1 -1  0   0  0  1       0 -1  0   1  1  0   0  0 -1
                       0 -1  0  -1  0  0   0  0  1       0  1  0   1  0  0   0  0 -1
                      -1 -1  0   1  0  0   0  0  1       1  1  0  -1  0  0   0  0 -1
                       1  1  0   0 -1  0   0  0  1      -1 -1  0   0  1  0   0  0 -1
           tolwfr      1.00000000E-20
            typat      1  2  2  3  3
           useylm           1
              wtk        0.50000    0.50000
           xangst      0.0000000000E+00  0.0000000000E+00  0.0000000000E+00
                       0.0000000000E+00  2.7486253627E+00  3.0308583584E+00
                       2.3803793896E+00  1.3743126813E+00  5.0405180963E+00
                       0.0000000000E+00  2.7486253627E+00  5.9280950795E+00
                       2.3803793896E+00  1.3743126813E+00  2.1432813752E+00
            xcart      0.0000000000E+00  0.0000000000E+00  0.0000000000E+00
                       0.0000000000E+00  5.1941491774E+00  5.7274922449E+00
                       4.4982651387E+00  2.5970745887E+00  9.5251987699E+00
                       0.0000000000E+00  5.1941491774E+00  1.1202476190E+01
                       4.4982651387E+00  2.5970745887E+00  4.0502148248E+00
             xred      0.0000000000E+00  0.0000000000E+00  0.0000000000E+00
                       3.3333333333E-01  6.6666666667E-01  3.7550700000E-01
                       6.6666666667E-01  3.3333333333E-01  6.2449300000E-01
                       3.3333333333E-01  6.6666666667E-01  7.3445900000E-01
                       6.6666666667E-01  3.3333333333E-01  2.6554100000E-01
            znucl       56.00000   12.00000   51.00000

 chkinp: Checking input parameters for consistency.

== DATASET  1 ==================================================================
-   mpi_nproc: 1, omp_nthreads: -1 (-1 if OMP is not activated)

--- !DatasetInfo
iteration_state: {dtset: 1, }
dimensions: {natom: 5, nkpt: 2, mband: 39, nsppol: 1, nspinor: 1, nspden: 1, mpw: 13924, }
cutoff_energies: {ecut:  42.0, pawecutdg:  -1.0, }
electrons: {nelect:   6.00000000E+01, charge:   0.00000000E+00, occopt:   1.00000000E+00, tsmear:   1.00000000E-02, }
meta: {optdriver: 1, rfelfd: 2, }
...

 Real(R)+Recip(G) space primitive vectors, cartesian coordinates (Bohr,Bohr^-1):
 R(1)=  8.9965303  0.0000000  0.0000000  G(1)=  0.1111540  0.0641748  0.0000000
 R(2)= -4.4982651  7.7912238  0.0000000  G(2)=  0.0000000  0.1283495  0.0000000
 R(3)=  0.0000000  0.0000000 15.2526910  G(3)=  0.0000000  0.0000000  0.0655622
 Unit cell volume ucvol=  1.0691218E+03 bohr^3
 Angles (23,13,12)=  9.00000000E+01  9.00000000E+01  1.20000000E+02 degrees

 getcut: wavevector=  0.0000  0.0000  0.0000  ngfft=  54  54  90
         ecut(hartree)=     42.000   => boxcut(ratio)=   2.02258

--- Pseudopotential description ------------------------------------------------
- pspini: atom type   1  psp file is /scratch/users/j/a/jabreu/pseudos/PBEsol/Ba.psp8
- pspatm: opening atomic psp file    /scratch/users/j/a/jabreu/pseudos/PBEsol/Ba.psp8
- Ba    ONCVPSP-3.3.0  r_core=   2.15444   1.91218   2.15444
- 56.00000  10.00000    180112                znucl, zion, pspdat
    8 -116133    2    4       600   0.00000   pspcod,pspxc,lmax,lloc,mmax,r2well
    5.99000000000000    5.00000000000000    0.00000000000000   rchrg,fchrg,qchrg
     nproj     2     2     2
     extension_switch     1
  pspatm : epsatm=   26.37418029
         --- l  ekb(1:nproj) -->
             0    6.652372    0.677024
             1    5.027722    0.408462
             2    2.543237    0.416854
 pspatm: atomic psp has been read  and splines computed

- pspini: atom type   2  psp file is /scratch/users/j/a/jabreu/pseudos/PBEsol/Mg.psp8
- pspatm: opening atomic psp file    /scratch/users/j/a/jabreu/pseudos/PBEsol/Mg.psp8
- Mg    ONCVPSP-3.3.0  r_core=   1.16056   1.56380
- 12.00000  10.00000    180112                znucl, zion, pspdat
    8 -116133    1    4       400   0.00000   pspcod,pspxc,lmax,lloc,mmax,r2well
    3.99000000000000    0.00000000000000    0.00000000000000   rchrg,fchrg,qchrg
     nproj     2     2
     extension_switch     1
  pspatm : epsatm=    9.18164846
         --- l  ekb(1:nproj) -->
             0    2.230603   -0.826587
             1   -6.503151   -2.501445
 pspatm: atomic psp has been read  and splines computed

- pspini: atom type   3  psp file is /scratch/users/j/a/jabreu/pseudos/PBEsol/Sb.psp8
- pspatm: opening atomic psp file    /scratch/users/j/a/jabreu/pseudos/PBEsol/Sb.psp8
- Sb    ONCVPSP-3.3.0  r_core=   1.81962   2.12485   1.81962
- 51.00000  15.00000    180112                znucl, zion, pspdat
    8 -116133    2    4       600   0.00000   pspcod,pspxc,lmax,lloc,mmax,r2well
    5.99000000000000    5.00000000000000    0.00000000000000   rchrg,fchrg,qchrg
     nproj     2     2     2
     extension_switch     1
  pspatm : epsatm=   26.35641246
         --- l  ekb(1:nproj) -->
             0    9.727814    1.485032
             1    5.505335    0.704623
             2   -4.710637   -1.436443
 pspatm: atomic psp has been read  and splines computed

   5.84701813E+03                                ecore*ucvol(ha*bohr**3)

 ==>  initialize data related to q vector <==

 The list of irreducible perturbations for this q vector is:
    1)    idir= 1    ipert=   6
    2)    idir= 2    ipert=   6
    3)    idir= 3    ipert=   6

 Perturbation wavevector (in red.coord.)   0.000000  0.000000  0.000000
 Perturbation : derivative vs k along direction   1

 dfpt_looppert : COMMENT -
  In a d/dk calculation, iscf is set to -3 automatically.
 The set of symmetries contains only one element for this perturbation.
 symkpt : not enough symmetry to change the number of k points.

 Initialisation of the first-order wave-functions :
  ireadwf=   0

--- !BeginCycle
iteration_state: {dtset: 1, }
solver: {iscf: 7, nstep: 2000, nline: 4, wfoptalg: 0, }
tolerances: {tolwfr: 1.00E-20, }
...

     iter   2DEtotal(Ha)        deltaE(Ha) residm    vres2
-ETOT  1  -74.342924033152     -7.434E+01 5.587E-02 0.000E+00
 ETOT  2  -74.371515832120     -2.859E-02 2.360E-03 0.000E+00
 ETOT  3  -74.371533822867     -1.799E-05 5.106E-05 0.000E+00
 ETOT  4  -74.371533866118     -4.325E-08 2.835E-06 0.000E+00
 ETOT  5  -74.371533866370     -2.526E-10 6.836E-08 0.000E+00
 ETOT  6  -74.371533866372     -2.188E-12 4.266E-09 0.000E+00
 ETOT  7  -74.371533866372     -8.527E-14 1.037E-10 0.000E+00
 ETOT  8  -74.371533866372      5.684E-14 6.634E-12 0.000E+00
 ETOT  9  -74.371533866372      2.842E-14 1.614E-13 0.000E+00
 ETOT 10  -74.371533866372     -1.421E-14 1.044E-14 0.000E+00
 ETOT 11  -74.371533866372      1.421E-14 2.539E-16 0.000E+00
 ETOT 12  -74.371533866372     -1.421E-14 1.656E-17 0.000E+00
 ETOT 13  -74.371533866372      1.421E-14 4.023E-19 0.000E+00
 ETOT 14  -74.371533866372      0.000E+00 2.640E-20 0.000E+00
 ETOT 15  -74.371533866372      0.000E+00 9.672E-21 0.000E+00

 At SCF step   15   max residual=  9.67E-21 < tolwfr=  1.00E-20 =>converged.

 ----iterations are completed or convergence reached----

 dfpt_looppert: DFPT cycle converged with prtwf=-1. Will skip output of the 1st-order WFK file.
 dfpt_looppert : ek2=    7.8042222280E+01
          f-sum rule ratio=    1.2156323892E+00
 prteigrs : about to open file /scratch/users/j/a/jabreu/flow_simple_remain_atoms/flow/w269/t1/tmpdata/tmp_1WF1_EIG
 Expectation of eigenvalue derivatives (hartree) for nkpt=   2  k points:
  (in case of degenerate eigenvalues, averaged derivative)
 kpt#   1, nband= 39, wtk=  0.50000, kpt=  0.0000  0.0000  0.0000 (reduced coord)
  -0.00000   -0.00000    0.00000    0.00000    0.00000   -0.00000   -0.00000   -0.00000
  -0.00000   -0.00000    0.00000    0.00000    0.00000    0.00000   -0.00000   -0.00000
   0.00000    0.00000   -0.00000    0.00000    0.00000    0.00000    0.00000   -0.00000
   0.00000   -0.00000   -0.00000    0.00000   -0.00000   -0.00000    0.00000    0.00000
   0.00000    0.00000    0.00000   -0.00000   -0.00000    0.00000    0.00000
 prteigrs : prtvol=0 or 1, do not print more k-points.

 Eight components of 2nd-order total energy (hartree) are
 1,2,3: 0th-order hamiltonian combined with 1st-order wavefunctions
     kin0=   6.96296156E+01 eigvalue=   1.21085288E+01  local=  -3.94252787E+01
 4,5,6: 1st-order hamiltonian combined with 1st and 0th-order wfs
     kin1=  -9.48706531E+01  Hartree=   0.00000000E+00     xc=   0.00000000E+00
 7,8,9: eventually, occupation + non-local contributions
    edocc=   2.14860213E+01     enl0=   1.05726468E+01   enl1=  -5.38724146E+01
 1-9 gives the relaxation energy (to be shifted if some occ is /=2.0)
   erelax=  -7.43715339E+01
  No Ewald or frozen-wf contrib.: the relaxation energy is the total one
 2DEtotal=   -0.7437153387E+02 Ha. Also 2DEtotal=   -0.202375235629E+04 eV
    (  non-var. 2DEtotal :   -7.4371533866E+01 Ha)

 Perturbation wavevector (in red.coord.)   0.000000  0.000000  0.000000
 Perturbation : derivative vs k along direction   2
 The set of symmetries contains only one element for this perturbation.
 symkpt : not enough symmetry to change the number of k points.

[...]

 Perturbation wavevector (in red.coord.)   0.000000  0.000000  0.000000
 Perturbation : derivative vs k along direction   3
 The set of symmetries contains only one element for this perturbation.
 symkpt : not enough symmetry to change the number of k points.

 Initialisation of the first-order wave-functions :
  ireadwf=   0

--- !BeginCycle
iteration_state: {dtset: 1, }
solver: {iscf: 7, nstep: 2000, nline: 4, wfoptalg: 0, }
tolerances: {tolwfr: 1.00E-20, }
...

     iter   2DEtotal(Ha)        deltaE(Ha) residm    vres2
-ETOT  1  -18.490916130297     -1.849E+01 3.194E-02 0.000E+00
 ETOT  2  -18.499729399107     -8.813E-03 5.439E-04 0.000E+00
 ETOT  3  -18.499736375632     -6.977E-06 2.256E-05 0.000E+00
 ETOT  4  -18.499736400713     -2.508E-08 4.875E-07 0.000E+00
 ETOT  5  -18.499736400900     -1.865E-10 3.364E-08 0.000E+00
 ETOT  6  -18.499736400901     -1.762E-12 8.239E-10 0.000E+00
 ETOT  7  -18.499736400901      7.105E-14 5.933E-11 0.000E+00
 ETOT  8  -18.499736400901     -4.263E-14 2.123E-12 0.000E+00
 ETOT  9  -18.499736400901     -2.132E-14 1.074E-13 0.000E+00
 ETOT 10  -18.499736400901     -1.066E-14 7.359E-15 0.000E+00
 ETOT 11  -18.499736400901     -1.421E-14 2.758E-16 0.000E+00
 ETOT 12  -18.499736400901      3.553E-15 2.790E-17 0.000E+00
 ETOT 13  -18.499736400901      7.105E-15 1.104E-18 0.000E+00
 ETOT 14  -18.499736400901     -3.553E-15 1.156E-19 0.000E+00
 ETOT 15  -18.499736400901      3.553E-15 9.977E-21 0.000E+00

 At SCF step   15   max residual=  9.98E-21 < tolwfr=  1.00E-20 =>converged.

 ----iterations are completed or convergence reached----

 dfpt_looppert: DFPT cycle converged with prtwf=-1. Will skip output of the 1st-order WFK file.
 dfpt_looppert : ek2=    2.0363294290E+01
          f-sum rule ratio=    1.1294223470E+00
 prteigrs : about to open file /scratch/users/j/a/jabreu/flow_simple_remain_atoms/flow/w269/t1/tmpdata/tmp_1WF1_EIG
 Expectation of eigenvalue derivatives (hartree) for nkpt=   2  k points:
  (in case of degenerate eigenvalues, averaged derivative)
 kpt#   1, nband= 39, wtk=  0.50000, kpt=  0.0000  0.0000  0.0000 (reduced coord)
   0.00000    0.00000    0.00000   -0.00000   -0.00000   -0.00000    0.00000    0.00000
   0.00000    0.00000    0.00000    0.00000   -0.00000    0.00000   -0.00000   -0.00000
   0.00000    0.00000    0.00000   -0.00000    0.00000    0.00000   -0.00000    0.00000
   0.00000   -0.00000   -0.00000    0.00000    0.00000    0.00000    0.00000   -0.00000
  -0.00000   -0.00000   -0.00000   -0.00000   -0.00000   -0.00000   -0.00000
 prteigrs : prtvol=0 or 1, do not print more k-points.

 Eight components of 2nd-order total energy (hartree) are
 1,2,3: 0th-order hamiltonian combined with 1st-order wavefunctions
     kin0=   1.89598814E+01 eigvalue=   3.12154980E+00  local=  -1.08596671E+01
 4,5,6: 1st-order hamiltonian combined with 1st and 0th-order wfs
     kin1=  -2.29987596E+01  Hartree=   0.00000000E+00     xc=   0.00000000E+00
 7,8,9: eventually, occupation + non-local contributions
    edocc=   4.47315322E+00     enl0=   2.80481908E+00   enl1=  -1.40007132E+01
 1-9 gives the relaxation energy (to be shifted if some occ is /=2.0)
   erelax=  -1.84997364E+01
  No Ewald or frozen-wf contrib.: the relaxation energy is the total one
 2DEtotal=   -0.1849973640E+02 Ha. Also 2DEtotal=   -0.503403428514E+03 eV
    (  non-var. 2DEtotal :   -1.8499736401E+01 Ha)

 CALCULATION OF EFFECTIVE MASSES
 NOTE : Additional infos (eff. mass eigenvalues, eigenvectors and, if degenerate, average mass) are available in stdout.

 COMMENTS:
 - At k-point ( 0.000, 0.000, 0.000), bands    29 through    30
   are DEGENERATE (effective mass tensor is therefore not defined).
   See Section IIIB Eqs. (67)-(70) and Appendix E of PRB 93 205147 (2016).
 - Angular average effective mass for Frohlich model is to be averaged over degenerate bands. See later.
 - Associated theta integrals calculated with ntheta=   1000 points.

 K-point ( 0.000, 0.000, 0.000) | band =    29
 Transport equivalent effective mass tensor:
             -0.1135975980              0.0000000000             -0.0000000000
              0.0000000000             -0.1135984100              0.0000010001
             -0.0000000000              0.0000010001             -0.6031738660
 Transport equivalent effective mass tensor eigenvalues:
             -0.6031738660             -0.1135984100             -0.1135975980
 Angular average effective mass 1/(<1/m>)=  -0.1358488004
 Angular average effective mass for Frohlich model (<m**0.5>)**2=  -0.1536659136
 Effective masses along directions: (cart. coord. / red. coord. -> eff. mass)
    1:   1.000000  0.000000  0.000000 /   0.894427 -0.447214  0.000000 ->  -0.0997181702
    2:   0.000000  1.000000  0.000000 /   0.000000  1.000000  0.000000 ->  -0.0997181702
    3:   0.000000  0.000000  1.000000 /   0.000000  0.000000  1.000000 ->  -0.5883763038
    4:   0.577350  0.577350  0.577350 /   0.499479  0.182822  0.846816 ->  -0.1236818004
    5:   0.000000  0.707107  0.707107 /   0.000000  0.454898  0.890543 ->  -0.2111659973
    6:   0.707107  0.000000  0.707107 /   0.492403 -0.246202  0.834819 ->  -0.1624138210
    7:   0.707107  0.707107  0.000000 /   0.939071  0.343724  0.000000 ->  -0.0997181702

 K-point ( 0.000, 0.000, 0.000) | band =    30
 Transport equivalent effective mass tensor:
             -1.4170640636              0.0000000001              0.0000000001
              0.0000000001             -1.4170597424             -0.0000027109
              0.0000000001             -0.0000027109             -2.9672033662
 Transport equivalent effective mass tensor eigenvalues:
             -2.9672033662             -1.4170640636             -1.4170597424
 Angular average effective mass 1/(<1/m>)=  -0.5733604680
 Angular average effective mass for Frohlich model (<m**0.5>)**2=  -0.6310647024
 Effective masses along directions: (cart. coord. / red. coord. -> eff. mass)
    1:   1.000000  0.000000  0.000000 /   0.894427 -0.447214  0.000000 ->  -0.5181380625
    2:   0.000000  1.000000  0.000000 /   0.000000  1.000000  0.000000 ->  -0.5181380627
    3:   0.000000  0.000000  1.000000 /   0.000000  0.000000  1.000000 ->  -0.5883763039
    4:   0.577350  0.577350  0.577350 /   0.499479  0.182822  0.846816 ->  -0.9804262226
    5:   0.000000  0.707107  0.707107 /   0.000000  0.454898  0.890543 ->  -0.3397770055
    6:   0.707107  0.000000  0.707107 /   0.492403 -0.246202  0.834819 ->  -0.6572002708
    7:   0.707107  0.707107  0.000000 /   0.939071  0.343724  0.000000 ->  -0.5181380628

 Angular average effective mass for Frohlich model, averaged over degenerate bands.
 Value of     (<<m**0.5>>)**2 =     3.518852E-01
 Absolute Value of <<m**0.5>> =     5.931991E-01

 K-point ( 0.500, 0.000, 0.000) | band =    31
 Effective mass tensor:
              0.7816860202              0.3779918679              0.2362427822
              0.3779918679              0.3452186069              0.1363948339
              0.2362427822              0.1363948339              1.4781153452
 Effective mass tensor eigenvalues:
              0.1269849002              0.8762752512              1.6017598208
 Angular average effective mass 1/(<1/m>)=   0.3111884926
 Angular average effective mass for Frohlich model (<m**0.5>)**2=   0.4470780674
 Effective masses along directions: (cart. coord. / red. coord. -> eff. mass)
    1:   1.000000  0.000000  0.000000 /   0.894427 -0.447214  0.000000 ->   0.3625073949
    2:   0.000000  1.000000  0.000000 /   0.000000  1.000000  0.000000 ->   0.1620879652
    3:   0.000000  0.000000  1.000000 /   0.000000  0.000000  1.000000 ->   1.4036951684
    4:   0.577350  0.577350  0.577350 /   0.499479  0.182822  0.846816 ->   0.9370364487
    5:   0.000000  0.707107  0.707107 /   0.000000  0.454898  0.890543 ->   0.2990635216
    6:   0.707107  0.000000  0.707107 /   0.492403 -0.246202  0.834819 ->   0.6380925588
    7:   0.707107  0.707107  0.000000 /   0.939071  0.343724  0.000000 ->   0.6622169299

 END OF EFFECTIVE MASSES SECTION

 ---- first-order wavefunction calculations are completed ----

 Total localisation tensor (bohr^2) in cartesian coordinates
  WARNING : still subject to testing - especially symmetries.
      direction              matrix element
   alpha     beta       real part   imaginary part
     1        1       4.8418844182    0.0000000000
     1        2      -1.9838409848    0.0000000000
     1        3       0.0000000000    0.0000000000
     2        1      -1.9838409848    0.0000000000
     2        2       3.4361133799    0.0000000000
     2        3       0.0000000000    0.0000000000
     3        1       0.0000000000    0.0000000000
     3        2       0.0000000000    0.0000000000
     3        3       2.5839369179    0.0000000000

 respfn : d/dk was computed, but no 2DTE, so no DDB output.

== END DATASET(S) ==============================================================

 -outvars: echo values of variables after computation  --------
            acell      1.0000000000E+00  1.0000000000E+00  1.0000000000E+00 Bohr
              amu      1.37327000E+02  2.43050000E+01  1.21753000E+02
             ecut      4.20000000E+01 Hartree
           etotal     -1.8499736401E+01
            fcart      0.0000000000E+00  0.0000000000E+00  0.0000000000E+00
                       0.0000000000E+00  0.0000000000E+00  0.0000000000E+00
                       0.0000000000E+00  0.0000000000E+00  0.0000000000E+00
                       0.0000000000E+00  0.0000000000E+00  0.0000000000E+00
                       0.0000000000E+00  0.0000000000E+00  0.0000000000E+00
-          fftalg         512
           irdden           1
           irdwfk           1
           istwfk        1    1
              ixc     -116133
              kpt      0.00000000E+00  0.00000000E+00  0.00000000E+00
                       5.00000000E-01  0.00000000E+00  0.00000000E+00
           kptopt           0
P           mkmem           2
P          mkqmem           2
P          mk1mem           2
            natom           5
            nband          39
           nbdbuf           4
            ngfft          54      54      90
             nkpt           2
            nstep        2000
             nsym          12
           ntypat           3
              occ      2.000000  2.000000  2.000000  2.000000  2.000000  2.000000
                       2.000000  2.000000  2.000000  2.000000  2.000000  2.000000
                       2.000000  2.000000  2.000000  2.000000  2.000000  2.000000
                       2.000000  2.000000  2.000000  2.000000  2.000000  2.000000
                       2.000000  2.000000  2.000000  2.000000  2.000000  2.000000
                       0.000000  0.000000  0.000000  0.000000  0.000000  0.000000
                       0.000000  0.000000  0.000000
        optdriver           1
            prtwf          -1
            rfdir           1       1       1
           rfelfd           2
            rprim      8.9965302774E+00  0.0000000000E+00  0.0000000000E+00
                      -4.4982651387E+00  7.7912237661E+00  0.0000000000E+00
                       0.0000000000E+00  0.0000000000E+00  1.5252691015E+01
          spgroup         164
           strten      0.0000000000E+00  0.0000000000E+00  0.0000000000E+00
                       0.0000000000E+00  0.0000000000E+00  0.0000000000E+00
           symrel      1  0  0   0  1  0   0  0  1      -1  0  0   0 -1  0   0  0 -1
                      -1  0  0   1  1  0   0  0  1       1  0  0  -1 -1  0   0  0 -1
                       0  1  0  -1 -1  0   0  0  1       0 -1  0   1  1  0   0  0 -1
                       0 -1  0  -1  0  0   0  0  1       0  1  0   1  0  0   0  0 -1
                      -1 -1  0   1  0  0   0  0  1       1  1  0  -1  0  0   0  0 -1
                       1  1  0   0 -1  0   0  0  1      -1 -1  0   0  1  0   0  0 -1
           tolwfr      1.00000000E-20
            typat      1  2  2  3  3
           useylm           1
              wtk        0.50000    0.50000
           xangst      0.0000000000E+00  0.0000000000E+00  0.0000000000E+00
                       0.0000000000E+00  2.7486253627E+00  3.0308583584E+00
                       2.3803793896E+00  1.3743126813E+00  5.0405180963E+00
                       0.0000000000E+00  2.7486253627E+00  5.9280950795E+00
                       2.3803793896E+00  1.3743126813E+00  2.1432813752E+00
            xcart      0.0000000000E+00  0.0000000000E+00  0.0000000000E+00
                       0.0000000000E+00  5.1941491774E+00  5.7274922449E+00
                       4.4982651387E+00  2.5970745887E+00  9.5251987699E+00
                       0.0000000000E+00  5.1941491774E+00  1.1202476190E+01
                       4.4982651387E+00  2.5970745887E+00  4.0502148248E+00
             xred      0.0000000000E+00  0.0000000000E+00  0.0000000000E+00
                       3.3333333333E-01  6.6666666667E-01  3.7550700000E-01
                       6.6666666667E-01  3.3333333333E-01  6.2449300000E-01
                       3.3333333333E-01  6.6666666667E-01  7.3445900000E-01
                       6.6666666667E-01  3.3333333333E-01  2.6554100000E-01
            znucl       56.00000   12.00000   51.00000

- Timing analysis has been suppressed with timopt=0

 Suggested references for the acknowledgment of ABINIT usage.

 Calculation completed.
.Delivered   2 WARNINGs and   5 COMMENTs to log file.