.Version 9.5.1 of ABINIT

 ABINIT is a project of the Universite Catholique de Louvain,
 Corning Inc. and other collaborators, see ~abinit/doc/developers/contributors.txt .
 acknowledgments of the ABINIT effort.

.Starting date : Tue 11 May 2021.
- ( at 21h42 )

- input  file    -> /scratch/users/j/a/jabreu/flow_simple_8atoms/flow/w347/t1/run.abi
- output file    -> /scratch/users/j/a/jabreu/flow_simple_8atoms/flow/w347/t1/run.abo
- root for input  files -> /scratch/users/j/a/jabreu/flow_simple_8atoms/flow/w347/t1/indata/in
- root for output files -> /scratch/users/j/a/jabreu/flow_simple_8atoms/flow/w347/t1/outdata/out

 Symmetries : space group P4/m m m (#123); Bravais tP (primitive tetrag.)
     intxc =       0      iscf =       7    lmnmax =      18     lnmax =       6
     mgfft =     120  mpssoang =       3    mqgrid =    5513     natom =       8
  nloc_mem =       1    nspden =       1   nspinor =       1    nsppol =       1
      nsym =      16    n1xccc =    2501    ntypat =       3    occopt =       1
   xclevel =       2
-    mband =          61        mffmem =           1         mkmem =           1
-   mkqmem =           1        mk1mem =           1           mpw =       14007
      nfft =      276480          nkpt =           1
  Rough estimation (10% accuracy) of disk space for files :

------------- Echo of variables that govern the present computation ------------
-
- outvars: echo of selected default values
-   iomode0 =  0 , fftalg0 =512 , wfoptalg0 =  0
-
- outvars: echo of global parameters not present in the input file
-  max_nthreads =    0
-
 -outvars: echo values of preprocessed input variables --------
            acell      1.0000000000E+00  1.0000000000E+00  1.0000000000E+00 Bohr
              amu      8.54678000E+01  6.53900000E+01  3.09737620E+01
             ecut      4.20000000E+01 Hartree
-          fftalg         512
           irdden           1
           irdwfk           1
           istwfk        1
              ixc     -116133
           kptopt           0
P           mkmem           1
P          mkqmem           1
P          mk1mem           1
            natom           8
            nband          61
           nbdbuf           4
            ngfft          48      48     120
             nkpt           1
            nstep        2000
             nsym          16
           ntypat           3
              occ      2.000000  2.000000  2.000000  2.000000  2.000000  2.000000
                       2.000000  2.000000  2.000000  2.000000  2.000000  2.000000
                       2.000000  2.000000  2.000000  2.000000  2.000000  2.000000
                       2.000000  2.000000  2.000000  2.000000  2.000000  2.000000
                       2.000000  2.000000  2.000000  2.000000  2.000000  2.000000
                       2.000000  2.000000  2.000000  2.000000  2.000000  2.000000
                       2.000000  2.000000  2.000000  2.000000  2.000000  2.000000
                       2.000000  2.000000  2.000000  2.000000  2.000000  2.000000
                       2.000000  2.000000  2.000000  2.000000  0.000000  0.000000
                       0.000000  0.000000  0.000000  0.000000  0.000000  0.000000
                       0.000000
        optdriver           1
            prtwf          -1
            rfdir           1       1       1
           rfelfd           2
            rprim      7.5547444932E+00  0.0000000000E+00  0.0000000000E+00
                       0.0000000000E+00  7.5547444932E+00  0.0000000000E+00
                       0.0000000000E+00  0.0000000000E+00  1.8896594664E+01
          spgroup         123
           symrel      1  0  0   0  1  0   0  0  1      -1  0  0   0 -1  0   0  0 -1
                      -1  0  0   0  1  0   0  0 -1       1  0  0   0 -1  0   0  0  1
                      -1  0  0   0 -1  0   0  0  1       1  0  0   0  1  0   0  0 -1
                       1  0  0   0 -1  0   0  0 -1      -1  0  0   0  1  0   0  0  1
                       0  1  0   1  0  0   0  0  1       0 -1  0  -1  0  0   0  0 -1
                       0 -1  0   1  0  0   0  0 -1       0  1  0  -1  0  0   0  0  1
                       0 -1  0  -1  0  0   0  0  1       0  1  0   1  0  0   0  0 -1
                       0  1  0  -1  0  0   0  0 -1       0 -1  0   1  0  0   0  0  1
           tolwfr      1.00000000E-20
            typat      1  2  2  2  2  3  3  3
           useylm           1
           xangst      0.0000000000E+00  0.0000000000E+00  4.9998236082E+00
                       0.0000000000E+00  1.9988993013E+00  1.5641048190E+00
                       0.0000000000E+00  1.9988993013E+00  8.4355423973E+00
                       1.9988993013E+00  0.0000000000E+00  8.4355423973E+00
                       1.9988993013E+00  0.0000000000E+00  1.5641048190E+00
                       0.0000000000E+00  0.0000000000E+00  0.0000000000E+00
                       1.9988993013E+00  1.9988993013E+00  2.8669088566E+00
                       1.9988993013E+00  1.9988993013E+00  7.1327383597E+00
            xcart      0.0000000000E+00  0.0000000000E+00  9.4482973322E+00
                       0.0000000000E+00  3.7773722466E+00  2.9557297510E+00
                       0.0000000000E+00  3.7773722466E+00  1.5940864913E+01
                       3.7773722466E+00  0.0000000000E+00  1.5940864913E+01
                       3.7773722466E+00  0.0000000000E+00  2.9557297510E+00
                       0.0000000000E+00  0.0000000000E+00  0.0000000000E+00
                       3.7773722466E+00  3.7773722466E+00  5.4176725868E+00
                       3.7773722466E+00  3.7773722466E+00  1.3478922077E+01
             xred      0.0000000000E+00  0.0000000000E+00  5.0000000000E-01
                       0.0000000000E+00  5.0000000000E-01  1.5641600000E-01
                       0.0000000000E+00  5.0000000000E-01  8.4358400000E-01
                       5.0000000000E-01  0.0000000000E+00  8.4358400000E-01
                       5.0000000000E-01  0.0000000000E+00  1.5641600000E-01
                       0.0000000000E+00  0.0000000000E+00  0.0000000000E+00
                       5.0000000000E-01  5.0000000000E-01  2.8670100000E-01
                       5.0000000000E-01  5.0000000000E-01  7.1329900000E-01
            znucl       37.00000   30.00000   15.00000

 chkinp: Checking input parameters for consistency.

== DATASET  1 ==================================================================
-   mpi_nproc: 1, omp_nthreads: -1 (-1 if OMP is not activated)

--- !DatasetInfo
iteration_state: {dtset: 1, }
dimensions: {natom: 8, nkpt: 1, mband: 61, nsppol: 1, nspinor: 1, nspden: 1, mpw: 14007, }
cutoff_energies: {ecut:  42.0, pawecutdg:  -1.0, }
electrons: {nelect:   1.04000000E+02, charge:   0.00000000E+00, occopt:   1.00000000E+00, tsmear:   1.00000000E-02, }
meta: {optdriver: 1, rfelfd: 2, }
...

 Real(R)+Recip(G) space primitive vectors, cartesian coordinates (Bohr,Bohr^-1):
 R(1)=  7.5547445  0.0000000  0.0000000  G(1)=  0.1323672  0.0000000  0.0000000
 R(2)=  0.0000000  7.5547445  0.0000000  G(2)=  0.0000000  0.1323672  0.0000000
 R(3)=  0.0000000  0.0000000 18.8965947  G(3)=  0.0000000  0.0000000  0.0529196
 Unit cell volume ucvol=  1.0785073E+03 bohr^3
 Angles (23,13,12)=  9.00000000E+01  9.00000000E+01  9.00000000E+01 degrees

 getcut: wavevector=  0.0000  0.0000  0.0000  ngfft=  48  48 120
         ecut(hartree)=     42.000   => boxcut(ratio)=   2.17675

--- Pseudopotential description ------------------------------------------------
- pspini: atom type   1  psp file is /scratch/users/j/a/jabreu/pseudos/PBEsol/Rb.psp8
- pspatm: opening atomic psp file    /scratch/users/j/a/jabreu/pseudos/PBEsol/Rb.psp8
- Rb    ONCVPSP-3.3.0  r_core=   1.71227   1.75361   1.90633
- 37.00000   9.00000    180112                znucl, zion, pspdat
    8 -116133    2    4       600   0.00000   pspcod,pspxc,lmax,lloc,mmax,r2well
    5.99000000000000    7.00000000000000    0.00000000000000   rchrg,fchrg,qchrg
     nproj     2     2     2
     extension_switch     1
  pspatm : epsatm=   34.48400912
         --- l  ekb(1:nproj) -->
             0    8.196957   -0.477221
             1    3.231347   -0.378736
             2   -1.047201    0.996637
 pspatm: atomic psp has been read  and splines computed

- pspini: atom type   2  psp file is /scratch/users/j/a/jabreu/pseudos/PBEsol/Zn.psp8
- pspatm: opening atomic psp file    /scratch/users/j/a/jabreu/pseudos/PBEsol/Zn.psp8
- Zn    ONCVPSP-3.3.0  r_core=   1.35823   1.66358   1.85211
- 30.00000  20.00000    180112                znucl, zion, pspdat
    8 -116133    2    4       600   0.00000   pspcod,pspxc,lmax,lloc,mmax,r2well
    5.99000000000000    2.50000000000000    0.00000000000000   rchrg,fchrg,qchrg
     nproj     2     2     2
     extension_switch     1
  pspatm : epsatm=   26.57343589
         --- l  ekb(1:nproj) -->
             0    2.830835   -1.519107
             1   -4.626739   -1.324150
             2   -6.948510   -2.555500
 pspatm: atomic psp has been read  and splines computed

- pspini: atom type   3  psp file is /scratch/users/j/a/jabreu/pseudos/PBEsol/P.psp8
- pspatm: opening atomic psp file    /scratch/users/j/a/jabreu/pseudos/PBEsol/P.psp8
- P     ONCVPSP-3.3.0  r_core=   1.46089   1.55067   1.70594
- 15.00000   5.00000    180112                znucl, zion, pspdat
    8 -116133    2    4       600   0.00000   pspcod,pspxc,lmax,lloc,mmax,r2well
    5.99000000000000    5.00000000000000    0.00000000000000   rchrg,fchrg,qchrg
     nproj     2     2     2
     extension_switch     1
  pspatm : epsatm=    7.31221086
         --- l  ekb(1:nproj) -->
             0    6.742364    1.063650
             1    3.449117    0.910422
             2   -3.077645   -0.799176
 pspatm: atomic psp has been read  and splines computed

   1.69222961E+04                                ecore*ucvol(ha*bohr**3)

-inwffil : will read wavefunctions from disk file /scratch/users/j/a/jabreu/flow_simple_8atoms/flow/w347/t1/indata/in_WFK

 ==>  initialize data related to q vector <==

 The list of irreducible perturbations for this q vector is:
    1)    idir= 1    ipert=   9
    2)    idir= 2    ipert=   9
    3)    idir= 3    ipert=   9

 Perturbation wavevector (in red.coord.)   0.000000  0.000000  0.000000
 Perturbation : derivative vs k along direction   1

 dfpt_looppert : COMMENT -
  In a d/dk calculation, iscf is set to -3 automatically.
 The set of symmetries contains only one element for this perturbation.
 symkpt : not enough symmetry to change the number of k points.

[...]

 Initialisation of the first-order wave-functions :
  ireadwf=   0

--- !BeginCycle
iteration_state: {dtset: 1, }
solver: {iscf: 7, nstep: 2000, nline: 4, wfoptalg: 0, }
tolerances: {tolwfr: 1.00E-20, }
...

     iter   2DEtotal(Ha)        deltaE(Ha) residm    vres2
-ETOT  1  -113.88832308398     -1.139E+02 7.897E-02 0.000E+00
 ETOT  2  -114.05551135538     -1.672E-01 1.328E-03 0.000E+00
 ETOT  3  -114.05761822887     -2.107E-03 3.063E-05 0.000E+00
 ETOT  4  -114.05766253425     -4.431E-05 6.898E-07 0.000E+00
 ETOT  5  -114.05766394645     -1.412E-06 1.854E-08 0.000E+00
 ETOT  6  -114.05766399559     -4.914E-08 5.544E-10 0.000E+00
[...]
 Expectation of eigenvalue derivatives (hartree) for nkpt=   1  k points:
  (in case of degenerate eigenvalues, averaged derivative)
 kpt#   1, nband= 61, wtk=  1.00000, kpt=  0.0000  0.0000  0.0000 (reduced coord)
  -0.00000   -0.00000   -0.00000    0.00000    0.00000    0.00000   -0.00000   -0.00000
  -0.00000    0.00000    0.00000    0.00000   -0.00000   -0.00000   -0.00000   -0.00000
  -0.00000    0.00000    0.00000   -0.00000   -0.00000   -0.00000   -0.00000    0.00000
   0.00000   -0.00000   -0.00000   -0.00000   -0.00000    0.00000    0.00000    0.00000
   0.00000    0.00000    0.00000    0.00000    0.00000    0.00000   -0.00000    0.00000
  -0.00000    0.00000    0.00000    0.00000   -0.00000   -0.00000   -0.00000    0.00000
   0.00000    0.00000   -0.00000   -0.00000    0.00000   -0.00000   -0.00000   -0.00000
   0.00000    0.00000   -0.00000   -0.00000   -0.00000

 Eight components of 2nd-order total energy (hartree) are
 1,2,3: 0th-order hamiltonian combined with 1st-order wavefunctions
     kin0=   1.22156727E+02 eigvalue=   1.89116132E+00  local=  -4.62878750E+01
 4,5,6: 1st-order hamiltonian combined with 1st and 0th-order wfs
     kin1=  -2.06958471E+02  Hartree=   0.00000000E+00     xc=   0.00000000E+00
 7,8,9: eventually, occupation + non-local contributions
    edocc=   4.14729468E+01     enl0=  -5.17529608E+00   enl1=  -2.11568574E+01
 1-9 gives the relaxation energy (to be shifted if some occ is /=2.0)
   erelax=  -1.14057664E+02
  No Ewald or frozen-wf contrib.: the relaxation energy is the total one
 2DEtotal=   -0.1140576640E+03 Ha. Also 2DEtotal=   -0.310366687721E+04 eV
    (  non-var. 2DEtotal :   -1.1405766400E+02 Ha)

 Perturbation wavevector (in red.coord.)   0.000000  0.000000  0.000000
 Perturbation : derivative vs k along direction   2
 The set of symmetries contains only one element for this perturbation.
 symkpt : not enough symmetry to change the number of k points.

[...]

 Perturbation wavevector (in red.coord.)   0.000000  0.000000  0.000000
 Perturbation : derivative vs k along direction   3
 The set of symmetries contains only one element for this perturbation.
 symkpt : not enough symmetry to change the number of k points.

-inwffil : will read wavefunctions from disk file /scratch/users/j/a/jabreu/flow_simple_8atoms/flow/w347/t1/indata/in_WFK

 Initialisation of the first-order wave-functions :
  ireadwf=   0

--- !BeginCycle
iteration_state: {dtset: 1, }
solver: {iscf: 7, nstep: 2000, nline: 4, wfoptalg: 0, }
tolerances: {tolwfr: 1.00E-20, }
...

     iter   2DEtotal(Ha)        deltaE(Ha) residm    vres2
-ETOT  1  -14.837259693274     -1.484E+01 7.950E-03 0.000E+00
 ETOT  2  -14.856883533844     -1.962E-02 1.016E-04 0.000E+00
 ETOT  3  -14.857062040935     -1.785E-04 2.201E-06 0.000E+00
 ETOT  4  -14.857064946550     -2.906E-06 3.564E-08 0.000E+00
 ETOT  5  -14.857065029346     -8.280E-08 2.023E-09 0.000E+00
 ETOT  6  -14.857065032115     -2.768E-09 4.318E-11 0.000E+00
 ETOT  7  -14.857065032216     -1.015E-10 2.587E-12 0.000E+00
 ETOT  8  -14.857065032220     -3.913E-12 6.382E-14 0.000E+00
 ETOT  9  -14.857065032220     -1.243E-13 3.773E-15 0.000E+00
 ETOT 10  -14.857065032220     -1.599E-14 9.782E-17 0.000E+00
 ETOT 11  -14.857065032220      1.954E-14 5.737E-18 0.000E+00
 ETOT 12  -14.857065032220     -1.243E-14 1.754E-19 0.000E+00
 ETOT 13  -14.857065032220      1.776E-15 9.688E-21 0.000E+00

 At SCF step   13   max residual=  9.69E-21 < tolwfr=  1.00E-20 =>converged.

 ----iterations are completed or convergence reached----

 dfpt_looppert: DFPT cycle converged with prtwf=-1. Will skip output of the 1st-order WFK file.
 dfpt_looppert : ek2=    2.2996194687E+01
          f-sum rule ratio=    1.1105057872E+00
 prteigrs : about to open file /scratch/users/j/a/jabreu/flow_simple_8atoms/flow/w347/t1/tmpdata/tmp_1WF1_EIG
 Expectation of eigenvalue derivatives (hartree) for nkpt=   1  k points:
  (in case of degenerate eigenvalues, averaged derivative)
 kpt#   1, nband= 61, wtk=  1.00000, kpt=  0.0000  0.0000  0.0000 (reduced coord)
   0.00000    0.00000    0.00000   -0.00000   -0.00000   -0.00000   -0.00000   -0.00000
  -0.00000   -0.00000   -0.00000   -0.00000    0.00000    0.00000   -0.00000   -0.00000
   0.00000    0.00000   -0.00000   -0.00000   -0.00000    0.00000   -0.00000   -0.00000
  -0.00000    0.00000    0.00000   -0.00000   -0.00000    0.00000    0.00000    0.00000
   0.00000    0.00000    0.00000   -0.00000   -0.00000   -0.00000    0.00000    0.00000
  -0.00000   -0.00000    0.00000    0.00000   -0.00000   -0.00000    0.00000    0.00000
   0.00000   -0.00000   -0.00000   -0.00000    0.00000   -0.00000    0.00000    0.00000
  -0.00000   -0.00000    0.00000    0.00000    0.00000

 Eight components of 2nd-order total energy (hartree) are
 1,2,3: 0th-order hamiltonian combined with 1st-order wavefunctions
     kin0=   1.89093750E+01 eigvalue=   4.23851906E-01  local=  -7.19869757E+00
 4,5,6: 1st-order hamiltonian combined with 1st and 0th-order wfs
     kin1=  -2.55374073E+01  Hartree=   0.00000000E+00     xc=   0.00000000E+00
 7,8,9: eventually, occupation + non-local contributions
    edocc=   3.28711552E+00     enl0=  -5.64579853E-01   enl1=  -4.17672278E+00
 1-9 gives the relaxation energy (to be shifted if some occ is /=2.0)
   erelax=  -1.48570650E+01
  No Ewald or frozen-wf contrib.: the relaxation energy is the total one
 2DEtotal=   -0.1485706503E+02 Ha. Also 2DEtotal=   -0.404281299625E+03 eV
    (  non-var. 2DEtotal :   -1.4857065032E+01 Ha)

 CALCULATION OF EFFECTIVE MASSES
 NOTE : Additional infos (eff. mass eigenvalues, eigenvectors and, if degenerate, average mass) are available in stdout.

 COMMENTS:
 - At k-point ( 0.000, 0.000, 0.000), bands    51 through    52
   are DEGENERATE (effective mass tensor is therefore not defined).
   See Section IIIB Eqs. (67)-(70) and Appendix E of PRB 93 205147 (2016).
 - Angular average effective mass for Frohlich model is to be averaged over degenerate bands. See later.
 - Associated theta integrals calculated with ntheta=   1000 points.

 K-point ( 0.000, 0.000, 0.000) | band =    51
 Transport equivalent effective mass tensor:
             -0.1386207006              0.0000000035             -0.0000000519
              0.0000000035             -0.1386208302             -0.0000000464
             -0.0000000519             -0.0000000464             -4.2469742897
 Transport equivalent effective mass tensor eigenvalues:
             -4.2469742897             -0.1386208303             -0.1386207005
 Angular average effective mass 1/(<1/m>)=  -0.1767656555
 Angular average effective mass for Frohlich model (<m**0.5>)**2=  -0.2409547999
 Effective masses along directions: (cart. coord. / red. coord. -> eff. mass)
    1:   1.000000  0.000000  0.000000 /   1.000000  0.000000  0.000000 ->  -0.1007372057
    2:   0.000000  1.000000  0.000000 /   0.000000  1.000000  0.000000 ->  -0.1007372992
    3:   0.000000  0.000000  1.000000 /   0.000000  0.000000  1.000000 ->  -3.3516471291
    4:   0.577350  0.577350  0.577350 /   0.348019  0.348019  0.870497 ->  -0.2404966847
    5:   0.000000  0.707107  0.707107 /   0.000000  0.371226  0.928543 ->  -0.1955957642
    6:   0.707107  0.000000  0.707107 /   0.371226  0.000000  0.928543 ->  -0.1955955889
    7:   0.707107  0.707107  0.000000 /   0.707107  0.707107  0.000000 ->  -0.1642599279

 K-point ( 0.000, 0.000, 0.000) | band =    52
 Transport equivalent effective mass tensor:
             -4.3132187003              0.0000000609             -0.0000004563
              0.0000000609             -4.3132200273             -0.0000001234
             -0.0000004563             -0.0000001234            -59.4725499986
 Transport equivalent effective mass tensor eigenvalues:
            -59.4725499986             -4.3132200301             -4.3132186975
 Angular average effective mass 1/(<1/m>)=  -0.7292557506
 Angular average effective mass for Frohlich model (<m**0.5>)**2=  -1.1714477067
 Effective masses along directions: (cart. coord. / red. coord. -> eff. mass)
    1:   1.000000  0.000000  0.000000 /   1.000000  0.000000  0.000000 ->  -3.1493305281
    2:   0.000000  1.000000  0.000000 /   0.000000  1.000000  0.000000 ->  -3.1493305275
    3:   0.000000  0.000000  1.000000 /   0.000000  0.000000  1.000000 ->  -3.3516472206
    4:   0.577350  0.577350  0.577350 /   0.348019  0.348019  0.870497 ->  -0.3483826417
    5:   0.000000  0.707107  0.707107 /   0.000000  0.371226  0.928543 ->  -3.2473406869
    6:   0.707107  0.000000  0.707107 /   0.371226  0.000000  0.928543 ->  -3.2473406597
    7:   0.707107  0.707107  0.000000 /   0.707107  0.707107  0.000000 ->  -0.2405910743

 Angular average effective mass for Frohlich model, averaged over degenerate bands.
 Value of     (<<m**0.5>>)**2 =     6.187442E-01
 Absolute Value of <<m**0.5>> =     7.866029E-01

 K-point ( 0.000, 0.000, 0.000) | band =    53
 Effective mass tensor:
              0.1431874658              0.0000000000             -0.0000000000
              0.0000000000              0.1431874659              0.0000000000
             -0.0000000000              0.0000000000              7.0358629282
 Effective mass tensor eigenvalues:
              0.1431874658              0.1431874659              7.0358629282
 Angular average effective mass 1/(<1/m>)=   0.2126176980
 Angular average effective mass for Frohlich model (<m**0.5>)**2=   0.2979054756
 Effective masses along directions: (cart. coord. / red. coord. -> eff. mass)
    1:   1.000000  0.000000  0.000000 /   1.000000  0.000000  0.000000 ->   0.1431874658
    2:   0.000000  1.000000  0.000000 /   0.000000  1.000000  0.000000 ->   0.1431874659
    3:   0.000000  0.000000  1.000000 /   0.000000  0.000000  1.000000 ->   7.0358629282
    4:   0.577350  0.577350  0.577350 /   0.348019  0.348019  0.870497 ->   0.2126176980
    5:   0.000000  0.707107  0.707107 /   0.000000  0.371226  0.928543 ->   0.2806631316
    6:   0.707107  0.000000  0.707107 /   0.371226  0.000000  0.928543 ->   0.2806631316
    7:   0.707107  0.707107  0.000000 /   0.707107  0.707107  0.000000 ->   0.1431874658

 END OF EFFECTIVE MASSES SECTION

 ---- first-order wavefunction calculations are completed ----

 Total localisation tensor (bohr^2) in cartesian coordinates
  WARNING : still subject to testing - especially symmetries.
      direction              matrix element
   alpha     beta       real part   imaginary part
     1        1       4.7700810162    0.0000000000
     1        2       0.0000000000    0.0000000000
     1        3       0.0000000000    0.0000000000
     2        1       0.0000000000    0.0000000000
     2        2       4.7700803042    0.0000000000
     2        3       0.0000000000    0.0000000000
     3        1       0.0000000000    0.0000000000
     3        2       0.0000000000    0.0000000000
     3        3       1.8409403475    0.0000000000

 respfn : d/dk was computed, but no 2DTE, so no DDB output.

== END DATASET(S) ==============================================================

 -outvars: echo values of variables after computation  --------
            acell      1.0000000000E+00  1.0000000000E+00  1.0000000000E+00 Bohr
              amu      8.54678000E+01  6.53900000E+01  3.09737620E+01
             ecut      4.20000000E+01 Hartree
           etotal     -1.4857065032E+01
            fcart      0.0000000000E+00  0.0000000000E+00  0.0000000000E+00
                       0.0000000000E+00  0.0000000000E+00  0.0000000000E+00
                       0.0000000000E+00  0.0000000000E+00  0.0000000000E+00
                       0.0000000000E+00  0.0000000000E+00  0.0000000000E+00
                       0.0000000000E+00  0.0000000000E+00  0.0000000000E+00
                       0.0000000000E+00  0.0000000000E+00  0.0000000000E+00
                       0.0000000000E+00  0.0000000000E+00  0.0000000000E+00
                       0.0000000000E+00  0.0000000000E+00  0.0000000000E+00
-          fftalg         512
           irdden           1
           irdwfk           1
           istwfk        1
              ixc     -116133
           kptopt           0
P           mkmem           1
P          mkqmem           1
P          mk1mem           1
            natom           8
            nband          61
           nbdbuf           4
            ngfft          48      48     120
             nkpt           1
            nstep        2000
             nsym          16
           ntypat           3
              occ      2.000000  2.000000  2.000000  2.000000  2.000000  2.000000
                       2.000000  2.000000  2.000000  2.000000  2.000000  2.000000
                       2.000000  2.000000  2.000000  2.000000  2.000000  2.000000
                       2.000000  2.000000  2.000000  2.000000  2.000000  2.000000
                       2.000000  2.000000  2.000000  2.000000  2.000000  2.000000
                       2.000000  2.000000  2.000000  2.000000  2.000000  2.000000
                       2.000000  2.000000  2.000000  2.000000  2.000000  2.000000
                       2.000000  2.000000  2.000000  2.000000  2.000000  2.000000
                       2.000000  2.000000  2.000000  2.000000  0.000000  0.000000
                       0.000000  0.000000  0.000000  0.000000  0.000000  0.000000
                       0.000000
        optdriver           1
            prtwf          -1
            rfdir           1       1       1
           rfelfd           2
            rprim      7.5547444932E+00  0.0000000000E+00  0.0000000000E+00
                       0.0000000000E+00  7.5547444932E+00  0.0000000000E+00
                       0.0000000000E+00  0.0000000000E+00  1.8896594664E+01
          spgroup         123
           strten      0.0000000000E+00  0.0000000000E+00  0.0000000000E+00
                       0.0000000000E+00  0.0000000000E+00  0.0000000000E+00
           symrel      1  0  0   0  1  0   0  0  1      -1  0  0   0 -1  0   0  0 -1
                      -1  0  0   0  1  0   0  0 -1       1  0  0   0 -1  0   0  0  1
                      -1  0  0   0 -1  0   0  0  1       1  0  0   0  1  0   0  0 -1
                       1  0  0   0 -1  0   0  0 -1      -1  0  0   0  1  0   0  0  1
                       0  1  0   1  0  0   0  0  1       0 -1  0  -1  0  0   0  0 -1
                       0 -1  0   1  0  0   0  0 -1       0  1  0  -1  0  0   0  0  1
                       0 -1  0  -1  0  0   0  0  1       0  1  0   1  0  0   0  0 -1
                       0  1  0  -1  0  0   0  0 -1       0 -1  0   1  0  0   0  0  1
           tolwfr      1.00000000E-20
            typat      1  2  2  2  2  3  3  3
           useylm           1
           xangst      0.0000000000E+00  0.0000000000E+00  4.9998236082E+00
                       0.0000000000E+00  1.9988993013E+00  1.5641048190E+00
                       0.0000000000E+00  1.9988993013E+00  8.4355423973E+00
                       1.9988993013E+00  0.0000000000E+00  8.4355423973E+00
                       1.9988993013E+00  0.0000000000E+00  1.5641048190E+00
                       0.0000000000E+00  0.0000000000E+00  0.0000000000E+00
                       1.9988993013E+00  1.9988993013E+00  2.8669088566E+00
                       1.9988993013E+00  1.9988993013E+00  7.1327383597E+00
            xcart      0.0000000000E+00  0.0000000000E+00  9.4482973322E+00
                       0.0000000000E+00  3.7773722466E+00  2.9557297510E+00
                       0.0000000000E+00  3.7773722466E+00  1.5940864913E+01
                       3.7773722466E+00  0.0000000000E+00  1.5940864913E+01
                       3.7773722466E+00  0.0000000000E+00  2.9557297510E+00
                       0.0000000000E+00  0.0000000000E+00  0.0000000000E+00
                       3.7773722466E+00  3.7773722466E+00  5.4176725868E+00
                       3.7773722466E+00  3.7773722466E+00  1.3478922077E+01
             xred      0.0000000000E+00  0.0000000000E+00  5.0000000000E-01
                       0.0000000000E+00  5.0000000000E-01  1.5641600000E-01
                       0.0000000000E+00  5.0000000000E-01  8.4358400000E-01
                       5.0000000000E-01  0.0000000000E+00  8.4358400000E-01
                       5.0000000000E-01  0.0000000000E+00  1.5641600000E-01
                       0.0000000000E+00  0.0000000000E+00  0.0000000000E+00
                       5.0000000000E-01  5.0000000000E-01  2.8670100000E-01
                       5.0000000000E-01  5.0000000000E-01  7.1329900000E-01
            znucl       37.00000   30.00000   15.00000

- Timing analysis has been suppressed with timopt=0

 Suggested references for the acknowledgment of ABINIT usage.

 Calculation completed.
.Delivered   6 WARNINGs and   5 COMMENTs to log file.