.Version 9.5.1 of ABINIT

 ABINIT is a project of the Universite Catholique de Louvain,
 Corning Inc. and other collaborators, see ~abinit/doc/developers/contributors.txt .
 acknowledgments of the ABINIT effort.

.Starting date : Wed  5 May 2021.
- ( at 20h01 )

- input  file    -> /scratch/users/j/a/jabreu/flow_simple_7atoms/flow/w178/t1/run.abi
- output file    -> /scratch/users/j/a/jabreu/flow_simple_7atoms/flow/w178/t1/run.abo
- root for input  files -> /scratch/users/j/a/jabreu/flow_simple_7atoms/flow/w178/t1/indata/in
- root for output files -> /scratch/users/j/a/jabreu/flow_simple_7atoms/flow/w178/t1/outdata/out

 Symmetries : space group I4/m m m (#139); Bravais tI (body-center tetrag.)
     intxc =       0      iscf =       7    lmnmax =      32     lnmax =       8
     mgfft =      80  mpssoang =       4    mqgrid =    3001     natom =       7
  nloc_mem =       1    nspden =       1   nspinor =       1    nsppol =       1
      nsym =      16    n1xccc =    2501    ntypat =       3    occopt =       1
   xclevel =       2
-    mband =          37        mffmem =           1         mkmem =           2
-   mkqmem =           2        mk1mem =           2           mpw =        9515
      nfft =      512000          nkpt =           2
  Rough estimation (10% accuracy) of disk space for files :

------------- Echo of variables that govern the present computation ------------
-
- outvars: echo of selected default values
-   iomode0 =  0 , fftalg0 =512 , wfoptalg0 =  0
-
- outvars: echo of global parameters not present in the input file
-  max_nthreads =    0
-
 -outvars: echo values of preprocessed input variables --------
            acell      1.0000000000E+00  1.0000000000E+00  1.0000000000E+00 Bohr
              amu      1.37327000E+02  1.78490000E+02  3.20660000E+01
             ecut      2.90000000E+01 Hartree
-          fftalg         512
           irdden           1
           irdwfk           1
           istwfk        1    1
              ixc     -116133
              kpt      0.00000000E+00  2.77555756E-17  5.00000000E-01
                       0.00000000E+00  0.00000000E+00  0.00000000E+00
           kptopt           0
P           mkmem           2
P          mkqmem           2
P          mk1mem           2
            natom           7
            nband          37
           nbdbuf           4
            ngfft          80      80      80
             nkpt           2
            nstep        2000
             nsym          16
           ntypat           3
              occ      2.000000  2.000000  2.000000  2.000000  2.000000  2.000000
                       2.000000  2.000000  2.000000  2.000000  2.000000  2.000000
                       2.000000  2.000000  2.000000  2.000000  2.000000  2.000000
                       2.000000  2.000000  2.000000  2.000000  2.000000  2.000000
                       2.000000  2.000000  2.000000  2.000000  0.000000  0.000000
                       0.000000  0.000000  0.000000  0.000000  0.000000  0.000000
                       0.000000
        optdriver           1
            prtwf          -1
            rfdir           1       1       1
           rfelfd           2
            rprim      8.8676733093E+00  0.0000000000E+00 -1.3469947711E+01
                      -7.9604892590E-01  8.8318704717E+00 -1.3469947711E+01
                       0.0000000000E+00  0.0000000000E+00  1.6126844740E+01
          spgroup         139
           symrel      1  0  0   0  1  0   0  0  1      -1  0  0   0 -1  0   0  0 -1
                       0  0  1  -1 -1 -1   1  0  0       0  0 -1   1  1  1  -1  0  0
                       0  1  0   1  0  0  -1 -1 -1       0 -1  0  -1  0  0   1  1  1
                      -1 -1 -1   0  0  1   0  1  0       1  1  1   0  0 -1   0 -1  0
                       0  1  0   1  0  0   0  0  1       0 -1  0  -1  0  0   0  0 -1
                       0  0  1  -1 -1 -1   0  1  0       0  0 -1   1  1  1   0 -1  0
                       1  0  0   0  1  0  -1 -1 -1      -1  0  0   0 -1  0   1  1  1
                      -1 -1 -1   0  0  1   1  0  0       1  1  1   0  0 -1  -1  0  0
           tolwfr      1.00000000E-20
            typat      1  1  2  3  3  3  3
           useylm           1
              wtk        0.50000    0.50000
           xangst      1.5310844314E+00  1.6752934399E+00 -5.1101553422E+00
                       2.7402352286E+00  2.9983311229E+00 -9.1458233169E+00
                       0.0000000000E+00  0.0000000000E+00  0.0000000000E+00
                       2.3462853043E+00  0.0000000000E+00  7.0298467658E-01
                      -2.1062547425E-01  2.3368122814E+00  7.0298467658E-01
                       3.5756156564E+00  3.9123939413E+00 -1.1933993367E+01
                       6.9570400358E-01  7.6123062155E-01 -2.3219852920E+00
            xcart      2.8933302616E+00  3.1658457937E+00 -9.6567940933E+00
                       5.1782941218E+00  5.6660246780E+00 -1.7283101329E+01
                       0.0000000000E+00  0.0000000000E+00  0.0000000000E+00
                       4.4338366547E+00  0.0000000000E+00  1.3284485144E+00
                      -3.9802446295E-01  4.4159352359E+00  1.3284485144E+00
                       6.7569343471E+00  7.3933530730E+00 -2.2551979135E+01
                       1.3146900363E+00  1.4385173987E+00 -4.3879162865E+00
             xred      3.5845700000E-01  3.5845700000E-01  0.0000000000E+00
                       6.4154300000E-01  6.4154300000E-01 -5.5511151231E-17
                       0.0000000000E+00  0.0000000000E+00  0.0000000000E+00
                       5.0000000000E-01  0.0000000000E+00  5.0000000000E-01
                      -6.9388939039E-18  5.0000000000E-01  5.0000000000E-01
                       8.3712200000E-01  8.3712200000E-01 -1.1102230246E-16
                       1.6287800000E-01  1.6287800000E-01  1.3877787808E-17
            znucl       56.00000   72.00000   16.00000

 chkinp: Checking input parameters for consistency.

== DATASET  1 ==================================================================
-   mpi_nproc: 1, omp_nthreads: -1 (-1 if OMP is not activated)

--- !DatasetInfo
iteration_state: {dtset: 1, }
dimensions: {natom: 7, nkpt: 2, mband: 37, nsppol: 1, nspinor: 1, nspden: 1, mpw: 9515, }
cutoff_energies: {ecut:  29.0, pawecutdg:  -1.0, }
electrons: {nelect:   5.60000000E+01, charge:   0.00000000E+00, occopt:   1.00000000E+00, tsmear:   1.00000000E-02, }
meta: {optdriver: 1, rfelfd: 2, }
...

 Real(R)+Recip(G) space primitive vectors, cartesian coordinates (Bohr,Bohr^-1):
 R(1)=  8.8676733  0.0000000-13.4699477  G(1)=  0.1127692  0.0101643  0.0000000
 R(2)= -0.7960489  8.8318705-13.4699477  G(2)=  0.0000000  0.1132263  0.0000000
 R(3)=  0.0000000  0.0000000 16.1268447  G(3)=  0.0941904  0.1030620  0.0620084
 Unit cell volume ucvol=  1.2630245E+03 bohr^3
 Angles (23,13,12)=  1.46641883E+02  1.46641883E+02  4.78943271E+01 degrees

 getcut: wavevector=  0.0000  0.0000  0.0000  ngfft=  80  80  80
         ecut(hartree)=     29.000   => boxcut(ratio)=   2.04711

--- Pseudopotential description ------------------------------------------------
- pspini: atom type   1  psp file is /scratch/users/j/a/jabreu/pseudos/PBEsol/Ba.psp8
- pspatm: opening atomic psp file    /scratch/users/j/a/jabreu/pseudos/PBEsol/Ba.psp8
- Ba    ONCVPSP-3.3.0  r_core=   2.15444   1.91218   2.15444
- 56.00000  10.00000    180112                znucl, zion, pspdat
    8 -116133    2    4       600   0.00000   pspcod,pspxc,lmax,lloc,mmax,r2well
    5.99000000000000    5.00000000000000    0.00000000000000   rchrg,fchrg,qchrg
     nproj     2     2     2
     extension_switch     1
  pspatm : epsatm=   26.37418029
         --- l  ekb(1:nproj) -->
             0    6.652372    0.677024
             1    5.027722    0.408462
             2    2.543237    0.416854
 pspatm: atomic psp has been read  and splines computed

- pspini: atom type   2  psp file is /scratch/users/j/a/jabreu/pseudos/PBEsol/Hf.psp8
- pspatm: opening atomic psp file    /scratch/users/j/a/jabreu/pseudos/PBEsol/Hf.psp8
- Hf    ONCVPSP-3.3.0  r_core=   1.71613   1.71613   1.71613   2.42541
- 72.00000  12.00000    180112                znucl, zion, pspdat
    8 -116133    3    4       600   0.00000   pspcod,pspxc,lmax,lloc,mmax,r2well
    5.99000000000000    5.40000000000000    0.00000000000000   rchrg,fchrg,qchrg
     nproj     2     2     2     2
     extension_switch     1
  pspatm : epsatm=   21.99082902
         --- l  ekb(1:nproj) -->
             0    5.882750   -0.519107
             1    2.555685   -1.768609
             2    1.383259    0.138001
             3    9.464546    0.347497
 pspatm: atomic psp has been read  and splines computed

- pspini: atom type   3  psp file is /scratch/users/j/a/jabreu/pseudos/PBEsol/S.psp8
- pspatm: opening atomic psp file    /scratch/users/j/a/jabreu/pseudos/PBEsol/S.psp8
- S     ONCVPSP-3.3.0  r_core=   1.45376   1.45376   1.61851
- 16.00000   6.00000    180112                znucl, zion, pspdat
    8 -116133    2    4       600   0.00000   pspcod,pspxc,lmax,lloc,mmax,r2well
    5.99000000000000    6.00000000000000    0.00000000000000   rchrg,fchrg,qchrg
     nproj     2     2     2
     extension_switch     1
  pspatm : epsatm=    8.71840985
         --- l  ekb(1:nproj) -->
             0    6.834532    0.579453
             1    3.282851    0.896984
             2   -3.496974   -0.974265
 pspatm: atomic psp has been read  and splines computed

   6.13831842E+03                                ecore*ucvol(ha*bohr**3)

-inwffil : will read wavefunctions from disk file /scratch/users/j/a/jabreu/flow_simple_7atoms/flow/w178/t1/indata/in_WFK

 ==>  initialize data related to q vector <==

 The list of irreducible perturbations for this q vector is:
    1)    idir= 1    ipert=   8
    2)    idir= 2    ipert=   8
    3)    idir= 3    ipert=   8

 Perturbation wavevector (in red.coord.)   0.000000  0.000000  0.000000
 Perturbation : derivative vs k along direction   1

 dfpt_looppert : COMMENT -
  In a d/dk calculation, iscf is set to -3 automatically.
 The set of symmetries contains only one element for this perturbation.
 symkpt : not enough symmetry to change the number of k points.

[...]

 Initialisation of the first-order wave-functions :
  ireadwf=   0

--- !BeginCycle
iteration_state: {dtset: 1, }
solver: {iscf: 7, nstep: 2000, nline: 4, wfoptalg: 0, }
tolerances: {tolwfr: 1.00E-20, }
...

     iter   2DEtotal(Ha)        deltaE(Ha) residm    vres2
-ETOT  1  -36.134656889393     -3.613E+01 1.707E-01 0.000E+00
 ETOT  2  -36.174783508566     -4.013E-02 4.519E-02 0.000E+00
 ETOT  3  -36.175043607916     -2.601E-04 1.669E-03 0.000E+00
 ETOT  4  -36.175046235076     -2.627E-06 7.469E-04 0.000E+00
 ETOT  5  -36.175046265955     -3.088E-08 3.942E-05 0.000E+00
 ETOT  6  -36.175046266346     -3.909E-10 1.866E-05 0.000E+00
 ETOT  7  -36.175046266351     -5.144E-12 1.040E-06 0.000E+00
 ETOT  8  -36.175046266351     -7.816E-14 5.031E-07 0.000E+00
 ETOT  9  -36.175046266351     -7.816E-14 2.871E-08 0.000E+00
 ETOT 10  -36.175046266351      1.421E-14 1.405E-08 0.000E+00
 ETOT 11  -36.175046266351      9.237E-14 8.120E-10 0.000E+00
 ETOT 12  -36.175046266351     -1.421E-14 3.998E-10 0.000E+00
 ETOT 13  -36.175046266351      1.421E-14 2.331E-11 0.000E+00
 ETOT 14  -36.175046266351     -2.132E-14 1.152E-11 0.000E+00
 ETOT 15  -36.175046266351      1.421E-14 6.754E-13 0.000E+00
 ETOT 16  -36.175046266351      0.000E+00 3.351E-13 0.000E+00
 ETOT 17  -36.175046266351      0.000E+00 1.972E-14 0.000E+00
 ETOT 18  -36.175046266351      7.105E-15 9.810E-15 0.000E+00
 ETOT 19  -36.175046266351      0.000E+00 5.787E-16 0.000E+00
 ETOT 20  -36.175046266351     -2.132E-14 2.887E-16 0.000E+00
 ETOT 21  -36.175046266351      0.000E+00 1.706E-17 0.000E+00
 ETOT 22  -36.175046266351      0.000E+00 8.533E-18 0.000E+00
 ETOT 23  -36.175046266351      1.421E-14 5.048E-19 0.000E+00
 ETOT 24  -36.175046266351     -1.421E-14 2.530E-19 0.000E+00
 ETOT 25  -36.175046266351      0.000E+00 1.498E-20 0.000E+00
 ETOT 26  -36.175046266351      0.000E+00 9.989E-21 0.000E+00

 At SCF step   26   max residual=  9.99E-21 < tolwfr=  1.00E-20 =>converged.

 ----iterations are completed or convergence reached----

 dfpt_looppert: DFPT cycle converged with prtwf=-1. Will skip output of the 1st-order WFK file.
 dfpt_looppert : ek2=    5.6685551627E+01
          f-sum rule ratio=    1.2570168890E+00
 prteigrs : about to open file /scratch/users/j/a/jabreu/flow_simple_7atoms/flow/w178/t1/tmpdata/tmp_1WF1_EIG
 Expectation of eigenvalue derivatives (hartree) for nkpt=   2  k points:
  (in case of degenerate eigenvalues, averaged derivative)
 kpt#   1, nband= 37, wtk=  0.50000, kpt=  0.0000  0.0000  0.5000 (reduced coord)
   0.00000    0.00000   -0.00000   -0.00000   -0.00000    0.00000    0.00000    0.00000
  -0.00000    0.00000    0.00000    0.00000   -0.00000    0.00000    0.00000    0.00000
  -0.00000    0.00000    0.00000   -0.00000    0.00000    0.00000   -0.00000   -0.00000
   0.00000    0.00000   -0.00000    0.00000    0.00000   -0.00000   -0.00000    0.00000
   0.00000    0.00000   -0.00000    0.00000   -0.00000
 prteigrs : prtvol=0 or 1, do not print more k-points.

 Eight components of 2nd-order total energy (hartree) are
 1,2,3: 0th-order hamiltonian combined with 1st-order wavefunctions
     kin0=   4.43670753E+01 eigvalue=  -1.66228805E+00  local=  -3.06467770E+01
 4,5,6: 1st-order hamiltonian combined with 1st and 0th-order wfs
     kin1=  -7.12546958E+01  Hartree=   0.00000000E+00     xc=   0.00000000E+00
 7,8,9: eventually, occupation + non-local contributions
    edocc=   1.64385621E+01     enl0=   7.67847397E+00   enl1=  -1.09539678E+00
 1-9 gives the relaxation energy (to be shifted if some occ is /=2.0)
   erelax=  -3.61750463E+01
  No Ewald or frozen-wf contrib.: the relaxation energy is the total one
 2DEtotal=   -0.3617504627E+02 Ha. Also 2DEtotal=   -0.984373070107E+03 eV
    (  non-var. 2DEtotal :   -3.6175046266E+01 Ha)

 Perturbation wavevector (in red.coord.)   0.000000  0.000000  0.000000
 Perturbation : derivative vs k along direction   2
 The set of symmetries contains only one element for this perturbation.
 symkpt : not enough symmetry to change the number of k points.

[...]

 Perturbation wavevector (in red.coord.)   0.000000  0.000000  0.000000
 Perturbation : derivative vs k along direction   3
 The set of symmetries contains only one element for this perturbation.
 symkpt : not enough symmetry to change the number of k points.

-inwffil : will read wavefunctions from disk file /scratch/users/j/a/jabreu/flow_simple_7atoms/flow/w178/t1/indata/in_WFK

 Initialisation of the first-order wave-functions :
  ireadwf=   0

--- !BeginCycle
iteration_state: {dtset: 1, }
solver: {iscf: 7, nstep: 2000, nline: 4, wfoptalg: 0, }
tolerances: {tolwfr: 1.00E-20, }
...

     iter   2DEtotal(Ha)        deltaE(Ha) residm    vres2
-ETOT  1  -66.698962773497     -6.670E+01 3.765E-01 0.000E+00
 ETOT  2  -66.757219911675     -5.826E-02 3.904E-02 0.000E+00
 ETOT  3  -66.757551888002     -3.320E-04 1.543E-03 0.000E+00
 ETOT  4  -66.757555241017     -3.353E-06 2.644E-04 0.000E+00
 ETOT  5  -66.757555279774     -3.876E-08 1.308E-05 0.000E+00
 ETOT  6  -66.757555280251     -4.774E-10 2.186E-06 0.000E+00
 ETOT  7  -66.757555280258     -6.139E-12 1.199E-07 0.000E+00
 ETOT  8  -66.757555280258     -5.684E-14 1.983E-08 0.000E+00
 ETOT  9  -66.757555280258      4.263E-14 1.161E-09 0.000E+00
 ETOT 10  -66.757555280258     -1.421E-14 1.908E-10 0.000E+00
 ETOT 11  -66.757555280258      7.105E-14 1.160E-11 0.000E+00
 ETOT 12  -66.757555280258      0.000E+00 1.896E-12 0.000E+00
 ETOT 13  -66.757555280258     -1.421E-14 1.174E-13 0.000E+00
 ETOT 14  -66.757555280258     -2.842E-14 1.916E-14 0.000E+00
 ETOT 15  -66.757555280258      1.421E-14 1.199E-15 0.000E+00
 ETOT 16  -66.757555280258     -4.263E-14 1.960E-16 0.000E+00
 ETOT 17  -66.757555280258      4.263E-14 1.404E-17 0.000E+00
 ETOT 18  -66.757555280258      0.000E+00 2.087E-18 0.000E+00
 ETOT 19  -66.757555280258     -1.421E-14 1.989E-19 0.000E+00
 ETOT 20  -66.757555280258     -1.421E-14 3.168E-20 0.000E+00
 ETOT 21  -66.757555280258      0.000E+00 9.924E-21 0.000E+00

 At SCF step   21   max residual=  9.92E-21 < tolwfr=  1.00E-20 =>converged.

 ----iterations are completed or convergence reached----

 dfpt_looppert: DFPT cycle converged with prtwf=-1. Will skip output of the 1st-order WFK file.
 dfpt_looppert : ek2=    1.0319380623E+02
          f-sum rule ratio=    1.2751049072E+00
 prteigrs : about to open file /scratch/users/j/a/jabreu/flow_simple_7atoms/flow/w178/t1/tmpdata/tmp_1WF1_EIG
 Expectation of eigenvalue derivatives (hartree) for nkpt=   2  k points:
  (in case of degenerate eigenvalues, averaged derivative)
 kpt#   1, nband= 37, wtk=  0.50000, kpt=  0.0000  0.0000  0.5000 (reduced coord)
  -0.00000   -0.00000   -0.00000    0.00000   -0.00000   -0.00000    0.00000    0.00000
  -0.00000    0.00000   -0.00000    0.00000   -0.00000    0.00000    0.00000   -0.00000
  -0.00000    0.00000    0.00000    0.00000    0.00000   -0.00000   -0.00000    0.00000
   0.00000   -0.00000    0.00000    0.00000    0.00000   -0.00000   -0.00000    0.00000
  -0.00000    0.00000   -0.00000   -0.00000   -0.00001
 prteigrs : prtvol=0 or 1, do not print more k-points.

 Eight components of 2nd-order total energy (hartree) are
 1,2,3: 0th-order hamiltonian combined with 1st-order wavefunctions
     kin0=   8.28314048E+01 eigvalue=  -2.76681507E+00  local=  -5.78834019E+01
 4,5,6: 1st-order hamiltonian combined with 1st and 0th-order wfs
     kin1=  -1.31582929E+02  Hartree=   0.00000000E+00     xc=   0.00000000E+00
 7,8,9: eventually, occupation + non-local contributions
    edocc=   2.99278066E+01     enl0=   1.46485608E+01   enl1=  -1.93218184E+00
 1-9 gives the relaxation energy (to be shifted if some occ is /=2.0)
   erelax=  -6.67575553E+01
  No Ewald or frozen-wf contrib.: the relaxation energy is the total one
 2DEtotal=   -0.6675755528E+02 Ha. Also 2DEtotal=   -0.181656546229E+04 eV
    (  non-var. 2DEtotal :   -6.6757555280E+01 Ha)

 CALCULATION OF EFFECTIVE MASSES
 NOTE : Additional infos (eff. mass eigenvalues, eigenvectors and, if degenerate, average mass) are available in stdout.

 K-point ( 0.000, 0.000, 0.500) | band =    28
 Effective mass tensor:
             -3.6627876301              2.6520016751             -0.0915843168
              2.6520016751             -3.1847183169             -0.1002104109
             -0.0915843168             -0.1002104109             -0.5156209880
 Effective mass tensor eigenvalues:
             -6.0865053937             -0.8212932733             -0.4553282679
 Angular average effective mass 1/(<1/m>)=  -0.8384320616
 Angular average effective mass for Frohlich model (<m**0.5>)**2=  -1.0467429272
 Effective masses along directions: (cart. coord. / red. coord. -> eff. mass)
    1:   1.000000  0.000000  0.000000 /   0.995995 -0.089410  0.000000 ->  -1.3946117231
    2:   0.000000  1.000000  0.000000 /   0.000000  1.000000  0.000000 ->  -1.2105469762
    3:   0.000000  0.000000  1.000000 /  -0.539682 -0.539682  0.646132 ->  -0.4914031166
    4:   0.577350  0.577350  0.577350 /  -0.261061 -0.308247  0.914785 ->  -0.7974542988
    5:   0.000000  0.707107  0.707107 /  -0.625984 -0.215544  0.749457 ->  -0.8601716550
    6:   0.707107  0.000000  0.707107 /  -0.209027 -0.647936  0.732452 ->  -0.8840857725
    7:   0.707107  0.707107  0.000000 /   0.741008  0.671496  0.000000 ->  -0.7265495421

 K-point ( 0.000, 0.000, 0.000) | band =    29
 Effective mass tensor:
              2.0038066362              2.0214779147             -6.1661625942
              2.0214779147              2.3681485817             -6.7468307853
             -6.1661625942             -6.7468307853             20.7363277330
 Effective mass tensor eigenvalues:
              0.1563078759              0.1563078775             24.7956671976
 Angular average effective mass 1/(<1/m>)=   0.2337251323
 Angular average effective mass for Frohlich model (<m**0.5>)**2=   0.3498376774
 Effective masses along directions: (cart. coord. / red. coord. -> eff. mass)
    1:   1.000000  0.000000  0.000000 /   0.995995 -0.089410  0.000000 ->   0.1688918276
    2:   0.000000  1.000000  0.000000 /   0.000000  1.000000  0.000000 ->   0.1716165360
    3:   0.000000  0.000000  1.000000 /  -0.539682 -0.539682  0.646132 ->   0.9193743645
    4:   0.577350  0.577350  0.577350 /  -0.261061 -0.308247  0.914785 ->   0.1625494878
    5:   0.000000  0.707107  0.707107 /  -0.625984 -0.215544  0.749457 ->   0.1923780831
    6:   0.707107  0.000000  0.707107 /  -0.209027 -0.647936  0.732452 ->   0.1962600910
    7:   0.707107  0.707107  0.000000 /   0.741008  0.671496  0.000000 ->   0.1868328687

 END OF EFFECTIVE MASSES SECTION

 ---- first-order wavefunction calculations are completed ----

 Total localisation tensor (bohr^2) in cartesian coordinates
  WARNING : still subject to testing - especially symmetries.
      direction              matrix element
   alpha     beta       real part   imaginary part
     1        1       2.5978330109    0.0000000000
     1        2      -0.2304096678    0.0000000000
     1        3      -3.5631384518    0.0000000000
     2        1      -0.2304096678    0.0000000000
     2        2       2.5563106430    0.0000000000
     2        3      -3.8987630994    0.0000000000
     3        1      -3.5631384518    0.0000000000
     3        2      -3.8987630994    0.0000000000
     3        3      27.8267268478    0.0000000000

 respfn : d/dk was computed, but no 2DTE, so no DDB output.

== END DATASET(S) ==============================================================

 -outvars: echo values of variables after computation  --------
            acell      1.0000000000E+00  1.0000000000E+00  1.0000000000E+00 Bohr
              amu      1.37327000E+02  1.78490000E+02  3.20660000E+01
             ecut      2.90000000E+01 Hartree
           etotal     -6.6757555280E+01
            fcart      0.0000000000E+00  0.0000000000E+00  0.0000000000E+00
                       0.0000000000E+00  0.0000000000E+00  0.0000000000E+00
                       0.0000000000E+00  0.0000000000E+00  0.0000000000E+00
                       0.0000000000E+00  0.0000000000E+00  0.0000000000E+00
                       0.0000000000E+00  0.0000000000E+00  0.0000000000E+00
                       0.0000000000E+00  0.0000000000E+00  0.0000000000E+00
                       0.0000000000E+00  0.0000000000E+00  0.0000000000E+00
-          fftalg         512
           irdden           1
           irdwfk           1
           istwfk        1    1
              ixc     -116133
              kpt      0.00000000E+00  2.77555756E-17  5.00000000E-01
                       0.00000000E+00  0.00000000E+00  0.00000000E+00
           kptopt           0
P           mkmem           2
P          mkqmem           2
P          mk1mem           2
            natom           7
            nband          37
           nbdbuf           4
            ngfft          80      80      80
             nkpt           2
            nstep        2000
             nsym          16
           ntypat           3
              occ      2.000000  2.000000  2.000000  2.000000  2.000000  2.000000
                       2.000000  2.000000  2.000000  2.000000  2.000000  2.000000
                       2.000000  2.000000  2.000000  2.000000  2.000000  2.000000
                       2.000000  2.000000  2.000000  2.000000  2.000000  2.000000
                       2.000000  2.000000  2.000000  2.000000  0.000000  0.000000
                       0.000000  0.000000  0.000000  0.000000  0.000000  0.000000
                       0.000000
        optdriver           1
            prtwf          -1
            rfdir           1       1       1
           rfelfd           2
            rprim      8.8676733093E+00  0.0000000000E+00 -1.3469947711E+01
                      -7.9604892590E-01  8.8318704717E+00 -1.3469947711E+01
                       0.0000000000E+00  0.0000000000E+00  1.6126844740E+01
          spgroup         139
           strten      0.0000000000E+00  0.0000000000E+00  0.0000000000E+00
                       0.0000000000E+00  0.0000000000E+00  0.0000000000E+00
           symrel      1  0  0   0  1  0   0  0  1      -1  0  0   0 -1  0   0  0 -1
                       0  0  1  -1 -1 -1   1  0  0       0  0 -1   1  1  1  -1  0  0
                       0  1  0   1  0  0  -1 -1 -1       0 -1  0  -1  0  0   1  1  1
                      -1 -1 -1   0  0  1   0  1  0       1  1  1   0  0 -1   0 -1  0
                       0  1  0   1  0  0   0  0  1       0 -1  0  -1  0  0   0  0 -1
                       0  0  1  -1 -1 -1   0  1  0       0  0 -1   1  1  1   0 -1  0
                       1  0  0   0  1  0  -1 -1 -1      -1  0  0   0 -1  0   1  1  1
                      -1 -1 -1   0  0  1   1  0  0       1  1  1   0  0 -1  -1  0  0
           tolwfr      1.00000000E-20
            typat      1  1  2  3  3  3  3
           useylm           1
              wtk        0.50000    0.50000
           xangst      1.5310844314E+00  1.6752934399E+00 -5.1101553422E+00
                       2.7402352286E+00  2.9983311229E+00 -9.1458233169E+00
                       0.0000000000E+00  0.0000000000E+00  0.0000000000E+00
                       2.3462853043E+00  0.0000000000E+00  7.0298467658E-01
                      -2.1062547425E-01  2.3368122814E+00  7.0298467658E-01
                       3.5756156564E+00  3.9123939413E+00 -1.1933993367E+01
                       6.9570400358E-01  7.6123062155E-01 -2.3219852920E+00
            xcart      2.8933302616E+00  3.1658457937E+00 -9.6567940933E+00
                       5.1782941218E+00  5.6660246780E+00 -1.7283101329E+01
                       0.0000000000E+00  0.0000000000E+00  0.0000000000E+00
                       4.4338366547E+00  0.0000000000E+00  1.3284485144E+00
                      -3.9802446295E-01  4.4159352359E+00  1.3284485144E+00
                       6.7569343471E+00  7.3933530730E+00 -2.2551979135E+01
                       1.3146900363E+00  1.4385173987E+00 -4.3879162865E+00
             xred      3.5845700000E-01  3.5845700000E-01  0.0000000000E+00
                       6.4154300000E-01  6.4154300000E-01 -5.5511151231E-17
                       0.0000000000E+00  0.0000000000E+00  0.0000000000E+00
                       5.0000000000E-01  0.0000000000E+00  5.0000000000E-01
                      -6.9388939039E-18  5.0000000000E-01  5.0000000000E-01
                       8.3712200000E-01  8.3712200000E-01 -1.1102230246E-16
                       1.6287800000E-01  1.6287800000E-01  1.3877787808E-17
            znucl       56.00000   72.00000   16.00000

- Timing analysis has been suppressed with timopt=0

 Suggested references for the acknowledgment of ABINIT usage.

 Calculation completed.
.Delivered  14 WARNINGs and   9 COMMENTs to log file.