.Version 9.5.2 of ABINIT

 ABINIT is a project of the Universite Catholique de Louvain,
 Corning Inc. and other collaborators, see ~abinit/doc/developers/contributors.txt .
 acknowledgments of the ABINIT effort.

.Starting date : Mon 24 May 2021.
- ( at 11h16 )

- input  file    -> /scratch/users/j/a/jabreu/flow_simple_10atoms/flow/w308/t1/run.abi
- output file    -> /scratch/users/j/a/jabreu/flow_simple_10atoms/flow/w308/t1/run.abo
- root for input  files -> /scratch/users/j/a/jabreu/flow_simple_10atoms/flow/w308/t1/indata/in
- root for output files -> /scratch/users/j/a/jabreu/flow_simple_10atoms/flow/w308/t1/outdata/out

 Symmetries : space group C2/m (# 12); Bravais mC (1-face-center monocl.)
     intxc =       0      iscf =       7    lmnmax =      18     lnmax =       6
     mgfft =      75  mpssoang =       3    mqgrid =    3474     natom =      10
  nloc_mem =       1    nspden =       1   nspinor =       1    nsppol =       1
      nsym =       4    n1xccc =    2501    ntypat =       3    occopt =       1
   xclevel =       2
-    mband =          49        mffmem =           1         mkmem =           2
-   mkqmem =           2        mk1mem =           2           mpw =       12674
      nfft =      388800          nkpt =           2
  Rough estimation (10% accuracy) of disk space for files :

------------- Echo of variables that govern the present computation ------------
-
- outvars: echo of selected default values
-   iomode0 =  0 , fftalg0 =512 , wfoptalg0 =  0
-
- outvars: echo of global parameters not present in the input file
-  max_nthreads =    0
-
 -outvars: echo values of preprocessed input variables --------
            acell      1.0000000000E+00  1.0000000000E+00  1.0000000000E+00 Bohr
              amu      4.00780000E+01  9.89062000E+01  1.40067400E+01
             ecut      4.40000000E+01 Hartree
-          fftalg         512
           irdden           1
           irdwfk           1
              ixc     -116133
              kpt      6.62225604E-01  3.37774396E-01  5.00000000E-01
                       7.16692897E-01  2.83307103E-01  0.00000000E+00
           kptopt           0
P           mkmem           2
P          mkqmem           2
P          mk1mem           2
            natom          10
            nband          49
           nbdbuf           4
            ngfft          72      72      75
             nkpt           2
            nstep        2000
             nsym           4
           ntypat           3
              occ      2.000000  2.000000  2.000000  2.000000  2.000000  2.000000
                       2.000000  2.000000  2.000000  2.000000  2.000000  2.000000
                       2.000000  2.000000  2.000000  2.000000  2.000000  2.000000
                       2.000000  2.000000  2.000000  2.000000  2.000000  2.000000
                       2.000000  2.000000  2.000000  2.000000  2.000000  2.000000
                       2.000000  2.000000  2.000000  2.000000  2.000000  2.000000
                       2.000000  2.000000  2.000000  2.000000  0.000000  0.000000
                       0.000000  0.000000  0.000000  0.000000  0.000000  0.000000
                       0.000000
        optdriver           1
            prtwf          -1
            rfdir           1       1       1
           rfelfd           2
            rprim      1.1541011126E+01  0.0000000000E+00  3.1535590430E+00
                       9.5280192743E+00  6.5124332251E+00  3.1535590430E+00
                       0.0000000000E+00  0.0000000000E+00  1.2097721894E+01
          spgroup          12
           symrel      1  0  0   0  1  0   0  0  1      -1  0  0   0 -1  0   0  0 -1
                       0 -1  0  -1  0  0   0  0 -1       0  1  0   1  0  0   0  0  1
           tolwfr      1.00000000E-20
            typat      1  1  2  2  3  3  3  3  3  3
           useylm           1
              wtk        0.50000    0.50000
           xangst      6.9250002930E+00  2.1405162523E+00  6.3726742867E+00
                       4.2242504017E+00  1.3057149829E+00  3.3667475583E+00
                       9.4293003871E+00  2.9145949275E+00  8.2548277265E+00
                       1.7199503077E+00  5.3163630773E-01  1.4845941185E+00
                       9.3951390830E+00  2.9040356750E+00  6.5105993409E+00
                       3.5700569680E+00  1.1035039189E+00  7.4091208057E+00
                       1.9477740964E-02  6.0205659679E-03  6.4204548796E-01
                       1.7541116118E+00  5.4219556023E-01  3.2288225041E+00
                       1.1129772954E+01  3.4402106692E+00  9.0973763570E+00
                       7.5791937268E+00  2.3427273163E+00  2.3303010393E+00
            xcart      1.3086354024E+01  4.0449894999E+00  1.2042609136E+01
                       7.9826763760E+00  2.4674437252E+00  6.3622308438E+00
                       1.7818795356E+01  5.5077862012E+00  1.5599363677E+01
                       3.2502350437E+00  1.0046470239E+00  2.8054763025E+00
                       1.7754239847E+01  5.4878321058E+00  1.2303249715E+01
                       6.7464299483E+00  2.0853201933E+00  1.4001209208E+01
                       3.6807596109E-02  1.1377220844E-02  1.2132901371E+00
                       3.3147905528E+00  1.0246011193E+00  6.1015902644E+00
                       2.1032222804E+01  6.5010560043E+00  1.7191549843E+01
                       1.4322600452E+01  4.4271130318E+00  4.4036307714E+00
             xred      6.2111800000E-01  6.2111800000E-01  6.7162600000E-01
                       3.7888200000E-01  3.7888200000E-01  3.2837400000E-01
                       8.4573400000E-01  8.4573400000E-01  8.4852500000E-01
                       1.5426600000E-01  1.5426600000E-01  1.5147500000E-01
                       8.4267000000E-01  8.4267000000E-01  5.7766500000E-01
                       3.2020600000E-01  3.2020600000E-01  9.9040400000E-01
                       1.7470000000E-03  1.7470000000E-03  9.9380000000E-02
                       1.5733000000E-01  1.5733000000E-01  4.2233500000E-01
                       9.9825300000E-01  9.9825300000E-01  9.0062000000E-01
                       6.7979400000E-01  6.7979400000E-01  9.5960000000E-03
            znucl       20.00000   43.00000    7.00000

 chkinp: Checking input parameters for consistency.

== DATASET  1 ==================================================================
-   mpi_nproc: 1, omp_nthreads: -1 (-1 if OMP is not activated)

--- !DatasetInfo
iteration_state: {dtset: 1, }
dimensions: {natom: 10, nkpt: 2, mband: 49, nsppol: 1, nspinor: 1, nspden: 1, mpw: 12674, }
cutoff_energies: {ecut:  44.0, pawecutdg:  -1.0, }
electrons: {nelect:   8.00000000E+01, charge:   0.00000000E+00, occopt:   1.00000000E+00, tsmear:   1.00000000E-02, }
meta: {optdriver: 1, rfelfd: 2, }
...

 Real(R)+Recip(G) space primitive vectors, cartesian coordinates (Bohr,Bohr^-1):
 R(1)= 11.5410111  0.0000000  3.1535590  G(1)=  0.0866475 -0.1267697  0.0000000
 R(2)=  9.5280193  6.5124332  3.1535590  G(2)=  0.0000000  0.1535524  0.0000000
 R(3)=  0.0000000  0.0000000 12.0977219  G(3)= -0.0225867 -0.0069816  0.0826602
 Unit cell volume ucvol=  9.0926556E+02 bohr^3
 Angles (23,13,12)=  7.47171112E+01  7.47171112E+01  3.31022276E+01 degrees

 getcut: wavevector=  0.0000  0.0000  0.0000  ngfft=  72  72  75
         ecut(hartree)=     44.000   => boxcut(ratio)=   2.01561

--- Pseudopotential description ------------------------------------------------
- pspini: atom type   1  psp file is /scratch/users/j/a/jabreu/pseudos/PBEsol/Ca.psp8
- pspatm: opening atomic psp file    /scratch/users/j/a/jabreu/pseudos/PBEsol/Ca.psp8
- Ca    ONCVPSP-3.3.0  r_core=   1.45885   1.45885   1.85192
- 20.00000  10.00000    180112                znucl, zion, pspdat
    8 -116133    2    4       400   0.00000   pspcod,pspxc,lmax,lloc,mmax,r2well
    3.99000000000000    6.00000000000000    0.00000000000000   rchrg,fchrg,qchrg
     nproj     2     2     2
     extension_switch     1
  pspatm : epsatm=   12.46045226
         --- l  ekb(1:nproj) -->
             0   10.054847    0.973777
             1    2.998958    0.458102
             2   -3.447298   -1.091650
 pspatm: atomic psp has been read  and splines computed

- pspini: atom type   2  psp file is /scratch/users/j/a/jabreu/pseudos/PBEsol/Tc.psp8
- pspatm: opening atomic psp file    /scratch/users/j/a/jabreu/pseudos/PBEsol/Tc.psp8
- Tc    ONCVPSP-3.3.0  r_core=   1.40470   1.40470   1.35532
- 43.00000  15.00000    180112                znucl, zion, pspdat
    8 -116133    2    4       600   0.00000   pspcod,pspxc,lmax,lloc,mmax,r2well
    5.99000000000000    5.00000000000000    0.00000000000000   rchrg,fchrg,qchrg
     nproj     2     2     2
     extension_switch     1
  pspatm : epsatm=   15.79243377
         --- l  ekb(1:nproj) -->
             0   14.505077    1.455651
             1    8.600877    1.229267
             2    1.994354    0.461147
 pspatm: atomic psp has been read  and splines computed

- pspini: atom type   3  psp file is /scratch/users/j/a/jabreu/pseudos/PBEsol/N.psp8
- pspatm: opening atomic psp file    /scratch/users/j/a/jabreu/pseudos/PBEsol/N.psp8
- N     ONCVPSP-3.3.0  r_core=   1.20551   1.35824
-  7.00000   5.00000    180112                znucl, zion, pspdat
    8 -116133    1    4       600   0.00000   pspcod,pspxc,lmax,lloc,mmax,r2well
    5.99000000000000    4.00000000000000    0.00000000000000   rchrg,fchrg,qchrg
     nproj     2     2
     extension_switch     1
  pspatm : epsatm=    5.26508895
         --- l  ekb(1:nproj) -->
             0    7.464189    0.625868
             1   -4.309714   -1.012941
 pspatm: atomic psp has been read  and splines computed

   7.04770446E+03                                ecore*ucvol(ha*bohr**3)

 ==>  initialize data related to q vector <==

 The list of irreducible perturbations for this q vector is:
    1)    idir= 1    ipert=  11
    2)    idir= 2    ipert=  11
    3)    idir= 3    ipert=  11

 Perturbation wavevector (in red.coord.)   0.000000  0.000000  0.000000
 Perturbation : derivative vs k along direction   1

 dfpt_looppert : COMMENT -
  In a d/dk calculation, iscf is set to -3 automatically.
 The set of symmetries contains only one element for this perturbation.
 symkpt : not enough symmetry to change the number of k points.

 Initialisation of the first-order wave-functions :
  ireadwf=   0

--- !BeginCycle
iteration_state: {dtset: 1, }
solver: {iscf: 7, nstep: 2000, nline: 4, wfoptalg: 0, }
tolerances: {tolwfr: 1.00E-20, }
...

     iter   2DEtotal(Ha)        deltaE(Ha) residm    vres2
-ETOT  1  -73.068576286751     -7.307E+01 1.630E-01 0.000E+00
 ETOT  2  -73.462655838628     -3.941E-01 2.667E-02 0.000E+00
 ETOT  3  -73.472704631899     -1.005E-02 2.030E-03 0.000E+00
 ETOT  4  -73.473172410581     -4.678E-04 5.258E-04 0.000E+00
 ETOT  5  -73.473205477131     -3.307E-05 6.887E-05 0.000E+00
 ETOT  6  -73.473208384668     -2.908E-06 2.490E-05 0.000E+00
 ETOT  7  -73.473208677871     -2.932E-07 3.978E-06 0.000E+00
 ETOT  8  -73.473208709688     -3.182E-08 1.450E-06 0.000E+00
 ETOT  9  -73.473208713299     -3.611E-09 2.438E-07 0.000E+00
 ETOT 10  -73.473208713719     -4.198E-10 9.025E-08 0.000E+00
[...]
 ETOT 21  -73.473208713776      2.842E-14 1.650E-14 0.000E+00
 ETOT 22  -73.473208713776      0.000E+00 6.467E-15 0.000E+00
 ETOT 23  -73.473208713776      1.421E-14 1.069E-15 0.000E+00
 ETOT 24  -73.473208713776      0.000E+00 4.208E-16 0.000E+00
 ETOT 25  -73.473208713776     -1.421E-14 6.947E-17 0.000E+00
 ETOT 26  -73.473208713776      1.421E-14 2.742E-17 0.000E+00
 ETOT 27  -73.473208713776      0.000E+00 4.522E-18 0.000E+00
 ETOT 28  -73.473208713776      0.000E+00 1.790E-18 0.000E+00
 ETOT 29  -73.473208713776      0.000E+00 2.948E-19 0.000E+00
 ETOT 30  -73.473208713776     -1.421E-14 1.169E-19 0.000E+00
 ETOT 31  -73.473208713776      0.000E+00 1.925E-20 0.000E+00
 ETOT 32  -73.473208713776      0.000E+00 9.734E-21 0.000E+00

 At SCF step   32   max residual=  9.73E-21 < tolwfr=  1.00E-20 =>converged.

 ----iterations are completed or convergence reached----

 dfpt_looppert: DFPT cycle converged with prtwf=-1. Will skip output of the 1st-order WFK file.
 dfpt_looppert : ek2=    1.4893375960E+02
          f-sum rule ratio=    1.0172262958E+00
 prteigrs : about to open file /scratch/users/j/a/jabreu/flow_simple_10atoms/flow/w308/t1/tmpdata/tmp_1WF1_EIG
 Expectation of eigenvalue derivatives (hartree) for nkpt=   2  k points:
  (in case of degenerate eigenvalues, averaged derivative)
 kpt#   1, nband= 49, wtk=  0.50000, kpt=  0.6622  0.3378  0.5000 (reduced coord)
   0.00095   -0.00051    0.00211   -0.00088    0.00197    0.00157   -0.00568   -0.00609
   0.00207   -0.00214   -0.02542   -0.02025    0.01958   -0.00175    0.00446    0.00025
  -0.00689    0.10546   -0.02157    0.02113   -0.00055    0.00634   -0.05443    0.05760
  -0.04729    0.17956   -0.10133    0.08352    0.12833   -0.02051   -0.00230    0.00087
  -0.05682   -0.19885    0.08754   -0.11357   -0.04389    0.02447    0.05478   -0.00058
  -0.14539   -0.03858   -0.17762   -0.01495    0.00406   -0.21864    0.07343   -0.07508
  -0.05831
 prteigrs : prtvol=0 or 1, do not print more k-points.

 Eight components of 2nd-order total energy (hartree) are
 1,2,3: 0th-order hamiltonian combined with 1st-order wavefunctions
     kin0=   1.23561597E+02 eigvalue=  -2.18759619E+00  local=  -6.57857828E+01
 4,5,6: 1st-order hamiltonian combined with 1st and 0th-order wfs
     kin1=  -1.51499337E+02  Hartree=   0.00000000E+00     xc=   0.00000000E+00
 7,8,9: eventually, occupation + non-local contributions
    edocc=   1.86858315E+01     enl0=  -8.00840884E-01   enl1=   4.55291918E+00
 1-9 gives the relaxation energy (to be shifted if some occ is /=2.0)
   erelax=  -7.34732087E+01
  No Ewald or frozen-wf contrib.: the relaxation energy is the total one
 2DEtotal=   -0.7347320871E+02 Ha. Also 2DEtotal=   -0.199930768574E+04 eV
    (  non-var. 2DEtotal :   -7.3473208713E+01 Ha)

 Perturbation wavevector (in red.coord.)   0.000000  0.000000  0.000000
 Perturbation : derivative vs k along direction   2
 The set of symmetries contains only one element for this perturbation.
 symkpt : not enough symmetry to change the number of k points.

[...]

 Perturbation wavevector (in red.coord.)   0.000000  0.000000  0.000000
 Perturbation : derivative vs k along direction   3
 The set of symmetries contains only one element for this perturbation.
 symkpt : not enough symmetry to change the number of k points.

 Initialisation of the first-order wave-functions :
  ireadwf=   0

--- !BeginCycle
iteration_state: {dtset: 1, }
solver: {iscf: 7, nstep: 2000, nline: 4, wfoptalg: 0, }
tolerances: {tolwfr: 1.00E-20, }
...

     iter   2DEtotal(Ha)        deltaE(Ha) residm    vres2
-ETOT  1  -22.463714407424     -2.246E+01 5.927E-02 0.000E+00
 ETOT  2  -22.584255101307     -1.205E-01 2.398E-02 0.000E+00
 ETOT  3  -22.587137863815     -2.883E-03 1.332E-03 0.000E+00
 ETOT  4  -22.587251383472     -1.135E-04 7.180E-04 0.000E+00
 ETOT  5  -22.587257399867     -6.016E-06 5.339E-05 0.000E+00
 ETOT  6  -22.587257793023     -3.932E-07 2.879E-05 0.000E+00
 ETOT  7  -22.587257822848     -2.982E-08 2.360E-06 0.000E+00
 ETOT  8  -22.587257825387     -2.539E-09 1.284E-06 0.000E+00
 ETOT  9  -22.587257825620     -2.336E-10 1.103E-07 0.000E+00
 ETOT 10  -22.587257825643     -2.275E-11 6.062E-08 0.000E+00
 ETOT 11  -22.587257825645     -2.306E-12 5.296E-09 0.000E+00
 ETOT 12  -22.587257825646     -2.309E-13 2.938E-09 0.000E+00
 ETOT 13  -22.587257825646     -1.776E-14 2.581E-10 0.000E+00
 ETOT 14  -22.587257825646     -7.105E-15 1.442E-10 0.000E+00
 ETOT 15  -22.587257825646      1.421E-14 1.269E-11 0.000E+00
 ETOT 16  -22.587257825646     -1.066E-14 7.131E-12 0.000E+00
 ETOT 17  -22.587257825646      3.553E-15 6.277E-13 0.000E+00
 ETOT 18  -22.587257825646      7.105E-15 3.543E-13 0.000E+00
 ETOT 19  -22.587257825646      7.105E-15 3.120E-14 0.000E+00
 ETOT 20  -22.587257825646     -1.066E-14 1.767E-14 0.000E+00
 ETOT 21  -22.587257825646      7.105E-15 1.556E-15 0.000E+00
 ETOT 22  -22.587257825646      0.000E+00 8.836E-16 0.000E+00
 ETOT 23  -22.587257825646      3.553E-15 7.785E-17 0.000E+00
 ETOT 24  -22.587257825646      0.000E+00 4.430E-17 0.000E+00
 ETOT 25  -22.587257825646     -7.105E-15 3.905E-18 0.000E+00
 ETOT 26  -22.587257825646      7.105E-15 2.226E-18 0.000E+00
 ETOT 27  -22.587257825646      0.000E+00 1.963E-19 0.000E+00
 ETOT 28  -22.587257825646     -3.553E-15 1.121E-19 0.000E+00
 ETOT 29  -22.587257825646      3.553E-15 9.885E-21 0.000E+00

 At SCF step   29   max residual=  9.88E-21 < tolwfr=  1.00E-20 =>converged.

 ----iterations are completed or convergence reached----

 dfpt_looppert: DFPT cycle converged with prtwf=-1. Will skip output of the 1st-order WFK file.
 dfpt_looppert : ek2=    4.6689450590E+01
          f-sum rule ratio=    9.9785674730E-01
 prteigrs : about to open file /scratch/users/j/a/jabreu/flow_simple_10atoms/flow/w308/t1/tmpdata/tmp_1WF1_EIG
 Expectation of eigenvalue derivatives (hartree) for nkpt=   2  k points:
  (in case of degenerate eigenvalues, averaged derivative)
 kpt#   1, nband= 49, wtk=  0.50000, kpt=  0.6622  0.3378  0.5000 (reduced coord)
   0.00000    0.00000   -0.00000    0.00000   -0.00000    0.00000   -0.00000    0.00000
   0.00000   -0.00000   -0.00000    0.00000   -0.00000   -0.00000    0.00000    0.00000
   0.00000   -0.00000    0.00000    0.00000   -0.00000    0.00000    0.00000   -0.00000
   0.00000    0.00000    0.00000    0.00000   -0.00000    0.00000   -0.00000    0.00000
  -0.00000    0.00000   -0.00000    0.00000    0.00000    0.00000   -0.00000   -0.00000
  -0.00000    0.00000    0.00000   -0.00000    0.00000   -0.00000    0.00000   -0.00000
  -0.00007
 prteigrs : prtvol=0 or 1, do not print more k-points.

 Eight components of 2nd-order total energy (hartree) are
 1,2,3: 0th-order hamiltonian combined with 1st-order wavefunctions
     kin0=   3.95658364E+01 eigvalue=  -6.14776103E-01  local=  -2.25218478E+01
 4,5,6: 1st-order hamiltonian combined with 1st and 0th-order wfs
     kin1=  -4.65893833E+01  Hartree=   0.00000000E+00     xc=   0.00000000E+00
 7,8,9: eventually, occupation + non-local contributions
    edocc=   6.20376746E+00     enl0=  -4.57221720E-02   enl1=   1.41486765E+00
 1-9 gives the relaxation energy (to be shifted if some occ is /=2.0)
   erelax=  -2.25872578E+01
  No Ewald or frozen-wf contrib.: the relaxation energy is the total one
 2DEtotal=   -0.2258725783E+02 Ha. Also 2DEtotal=   -0.614630543038E+03 eV
    (  non-var. 2DEtotal :   -2.2587257825E+01 Ha)

 CALCULATION OF EFFECTIVE MASSES
 NOTE : Additional infos (eff. mass eigenvalues, eigenvectors and, if degenerate, average mass) are available in stdout.

 K-point ( 0.662, 0.338, 0.500) | band =    40
 Effective mass tensor:
             -0.9097217962              0.0186749915              1.7204727306
              0.0186749915             -0.9644369751              0.5318853397
              1.7204727306              0.5318853397             -9.5174945851
 Effective mass tensor eigenvalues:
             -9.8788287604             -0.9702032828             -0.5426213132
 Angular average effective mass 1/(<1/m>)=  -1.0084561510
 Angular average effective mass for Frohlich model (<m**0.5>)**2=  -1.3009628385
 Effective masses along directions: (cart. coord. / red. coord. -> eff. mass)
    1:   1.000000  0.000000  0.000000 /   0.771154  0.636649  0.000000 ->  -0.5846074306
    2:   0.000000  1.000000  0.000000 /   0.000000  1.000000  0.000000 ->  -0.9126911981
    3:   0.000000  0.000000  1.000000 /   0.244583  0.244583  0.938274 ->  -5.9300077339
    4:   0.577350  0.577350  0.577350 /   0.543612  0.710064  0.447544 ->  -0.7083065736
    5:   0.000000  0.707107  0.707107 /   0.199556  0.611660  0.765539 ->  -1.3673090845
    6:   0.707107  0.000000  0.707107 /   0.642483  0.554470  0.528942 ->  -0.7933044784
    7:   0.707107  0.707107  0.000000 /   0.584034  0.811729  0.000000 ->  -0.6198722555

 K-point ( 0.717, 0.283, 0.000) | band =    41
 Effective mass tensor:
              1.3346360553              0.1132698837             -0.5567888227
              0.1132698837              1.0025566941             -0.1719652329
             -0.5567888227             -0.1719652329              0.6695590101
 Effective mass tensor eigenvalues:
              0.3397980479              0.9676007624              1.6993529492
 Angular average effective mass 1/(<1/m>)=   0.6571931732
 Angular average effective mass for Frohlich model (<m**0.5>)**2=   0.7539312970
 Effective masses along directions: (cart. coord. / red. coord. -> eff. mass)
    1:   1.000000  0.000000  0.000000 /   0.771154  0.636649  0.000000 ->   0.8707017674
    2:   0.000000  1.000000  0.000000 /   0.000000  1.000000  0.000000 ->   0.9573760474
    3:   0.000000  0.000000  1.000000 /   0.244583  0.244583  0.938274 ->   0.4216122925
    4:   0.577350  0.577350  0.577350 /   0.543612  0.710064  0.447544 ->   0.4189738783
    5:   0.000000  0.707107  0.707107 /   0.199556  0.611660  0.765539 ->   0.4984841860
    6:   0.707107  0.000000  0.707107 /   0.642483  0.554470  0.528942 ->   0.3670549772
    7:   0.707107  0.707107  0.000000 /   0.584034  0.811729  0.000000 ->   0.8832828424

 END OF EFFECTIVE MASSES SECTION

 ---- first-order wavefunction calculations are completed ----

 Total localisation tensor (bohr^2) in cartesian coordinates
  WARNING : still subject to testing - especially symmetries.
      direction              matrix element
   alpha     beta       real part   imaginary part
     1        1       5.8563869077    0.0000000000
     1        2       1.6224274684    0.0000000000
     1        3       1.7372781604    0.0000000000
     2        1       1.6224274684    0.0000000000
     2        2       1.1089346323    0.0000000000
     2        3       0.5369868246    0.0000000000
     3        1       1.7372781604    0.0000000000
     3        2       0.5369868246    0.0000000000
     3        3       1.7408444638    0.0000000000

 respfn : d/dk was computed, but no 2DTE, so no DDB output.

== END DATASET(S) ==============================================================

 -outvars: echo values of variables after computation  --------
            acell      1.0000000000E+00  1.0000000000E+00  1.0000000000E+00 Bohr
              amu      4.00780000E+01  9.89062000E+01  1.40067400E+01
             ecut      4.40000000E+01 Hartree
           etotal     -2.2587257826E+01
            fcart      0.0000000000E+00  0.0000000000E+00  0.0000000000E+00
                       0.0000000000E+00  0.0000000000E+00  0.0000000000E+00
                       0.0000000000E+00  0.0000000000E+00  0.0000000000E+00
                       0.0000000000E+00  0.0000000000E+00  0.0000000000E+00
                       0.0000000000E+00  0.0000000000E+00  0.0000000000E+00
                       0.0000000000E+00  0.0000000000E+00  0.0000000000E+00
                       0.0000000000E+00  0.0000000000E+00  0.0000000000E+00
                       0.0000000000E+00  0.0000000000E+00  0.0000000000E+00
                       0.0000000000E+00  0.0000000000E+00  0.0000000000E+00
                       0.0000000000E+00  0.0000000000E+00  0.0000000000E+00
-          fftalg         512
           irdden           1
           irdwfk           1
              ixc     -116133
              kpt      6.62225604E-01  3.37774396E-01  5.00000000E-01
                       7.16692897E-01  2.83307103E-01  0.00000000E+00
           kptopt           0
P           mkmem           2
P          mkqmem           2
P          mk1mem           2
            natom          10
            nband          49
           nbdbuf           4
            ngfft          72      72      75
             nkpt           2
            nstep        2000
             nsym           4
           ntypat           3
              occ      2.000000  2.000000  2.000000  2.000000  2.000000  2.000000
                       2.000000  2.000000  2.000000  2.000000  2.000000  2.000000
                       2.000000  2.000000  2.000000  2.000000  2.000000  2.000000
                       2.000000  2.000000  2.000000  2.000000  2.000000  2.000000
                       2.000000  2.000000  2.000000  2.000000  2.000000  2.000000
                       2.000000  2.000000  2.000000  2.000000  2.000000  2.000000
                       2.000000  2.000000  2.000000  2.000000  0.000000  0.000000
                       0.000000  0.000000  0.000000  0.000000  0.000000  0.000000
                       0.000000
        optdriver           1
            prtwf          -1
            rfdir           1       1       1
           rfelfd           2
            rprim      1.1541011126E+01  0.0000000000E+00  3.1535590430E+00
                       9.5280192743E+00  6.5124332251E+00  3.1535590430E+00
                       0.0000000000E+00  0.0000000000E+00  1.2097721894E+01
          spgroup          12
           strten      0.0000000000E+00  0.0000000000E+00  0.0000000000E+00
                       0.0000000000E+00  0.0000000000E+00  0.0000000000E+00
           symrel      1  0  0   0  1  0   0  0  1      -1  0  0   0 -1  0   0  0 -1
                       0 -1  0  -1  0  0   0  0 -1       0  1  0   1  0  0   0  0  1
           tolwfr      1.00000000E-20
            typat      1  1  2  2  3  3  3  3  3  3
           useylm           1
              wtk        0.50000    0.50000
           xangst      6.9250002930E+00  2.1405162523E+00  6.3726742867E+00
                       4.2242504017E+00  1.3057149829E+00  3.3667475583E+00
                       9.4293003871E+00  2.9145949275E+00  8.2548277265E+00
                       1.7199503077E+00  5.3163630773E-01  1.4845941185E+00
                       9.3951390830E+00  2.9040356750E+00  6.5105993409E+00
                       3.5700569680E+00  1.1035039189E+00  7.4091208057E+00
                       1.9477740964E-02  6.0205659679E-03  6.4204548796E-01
                       1.7541116118E+00  5.4219556023E-01  3.2288225041E+00
                       1.1129772954E+01  3.4402106692E+00  9.0973763570E+00
                       7.5791937268E+00  2.3427273163E+00  2.3303010393E+00
            xcart      1.3086354024E+01  4.0449894999E+00  1.2042609136E+01
                       7.9826763760E+00  2.4674437252E+00  6.3622308438E+00
                       1.7818795356E+01  5.5077862012E+00  1.5599363677E+01
                       3.2502350437E+00  1.0046470239E+00  2.8054763025E+00
                       1.7754239847E+01  5.4878321058E+00  1.2303249715E+01
                       6.7464299483E+00  2.0853201933E+00  1.4001209208E+01
                       3.6807596109E-02  1.1377220844E-02  1.2132901371E+00
                       3.3147905528E+00  1.0246011193E+00  6.1015902644E+00
                       2.1032222804E+01  6.5010560043E+00  1.7191549843E+01
                       1.4322600452E+01  4.4271130318E+00  4.4036307714E+00
             xred      6.2111800000E-01  6.2111800000E-01  6.7162600000E-01
                       3.7888200000E-01  3.7888200000E-01  3.2837400000E-01
                       8.4573400000E-01  8.4573400000E-01  8.4852500000E-01
                       1.5426600000E-01  1.5426600000E-01  1.5147500000E-01
                       8.4267000000E-01  8.4267000000E-01  5.7766500000E-01
                       3.2020600000E-01  3.2020600000E-01  9.9040400000E-01
                       1.7470000000E-03  1.7470000000E-03  9.9380000000E-02
                       1.5733000000E-01  1.5733000000E-01  4.2233500000E-01
                       9.9825300000E-01  9.9825300000E-01  9.0062000000E-01
                       6.7979400000E-01  6.7979400000E-01  9.5960000000E-03
            znucl       20.00000   43.00000    7.00000

- Timing analysis has been suppressed with timopt=0

 Suggested references for the acknowledgment of ABINIT usage.

 Calculation completed.
.Delivered   2 WARNINGs and   5 COMMENTs to log file.