.Version 9.5.2 of ABINIT

 ABINIT is a project of the Universite Catholique de Louvain,
 Corning Inc. and other collaborators, see ~abinit/doc/developers/contributors.txt .
 acknowledgments of the ABINIT effort.

.Starting date : Mon 24 May 2021.
- ( at 18h12 )

- input  file    -> /scratch/users/j/a/jabreu/flow_simple_10atoms/flow/w396/t1/run.abi
- output file    -> /scratch/users/j/a/jabreu/flow_simple_10atoms/flow/w396/t1/run.abo
- root for input  files -> /scratch/users/j/a/jabreu/flow_simple_10atoms/flow/w396/t1/indata/in
- root for output files -> /scratch/users/j/a/jabreu/flow_simple_10atoms/flow/w396/t1/outdata/out

 Symmetries : space group P1 (#  1); Bravais aP (primitive triclinic)
     intxc =       0      iscf =       7    lmnmax =      32     lnmax =       8
     mgfft =      75  mpssoang =       4    mqgrid =    3388     natom =      10
  nloc_mem =       1    nspden =       1   nspinor =       1    nsppol =       1
      nsym =       1    n1xccc =    2501    ntypat =       3    occopt =       1
   xclevel =       2
-    mband =          48        mffmem =           1         mkmem =           2
-   mkqmem =           2        mk1mem =           2           mpw =       12346
      nfft =      243000          nkpt =           2
  Rough estimation (10% accuracy) of disk space for files :

------------- Echo of variables that govern the present computation ------------
-
- outvars: echo of selected default values
-   iomode0 =  0 , fftalg0 =512 , wfoptalg0 =  0
-
- outvars: echo of global parameters not present in the input file
-  max_nthreads =    0
-
 -outvars: echo values of preprocessed input variables --------
            acell      1.0000000000E+00  1.0000000000E+00  1.0000000000E+00 Bohr
              amu      8.76200000E+01  1.83850000E+02  1.40067400E+01
             ecut      4.20000000E+01 Hartree
-          fftalg         512
           irdden           1
           irdwfk           1
              ixc     -116133
              kpt     -5.00000000E-01 -5.00000000E-01  5.00000000E-01
                       0.00000000E+00 -3.12500000E-02  0.00000000E+00
           kptopt           0
P           mkmem           2
P          mkqmem           2
P          mk1mem           2
            natom          10
            nband          48
           nbdbuf           4
            ngfft          45      72      75
             nkpt           2
            nstep        2000
             nsym           1
           ntypat           3
              occ      2.000000  2.000000  2.000000  2.000000  2.000000  2.000000
                       2.000000  2.000000  2.000000  2.000000  2.000000  2.000000
                       2.000000  2.000000  2.000000  2.000000  2.000000  2.000000
                       2.000000  2.000000  2.000000  2.000000  2.000000  2.000000
                       2.000000  2.000000  2.000000  2.000000  2.000000  2.000000
                       2.000000  2.000000  2.000000  2.000000  2.000000  2.000000
                       2.000000  2.000000  2.000000  0.000000  0.000000  0.000000
                       0.000000  0.000000  0.000000  0.000000  0.000000  0.000000
        optdriver           1
            prtwf          -1
            rfdir           1       1       1
           rfelfd           2
            rprim      6.8576487212E+00  0.0000000000E+00 -7.7997371750E-01
                      -6.3652635770E-01  1.1157061501E+01 -3.9676613474E+00
                       0.0000000000E+00  0.0000000000E+00  1.2418205631E+01
          spgroup           1
           tolwfr      1.00000000E-20
            typat      1  1  2  2  3  3  3  3  3  3
           useylm           1
              wtk        0.50000    0.50000
           xangst     -1.8918541893E-01  5.4257273124E+00  4.1580577319E-01
                       3.3819505565E+00  2.2936752073E+00  4.6353256905E+00
                       1.7504939146E+00  2.4684000377E+00  1.3093678179E+00
                       1.3062480501E+00  5.2866984449E+00  3.6611736557E+00
                      -3.9765765628E-02  2.8874113647E+00  1.0122914317E+00
                       1.9833053801E+00  4.4711761736E+00  1.9105807506E+00
                       1.5130545574E+00  4.2447671786E+00 -1.4724713102E+00
                       3.0417711266E+00  5.1340430007E+00  2.6253487416E+00
                       1.8690653955E+00  1.4427816966E+00  2.7652471541E+00
                       1.7175704222E+00  1.1504833623E+00 -2.3889142278E-01
            xcart     -3.5750863012E-01  1.0253138692E+01  7.8575903581E-01
                       6.3909603468E+00  4.3344179795E+00  8.7594960918E+00
                       3.3079540959E+00  4.6646000576E+00  2.4743465831E+00
                       2.4684510763E+00  9.9904122080E+00  6.9186155342E+00
                      -7.5146406502E-02  5.4564167123E+00  1.9129535726E+00
                       3.7479040062E+00  8.4492984599E+00  3.6104743733E+00
                       2.8592587376E+00  8.0214474655E+00 -2.7825675149E+00
                       5.7481143882E+00  9.7019352258E+00  4.9611901250E+00
                       3.5320217219E+00  2.7264622760E+00  5.2255598109E+00
                       3.2457377118E+00  2.1740984752E+00 -4.5143936456E-01
             xred      3.3167000000E-02  9.1898200000E-01  3.5897600000E-01
                       9.6800600000E-01  3.8849100000E-01  8.9029900000E-01
                       5.2118100000E-01  4.1808500000E-01  3.6556600000E-01
                       4.4307000000E-01  8.9543400000E-01  8.7105800000E-01
                       3.4436000000E-02  4.8905500000E-01  3.1246200000E-01
                       6.1682200000E-01  7.5730500000E-01  5.7144400000E-01
                       4.8367800000E-01  7.1895700000E-01  3.6017000000E-02
                       9.1891900000E-01  8.6957800000E-01  7.3505900000E-01
                       5.3773100000E-01  2.4437100000E-01  5.3265000000E-01
                       4.9138900000E-01  1.9486300000E-01  5.6770000000E-02
            znucl       38.00000   74.00000    7.00000

 chkinp: Checking input parameters for consistency.

== DATASET  1 ==================================================================
-   mpi_nproc: 1, omp_nthreads: -1 (-1 if OMP is not activated)

--- !DatasetInfo
iteration_state: {dtset: 1, }
dimensions: {natom: 10, nkpt: 2, mband: 48, nsppol: 1, nspinor: 1, nspden: 1, mpw: 12346, }
cutoff_energies: {ecut:  42.0, pawecutdg:  -1.0, }
electrons: {nelect:   7.80000000E+01, charge:   0.00000000E+00, occopt:   1.00000000E+00, tsmear:   1.00000000E-02, }
meta: {optdriver: 1, rfelfd: 2, }
...

 Real(R)+Recip(G) space primitive vectors, cartesian coordinates (Bohr,Bohr^-1):
 R(1)=  6.8576487  0.0000000 -0.7799737  G(1)=  0.1458226  0.0083194  0.0000000
 R(2)= -0.6365264 11.1570615 -3.9676613  G(2)=  0.0000000  0.0896293  0.0000000
 R(3)=  0.0000000  0.0000000 12.4182056  G(3)=  0.0091590  0.0291594  0.0805269
 Unit cell volume ucvol=  9.5013192E+02 bohr^3
 Angles (23,13,12)=  1.09546974E+02  9.64888101E+01  9.08893649E+01 degrees

 getcut: wavevector=  0.0000  0.0000  0.0000  ngfft=  45  72  75
         ecut(hartree)=     42.000   => boxcut(ratio)=   2.04288

--- Pseudopotential description ------------------------------------------------
- pspini: atom type   1  psp file is /scratch/users/j/a/jabreu/pseudos/PBEsol/Sr.psp8
- pspatm: opening atomic psp file    /scratch/users/j/a/jabreu/pseudos/PBEsol/Sr.psp8
- Sr    ONCVPSP-3.3.0  r_core=   1.66721   1.31335   1.51547
- 38.00000  10.00000    180112                znucl, zion, pspdat
    8 -116133    2    4       600   0.00000   pspcod,pspxc,lmax,lloc,mmax,r2well
    5.99000000000000    6.00000000000000    0.00000000000000   rchrg,fchrg,qchrg
     nproj     2     2     2
     extension_switch     1
  pspatm : epsatm=   12.46450977
         --- l  ekb(1:nproj) -->
             0   10.029206    1.044171
             1    7.472414    1.670829
             2    4.142950    0.968140
 pspatm: atomic psp has been read  and splines computed

- pspini: atom type   2  psp file is /scratch/users/j/a/jabreu/pseudos/PBEsol/W.psp8
- pspatm: opening atomic psp file    /scratch/users/j/a/jabreu/pseudos/PBEsol/W.psp8
- W     ONCVPSP-3.3.0  r_core=   1.61105   1.61105   1.61105   2.02088
- 74.00000  14.00000    180112                znucl, zion, pspdat
    8 -116133    3    4       600   0.00000   pspcod,pspxc,lmax,lloc,mmax,r2well
    5.99000000000000    5.00000000000000    0.00000000000000   rchrg,fchrg,qchrg
     nproj     2     2     2     2
     extension_switch     1
  pspatm : epsatm=   11.51367240
         --- l  ekb(1:nproj) -->
             0   13.027742    1.852033
             1    9.109631    1.414397
             2    4.487527    0.514612
             3   47.292176    0.887489
 pspatm: atomic psp has been read  and splines computed

- pspini: atom type   3  psp file is /scratch/users/j/a/jabreu/pseudos/PBEsol/N.psp8
- pspatm: opening atomic psp file    /scratch/users/j/a/jabreu/pseudos/PBEsol/N.psp8
- N     ONCVPSP-3.3.0  r_core=   1.20551   1.35824
-  7.00000   5.00000    180112                znucl, zion, pspdat
    8 -116133    1    4       600   0.00000   pspcod,pspxc,lmax,lloc,mmax,r2well
    5.99000000000000    4.00000000000000    0.00000000000000   rchrg,fchrg,qchrg
     nproj     2     2
     extension_switch     1
  pspatm : epsatm=    5.26508895
         --- l  ekb(1:nproj) -->
             0    7.464189    0.625868
             1   -4.309714   -1.012941
 pspatm: atomic psp has been read  and splines computed

   6.20465805E+03                                ecore*ucvol(ha*bohr**3)

 ==>  initialize data related to q vector <==

 The list of irreducible perturbations for this q vector is:
    1)    idir= 1    ipert=  11
    2)    idir= 2    ipert=  11
    3)    idir= 3    ipert=  11

 Perturbation wavevector (in red.coord.)   0.000000  0.000000  0.000000
 Perturbation : derivative vs k along direction   1

 dfpt_looppert : COMMENT -
  In a d/dk calculation, iscf is set to -3 automatically.
 The set of symmetries contains only one element for this perturbation.
 symkpt : not enough symmetry to change the number of k points.

 Initialisation of the first-order wave-functions :
  ireadwf=   0

--- !BeginCycle
iteration_state: {dtset: 1, }
solver: {iscf: 7, nstep: 2000, nline: 4, wfoptalg: 0, }
tolerances: {tolwfr: 1.00E-20, }
...

     iter   2DEtotal(Ha)        deltaE(Ha) residm    vres2
-ETOT  1  -68.527893921682     -6.853E+01 1.670E-01 0.000E+00
 ETOT  2  -68.716380782225     -1.885E-01 8.166E-02 0.000E+00
 ETOT  3  -68.719956058348     -3.575E-03 3.421E-03 0.000E+00
 ETOT  4  -68.720065650371     -1.096E-04 1.260E-03 0.000E+00
 ETOT  5  -68.720069721493     -4.071E-06 8.503E-05 0.000E+00
 ETOT  6  -68.720069886564     -1.651E-07 6.737E-05 0.000E+00
 ETOT  7  -68.720069893607     -7.043E-09 5.801E-06 0.000E+00
 ETOT  8  -68.720069893919     -3.120E-10 4.447E-06 0.000E+00
 ETOT  9  -68.720069893933     -1.440E-11 4.090E-07 0.000E+00
 ETOT 10  -68.720069893934     -5.542E-13 3.074E-07 0.000E+00
 ETOT 11  -68.720069893934     -1.563E-13 2.918E-08 0.000E+00
 ETOT 12  -68.720069893934     -1.421E-14 2.161E-08 0.000E+00
[...]
 ETOT 24  -68.720069893934      0.000E+00 3.348E-15 0.000E+00
 ETOT 25  -68.720069893934      0.000E+00 6.084E-16 0.000E+00
 ETOT 26  -68.720069893934      0.000E+00 2.502E-16 0.000E+00
 ETOT 27  -68.720069893934      0.000E+00 4.951E-17 0.000E+00
 ETOT 28  -68.720069893934      0.000E+00 1.874E-17 0.000E+00
 ETOT 29  -68.720069893934      0.000E+00 4.034E-18 0.000E+00
 ETOT 30  -68.720069893934      0.000E+00 1.406E-18 0.000E+00
 ETOT 31  -68.720069893934      0.000E+00 3.289E-19 0.000E+00
 ETOT 32  -68.720069893934      0.000E+00 1.057E-19 0.000E+00
 ETOT 33  -68.720069893934      0.000E+00 2.683E-20 0.000E+00
 ETOT 34  -68.720069893934      0.000E+00 9.822E-21 0.000E+00

 At SCF step   34   max residual=  9.82E-21 < tolwfr=  1.00E-20 =>converged.

 ----iterations are completed or convergence reached----

 dfpt_looppert: DFPT cycle converged with prtwf=-1. Will skip output of the 1st-order WFK file.
 dfpt_looppert : ek2=    1.3138480481E+02
          f-sum rule ratio=    1.0004817769E+00
 prteigrs : about to open file /scratch/users/j/a/jabreu/flow_simple_10atoms/flow/w396/t1/tmpdata/tmp_1WF1_EIG
 Expectation of eigenvalue derivatives (hartree) for nkpt=   2  k points:
  (in case of degenerate eigenvalues, averaged derivative)
 kpt#   1, nband= 48, wtk=  0.50000, kpt= -0.5000 -0.5000  0.5000 (reduced coord)
  -0.00000    0.00000    0.00000   -0.00000   -0.00000    0.00000   -0.00000   -0.00000
  -0.00000   -0.00000    0.00000   -0.00000   -0.00000    0.00000   -0.00000    0.00000
   0.00000   -0.00000   -0.00000   -0.00000    0.00000   -0.00000   -0.00000   -0.00000
   0.00000    0.00000    0.00000    0.00000    0.00000   -0.00000    0.00000   -0.00000
   0.00000   -0.00000   -0.00000   -0.00000   -0.00000   -0.00000   -0.00000   -0.00000
   0.00000   -0.00000   -0.00000   -0.00000   -0.00000    0.00000   -0.00000    0.00000
 prteigrs : prtvol=0 or 1, do not print more k-points.

 Eight components of 2nd-order total energy (hartree) are
 1,2,3: 0th-order hamiltonian combined with 1st-order wavefunctions
     kin0=   1.11030320E+02 eigvalue=  -5.02225985E+00  local=  -6.54630500E+01
 4,5,6: 1st-order hamiltonian combined with 1st and 0th-order wfs
     kin1=  -1.31448103E+02  Hartree=   0.00000000E+00     xc=   0.00000000E+00
 7,8,9: eventually, occupation + non-local contributions
    edocc=   1.83100052E+01     enl0=   9.86505439E+00   enl1=  -5.99203681E+00
 1-9 gives the relaxation energy (to be shifted if some occ is /=2.0)
   erelax=  -6.87200699E+01
  No Ewald or frozen-wf contrib.: the relaxation energy is the total one
 2DEtotal=   -0.6872006989E+02 Ha. Also 2DEtotal=   -0.186996820077E+04 eV
    (  non-var. 2DEtotal :   -6.8720069894E+01 Ha)

 Perturbation wavevector (in red.coord.)   0.000000  0.000000  0.000000
 Perturbation : derivative vs k along direction   2
 The set of symmetries contains only one element for this perturbation.
 symkpt : not enough symmetry to change the number of k points.

[...]

 Perturbation wavevector (in red.coord.)   0.000000  0.000000  0.000000
 Perturbation : derivative vs k along direction   3
 The set of symmetries contains only one element for this perturbation.
 symkpt : not enough symmetry to change the number of k points.

 Initialisation of the first-order wave-functions :
  ireadwf=   0

--- !BeginCycle
iteration_state: {dtset: 1, }
solver: {iscf: 7, nstep: 2000, nline: 4, wfoptalg: 0, }
tolerances: {tolwfr: 1.00E-20, }
...

     iter   2DEtotal(Ha)        deltaE(Ha) residm    vres2
-ETOT  1  -24.201623830049     -2.420E+01 4.300E-02 0.000E+00
 ETOT  2  -24.280438623825     -7.881E-02 2.060E-02 0.000E+00
 ETOT  3  -24.281994804577     -1.556E-03 5.076E-04 0.000E+00
 ETOT  4  -24.282043546585     -4.874E-05 3.266E-04 0.000E+00
 ETOT  5  -24.282045382646     -1.836E-06 3.203E-05 0.000E+00
 ETOT  6  -24.282045459114     -7.647E-08 1.643E-05 0.000E+00
 ETOT  7  -24.282045462478     -3.364E-09 2.187E-06 0.000E+00
 ETOT  8  -24.282045462631     -1.534E-10 1.095E-06 0.000E+00
 ETOT  9  -24.282045462638     -7.134E-12 1.531E-07 0.000E+00
 ETOT 10  -24.282045462638     -3.695E-13 7.522E-08 0.000E+00
 ETOT 11  -24.282045462638     -1.066E-14 1.091E-08 0.000E+00
 ETOT 12  -24.282045462638     -3.197E-14 5.286E-09 0.000E+00
 ETOT 13  -24.282045462638      0.000E+00 7.860E-10 0.000E+00
 ETOT 14  -24.282045462638      0.000E+00 3.768E-10 0.000E+00
 ETOT 15  -24.282045462638      3.553E-15 5.705E-11 0.000E+00
 ETOT 16  -24.282045462638     -1.066E-14 2.712E-11 0.000E+00
 ETOT 17  -24.282045462638      0.000E+00 4.161E-12 0.000E+00
 ETOT 18  -24.282045462638      0.000E+00 1.965E-12 0.000E+00
 ETOT 19  -24.282045462638     -3.553E-15 3.046E-13 0.000E+00
 ETOT 20  -24.282045462638      7.105E-15 1.431E-13 0.000E+00
 ETOT 21  -24.282045462638      0.000E+00 2.235E-14 0.000E+00
 ETOT 22  -24.282045462638      3.553E-15 1.047E-14 0.000E+00
 ETOT 23  -24.282045462638     -7.105E-15 1.643E-15 0.000E+00
 ETOT 24  -24.282045462638     -7.105E-15 7.679E-16 0.000E+00
 ETOT 25  -24.282045462638      1.421E-14 1.210E-16 0.000E+00
 ETOT 26  -24.282045462638     -7.105E-15 5.648E-17 0.000E+00
 ETOT 27  -24.282045462638      7.105E-15 8.923E-18 0.000E+00
 ETOT 28  -24.282045462638     -7.105E-15 4.162E-18 0.000E+00
 ETOT 29  -24.282045462638      7.105E-15 6.588E-19 0.000E+00
 ETOT 30  -24.282045462638      0.000E+00 3.071E-19 0.000E+00
 ETOT 31  -24.282045462638     -1.066E-14 4.869E-20 0.000E+00
 ETOT 32  -24.282045462638     -3.553E-15 2.270E-20 0.000E+00
 ETOT 33  -24.282045462638      7.105E-15 9.513E-21 0.000E+00

 At SCF step   33   max residual=  9.51E-21 < tolwfr=  1.00E-20 =>converged.

 ----iterations are completed or convergence reached----

 dfpt_looppert: DFPT cycle converged with prtwf=-1. Will skip output of the 1st-order WFK file.
 dfpt_looppert : ek2=    4.5689331011E+01
          f-sum rule ratio=    1.0196472014E+00
 prteigrs : about to open file /scratch/users/j/a/jabreu/flow_simple_10atoms/flow/w396/t1/tmpdata/tmp_1WF1_EIG
 Expectation of eigenvalue derivatives (hartree) for nkpt=   2  k points:
  (in case of degenerate eigenvalues, averaged derivative)
 kpt#   1, nband= 48, wtk=  0.50000, kpt= -0.5000 -0.5000  0.5000 (reduced coord)
   0.00000    0.00000    0.00000   -0.00000    0.00000   -0.00000   -0.00000   -0.00000
  -0.00000    0.00000   -0.00000    0.00000    0.00000    0.00000   -0.00000    0.00000
   0.00000    0.00000   -0.00000   -0.00000    0.00000    0.00000   -0.00000   -0.00000
   0.00000    0.00000    0.00000    0.00000    0.00000    0.00000    0.00000   -0.00000
  -0.00000    0.00000    0.00000   -0.00000   -0.00000    0.00000   -0.00000   -0.00000
  -0.00000   -0.00000   -0.00000    0.00000   -0.00000    0.00000   -0.00000    0.00000
 prteigrs : prtvol=0 or 1, do not print more k-points.

 Eight components of 2nd-order total energy (hartree) are
 1,2,3: 0th-order hamiltonian combined with 1st-order wavefunctions
     kin0=   3.92168203E+01 eigvalue=  -1.68819694E+00  local=  -2.34672239E+01
 4,5,6: 1st-order hamiltonian combined with 1st and 0th-order wfs
     kin1=  -4.65869985E+01  Hartree=   0.00000000E+00     xc=   0.00000000E+00
 7,8,9: eventually, occupation + non-local contributions
    edocc=   6.72898819E+00     enl0=   3.49165772E+00   enl1=  -1.97709243E+00
 1-9 gives the relaxation energy (to be shifted if some occ is /=2.0)
   erelax=  -2.42820455E+01
  No Ewald or frozen-wf contrib.: the relaxation energy is the total one
 2DEtotal=   -0.2428204546E+02 Ha. Also 2DEtotal=   -0.660748059990E+03 eV
    (  non-var. 2DEtotal :   -2.4282045462E+01 Ha)

 CALCULATION OF EFFECTIVE MASSES
 NOTE : Additional infos (eff. mass eigenvalues, eigenvectors and, if degenerate, average mass) are available in stdout.

--- !WARNING
src_file: m_efmas.F90
src_line: 0
message: |

    Band(s)    39,
    are not band extrema, but saddle points;
    the transport equivalent formalism breaks down in these conditions.
    The associated tensor(s) will therefore not be printed.
...

 K-point (-0.500,-0.500, 0.500) | band =    39
 Effective mass tensor:
     *** SADDLE POINT: TRANSPORT EQV. EFF. MASS NOT DEFINED (see WARNING above) ***
 Angular average effective mass 1/(<1/m>)=  -3.0848183712
 Angular average effective mass for Frohlich model (<m**0.5>)**2=  -5.4356879239
 Effective masses along directions: (cart. coord. / red. coord. -> eff. mass)
    1:   1.000000  0.000000  0.000000 /   0.995720 -0.092423  0.000000 -> -25.2799532524
    2:   0.000000  1.000000  0.000000 /   0.000000  1.000000  0.000000 ->  -2.1960628971
    3:   0.000000  0.000000  1.000000 /  -0.059723 -0.303804  0.950861 ->  -2.0938585376
    4:   0.577350  0.577350  0.577350 /   0.397234  0.428292  0.811647 ->  -1.8232639497
    5:   0.000000  0.707107  0.707107 /  -0.054277  0.500293  0.864153 ->  -4.0372994008
    6:   0.707107  0.000000  0.707107 /   0.417074 -0.315957  0.852186 ->  -1.6960879333
    7:   0.707107  0.707107  0.000000 /   0.546068  0.837741  0.000000 ->  -2.1201249933

--- !WARNING
src_file: m_efmas.F90
src_line: 0
message: |

    Band(s)    40,
    are not band extrema, but saddle points;
    the transport equivalent formalism breaks down in these conditions.
    The associated tensor(s) will therefore not be printed.
...

 K-point ( 0.000,-0.031, 0.000) | band =    40
 Effective mass tensor:
     *** SADDLE POINT: TRANSPORT EQV. EFF. MASS NOT DEFINED (see WARNING above) ***
 Angular average effective mass 1/(<1/m>)=   1.4872432586
 Angular average effective mass for Frohlich model (<m**0.5>)**2=   3.2800481199
 Effective masses along directions: (cart. coord. / red. coord. -> eff. mass)
    1:   1.000000  0.000000  0.000000 /   0.995720 -0.092423  0.000000 ->   0.6427571996
    2:   0.000000  1.000000  0.000000 /   0.000000  1.000000  0.000000 ->  37.2039019543
    3:   0.000000  0.000000  1.000000 /  -0.059723 -0.303804  0.950861 ->   2.3016095965
    4:   0.577350  0.577350  0.577350 /   0.397234  0.428292  0.811647 ->   1.5558003516
    5:   0.000000  0.707107  0.707107 /  -0.054277  0.500293  0.864153 ->   2.9264714224
    6:   0.707107  0.000000  0.707107 /   0.417074 -0.315957  0.852186 ->   1.3277369343
    7:   0.707107  0.707107  0.000000 /   0.546068  0.837741  0.000000 ->   1.1391574949

 END OF EFFECTIVE MASSES SECTION

 ---- first-order wavefunction calculations are completed ----

 Total localisation tensor (bohr^2) in cartesian coordinates
  WARNING : still subject to testing - especially symmetries.
      direction              matrix element
   alpha     beta       real part   imaginary part
     1        1       1.0490915107    0.0000000000
     1        2      -0.0633709034    0.0000000000
     1        3      -0.0963742405    0.0000000000
     2        1      -0.0633709034    0.0000000000
     2        2       1.1107679325    0.0000000000
     2        3      -0.3950100115    0.0000000000
     3        1      -0.0963742405    0.0000000000
     3        2      -0.3950100115    0.0000000000
     3        3       1.3956577834    0.0000000000

 respfn : d/dk was computed, but no 2DTE, so no DDB output.

== END DATASET(S) ==============================================================

 -outvars: echo values of variables after computation  --------
            acell      1.0000000000E+00  1.0000000000E+00  1.0000000000E+00 Bohr
              amu      8.76200000E+01  1.83850000E+02  1.40067400E+01
             ecut      4.20000000E+01 Hartree
           etotal     -2.4282045463E+01
            fcart      0.0000000000E+00  0.0000000000E+00  0.0000000000E+00
                       0.0000000000E+00  0.0000000000E+00  0.0000000000E+00
                       0.0000000000E+00  0.0000000000E+00  0.0000000000E+00
                       0.0000000000E+00  0.0000000000E+00  0.0000000000E+00
                       0.0000000000E+00  0.0000000000E+00  0.0000000000E+00
                       0.0000000000E+00  0.0000000000E+00  0.0000000000E+00
                       0.0000000000E+00  0.0000000000E+00  0.0000000000E+00
                       0.0000000000E+00  0.0000000000E+00  0.0000000000E+00
                       0.0000000000E+00  0.0000000000E+00  0.0000000000E+00
                       0.0000000000E+00  0.0000000000E+00  0.0000000000E+00
-          fftalg         512
           irdden           1
           irdwfk           1
              ixc     -116133
              kpt     -5.00000000E-01 -5.00000000E-01  5.00000000E-01
                       0.00000000E+00 -3.12500000E-02  0.00000000E+00
           kptopt           0
P           mkmem           2
P          mkqmem           2
P          mk1mem           2
            natom          10
            nband          48
           nbdbuf           4
            ngfft          45      72      75
             nkpt           2
            nstep        2000
             nsym           1
           ntypat           3
              occ      2.000000  2.000000  2.000000  2.000000  2.000000  2.000000
                       2.000000  2.000000  2.000000  2.000000  2.000000  2.000000
                       2.000000  2.000000  2.000000  2.000000  2.000000  2.000000
                       2.000000  2.000000  2.000000  2.000000  2.000000  2.000000
                       2.000000  2.000000  2.000000  2.000000  2.000000  2.000000
                       2.000000  2.000000  2.000000  2.000000  2.000000  2.000000
                       2.000000  2.000000  2.000000  0.000000  0.000000  0.000000
                       0.000000  0.000000  0.000000  0.000000  0.000000  0.000000
        optdriver           1
            prtwf          -1
            rfdir           1       1       1
           rfelfd           2
            rprim      6.8576487212E+00  0.0000000000E+00 -7.7997371750E-01
                      -6.3652635770E-01  1.1157061501E+01 -3.9676613474E+00
                       0.0000000000E+00  0.0000000000E+00  1.2418205631E+01
          spgroup           1
           strten      0.0000000000E+00  0.0000000000E+00  0.0000000000E+00
                       0.0000000000E+00  0.0000000000E+00  0.0000000000E+00
           tolwfr      1.00000000E-20
            typat      1  1  2  2  3  3  3  3  3  3
           useylm           1
              wtk        0.50000    0.50000
           xangst     -1.8918541893E-01  5.4257273124E+00  4.1580577319E-01
                       3.3819505565E+00  2.2936752073E+00  4.6353256905E+00
                       1.7504939146E+00  2.4684000377E+00  1.3093678179E+00
                       1.3062480501E+00  5.2866984449E+00  3.6611736557E+00
                      -3.9765765628E-02  2.8874113647E+00  1.0122914317E+00
                       1.9833053801E+00  4.4711761736E+00  1.9105807506E+00
                       1.5130545574E+00  4.2447671786E+00 -1.4724713102E+00
                       3.0417711266E+00  5.1340430007E+00  2.6253487416E+00
                       1.8690653955E+00  1.4427816966E+00  2.7652471541E+00
                       1.7175704222E+00  1.1504833623E+00 -2.3889142278E-01
            xcart     -3.5750863012E-01  1.0253138692E+01  7.8575903581E-01
                       6.3909603468E+00  4.3344179795E+00  8.7594960918E+00
                       3.3079540959E+00  4.6646000576E+00  2.4743465831E+00
                       2.4684510763E+00  9.9904122080E+00  6.9186155342E+00
                      -7.5146406502E-02  5.4564167123E+00  1.9129535726E+00
                       3.7479040062E+00  8.4492984599E+00  3.6104743733E+00
                       2.8592587376E+00  8.0214474655E+00 -2.7825675149E+00
                       5.7481143882E+00  9.7019352258E+00  4.9611901250E+00
                       3.5320217219E+00  2.7264622760E+00  5.2255598109E+00
                       3.2457377118E+00  2.1740984752E+00 -4.5143936456E-01
             xred      3.3167000000E-02  9.1898200000E-01  3.5897600000E-01
                       9.6800600000E-01  3.8849100000E-01  8.9029900000E-01
                       5.2118100000E-01  4.1808500000E-01  3.6556600000E-01
                       4.4307000000E-01  8.9543400000E-01  8.7105800000E-01
                       3.4436000000E-02  4.8905500000E-01  3.1246200000E-01
                       6.1682200000E-01  7.5730500000E-01  5.7144400000E-01
                       4.8367800000E-01  7.1895700000E-01  3.6017000000E-02
                       9.1891900000E-01  8.6957800000E-01  7.3505900000E-01
                       5.3773100000E-01  2.4437100000E-01  5.3265000000E-01
                       4.9138900000E-01  1.9486300000E-01  5.6770000000E-02
            znucl       38.00000   74.00000    7.00000

- Timing analysis has been suppressed with timopt=0

 Suggested references for the acknowledgment of ABINIT usage.

 Calculation completed.
.Delivered   4 WARNINGs and   5 COMMENTs to log file.