.Version 9.5.2 of ABINIT

 ABINIT is a project of the Universite Catholique de Louvain,
 Corning Inc. and other collaborators, see ~abinit/doc/developers/contributors.txt .
 acknowledgments of the ABINIT effort.

.Starting date : Mon 24 May 2021.
- ( at 12h00 )

- input  file    -> /scratch/users/j/a/jabreu/flow_simple_10atoms/flow/w371/t1/run.abi
- output file    -> /scratch/users/j/a/jabreu/flow_simple_10atoms/flow/w371/t1/run.abo
- root for input  files -> /scratch/users/j/a/jabreu/flow_simple_10atoms/flow/w371/t1/indata/in
- root for output files -> /scratch/users/j/a/jabreu/flow_simple_10atoms/flow/w371/t1/outdata/out

 Symmetries : space group Fm -3 m (#225); Bravais cF (face-center cubic)
     intxc =       0      iscf =       7    lmnmax =      32     lnmax =       8
     mgfft =      90  mpssoang =       4    mqgrid =    3337     natom =      10
  nloc_mem =       1    nspden =       1   nspinor =       1    nsppol =       1
      nsym =      48    n1xccc =    2501    ntypat =       4    occopt =       1
   xclevel =       2
-    mband =          52        mffmem =           1         mkmem =           2
-   mkqmem =           2        mk1mem =           2           mpw =       25342
      nfft =      729000          nkpt =           2
  Rough estimation (10% accuracy) of disk space for files :

------------- Echo of variables that govern the present computation ------------
-
- outvars: echo of selected default values
-   iomode0 =  0 , fftalg0 =512 , wfoptalg0 =  0
-
- outvars: echo of global parameters not present in the input file
-  max_nthreads =    0
-
 -outvars: echo values of preprocessed input variables --------
            acell      1.0000000000E+00  1.0000000000E+00  1.0000000000E+00 Bohr
              amu      1.32905430E+02  2.04383300E+02  1.14820000E+02
                       7.99040000E+01
             ecut      3.50000000E+01 Hartree
-          fftalg         512
           irdden           1
           irdwfk           1
           istwfk        1    1
              ixc     -116133
              kpt      5.00000000E-01  0.00000000E+00  5.00000000E-01
                       5.00000000E-01  5.00000000E-01  5.00000000E-01
           kptopt           0
P           mkmem           2
P          mkqmem           2
P          mk1mem           2
            natom          10
            nband          52
           nbdbuf           4
            ngfft          90      90      90
             nkpt           2
            nstep        2000
             nsym          48
           ntypat           4
              occ      2.000000  2.000000  2.000000  2.000000  2.000000  2.000000
                       2.000000  2.000000  2.000000  2.000000  2.000000  2.000000
                       2.000000  2.000000  2.000000  2.000000  2.000000  2.000000
                       2.000000  2.000000  2.000000  2.000000  2.000000  2.000000
                       2.000000  2.000000  2.000000  2.000000  2.000000  2.000000
                       2.000000  2.000000  2.000000  2.000000  2.000000  2.000000
                       2.000000  2.000000  2.000000  2.000000  2.000000  2.000000
                       2.000000  0.000000  0.000000  0.000000  0.000000  0.000000
                       0.000000  0.000000  0.000000  0.000000
        optdriver           1
            prtwf          -1
            rfdir           1       1       1
           rfelfd           2
            rprim      1.3289096353E+01  0.0000000000E+00  7.6724633570E+00
                       4.4296987845E+00  1.2529080197E+01  7.6724633570E+00
                       0.0000000000E+00  0.0000000000E+00  1.5344926714E+01
          spgroup         225
           symrel      1  0  0   0  1  0   0  0  1      -1  0  0   0 -1  0   0  0 -1
                       0 -1  1   0 -1  0   1 -1  0       0  1 -1   0  1  0  -1  1  0
                      -1  0  0  -1  0  1  -1  1  0       1  0  0   1  0 -1   1 -1  0
                       0  1 -1   1  0 -1   0  0 -1       0 -1  1  -1  0  1   0  0  1
                      -1  0  0  -1  1  0  -1  0  1       1  0  0   1 -1  0   1  0 -1
                       0 -1  1   1 -1  0   0 -1  0       0  1 -1  -1  1  0   0  1  0
                       1  0  0   0  0  1   0  1  0      -1  0  0   0  0 -1   0 -1  0
                       0  1 -1   0  0 -1   1  0 -1       0 -1  1   0  0  1  -1  0  1
                      -1  0  1  -1  1  0  -1  0  0       1  0 -1   1 -1  0   1  0  0
                       0 -1  0   1 -1  0   0 -1  1       0  1  0  -1  1  0   0  1 -1
                       1  0 -1   0  0 -1   0  1 -1      -1  0  1   0  0  1   0 -1  1
                       0  1  0   0  0  1   1  0  0       0 -1  0   0  0 -1  -1  0  0
                       1  0 -1   0  1 -1   0  0 -1      -1  0  1   0 -1  1   0  0  1
                       0 -1  0   0 -1  1   1 -1  0       0  1  0   0  1 -1  -1  1  0
                      -1  0  1  -1  0  0  -1  1  0       1  0 -1   1  0  0   1 -1  0
                       0  1  0   1  0  0   0  0  1       0 -1  0  -1  0  0   0  0 -1
                       0  0 -1   0  1 -1   1  0 -1       0  0  1   0 -1  1  -1  0  1
                       1 -1  0   0 -1  1   0 -1  0      -1  1  0   0  1 -1   0  1  0
                       0  0  1   1  0  0   0  1  0       0  0 -1  -1  0  0   0 -1  0
                      -1  1  0  -1  0  0  -1  0  1       1 -1  0   1  0  0   1  0 -1
                       0  0  1   0  1  0   1  0  0       0  0 -1   0 -1  0  -1  0  0
                       1 -1  0   0 -1  0   0 -1  1      -1  1  0   0  1  0   0  1 -1
                       0  0 -1   1  0 -1   0  1 -1       0  0  1  -1  0  1   0 -1  1
                      -1  1  0  -1  0  1  -1  0  0       1 -1  0   1  0 -1   1  0  0
           tolwfr      1.00000000E-20
            typat      1  1  2  3  4  4  4  4  4  4
           useylm           1
              wtk        0.50000    0.50000
           xangst      2.3440956377E+00  1.6575259211E+00  4.0600927423E+00
                       7.0322869130E+00  4.9725777634E+00  1.2180278227E+01
                       0.0000000000E+00  0.0000000000E+00  0.0000000000E+00
                       4.6881912754E+00  3.3150518423E+00  8.1201854845E+00
                       3.5953129426E+00  4.8606152025E+00  1.0013106283E+01
                       5.7810696081E+00  1.7694884821E+00  1.0013106283E+01
                       3.5953129426E+00  4.8606152025E+00  6.2272646857E+00
                       2.5024346098E+00  1.7694884821E+00  8.1201854845E+00
                       6.8739479409E+00  4.8606152025E+00  8.1201854845E+00
                       5.7810696081E+00  1.7694884821E+00  6.2272646857E+00
            xcart      4.4296987845E+00  3.1322700491E+00  7.6724633570E+00
                       1.3289096353E+01  9.3968101474E+00  2.3017390071E+01
                       0.0000000000E+00  0.0000000000E+00  0.0000000000E+00
                       8.8593975690E+00  6.2645400983E+00  1.5344926714E+01
                       6.7941568235E+00  9.1852315701E+00  1.8922028615E+01
                       1.0924638315E+01  3.3438486264E+00  1.8922028615E+01
                       6.7941568235E+00  9.1852315701E+00  1.1767824813E+01
                       4.7289160780E+00  3.3438486264E+00  1.5344926714E+01
                       1.2989879060E+01  9.1852315701E+00  1.5344926714E+01
                       1.0924638315E+01  3.3438486264E+00  1.1767824813E+01
             xred      2.5000000000E-01  2.5000000000E-01  2.5000000000E-01
                       7.5000000000E-01  7.5000000000E-01  7.5000000000E-01
                       0.0000000000E+00  0.0000000000E+00  0.0000000000E+00
                       5.0000000000E-01  5.0000000000E-01  5.0000000000E-01
                       2.6688700000E-01  7.3311300000E-01  7.3311300000E-01
                       7.3311300000E-01  2.6688700000E-01  7.3311300000E-01
                       2.6688700000E-01  7.3311300000E-01  2.6688700000E-01
                       2.6688700000E-01  2.6688700000E-01  7.3311300000E-01
                       7.3311300000E-01  7.3311300000E-01  2.6688700000E-01
                       7.3311300000E-01  2.6688700000E-01  2.6688700000E-01
            znucl       55.00000   81.00000   49.00000   35.00000

 chkinp: Checking input parameters for consistency.

== DATASET  1 ==================================================================
-   mpi_nproc: 1, omp_nthreads: -1 (-1 if OMP is not activated)

--- !DatasetInfo
iteration_state: {dtset: 1, }
dimensions: {natom: 10, nkpt: 2, mband: 52, nsppol: 1, nspinor: 1, nspden: 1, mpw: 25342, }
cutoff_energies: {ecut:  35.0, pawecutdg:  -1.0, }
electrons: {nelect:   8.60000000E+01, charge:   0.00000000E+00, occopt:   1.00000000E+00, tsmear:   1.00000000E-02, }
meta: {optdriver: 1, rfelfd: 2, }
...

 Real(R)+Recip(G) space primitive vectors, cartesian coordinates (Bohr,Bohr^-1):
 R(1)= 13.2890964  0.0000000  7.6724634  G(1)=  0.0752497 -0.0266048  0.0000000
 R(2)=  4.4296988 12.5290802  7.6724634  G(2)=  0.0000000  0.0798143  0.0000000
 R(3)=  0.0000000  0.0000000 15.3449267  G(3)= -0.0376248 -0.0266048  0.0651681
 Unit cell volume ucvol=  2.5549327E+03 bohr^3
 Angles (23,13,12)=  6.00000000E+01  6.00000000E+01  6.00000000E+01 degrees

 getcut: wavevector=  0.0000  0.0000  0.0000  ngfft=  90  90  90
         ecut(hartree)=     35.000   => boxcut(ratio)=   2.20258

 getcut : COMMENT -
  Note that boxcut > 2.2 ; recall that boxcut=Gcut(box)/Gcut(sphere) = 2
  is sufficient for exact treatment of convolution.
  Such a large boxcut is a waste : you could raise ecut
  e.g. ecut=   42.449479 Hartrees makes boxcut=2

--- Pseudopotential description ------------------------------------------------
- pspini: atom type   1  psp file is /scratch/users/j/a/jabreu/pseudos/PBEsol/Cs.psp8
- pspatm: opening atomic psp file    /scratch/users/j/a/jabreu/pseudos/PBEsol/Cs.psp8
- Cs    ONCVPSP-3.3.0  r_core=   2.27353   1.85623   2.01788   1.90105
- 55.00000   9.00000    180112                znucl, zion, pspdat
    8 -116133    3    4       600   0.00000   pspcod,pspxc,lmax,lloc,mmax,r2well
    5.99000000000000    5.00000000000000    0.00000000000000   rchrg,fchrg,qchrg
     nproj     2     2     2     2
     extension_switch     1
  pspatm : epsatm=   22.12462445
         --- l  ekb(1:nproj) -->
             0    6.214110    0.767882
             1    6.311966    0.793598
             2    3.769790    0.913105
             3   -9.247129   -2.432478
 pspatm: atomic psp has been read  and splines computed

- pspini: atom type   2  psp file is /scratch/users/j/a/jabreu/pseudos/PBEsol/Tl.psp8
- pspatm: opening atomic psp file    /scratch/users/j/a/jabreu/pseudos/PBEsol/Tl.psp8
- Tl    ONCVPSP-3.3.0  r_core=   2.10510   2.60929   2.00701
- 81.00000  13.00000    180112                znucl, zion, pspdat
    8 -116133    2    4       600   0.00000   pspcod,pspxc,lmax,lloc,mmax,r2well
    5.99000000000000    7.00000000000000    0.00000000000000   rchrg,fchrg,qchrg
     nproj     2     2     2
     extension_switch     1
  pspatm : epsatm=   37.24354552
         --- l  ekb(1:nproj) -->
             0    6.297242    0.908324
             1    4.393460    0.899003
             2   -2.697741   -0.589563
[...]
 Perturbation : derivative vs k along direction   2
 The set of symmetries contains only one element for this perturbation.
 symkpt : not enough symmetry to change the number of k points.

[...]

 Perturbation wavevector (in red.coord.)   0.000000  0.000000  0.000000
 Perturbation : derivative vs k along direction   3
 The set of symmetries contains only one element for this perturbation.
 symkpt : not enough symmetry to change the number of k points.

 Initialisation of the first-order wave-functions :
  ireadwf=   0

--- !BeginCycle
iteration_state: {dtset: 1, }
solver: {iscf: 7, nstep: 2000, nline: 4, wfoptalg: 0, }
tolerances: {tolwfr: 1.00E-20, }
...

     iter   2DEtotal(Ha)        deltaE(Ha) residm    vres2
-ETOT  1  -31.301718027385     -3.130E+01 9.254E-02 0.000E+00
 ETOT  2  -31.322636253809     -2.092E-02 1.015E-02 0.000E+00
 ETOT  3  -31.323140795053     -5.045E-04 7.384E-04 0.000E+00
 ETOT  4  -31.323195767256     -5.497E-05 1.542E-04 0.000E+00
 ETOT  5  -31.323203604089     -7.837E-06 3.516E-05 0.000E+00
 ETOT  6  -31.323205009561     -1.405E-06 1.380E-05 0.000E+00
 ETOT  7  -31.323205282379     -2.728E-07 3.899E-06 0.000E+00
 ETOT  8  -31.323205338241     -5.586E-08 1.514E-06 0.000E+00
 ETOT  9  -31.323205349988     -1.175E-08 4.069E-07 0.000E+00
 ETOT 10  -31.323205352506     -2.517E-09 1.783E-07 0.000E+00
 ETOT 11  -31.323205353053     -5.469E-10 5.260E-08 0.000E+00
 ETOT 12  -31.323205353173     -1.200E-10 2.438E-08 0.000E+00
 ETOT 13  -31.323205353199     -2.663E-11 7.311E-09 0.000E+00
 ETOT 14  -31.323205353205     -5.933E-12 3.425E-09 0.000E+00
 ETOT 15  -31.323205353206     -1.339E-12 1.033E-09 0.000E+00
 ETOT 16  -31.323205353207     -2.807E-13 4.864E-10 0.000E+00
 ETOT 17  -31.323205353207     -6.395E-14 1.470E-10 0.000E+00
 ETOT 18  -31.323205353207     -7.105E-14 6.936E-11 0.000E+00
 ETOT 19  -31.323205353207      2.487E-14 2.095E-11 0.000E+00
 ETOT 20  -31.323205353207     -3.553E-15 9.903E-12 0.000E+00
 ETOT 21  -31.323205353207      0.000E+00 2.988E-12 0.000E+00
 ETOT 22  -31.323205353207     -7.105E-15 1.414E-12 0.000E+00
 ETOT 23  -31.323205353207      7.105E-15 4.260E-13 0.000E+00
 ETOT 24  -31.323205353207      3.553E-15 2.019E-13 0.000E+00
 ETOT 25  -31.323205353207     -1.066E-14 6.075E-14 0.000E+00
 ETOT 26  -31.323205353207      0.000E+00 2.881E-14 0.000E+00
 ETOT 27  -31.323205353207     -7.105E-15 8.661E-15 0.000E+00
 ETOT 28  -31.323205353207      7.105E-15 4.110E-15 0.000E+00
 ETOT 29  -31.323205353207     -7.105E-15 1.235E-15 0.000E+00
 ETOT 30  -31.323205353207      0.000E+00 5.863E-16 0.000E+00
 ETOT 31  -31.323205353207     -3.553E-15 1.760E-16 0.000E+00
 ETOT 32  -31.323205353207      1.066E-14 8.363E-17 0.000E+00
 ETOT 33  -31.323205353207      0.000E+00 2.510E-17 0.000E+00
 ETOT 34  -31.323205353207      7.105E-15 1.193E-17 0.000E+00
 ETOT 35  -31.323205353207     -7.105E-15 3.579E-18 0.000E+00
 ETOT 36  -31.323205353207     -7.105E-15 1.702E-18 0.000E+00
 ETOT 37  -31.323205353207      7.105E-15 5.103E-19 0.000E+00
 ETOT 38  -31.323205353207      7.105E-15 2.427E-19 0.000E+00
 ETOT 39  -31.323205353207      7.105E-15 7.278E-20 0.000E+00
 ETOT 40  -31.323205353207     -7.105E-15 3.463E-20 0.000E+00
 ETOT 41  -31.323205353207      0.000E+00 1.038E-20 0.000E+00
 ETOT 42  -31.323205353207     -7.105E-15 9.970E-21 0.000E+00

 At SCF step   42   max residual=  9.97E-21 < tolwfr=  1.00E-20 =>converged.

 ----iterations are completed or convergence reached----

 dfpt_looppert: DFPT cycle converged with prtwf=-1. Will skip output of the 1st-order WFK file.
 dfpt_looppert : ek2=    4.3256343511E+01
          f-sum rule ratio=    1.0105513523E+00
 prteigrs : about to open file /scratch/users/j/a/jabreu/flow_simple_10atoms/flow/w371/t1/tmpdata/tmp_1WF1_EIG
 Expectation of eigenvalue derivatives (hartree) for nkpt=   2  k points:
  (in case of degenerate eigenvalues, averaged derivative)
 kpt#   1, nband= 52, wtk=  0.50000, kpt=  0.5000  0.0000  0.5000 (reduced coord)
   0.00000   -0.00000    0.00000   -0.00000   -0.00000    0.00000   -0.00000   -0.00000
  -0.00000   -0.00000   -0.00000   -0.00000    0.00000   -0.00000   -0.00000    0.00000
   0.00000    0.00000    0.00000    0.00000   -0.00000    0.00000    0.00000    0.00000
   0.00000   -0.00000   -0.00000   -0.00000    0.00000   -0.00000   -0.00000    0.00000
   0.00000    0.00000    0.00000   -0.00000    0.00000    0.00000   -0.00000   -0.00000
   0.00000   -0.00000   -0.00000   -0.00000   -0.00000   -0.00000   -0.00000    0.00000
   0.00000    0.00000   -0.00000   -0.00033
 prteigrs : prtvol=0 or 1, do not print more k-points.

 Eight components of 2nd-order total energy (hartree) are
 1,2,3: 0th-order hamiltonian combined with 1st-order wavefunctions
     kin0=   3.78416086E+01 eigvalue=   3.43974789E+00  local=  -2.32396404E+01
 4,5,6: 1st-order hamiltonian combined with 1st and 0th-order wfs
     kin1=  -4.37127564E+01  Hartree=   0.00000000E+00     xc=   0.00000000E+00
 7,8,9: eventually, occupation + non-local contributions
    edocc=   5.91956294E+00     enl0=   7.36192626E+00   enl1=  -1.89336543E+01
 1-9 gives the relaxation energy (to be shifted if some occ is /=2.0)
   erelax=  -3.13232054E+01
  No Ewald or frozen-wf contrib.: the relaxation energy is the total one
 2DEtotal=   -0.3132320535E+02 Ha. Also 2DEtotal=   -0.852347764592E+03 eV
    (  non-var. 2DEtotal :   -3.1323205353E+01 Ha)

 CALCULATION OF EFFECTIVE MASSES
 NOTE : Additional infos (eff. mass eigenvalues, eigenvectors and, if degenerate, average mass) are available in stdout.

 K-point ( 0.500, 0.000, 0.500) | band =    43
 Effective mass tensor:
             -1.6821891493             -0.4137187627              0.5066999343
             -0.4137187627             -1.3896458049             -0.7165819177
              0.5066999343             -0.7165819177             -1.0971024630
 Effective mass tensor eigenvalues:
             -1.9747324931             -1.9747324904             -0.2194724337
 Angular average effective mass 1/(<1/m>)=  -0.5386793031
 Angular average effective mass for Frohlich model (<m**0.5>)**2=  -0.7671108171
 Effective masses along directions: (cart. coord. / red. coord. -> eff. mass)
    1:   1.000000  0.000000  0.000000 /   0.948683  0.316228  0.000000 ->  -0.8464570149
    2:   0.000000  1.000000  0.000000 /   0.000000  1.000000  0.000000 ->  -0.5386793030
    3:   0.000000  0.000000  1.000000 /   0.408248  0.408248  0.816497 ->  -0.3950399900
    4:   0.577350  0.577350  0.577350 /   0.585539  0.688047  0.428644 ->  -1.1146377545
    5:   0.000000  0.707107  0.707107 /   0.289489  0.762222  0.578977 ->  -1.8501661921
    6:   0.707107  0.000000  0.707107 /   0.731423  0.422287  0.535439 ->  -0.3305215280
    7:   0.707107  0.707107  0.000000 /   0.616798  0.787122  0.000000 ->  -1.7720966436

 K-point ( 0.500, 0.500, 0.500) | band =    44
 Effective mass tensor:
              0.3009940060             -0.0156222198             -0.0382664661
             -0.0156222198              0.3120405824             -0.0270584786
             -0.0382664661             -0.0270584786              0.2568076961
 Effective mass tensor eigenvalues:
              0.2236679639              0.3230871603              0.3230871604
 Angular average effective mass 1/(<1/m>)=   0.2813943991
 Angular average effective mass for Frohlich model (<m**0.5>)**2=   0.2840915945
 Effective masses along directions: (cart. coord. / red. coord. -> eff. mass)
    1:   1.000000  0.000000  0.000000 /   0.948683  0.316228  0.000000 ->   0.2940426372
    2:   0.000000  1.000000  0.000000 /   0.000000  1.000000  0.000000 ->   0.3078814237
    3:   0.000000  0.000000  1.000000 /   0.408248  0.408248  0.816497 ->   0.2492322411
    4:   0.577350  0.577350  0.577350 /   0.585539  0.688047  0.428644 ->   0.2325310436
    5:   0.000000  0.707107  0.707107 /   0.289489  0.762222  0.578977 ->   0.2497127795
    6:   0.707107  0.000000  0.707107 /   0.731423  0.422287  0.535439 ->   0.2360645263
    7:   0.707107  0.707107  0.000000 /   0.616798  0.787122  0.000000 ->   0.2824366186

 END OF EFFECTIVE MASSES SECTION

 ---- first-order wavefunction calculations are completed ----

 Total localisation tensor (bohr^2) in cartesian coordinates
  WARNING : still subject to testing - especially symmetries.
      direction              matrix element
   alpha     beta       real part   imaginary part
     1        1       1.6178857648    0.0000000000
     1        2       0.4576085885    0.0000000000
     1        3       1.1209047058    0.0000000000
     2        1       0.4576085885    0.0000000000
     2        2       1.2943125441    0.0000000000
     2        3       0.7926013252    0.0000000000
     3        1       1.1209047058    0.0000000000
     3        2       0.7926013252    0.0000000000
     3        3       2.9121985270    0.0000000000

 respfn : d/dk was computed, but no 2DTE, so no DDB output.

== END DATASET(S) ==============================================================

 -outvars: echo values of variables after computation  --------
            acell      1.0000000000E+00  1.0000000000E+00  1.0000000000E+00 Bohr
              amu      1.32905430E+02  2.04383300E+02  1.14820000E+02
                       7.99040000E+01
             ecut      3.50000000E+01 Hartree
           etotal     -3.1323205353E+01
            fcart      0.0000000000E+00  0.0000000000E+00  0.0000000000E+00
                       0.0000000000E+00  0.0000000000E+00  0.0000000000E+00
                       0.0000000000E+00  0.0000000000E+00  0.0000000000E+00
                       0.0000000000E+00  0.0000000000E+00  0.0000000000E+00
                       0.0000000000E+00  0.0000000000E+00  0.0000000000E+00
                       0.0000000000E+00  0.0000000000E+00  0.0000000000E+00
                       0.0000000000E+00  0.0000000000E+00  0.0000000000E+00
                       0.0000000000E+00  0.0000000000E+00  0.0000000000E+00
                       0.0000000000E+00  0.0000000000E+00  0.0000000000E+00
                       0.0000000000E+00  0.0000000000E+00  0.0000000000E+00
-          fftalg         512
           irdden           1
           irdwfk           1
           istwfk        1    1
              ixc     -116133
              kpt      5.00000000E-01  0.00000000E+00  5.00000000E-01
                       5.00000000E-01  5.00000000E-01  5.00000000E-01
           kptopt           0
P           mkmem           2
P          mkqmem           2
P          mk1mem           2
            natom          10
            nband          52
           nbdbuf           4
            ngfft          90      90      90
             nkpt           2
            nstep        2000
             nsym          48
           ntypat           4
              occ      2.000000  2.000000  2.000000  2.000000  2.000000  2.000000
                       2.000000  2.000000  2.000000  2.000000  2.000000  2.000000
                       2.000000  2.000000  2.000000  2.000000  2.000000  2.000000
                       2.000000  2.000000  2.000000  2.000000  2.000000  2.000000
                       2.000000  2.000000  2.000000  2.000000  2.000000  2.000000
                       2.000000  2.000000  2.000000  2.000000  2.000000  2.000000
                       2.000000  2.000000  2.000000  2.000000  2.000000  2.000000
                       2.000000  0.000000  0.000000  0.000000  0.000000  0.000000
                       0.000000  0.000000  0.000000  0.000000
        optdriver           1
            prtwf          -1
            rfdir           1       1       1
           rfelfd           2
            rprim      1.3289096353E+01  0.0000000000E+00  7.6724633570E+00
                       4.4296987845E+00  1.2529080197E+01  7.6724633570E+00
                       0.0000000000E+00  0.0000000000E+00  1.5344926714E+01
          spgroup         225
           strten      0.0000000000E+00  0.0000000000E+00  0.0000000000E+00
                       0.0000000000E+00  0.0000000000E+00  0.0000000000E+00
           symrel      1  0  0   0  1  0   0  0  1      -1  0  0   0 -1  0   0  0 -1
                       0 -1  1   0 -1  0   1 -1  0       0  1 -1   0  1  0  -1  1  0
                      -1  0  0  -1  0  1  -1  1  0       1  0  0   1  0 -1   1 -1  0
                       0  1 -1   1  0 -1   0  0 -1       0 -1  1  -1  0  1   0  0  1
                      -1  0  0  -1  1  0  -1  0  1       1  0  0   1 -1  0   1  0 -1
                       0 -1  1   1 -1  0   0 -1  0       0  1 -1  -1  1  0   0  1  0
                       1  0  0   0  0  1   0  1  0      -1  0  0   0  0 -1   0 -1  0
                       0  1 -1   0  0 -1   1  0 -1       0 -1  1   0  0  1  -1  0  1
                      -1  0  1  -1  1  0  -1  0  0       1  0 -1   1 -1  0   1  0  0
                       0 -1  0   1 -1  0   0 -1  1       0  1  0  -1  1  0   0  1 -1
                       1  0 -1   0  0 -1   0  1 -1      -1  0  1   0  0  1   0 -1  1
                       0  1  0   0  0  1   1  0  0       0 -1  0   0  0 -1  -1  0  0
                       1  0 -1   0  1 -1   0  0 -1      -1  0  1   0 -1  1   0  0  1
                       0 -1  0   0 -1  1   1 -1  0       0  1  0   0  1 -1  -1  1  0
                      -1  0  1  -1  0  0  -1  1  0       1  0 -1   1  0  0   1 -1  0
                       0  1  0   1  0  0   0  0  1       0 -1  0  -1  0  0   0  0 -1
                       0  0 -1   0  1 -1   1  0 -1       0  0  1   0 -1  1  -1  0  1
                       1 -1  0   0 -1  1   0 -1  0      -1  1  0   0  1 -1   0  1  0
                       0  0  1   1  0  0   0  1  0       0  0 -1  -1  0  0   0 -1  0
                      -1  1  0  -1  0  0  -1  0  1       1 -1  0   1  0  0   1  0 -1
                       0  0  1   0  1  0   1  0  0       0  0 -1   0 -1  0  -1  0  0
                       1 -1  0   0 -1  0   0 -1  1      -1  1  0   0  1  0   0  1 -1
                       0  0 -1   1  0 -1   0  1 -1       0  0  1  -1  0  1   0 -1  1
                      -1  1  0  -1  0  1  -1  0  0       1 -1  0   1  0 -1   1  0  0
           tolwfr      1.00000000E-20
            typat      1  1  2  3  4  4  4  4  4  4
           useylm           1
              wtk        0.50000    0.50000
           xangst      2.3440956377E+00  1.6575259211E+00  4.0600927423E+00
                       7.0322869130E+00  4.9725777634E+00  1.2180278227E+01
                       0.0000000000E+00  0.0000000000E+00  0.0000000000E+00
                       4.6881912754E+00  3.3150518423E+00  8.1201854845E+00
                       3.5953129426E+00  4.8606152025E+00  1.0013106283E+01
                       5.7810696081E+00  1.7694884821E+00  1.0013106283E+01
                       3.5953129426E+00  4.8606152025E+00  6.2272646857E+00
                       2.5024346098E+00  1.7694884821E+00  8.1201854845E+00
                       6.8739479409E+00  4.8606152025E+00  8.1201854845E+00
                       5.7810696081E+00  1.7694884821E+00  6.2272646857E+00
            xcart      4.4296987845E+00  3.1322700491E+00  7.6724633570E+00
                       1.3289096353E+01  9.3968101474E+00  2.3017390071E+01
                       0.0000000000E+00  0.0000000000E+00  0.0000000000E+00
                       8.8593975690E+00  6.2645400983E+00  1.5344926714E+01
                       6.7941568235E+00  9.1852315701E+00  1.8922028615E+01
                       1.0924638315E+01  3.3438486264E+00  1.8922028615E+01
                       6.7941568235E+00  9.1852315701E+00  1.1767824813E+01
                       4.7289160780E+00  3.3438486264E+00  1.5344926714E+01
                       1.2989879060E+01  9.1852315701E+00  1.5344926714E+01
                       1.0924638315E+01  3.3438486264E+00  1.1767824813E+01
             xred      2.5000000000E-01  2.5000000000E-01  2.5000000000E-01
                       7.5000000000E-01  7.5000000000E-01  7.5000000000E-01
                       0.0000000000E+00  0.0000000000E+00  0.0000000000E+00
                       5.0000000000E-01  5.0000000000E-01  5.0000000000E-01
                       2.6688700000E-01  7.3311300000E-01  7.3311300000E-01
                       7.3311300000E-01  2.6688700000E-01  7.3311300000E-01
                       2.6688700000E-01  7.3311300000E-01  2.6688700000E-01
                       2.6688700000E-01  2.6688700000E-01  7.3311300000E-01
                       7.3311300000E-01  7.3311300000E-01  2.6688700000E-01
                       7.3311300000E-01  2.6688700000E-01  2.6688700000E-01
            znucl       55.00000   81.00000   49.00000   35.00000

- Timing analysis has been suppressed with timopt=0

 Suggested references for the acknowledgment of ABINIT usage.

 Calculation completed.
.Delivered   2 WARNINGs and  11 COMMENTs to log file.