.Version 9.5.1 of ABINIT

 ABINIT is a project of the Universite Catholique de Louvain,
 Corning Inc. and other collaborators, see ~abinit/doc/developers/contributors.txt .
 acknowledgments of the ABINIT effort.

.Starting date : Tue  4 May 2021.
- ( at 19h29 )

- input  file    -> /scratch/users/j/a/jabreu/flow_simple_6atoms/flow/w195/t1/run.abi
- output file    -> /scratch/users/j/a/jabreu/flow_simple_6atoms/flow/w195/t1/run.abo
- root for input  files -> /scratch/users/j/a/jabreu/flow_simple_6atoms/flow/w195/t1/indata/in
- root for output files -> /scratch/users/j/a/jabreu/flow_simple_6atoms/flow/w195/t1/outdata/out

 Symmetries : space group P-3 m 1 (#164); Bravais hP (primitive hexag.)
     intxc =       0      iscf =       7    lmnmax =      32     lnmax =       8
     mgfft =      72  mpssoang =       4    mqgrid =    3001     natom =       6
  nloc_mem =       1    nspden =       1   nspinor =       1    nsppol =       1
      nsym =      12    n1xccc =    2501    ntypat =       3    occopt =       1
   xclevel =       2
-    mband =          48        mffmem =           1         mkmem =           2
-   mkqmem =           2        mk1mem =           2           mpw =       12944
      nfft =      311040          nkpt =           2
  Rough estimation (10% accuracy) of disk space for files :

------------- Echo of variables that govern the present computation ------------
-
- outvars: echo of selected default values
-   iomode0 =  0 , fftalg0 =512 , wfoptalg0 =  0
-
- outvars: echo of global parameters not present in the input file
-  max_nthreads =    0
-
 -outvars: echo values of preprocessed input variables --------
            acell      1.0000000000E+00  1.0000000000E+00  1.0000000000E+00 Bohr
              amu      1.32905430E+02  1.96966540E+02  3.20660000E+01
             ecut      3.80000000E+01 Hartree
-          fftalg         512
           irdden           1
           irdwfk           1
           istwfk        1    1
              ixc     -116133
              kpt      0.00000000E+00  0.00000000E+00  5.00000000E-01
                       5.00000000E-01  0.00000000E+00  0.00000000E+00
           kptopt           0
P           mkmem           2
P          mkqmem           2
P          mk1mem           2
            natom           6
            nband          48
           nbdbuf           4
            ngfft          72      72      60
             nkpt           2
            nstep        1000
             nsym          12
           ntypat           3
              occ      2.000000  2.000000  2.000000  2.000000  2.000000  2.000000
                       2.000000  2.000000  2.000000  2.000000  2.000000  2.000000
                       2.000000  2.000000  2.000000  2.000000  2.000000  2.000000
                       2.000000  2.000000  2.000000  2.000000  2.000000  2.000000
                       2.000000  2.000000  2.000000  2.000000  2.000000  2.000000
                       2.000000  2.000000  2.000000  2.000000  2.000000  2.000000
                       2.000000  2.000000  2.000000  0.000000  0.000000  0.000000
                       0.000000  0.000000  0.000000  0.000000  0.000000  0.000000
        optdriver           1
            prtwf          -1
            rfdir           1       1       1
           rfelfd           2
            rprim      1.1532330672E+01  0.0000000000E+00  0.0000000000E+00
                      -5.7661653358E+00  9.9872913264E+00  0.0000000000E+00
                       0.0000000000E+00  0.0000000000E+00  1.0044902937E+01
          spgroup         164
           symrel      1  0  0   0  1  0   0  0  1      -1  0  0   0 -1  0   0  0 -1
                      -1  0  0   1  1  0   0  0  1       1  0  0  -1 -1  0   0  0 -1
                       0  1  0  -1 -1  0   0  0  1       0 -1  0   1  1  0   0  0 -1
                       0 -1  0  -1  0  0   0  0  1       0  1  0   1  0  0   0  0 -1
                      -1 -1  0   1  0  0   0  0  1       1  1  0  -1  0  0   0  0 -1
                       1  1  0   0 -1  0   0  0  1      -1 -1  0   0  1  0   0  0 -1
           tolwfr      1.00000000E-20
            typat      1  2  2  2  3  3
           useylm           1
              wtk        0.50000    0.50000
           xangst      0.0000000000E+00  0.0000000000E+00  2.6577668484E+00
                      -1.5256616383E+00  2.6425234727E+00 -2.9507139492E-16
                       3.0513232767E+00  0.0000000000E+00 -2.9507139492E-16
                       1.5256616383E+00  2.6425234727E+00 -2.9507139492E-16
                      -7.0500566530E-16  3.5233646303E+00  3.8051513745E+00
                       3.0513232767E+00  1.7616823152E+00  1.5103823223E+00
            xcart      0.0000000000E+00  0.0000000000E+00  5.0224514685E+00
                      -2.8830826679E+00  4.9936456632E+00 -5.5760412604E-16
                       5.7661653358E+00  0.0000000000E+00 -5.5760412604E-16
                       2.8830826679E+00  4.9936456632E+00 -5.5760412604E-16
                      -1.3322676296E-15  6.6581942176E+00  7.1906939920E+00
                       5.7661653358E+00  3.3290971088E+00  2.8542089450E+00
             xred      0.0000000000E+00  0.0000000000E+00  5.0000000000E-01
                       0.0000000000E+00  5.0000000000E-01 -5.5511151231E-17
                       5.0000000000E-01  0.0000000000E+00 -5.5511151231E-17
                       5.0000000000E-01  5.0000000000E-01 -5.5511151231E-17
                       3.3333333333E-01  6.6666666667E-01  7.1585500000E-01
                       6.6666666667E-01  3.3333333333E-01  2.8414500000E-01
            znucl       55.00000   79.00000   16.00000

 chkinp: Checking input parameters for consistency.

== DATASET  1 ==================================================================
-   mpi_nproc: 1, omp_nthreads: -1 (-1 if OMP is not activated)

--- !DatasetInfo
iteration_state: {dtset: 1, }
dimensions: {natom: 6, nkpt: 2, mband: 48, nsppol: 1, nspinor: 1, nspden: 1, mpw: 12944, }
cutoff_energies: {ecut:  38.0, pawecutdg:  -1.0, }
electrons: {nelect:   7.80000000E+01, charge:   0.00000000E+00, occopt:   1.00000000E+00, tsmear:   1.00000000E-02, }
meta: {optdriver: 1, rfelfd: 2, }
...

 Real(R)+Recip(G) space primitive vectors, cartesian coordinates (Bohr,Bohr^-1):
 R(1)= 11.5323307  0.0000000  0.0000000  G(1)=  0.0867127  0.0500636  0.0000000
 R(2)= -5.7661653  9.9872913  0.0000000  G(2)=  0.0000000  0.1001272  0.0000000
 R(3)=  0.0000000  0.0000000 10.0449029  G(3)=  0.0000000  0.0000000  0.0995530
 Unit cell volume ucvol=  1.1569392E+03 bohr^3
 Angles (23,13,12)=  9.00000000E+01  9.00000000E+01  1.20000000E+02 degrees

 getcut: wavevector=  0.0000  0.0000  0.0000  ngfft=  72  72  60
         ecut(hartree)=     38.000   => boxcut(ratio)=   2.15253

--- Pseudopotential description ------------------------------------------------
- pspini: atom type   1  psp file is /scratch/users/j/a/jabreu/pseudos/PBEsol/Cs.psp8
- pspatm: opening atomic psp file    /scratch/users/j/a/jabreu/pseudos/PBEsol/Cs.psp8
- Cs    ONCVPSP-3.3.0  r_core=   2.27353   1.85623   2.01788   1.90105
- 55.00000   9.00000    180112                znucl, zion, pspdat
    8 -116133    3    4       600   0.00000   pspcod,pspxc,lmax,lloc,mmax,r2well
    5.99000000000000    5.00000000000000    0.00000000000000   rchrg,fchrg,qchrg
     nproj     2     2     2     2
     extension_switch     1
  pspatm : epsatm=   22.12462445
         --- l  ekb(1:nproj) -->
             0    6.214110    0.767882
             1    6.311966    0.793598
             2    3.769790    0.913105
             3   -9.247129   -2.432478
 pspatm: atomic psp has been read  and splines computed

- pspini: atom type   2  psp file is /scratch/users/j/a/jabreu/pseudos/PBEsol/Au.psp8
- pspatm: opening atomic psp file    /scratch/users/j/a/jabreu/pseudos/PBEsol/Au.psp8
- Au    ONCVPSP-3.3.0  r_core=   1.45604   1.56407   1.56407   1.60183
- 79.00000  19.00000    180112                znucl, zion, pspdat
    8 -116133    3    4       500   0.00000   pspcod,pspxc,lmax,lloc,mmax,r2well
    4.99000000000000    5.00000000000000    0.00000000000000   rchrg,fchrg,qchrg
     nproj     2     2     2     1
     extension_switch     1
  pspatm : epsatm=   32.21965837
         --- l  ekb(1:nproj) -->
             0    9.413866   -0.196587
             1    2.474292   -1.517497
             2    1.503483    0.298081
             3    1.177996
 pspatm: atomic psp has been read  and splines computed

- pspini: atom type   3  psp file is /scratch/users/j/a/jabreu/pseudos/PBEsol/S.psp8
- pspatm: opening atomic psp file    /scratch/users/j/a/jabreu/pseudos/PBEsol/S.psp8
- S     ONCVPSP-3.3.0  r_core=   1.45376   1.45376   1.61851
- 16.00000   6.00000    180112                znucl, zion, pspdat
    8 -116133    2    4       600   0.00000   pspcod,pspxc,lmax,lloc,mmax,r2well
    5.99000000000000    6.00000000000000    0.00000000000000   rchrg,fchrg,qchrg
     nproj     2     2     2
     extension_switch     1
  pspatm : epsatm=    8.71840985
         --- l  ekb(1:nproj) -->
             0    6.834532    0.579453
             1    3.282851    0.896984
             2   -3.496974   -0.974265
 pspatm: atomic psp has been read  and splines computed

   1.06251927E+04                                ecore*ucvol(ha*bohr**3)

-inwffil : will read wavefunctions from disk file /scratch/users/j/a/jabreu/flow_simple_6atoms/flow/w195/t1/indata/in_WFK

 ==>  initialize data related to q vector <==

 The list of irreducible perturbations for this q vector is:
    1)    idir= 1    ipert=   7
    2)    idir= 2    ipert=   7
    3)    idir= 3    ipert=   7

 Perturbation wavevector (in red.coord.)   0.000000  0.000000  0.000000
 Perturbation : derivative vs k along direction   1

 dfpt_looppert : COMMENT -
  In a d/dk calculation, iscf is set to -3 automatically.
 The set of symmetries contains only one element for this perturbation.
 symkpt : not enough symmetry to change the number of k points.

[...]

 Initialisation of the first-order wave-functions :
  ireadwf=   0

--- !BeginCycle
iteration_state: {dtset: 1, }
solver: {iscf: 7, nstep: 1000, nline: 4, wfoptalg: 0, }
tolerances: {tolwfr: 1.00E-20, }
...

     iter   2DEtotal(Ha)        deltaE(Ha) residm    vres2
-ETOT  1  -34.085735886051     -3.409E+01 3.568E-02 0.000E+00
 ETOT  2  -34.115934649435     -3.020E-02 1.813E-03 0.000E+00
 ETOT  3  -34.116246131248     -3.115E-04 9.197E-05 0.000E+00
 ETOT  4  -34.116257046003     -1.091E-05 1.361E-05 0.000E+00
 ETOT  5  -34.116257648436     -6.024E-07 1.688E-06 0.000E+00
 ETOT  6  -34.116257688029     -3.959E-08 2.371E-07 0.000E+00
 ETOT  7  -34.116257690786     -2.756E-09 3.308E-08 0.000E+00
 ETOT  8  -34.116257690984     -1.985E-10 4.496E-09 0.000E+00
 ETOT  9  -34.116257690999     -1.459E-11 6.998E-10 0.000E+00
 ETOT 10  -34.116257691000     -1.108E-12 9.221E-11 0.000E+00
 ETOT 11  -34.116257691000     -1.137E-13 1.653E-11 0.000E+00
 ETOT 12  -34.116257691000      3.553E-14 2.317E-12 0.000E+00
 ETOT 13  -34.116257691000      0.000E+00 4.296E-13 0.000E+00
 ETOT 14  -34.116257691000      4.974E-14 5.986E-14 0.000E+00
 ETOT 15  -34.116257691000     -2.842E-14 1.127E-14 0.000E+00
[...]
 ETOT 23  -34.116257691000      0.000E+00 9.973E-21 0.000E+00

 At SCF step   23   max residual=  9.97E-21 < tolwfr=  1.00E-20 =>converged.

 ----iterations are completed or convergence reached----

 dfpt_looppert: DFPT cycle converged with prtwf=-1. Will skip output of the 1st-order WFK file.
 dfpt_looppert : ek2=    6.1743166491E+01
          f-sum rule ratio=    1.0578189644E+00
 prteigrs : about to open file /scratch/users/j/a/jabreu/flow_simple_6atoms/flow/w195/t1/tmpdata/tmp_1WF1_EIG
 Expectation of eigenvalue derivatives (hartree) for nkpt=   2  k points:
  (in case of degenerate eigenvalues, averaged derivative)
 kpt#   1, nband= 48, wtk=  0.50000, kpt=  0.0000  0.0000  0.5000 (reduced coord)
   0.00000    0.00000    0.00000    0.00000    0.00000    0.00000    0.00000    0.00000
  -0.00000    0.00000    0.00000    0.00000    0.00000    0.00000   -0.00000   -0.00000
  -0.00000   -0.00000   -0.00000   -0.00000   -0.00000   -0.00000   -0.00000    0.00000
   0.00000   -0.00000   -0.00000   -0.00000   -0.00000   -0.00000    0.00000    0.00000
  -0.00000    0.00000    0.00000    0.00000    0.00000    0.00000    0.00000    0.00000
   0.00000   -0.00000    0.00000    0.00000    0.00000   -0.00000    0.00000    0.00000
 prteigrs : prtvol=0 or 1, do not print more k-points.

 Eight components of 2nd-order total energy (hartree) are
 1,2,3: 0th-order hamiltonian combined with 1st-order wavefunctions
     kin0=   4.66740669E+01 eigvalue=   3.96616383E-02  local=  -2.53676282E+01
 4,5,6: 1st-order hamiltonian combined with 1st and 0th-order wfs
     kin1=  -6.53130924E+01  Hartree=   0.00000000E+00     xc=   0.00000000E+00
 7,8,9: eventually, occupation + non-local contributions
    edocc=   9.87964103E+00     enl0=   2.89051639E+00   enl1=  -2.91942294E+00
 1-9 gives the relaxation energy (to be shifted if some occ is /=2.0)
   erelax=  -3.41162577E+01
  No Ewald or frozen-wf contrib.: the relaxation energy is the total one
 2DEtotal=   -0.3411625769E+02 Ha. Also 2DEtotal=   -0.928350583896E+03 eV
    (  non-var. 2DEtotal :   -3.4116257691E+01 Ha)

 Perturbation wavevector (in red.coord.)   0.000000  0.000000  0.000000
 Perturbation : derivative vs k along direction   2
 The set of symmetries contains only one element for this perturbation.
 symkpt : not enough symmetry to change the number of k points.

[...]

 Perturbation wavevector (in red.coord.)   0.000000  0.000000  0.000000
 Perturbation : derivative vs k along direction   3
 The set of symmetries contains only one element for this perturbation.
 symkpt : not enough symmetry to change the number of k points.

-inwffil : will read wavefunctions from disk file /scratch/users/j/a/jabreu/flow_simple_6atoms/flow/w195/t1/indata/in_WFK

 Initialisation of the first-order wave-functions :
  ireadwf=   0

--- !BeginCycle
iteration_state: {dtset: 1, }
solver: {iscf: 7, nstep: 1000, nline: 4, wfoptalg: 0, }
tolerances: {tolwfr: 1.00E-20, }
...

     iter   2DEtotal(Ha)        deltaE(Ha) residm    vres2
-ETOT  1  -32.328557122545     -3.233E+01 2.314E-02 0.000E+00
 ETOT  2  -32.351746306344     -2.319E-02 8.246E-04 0.000E+00
 ETOT  3  -32.351941869292     -1.956E-04 8.310E-05 0.000E+00
 ETOT  4  -32.351949164188     -7.295E-06 4.774E-06 0.000E+00
 ETOT  5  -32.351949618580     -4.544E-07 1.032E-06 0.000E+00
 ETOT  6  -32.351949652185     -3.360E-08 5.868E-08 0.000E+00
 ETOT  7  -32.351949654825     -2.640E-09 1.564E-08 0.000E+00
 ETOT  8  -32.351949655047     -2.217E-10 8.286E-10 0.000E+00
 ETOT  9  -32.351949655066     -1.896E-11 2.261E-10 0.000E+00
 ETOT 10  -32.351949655067     -1.634E-12 1.192E-11 0.000E+00
 ETOT 11  -32.351949655067     -1.705E-13 3.162E-12 0.000E+00
 ETOT 12  -32.351949655067      7.105E-15 1.689E-13 0.000E+00
 ETOT 13  -32.351949655067     -1.421E-14 4.639E-14 0.000E+00
 ETOT 14  -32.351949655067     -1.421E-14 2.816E-15 0.000E+00
 ETOT 15  -32.351949655067      2.842E-14 8.263E-16 0.000E+00
 ETOT 16  -32.351949655067     -1.421E-14 4.977E-17 0.000E+00
 ETOT 17  -32.351949655067      7.105E-15 1.493E-17 0.000E+00
 ETOT 18  -32.351949655067      7.105E-15 8.874E-19 0.000E+00
 ETOT 19  -32.351949655067     -1.421E-14 2.720E-19 0.000E+00
 ETOT 20  -32.351949655067      7.105E-15 1.594E-20 0.000E+00
 ETOT 21  -32.351949655067      0.000E+00 9.939E-21 0.000E+00

 At SCF step   21   max residual=  9.94E-21 < tolwfr=  1.00E-20 =>converged.

 ----iterations are completed or convergence reached----

 dfpt_looppert: DFPT cycle converged with prtwf=-1. Will skip output of the 1st-order WFK file.
 dfpt_looppert : ek2=    6.1036953099E+01
          f-sum rule ratio=    1.0127281930E+00
 prteigrs : about to open file /scratch/users/j/a/jabreu/flow_simple_6atoms/flow/w195/t1/tmpdata/tmp_1WF1_EIG
 Expectation of eigenvalue derivatives (hartree) for nkpt=   2  k points:
  (in case of degenerate eigenvalues, averaged derivative)
 kpt#   1, nband= 48, wtk=  0.50000, kpt=  0.0000  0.0000  0.5000 (reduced coord)
  -0.00000    0.00000    0.00000    0.00000   -0.00000   -0.00000    0.00000    0.00000
  -0.00000   -0.00000   -0.00000   -0.00000   -0.00000   -0.00000    0.00000   -0.00000
  -0.00000   -0.00000   -0.00000   -0.00000    0.00000   -0.00000   -0.00000    0.00000
   0.00000   -0.00000    0.00000    0.00000   -0.00000   -0.00000    0.00000    0.00000
   0.00000   -0.00000    0.00000    0.00000    0.00000   -0.00000   -0.00000    0.00000
   0.00000   -0.00000   -0.00000   -0.00000    0.00000   -0.00000    0.00000    0.00000
 prteigrs : prtvol=0 or 1, do not print more k-points.

 Eight components of 2nd-order total energy (hartree) are
 1,2,3: 0th-order hamiltonian combined with 1st-order wavefunctions
     kin0=   4.70842784E+01 eigvalue=   2.84112251E-01  local=  -2.59538028E+01
 4,5,6: 1st-order hamiltonian combined with 1st and 0th-order wfs
     kin1=  -6.18138432E+01  Hartree=   0.00000000E+00     xc=   0.00000000E+00
 7,8,9: eventually, occupation + non-local contributions
    edocc=   7.62464600E+00     enl0=   3.31271589E+00   enl1=  -2.89005609E+00
 1-9 gives the relaxation energy (to be shifted if some occ is /=2.0)
   erelax=  -3.23519497E+01
  No Ewald or frozen-wf contrib.: the relaxation energy is the total one
 2DEtotal=   -0.3235194966E+02 Ha. Also 2DEtotal=   -0.880341320683E+03 eV
    (  non-var. 2DEtotal :   -3.2351949655E+01 Ha)

 CALCULATION OF EFFECTIVE MASSES
 NOTE : Additional infos (eff. mass eigenvalues, eigenvectors and, if degenerate, average mass) are available in stdout.

 COMMENTS:
 - At k-point ( 0.000, 0.000, 0.500), bands    38 through    39
   are DEGENERATE (effective mass tensor is therefore not defined).
   See Section IIIB Eqs. (67)-(70) and Appendix E of PRB 93 205147 (2016).
 - Angular average effective mass for Frohlich model is to be averaged over degenerate bands. See later.
 - Associated theta integrals calculated with ntheta=   1000 points.

 K-point ( 0.000, 0.000, 0.500) | band =    38
 Transport equivalent effective mass tensor:
             -0.2614339464              0.0000000000             -0.0000000000
              0.0000000000             -0.2614342790              0.0000000518
             -0.0000000000              0.0000000518             -1.1177382573
 Transport equivalent effective mass tensor eigenvalues:
             -1.1177382573             -0.2614342790             -0.2614339464
 Angular average effective mass 1/(<1/m>)=  -0.3240561373
 Angular average effective mass for Frohlich model (<m**0.5>)**2=  -0.3559460434
 Effective masses along directions: (cart. coord. / red. coord. -> eff. mass)
    1:   1.000000  0.000000  0.000000 /   0.894427 -0.447214  0.000000 ->  -0.2464881777
    2:   0.000000  1.000000  0.000000 /   0.000000  1.000000  0.000000 ->  -0.2464881778
    3:   0.000000  0.000000  1.000000 /   0.000000  0.000000  1.000000 ->  -1.3301124762
    4:   0.577350  0.577350  0.577350 /   0.726883  0.266058  0.633131 ->  -0.2929057879
    5:   0.000000  0.707107  0.707107 /   0.000000  0.705070  0.709137 ->  -0.4663053116
    6:   0.707107  0.000000  0.707107 /   0.705578 -0.352789  0.614573 ->  -0.3706811267
    7:   0.707107  0.707107  0.000000 /   0.939071  0.343724  0.000000 ->  -0.2464881778

 K-point ( 0.000, 0.000, 0.500) | band =    39
 Transport equivalent effective mass tensor:
             -0.6040217090              0.0000000000              0.0000000000
              0.0000000000             -0.6040210968             -0.0000002780
              0.0000000000             -0.0000002780             -2.5923925837
 Transport equivalent effective mass tensor eigenvalues:
             -2.5923925837             -0.6040217090             -0.6040210968
 Angular average effective mass 1/(<1/m>)=  -0.5844644561
 Angular average effective mass for Frohlich model (<m**0.5>)**2=  -0.6726652723
 Effective masses along directions: (cart. coord. / red. coord. -> eff. mass)
    1:   1.000000  0.000000  0.000000 /   0.894427 -0.447214  0.000000 ->  -0.4190282670
    2:   0.000000  1.000000  0.000000 /   0.000000  1.000000  0.000000 ->  -0.4190282670
    3:   0.000000  0.000000  1.000000 /   0.000000  0.000000  1.000000 ->  -1.3301124762
    4:   0.577350  0.577350  0.577350 /   0.726883  0.266058  0.633131 ->  -0.7231776682
    5:   0.000000  0.707107  0.707107 /   0.000000  0.705070  0.709137 ->  -0.5467378336
    6:   0.707107  0.000000  0.707107 /   0.705578 -0.352789  0.614573 ->  -0.7838149057
    7:   0.707107  0.707107  0.000000 /   0.939071  0.343724  0.000000 ->  -0.4190282670

 Angular average effective mass for Frohlich model, averaged over degenerate bands.
 Value of     (<<m**0.5>>)**2 =     5.018121E-01
 Absolute Value of <<m**0.5>> =     7.083869E-01

 K-point ( 0.500, 0.000, 0.000) | band =    40
 Effective mass tensor:
              0.5960082665              0.2288893179             -0.1568535253
              0.2288893179              0.3316974611             -0.0905594968
             -0.1568535253             -0.0905594968              0.4920708525
 Effective mass tensor eigenvalues:
              0.1995511984              0.3939231295              0.8263022522
 Angular average effective mass 1/(<1/m>)=   0.3424648726
 Angular average effective mass for Frohlich model (<m**0.5>)**2=   0.3761618420
 Effective masses along directions: (cart. coord. / red. coord. -> eff. mass)
    1:   1.000000  0.000000  0.000000 /   0.894427 -0.447214  0.000000 ->   0.4190093030
    2:   0.000000  1.000000  0.000000 /   0.000000  1.000000  0.000000 ->   0.2417558926
    3:   0.000000  0.000000  1.000000 /   0.000000  0.000000  1.000000 ->   0.4470199058
    4:   0.577350  0.577350  0.577350 /   0.726883  0.266058  0.633131 ->   0.4138148714
    5:   0.000000  0.707107  0.707107 /   0.000000  0.705070  0.709137 ->   0.2886044143
    6:   0.707107  0.000000  0.707107 /   0.705578 -0.352789  0.614573 ->   0.3579498744
    7:   0.707107  0.707107  0.000000 /   0.939071  0.343724  0.000000 ->   0.5726777082

 END OF EFFECTIVE MASSES SECTION

 ---- first-order wavefunction calculations are completed ----

 Total localisation tensor (bohr^2) in cartesian coordinates
  WARNING : still subject to testing - especially symmetries.
      direction              matrix element
   alpha     beta       real part   imaginary part
     1        1       2.3800192760    0.0000000000
     1        2      -0.9224849794    0.0000000000
     1        3       0.0000000000    0.0000000000
     2        1      -0.9224849794    0.0000000000
     2        2       1.5977908536    0.0000000000
     2        3       0.0000000000    0.0000000000
     3        1       0.0000000000    0.0000000000
     3        2       0.0000000000    0.0000000000
     3        3       0.9468876038    0.0000000000

 respfn : d/dk was computed, but no 2DTE, so no DDB output.

== END DATASET(S) ==============================================================

 -outvars: echo values of variables after computation  --------
            acell      1.0000000000E+00  1.0000000000E+00  1.0000000000E+00 Bohr
              amu      1.32905430E+02  1.96966540E+02  3.20660000E+01
             ecut      3.80000000E+01 Hartree
           etotal     -3.2351949655E+01
            fcart      0.0000000000E+00  0.0000000000E+00  0.0000000000E+00
                       0.0000000000E+00  0.0000000000E+00  0.0000000000E+00
                       0.0000000000E+00  0.0000000000E+00  0.0000000000E+00
                       0.0000000000E+00  0.0000000000E+00  0.0000000000E+00
                       0.0000000000E+00  0.0000000000E+00  0.0000000000E+00
                       0.0000000000E+00  0.0000000000E+00  0.0000000000E+00
-          fftalg         512
           irdden           1
           irdwfk           1
           istwfk        1    1
              ixc     -116133
              kpt      0.00000000E+00  0.00000000E+00  5.00000000E-01
                       5.00000000E-01  0.00000000E+00  0.00000000E+00
           kptopt           0
P           mkmem           2
P          mkqmem           2
P          mk1mem           2
            natom           6
            nband          48
           nbdbuf           4
            ngfft          72      72      60
             nkpt           2
            nstep        1000
             nsym          12
           ntypat           3
              occ      2.000000  2.000000  2.000000  2.000000  2.000000  2.000000
                       2.000000  2.000000  2.000000  2.000000  2.000000  2.000000
                       2.000000  2.000000  2.000000  2.000000  2.000000  2.000000
                       2.000000  2.000000  2.000000  2.000000  2.000000  2.000000
                       2.000000  2.000000  2.000000  2.000000  2.000000  2.000000
                       2.000000  2.000000  2.000000  2.000000  2.000000  2.000000
                       2.000000  2.000000  2.000000  0.000000  0.000000  0.000000
                       0.000000  0.000000  0.000000  0.000000  0.000000  0.000000
        optdriver           1
            prtwf          -1
            rfdir           1       1       1
           rfelfd           2
            rprim      1.1532330672E+01  0.0000000000E+00  0.0000000000E+00
                      -5.7661653358E+00  9.9872913264E+00  0.0000000000E+00
                       0.0000000000E+00  0.0000000000E+00  1.0044902937E+01
          spgroup         164
           strten      0.0000000000E+00  0.0000000000E+00  0.0000000000E+00
                       0.0000000000E+00  0.0000000000E+00  0.0000000000E+00
           symrel      1  0  0   0  1  0   0  0  1      -1  0  0   0 -1  0   0  0 -1
                      -1  0  0   1  1  0   0  0  1       1  0  0  -1 -1  0   0  0 -1
                       0  1  0  -1 -1  0   0  0  1       0 -1  0   1  1  0   0  0 -1
                       0 -1  0  -1  0  0   0  0  1       0  1  0   1  0  0   0  0 -1
                      -1 -1  0   1  0  0   0  0  1       1  1  0  -1  0  0   0  0 -1
                       1  1  0   0 -1  0   0  0  1      -1 -1  0   0  1  0   0  0 -1
           tolwfr      1.00000000E-20
            typat      1  2  2  2  3  3
           useylm           1
              wtk        0.50000    0.50000
           xangst      0.0000000000E+00  0.0000000000E+00  2.6577668484E+00
                      -1.5256616383E+00  2.6425234727E+00 -2.9507139492E-16
                       3.0513232767E+00  0.0000000000E+00 -2.9507139492E-16
                       1.5256616383E+00  2.6425234727E+00 -2.9507139492E-16
                      -7.0500566530E-16  3.5233646303E+00  3.8051513745E+00
                       3.0513232767E+00  1.7616823152E+00  1.5103823223E+00
            xcart      0.0000000000E+00  0.0000000000E+00  5.0224514685E+00
                      -2.8830826679E+00  4.9936456632E+00 -5.5760412604E-16
                       5.7661653358E+00  0.0000000000E+00 -5.5760412604E-16
                       2.8830826679E+00  4.9936456632E+00 -5.5760412604E-16
                      -1.3322676296E-15  6.6581942176E+00  7.1906939920E+00
                       5.7661653358E+00  3.3290971088E+00  2.8542089450E+00
             xred      0.0000000000E+00  0.0000000000E+00  5.0000000000E-01
                       0.0000000000E+00  5.0000000000E-01 -5.5511151231E-17
                       5.0000000000E-01  0.0000000000E+00 -5.5511151231E-17
                       5.0000000000E-01  5.0000000000E-01 -5.5511151231E-17
                       3.3333333333E-01  6.6666666667E-01  7.1585500000E-01
                       6.6666666667E-01  3.3333333333E-01  2.8414500000E-01
            znucl       55.00000   79.00000   16.00000

- Timing analysis has been suppressed with timopt=0

 Suggested references for the acknowledgment of ABINIT usage.

 Calculation completed.
.Delivered  14 WARNINGs and   9 COMMENTs to log file.