.Version 9.5.1 of ABINIT

 ABINIT is a project of the Universite Catholique de Louvain,
 Corning Inc. and other collaborators, see ~abinit/doc/developers/contributors.txt .
 acknowledgments of the ABINIT effort.

.Starting date : Tue 27 Apr 2021.
- ( at 15h32 )

- input  file    -> /scratch/users/j/a/jabreu/flow_simple/flow/w148/t1/run.abi
- output file    -> /scratch/users/j/a/jabreu/flow_simple/flow/w148/t1/run.abo
- root for input  files -> /scratch/users/j/a/jabreu/flow_simple/flow/w148/t1/indata/in
- root for output files -> /scratch/users/j/a/jabreu/flow_simple/flow/w148/t1/outdata/out

 Symmetries : space group Fm -3 m (#225); Bravais cF (face-center cubic)
     intxc =       0      iscf =       7    lmnmax =      18     lnmax =       6
     mgfft =      54  mpssoang =       3    mqgrid =    3001     natom =       3
  nloc_mem =       1    nspden =       1   nspinor =       1    nsppol =       1
      nsym =      48    n1xccc =    2501    ntypat =       2    occopt =       1
   xclevel =       2
-    mband =          21        mffmem =           1         mkmem =           2
-   mkqmem =           2        mk1mem =           2           mpw =        5962
      nfft =      157464          nkpt =           2
  Rough estimation (10% accuracy) of disk space for files :

------------- Echo of variables that govern the present computation ------------
-
- outvars: echo of selected default values
-   iomode0 =  0 , fftalg0 =512 , wfoptalg0 =  0
-
- outvars: echo of global parameters not present in the input file
-  max_nthreads =    0
-
 -outvars: echo values of preprocessed input variables --------
            acell      1.0000000000E+00  1.0000000000E+00  1.0000000000E+00 Bohr
              amu      3.90983000E+01  1.59994000E+01
             ecut      4.40000000E+01 Hartree
-          fftalg         512
           irdden           1
           irdwfk           1
           istwfk        1    1
              ixc     -116133
              kpt      5.00000000E-01 -6.16297582E-33  5.00000000E-01
                       0.00000000E+00  0.00000000E+00  0.00000000E+00
           kptopt           0
P           mkmem           2
P          mkqmem           2
P          mk1mem           2
            natom           3
            nband          21
           nbdbuf           4
            ngfft          54      54      54
             nkpt           2
            nstep         100
             nsym          48
           ntypat           2
              occ      2.000000  2.000000  2.000000  2.000000  2.000000  2.000000
                       2.000000  2.000000  2.000000  2.000000  2.000000  2.000000
                       0.000000  0.000000  0.000000  0.000000  0.000000  0.000000
                       0.000000  0.000000  0.000000
        optdriver           1
            prtwf          -1
            rfdir           1       1       1
           rfelfd           2
            rprim      7.3268183787E+00  0.0000000000E+00  4.2301405633E+00
                       2.4422727929E+00  6.9077906135E+00  4.2301405633E+00
                       0.0000000000E+00  0.0000000000E+00  8.4602811265E+00
          spgroup         225
           symrel      1  0  0   0  1  0   0  0  1      -1  0  0   0 -1  0   0  0 -1
                       0 -1  1   0 -1  0   1 -1  0       0  1 -1   0  1  0  -1  1  0
                      -1  0  0  -1  0  1  -1  1  0       1  0  0   1  0 -1   1 -1  0
                       0  1 -1   1  0 -1   0  0 -1       0 -1  1  -1  0  1   0  0  1
                      -1  0  0  -1  1  0  -1  0  1       1  0  0   1 -1  0   1  0 -1
                       0 -1  1   1 -1  0   0 -1  0       0  1 -1  -1  1  0   0  1  0
                       1  0  0   0  0  1   0  1  0      -1  0  0   0  0 -1   0 -1  0
                       0  1 -1   0  0 -1   1  0 -1       0 -1  1   0  0  1  -1  0  1
                      -1  0  1  -1  1  0  -1  0  0       1  0 -1   1 -1  0   1  0  0
                       0 -1  0   1 -1  0   0 -1  1       0  1  0  -1  1  0   0  1 -1
                       1  0 -1   0  0 -1   0  1 -1      -1  0  1   0  0  1   0 -1  1
                       0  1  0   0  0  1   1  0  0       0 -1  0   0  0 -1  -1  0  0
                       1  0 -1   0  1 -1   0  0 -1      -1  0  1   0 -1  1   0  0  1
                       0 -1  0   0 -1  1   1 -1  0       0  1  0   0  1 -1  -1  1  0
                      -1  0  1  -1  0  0  -1  1  0       1  0 -1   1  0  0   1 -1  0
                       0  1  0   1  0  0   0  0  1       0 -1  0  -1  0  0   0  0 -1
                       0  0 -1   0  1 -1   1  0 -1       0  0  1   0 -1  1  -1  0  1
                       1 -1  0   0 -1  1   0 -1  0      -1  1  0   0  1 -1   0  1  0
                       0  0  1   1  0  0   0  1  0       0  0 -1  -1  0  0   0 -1  0
                      -1  1  0  -1  0  0  -1  0  1       1 -1  0   1  0  0   1  0 -1
                       0  0  1   0  1  0   1  0  0       0  0 -1   0 -1  0  -1  0  0
                       1 -1  0   0 -1  0   0 -1  1      -1  1  0   0  1  0   0  1 -1
                       0  0 -1   1  0 -1   0  1 -1       0  0  1  -1  0  1   0 -1  1
                      -1  1  0  -1  0  1  -1  0  0       1 -1  0   1  0 -1   1  0  0
           tolwfr      1.00000000E-20
            typat      1  1  2
           useylm           1
              wtk        0.50000    0.50000
           xangst      3.8771852975E+00  2.7415840158E+00  6.7154819257E+00
                       1.2923950992E+00  9.1386133859E-01  2.2384939752E+00
                       0.0000000000E+00  0.0000000000E+00  0.0000000000E+00
            xcart      7.3268183787E+00  5.1808429601E+00  1.2690421690E+01
                       2.4422727929E+00  1.7269476534E+00  4.2301405633E+00
                       0.0000000000E+00  0.0000000000E+00  0.0000000000E+00
             xred      7.5000000000E-01  7.5000000000E-01  7.5000000000E-01
                       2.5000000000E-01  2.5000000000E-01  2.5000000000E-01
                       0.0000000000E+00  0.0000000000E+00  0.0000000000E+00
            znucl       19.00000    8.00000

 chkinp: Checking input parameters for consistency.

== DATASET  1 ==================================================================
-   mpi_nproc: 1, omp_nthreads: -1 (-1 if OMP is not activated)

--- !DatasetInfo
iteration_state: {dtset: 1, }
dimensions: {natom: 3, nkpt: 2, mband: 21, nsppol: 1, nspinor: 1, nspden: 1, mpw: 5962, }
cutoff_energies: {ecut:  44.0, pawecutdg:  -1.0, }
electrons: {nelect:   2.40000000E+01, charge:   0.00000000E+00, occopt:   1.00000000E+00, tsmear:   1.00000000E-02, }
meta: {optdriver: 1, rfelfd: 2, }
...

 Real(R)+Recip(G) space primitive vectors, cartesian coordinates (Bohr,Bohr^-1):
 R(1)=  7.3268184  0.0000000  4.2301406  G(1)=  0.1364849 -0.0482547  0.0000000
 R(2)=  2.4422728  6.9077906  4.2301406  G(2)=  0.0000000  0.1447641  0.0000000
 R(3)=  0.0000000  0.0000000  8.4602811  G(3)= -0.0682424 -0.0482547  0.1181994
 Unit cell volume ucvol=  4.2819282E+02 bohr^3
 Angles (23,13,12)=  6.00000000E+01  6.00000000E+01  6.00000000E+01 degrees

 getcut: wavevector=  0.0000  0.0000  0.0000  ngfft=  54  54  54
         ecut(hartree)=     44.000   => boxcut(ratio)=   2.13829

--- Pseudopotential description ------------------------------------------------
- pspini: atom type   1  psp file is /scratch/users/j/a/jabreu/pseudos/PBEsol/K.psp8
- pspatm: opening atomic psp file    /scratch/users/j/a/jabreu/pseudos/PBEsol/K.psp8
- K     ONCVPSP-3.3.0  r_core=   1.36296   1.46408   1.61068
- 19.00000   9.00000    180112                znucl, zion, pspdat
    8 -116133    2    4       400   0.00000   pspcod,pspxc,lmax,lloc,mmax,r2well
    3.99000000000000    5.00000000000000    0.00000000000000   rchrg,fchrg,qchrg
     nproj     2     2     2
     extension_switch     1
  pspatm : epsatm=    8.32487830
         --- l  ekb(1:nproj) -->
             0   10.921326    0.816676
             1    4.431000    0.560368
             2   -3.384038   -1.043186
 pspatm: atomic psp has been read  and splines computed

- pspini: atom type   2  psp file is /scratch/users/j/a/jabreu/pseudos/PBEsol/O.psp8
- pspatm: opening atomic psp file    /scratch/users/j/a/jabreu/pseudos/PBEsol/O.psp8
- O     ONCVPSP-3.3.0  r_core=   1.35509   1.45563   1.26150
-  8.00000   6.00000    180112                znucl, zion, pspdat
    8 -116133    2    4       600   0.00000   pspcod,pspxc,lmax,lloc,mmax,r2well
    5.99000000000000    4.00000000000000    0.00000000000000   rchrg,fchrg,qchrg
     nproj     2     2     1
     extension_switch     1
  pspatm : epsatm=    6.22910522
         --- l  ekb(1:nproj) -->
             0    6.050032    0.820363
             1   -4.739617   -1.153841
             2   -1.335834
 pspatm: atomic psp has been read  and splines computed

   5.49092684E+02                                ecore*ucvol(ha*bohr**3)

-inwffil : will read wavefunctions from disk file /scratch/users/j/a/jabreu/flow_simple/flow/w148/t1/indata/in_WFK

 ==>  initialize data related to q vector <==

 The list of irreducible perturbations for this q vector is:
    1)    idir= 1    ipert=   4
    2)    idir= 2    ipert=   4
    3)    idir= 3    ipert=   4

 Perturbation wavevector (in red.coord.)   0.000000  0.000000  0.000000
 Perturbation : derivative vs k along direction   1

 dfpt_looppert : COMMENT -
  In a d/dk calculation, iscf is set to -3 automatically.
 The set of symmetries contains only one element for this perturbation.
 symkpt : not enough symmetry to change the number of k points.

[...]

 Initialisation of the first-order wave-functions :
  ireadwf=   0

--- !BeginCycle
iteration_state: {dtset: 1, }
solver: {iscf: 7, nstep: 100, nline: 4, wfoptalg: 0, }
tolerances: {tolwfr: 1.00E-20, }
...

     iter   2DEtotal(Ha)        deltaE(Ha) residm    vres2
-ETOT  1  -18.833374882855     -1.883E+01 3.276E-01 0.000E+00
 ETOT  2  -18.848263683510     -1.489E-02 6.023E-04 0.000E+00
 ETOT  3  -18.848349990451     -8.631E-05 9.812E-05 0.000E+00
 ETOT  4  -18.848350850803     -8.604E-07 5.393E-07 0.000E+00
 ETOT  5  -18.848350862709     -1.191E-08 9.628E-08 0.000E+00
 ETOT  6  -18.848350862896     -1.871E-10 6.669E-10 0.000E+00
 ETOT  7  -18.848350862899     -3.077E-12 1.191E-10 0.000E+00
 ETOT  8  -18.848350862899     -5.329E-14 1.003E-12 0.000E+00
 ETOT  9  -18.848350862899     -3.553E-15 1.598E-13 0.000E+00
 ETOT 10  -18.848350862899      7.105E-15 1.517E-15 0.000E+00
 ETOT 11  -18.848350862899     -7.105E-15 2.367E-16 0.000E+00
 ETOT 12  -18.848350862899      0.000E+00 2.456E-18 0.000E+00
 ETOT 13  -18.848350862899      0.000E+00 4.288E-19 0.000E+00
 ETOT 14  -18.848350862899      0.000E+00 9.841E-21 0.000E+00

 At SCF step   14   max residual=  9.84E-21 < tolwfr=  1.00E-20 =>converged.

 ----iterations are completed or convergence reached----

 dfpt_looppert: DFPT cycle converged with prtwf=-1. Will skip output of the 1st-order WFK file.
 dfpt_looppert : ek2=    3.9712080874E+01
          f-sum rule ratio=    1.0291585674E+00
 prteigrs : about to open file /scratch/users/j/a/jabreu/flow_simple/flow/w148/t1/tmpdata/tmp_1WF1_EIG
 Expectation of eigenvalue derivatives (hartree) for nkpt=   2  k points:
  (in case of degenerate eigenvalues, averaged derivative)
 kpt#   1, nband= 21, wtk=  0.50000, kpt=  0.5000  0.0000  0.5000 (reduced coord)
  -0.00000    0.00000    0.00000    0.00000    0.00000   -0.00000    0.00000    0.00000
   0.00000   -0.00000    0.00000    0.00000   -0.00000    0.00000   -0.00000   -0.00000
   0.00000    0.00000    0.00000    0.00000    0.00000
 prteigrs : prtvol=0 or 1, do not print more k-points.

 Eight components of 2nd-order total energy (hartree) are
 1,2,3: 0th-order hamiltonian combined with 1st-order wavefunctions
     kin0=   1.60026882E+01 eigvalue=   6.53227020E-01  local=  -7.67657026E+00
 4,5,6: 1st-order hamiltonian combined with 1st and 0th-order wfs
     kin1=  -4.08700283E+01  Hartree=   0.00000000E+00     xc=   0.00000000E+00
 7,8,9: eventually, occupation + non-local contributions
    edocc=   9.44045167E+00     enl0=   4.28554259E-01   enl1=   3.17332654E+00
 1-9 gives the relaxation energy (to be shifted if some occ is /=2.0)
   erelax=  -1.88483509E+01
  No Ewald or frozen-wf contrib.: the relaxation energy is the total one
 2DEtotal=   -0.1884835086E+02 Ha. Also 2DEtotal=   -0.512889710458E+03 eV
    (  non-var. 2DEtotal :   -1.8848350863E+01 Ha)

 Perturbation wavevector (in red.coord.)   0.000000  0.000000  0.000000
 Perturbation : derivative vs k along direction   2
 The set of symmetries contains only one element for this perturbation.
 symkpt : not enough symmetry to change the number of k points.

[...]

 Perturbation wavevector (in red.coord.)   0.000000  0.000000  0.000000
 Perturbation : derivative vs k along direction   3
 The set of symmetries contains only one element for this perturbation.
 symkpt : not enough symmetry to change the number of k points.

-inwffil : will read wavefunctions from disk file /scratch/users/j/a/jabreu/flow_simple/flow/w148/t1/indata/in_WFK

 Initialisation of the first-order wave-functions :
  ireadwf=   0

--- !BeginCycle
iteration_state: {dtset: 1, }
solver: {iscf: 7, nstep: 100, nline: 4, wfoptalg: 0, }
tolerances: {tolwfr: 1.00E-20, }
...

     iter   2DEtotal(Ha)        deltaE(Ha) residm    vres2
-ETOT  1  -18.833559805013     -1.883E+01 3.276E-01 0.000E+00
 ETOT  2  -18.848265510752     -1.471E-02 6.023E-04 0.000E+00
 ETOT  3  -18.848350577716     -8.507E-05 9.812E-05 0.000E+00
 ETOT  4  -18.848351432037     -8.543E-07 5.393E-07 0.000E+00
 ETOT  5  -18.848351443918     -1.188E-08 9.628E-08 0.000E+00
 ETOT  6  -18.848351444105     -1.870E-10 6.669E-10 0.000E+00
 ETOT  7  -18.848351444108     -3.102E-12 1.191E-10 0.000E+00
 ETOT  8  -18.848351444108     -4.619E-14 1.003E-12 0.000E+00
 ETOT  9  -18.848351444108     -1.066E-14 1.598E-13 0.000E+00
 ETOT 10  -18.848351444108      1.421E-14 1.517E-15 0.000E+00
 ETOT 11  -18.848351444108     -1.066E-14 2.367E-16 0.000E+00
 ETOT 12  -18.848351444108      0.000E+00 2.456E-18 0.000E+00
 ETOT 13  -18.848351444108      0.000E+00 4.288E-19 0.000E+00
 ETOT 14  -18.848351444108      3.553E-15 8.884E-21 0.000E+00

 At SCF step   14   max residual=  8.88E-21 < tolwfr=  1.00E-20 =>converged.

 ----iterations are completed or convergence reached----

 dfpt_looppert: DFPT cycle converged with prtwf=-1. Will skip output of the 1st-order WFK file.
 dfpt_looppert : ek2=    3.9712080874E+01
          f-sum rule ratio=    1.0291585725E+00
 prteigrs : about to open file /scratch/users/j/a/jabreu/flow_simple/flow/w148/t1/tmpdata/tmp_1WF1_EIG
 Expectation of eigenvalue derivatives (hartree) for nkpt=   2  k points:
  (in case of degenerate eigenvalues, averaged derivative)
 kpt#   1, nband= 21, wtk=  0.50000, kpt=  0.5000  0.0000  0.5000 (reduced coord)
  -0.00000    0.00000   -0.00000   -0.00000   -0.00000    0.00000   -0.00000   -0.00000
   0.00000    0.00000   -0.00000   -0.00000   -0.00000    0.00000    0.00000    0.00000
  -0.00000   -0.00000   -0.00000   -0.00000   -0.00000
 prteigrs : prtvol=0 or 1, do not print more k-points.

 Eight components of 2nd-order total energy (hartree) are
 1,2,3: 0th-order hamiltonian combined with 1st-order wavefunctions
     kin0=   1.60026874E+01 eigvalue=   6.53227008E-01  local=  -7.67656987E+00
 4,5,6: 1st-order hamiltonian combined with 1st and 0th-order wfs
     kin1=  -4.08700285E+01  Hartree=   0.00000000E+00     xc=   0.00000000E+00
 7,8,9: eventually, occupation + non-local contributions
    edocc=   9.44045230E+00     enl0=   4.28554603E-01   enl1=   3.17332557E+00
 1-9 gives the relaxation energy (to be shifted if some occ is /=2.0)
   erelax=  -1.88483514E+01
  No Ewald or frozen-wf contrib.: the relaxation energy is the total one
 2DEtotal=   -0.1884835144E+02 Ha. Also 2DEtotal=   -0.512889726274E+03 eV
    (  non-var. 2DEtotal :   -1.8848351444E+01 Ha)

 CALCULATION OF EFFECTIVE MASSES
 NOTE : Additional infos (eff. mass eigenvalues, eigenvectors and, if degenerate, average mass) are available in stdout.

 COMMENTS:
 - At k-point ( 0.500,-0.000, 0.500), bands    11 through    12
   are DEGENERATE (effective mass tensor is therefore not defined).
   See Section IIIB Eqs. (67)-(70) and Appendix E of PRB 93 205147 (2016).
 - Angular average effective mass for Frohlich model is to be averaged over degenerate bands. See later.
 - Associated theta integrals calculated with ntheta=   1000 points.

 K-point ( 0.500,-0.000, 0.500) | band =    11
 Transport equivalent effective mass tensor:
             -2.9451176839              0.1770515072             -0.2168429194
              0.1770515072             -3.0703119991              0.3066621879
             -0.2168429194              0.3066621879             -3.1955063018
 Transport equivalent effective mass tensor eigenvalues:
             -3.5710892580             -2.8199233669             -2.8199233600
 Angular average effective mass 1/(<1/m>)=  -2.8310362322
 Angular average effective mass for Frohlich model (<m**0.5>)**2=  -2.8516298322
 Effective masses along directions: (cart. coord. / red. coord. -> eff. mass)
    1:   1.000000  0.000000  0.000000 /   0.948683  0.316228  0.000000 ->  -2.8088412222
    2:   0.000000  1.000000  0.000000 /   0.000000  1.000000  0.000000 ->  -3.2082185788
    3:   0.000000  0.000000  1.000000 /   0.408248  0.408248  0.816497 ->  -2.7228020673
    4:   0.577350  0.577350  0.577350 /   0.585539  0.688047  0.428644 ->  -2.9383458897
    5:   0.000000  0.707107  0.707107 /   0.289489  0.762222  0.578977 ->  -2.6720662411
    6:   0.707107  0.000000  0.707107 /   0.731423  0.422287  0.535439 ->  -2.9525003740
    7:   0.707107  0.707107  0.000000 /   0.616798  0.787122  0.000000 ->  -2.3780583775

 K-point ( 0.500,-0.000, 0.500) | band =    12
 Transport equivalent effective mass tensor:
            -30.8070880294             -4.5051204189              5.5176229109
             -4.5051204189            -27.6214868287             -7.8030971767
              5.5176229109             -7.8030971767            -24.4358856670
 Transport equivalent effective mass tensor eigenvalues:
            -33.9926892271            -33.9926888872            -14.8790824108
 Angular average effective mass 1/(<1/m>)=  -6.3522703352
 Angular average effective mass for Frohlich model (<m**0.5>)**2=  -7.8350903658
 Effective masses along directions: (cart. coord. / red. coord. -> eff. mass)
    1:   1.000000  0.000000  0.000000 /   0.948683  0.316228  0.000000 ->  -7.7859077151
    2:   0.000000  1.000000  0.000000 /   0.000000  1.000000  0.000000 ->  -5.0263349017
    3:   0.000000  0.000000  1.000000 /   0.408248  0.408248  0.816497 ->  -5.8969711232
    4:   0.577350  0.577350  0.577350 /   0.585539  0.688047  0.428644 ->  -7.5133010026
    5:   0.000000  0.707107  0.707107 /   0.289489  0.762222  0.578977 -> -11.7176832981
    6:   0.707107  0.000000  0.707107 /   0.731423  0.422287  0.535439 ->  -4.6013419910
    7:   0.707107  0.707107  0.000000 /   0.616798  0.787122  0.000000 -> -25.0023240933

 Angular average effective mass for Frohlich model, averaged over degenerate bands.
 Value of     (<<m**0.5>>)**2 =     5.035087E+00
 Absolute Value of <<m**0.5>> =     2.243900E+00

 K-point ( 0.000, 0.000, 0.000) | band =    13
 Effective mass tensor:
              0.3894125864              0.0000000000             -0.0000000000
              0.0000000000              0.3894125864              0.0000000000
             -0.0000000000              0.0000000000              0.3894125865
 Effective mass tensor eigenvalues:
              0.3894125864              0.3894125864              0.3894125865
 Angular average effective mass 1/(<1/m>)=   0.3894125864
 Angular average effective mass for Frohlich model (<m**0.5>)**2=   0.3894125864
 Effective masses along directions: (cart. coord. / red. coord. -> eff. mass)
    1:   1.000000  0.000000  0.000000 /   0.948683  0.316228  0.000000 ->   0.3894125864
    2:   0.000000  1.000000  0.000000 /   0.000000  1.000000  0.000000 ->   0.3894125864
    3:   0.000000  0.000000  1.000000 /   0.408248  0.408248  0.816497 ->   0.3894125865
    4:   0.577350  0.577350  0.577350 /   0.585539  0.688047  0.428644 ->   0.3894125864
    5:   0.000000  0.707107  0.707107 /   0.289489  0.762222  0.578977 ->   0.3894125865
    6:   0.707107  0.000000  0.707107 /   0.731423  0.422287  0.535439 ->   0.3894125864
    7:   0.707107  0.707107  0.000000 /   0.616798  0.787122  0.000000 ->   0.3894125864

 END OF EFFECTIVE MASSES SECTION

 ---- first-order wavefunction calculations are completed ----

 Total localisation tensor (bohr^2) in cartesian coordinates
  WARNING : still subject to testing - especially symmetries.
      direction              matrix element
   alpha     beta       real part   imaginary part
     1        1       1.1155029338    0.0000000000
     1        2       0.3155118787    0.0000000000
     1        3       0.7728431042    0.0000000000
     2        1       0.3155118787    0.0000000000
     2        2       0.8924023559    0.0000000000
     2        3       0.5464826043    0.0000000000
     3        1       0.7728431042    0.0000000000
     3        2       0.5464826043    0.0000000000
     3        3       2.0079053319    0.0000000000

 respfn : d/dk was computed, but no 2DTE, so no DDB output.

== END DATASET(S) ==============================================================

 -outvars: echo values of variables after computation  --------
            acell      1.0000000000E+00  1.0000000000E+00  1.0000000000E+00 Bohr
              amu      3.90983000E+01  1.59994000E+01
             ecut      4.40000000E+01 Hartree
           etotal     -1.8848351444E+01
            fcart      0.0000000000E+00  0.0000000000E+00  0.0000000000E+00
                       0.0000000000E+00  0.0000000000E+00  0.0000000000E+00
                       0.0000000000E+00  0.0000000000E+00  0.0000000000E+00
-          fftalg         512
           irdden           1
           irdwfk           1
           istwfk        1    1
              ixc     -116133
              kpt      5.00000000E-01 -6.16297582E-33  5.00000000E-01
                       0.00000000E+00  0.00000000E+00  0.00000000E+00
           kptopt           0
P           mkmem           2
P          mkqmem           2
P          mk1mem           2
            natom           3
            nband          21
           nbdbuf           4
            ngfft          54      54      54
             nkpt           2
            nstep         100
             nsym          48
           ntypat           2
              occ      2.000000  2.000000  2.000000  2.000000  2.000000  2.000000
                       2.000000  2.000000  2.000000  2.000000  2.000000  2.000000
                       0.000000  0.000000  0.000000  0.000000  0.000000  0.000000
                       0.000000  0.000000  0.000000
        optdriver           1
            prtwf          -1
            rfdir           1       1       1
           rfelfd           2
            rprim      7.3268183787E+00  0.0000000000E+00  4.2301405633E+00
                       2.4422727929E+00  6.9077906135E+00  4.2301405633E+00
                       0.0000000000E+00  0.0000000000E+00  8.4602811265E+00
          spgroup         225
           strten      0.0000000000E+00  0.0000000000E+00  0.0000000000E+00
                       0.0000000000E+00  0.0000000000E+00  0.0000000000E+00
           symrel      1  0  0   0  1  0   0  0  1      -1  0  0   0 -1  0   0  0 -1
                       0 -1  1   0 -1  0   1 -1  0       0  1 -1   0  1  0  -1  1  0
                      -1  0  0  -1  0  1  -1  1  0       1  0  0   1  0 -1   1 -1  0
                       0  1 -1   1  0 -1   0  0 -1       0 -1  1  -1  0  1   0  0  1
                      -1  0  0  -1  1  0  -1  0  1       1  0  0   1 -1  0   1  0 -1
                       0 -1  1   1 -1  0   0 -1  0       0  1 -1  -1  1  0   0  1  0
                       1  0  0   0  0  1   0  1  0      -1  0  0   0  0 -1   0 -1  0
                       0  1 -1   0  0 -1   1  0 -1       0 -1  1   0  0  1  -1  0  1
                      -1  0  1  -1  1  0  -1  0  0       1  0 -1   1 -1  0   1  0  0
                       0 -1  0   1 -1  0   0 -1  1       0  1  0  -1  1  0   0  1 -1
                       1  0 -1   0  0 -1   0  1 -1      -1  0  1   0  0  1   0 -1  1
                       0  1  0   0  0  1   1  0  0       0 -1  0   0  0 -1  -1  0  0
                       1  0 -1   0  1 -1   0  0 -1      -1  0  1   0 -1  1   0  0  1
                       0 -1  0   0 -1  1   1 -1  0       0  1  0   0  1 -1  -1  1  0
                      -1  0  1  -1  0  0  -1  1  0       1  0 -1   1  0  0   1 -1  0
                       0  1  0   1  0  0   0  0  1       0 -1  0  -1  0  0   0  0 -1
                       0  0 -1   0  1 -1   1  0 -1       0  0  1   0 -1  1  -1  0  1
                       1 -1  0   0 -1  1   0 -1  0      -1  1  0   0  1 -1   0  1  0
                       0  0  1   1  0  0   0  1  0       0  0 -1  -1  0  0   0 -1  0
                      -1  1  0  -1  0  0  -1  0  1       1 -1  0   1  0  0   1  0 -1
                       0  0  1   0  1  0   1  0  0       0  0 -1   0 -1  0  -1  0  0
                       1 -1  0   0 -1  0   0 -1  1      -1  1  0   0  1  0   0  1 -1
                       0  0 -1   1  0 -1   0  1 -1       0  0  1  -1  0  1   0 -1  1
                      -1  1  0  -1  0  1  -1  0  0       1 -1  0   1  0 -1   1  0  0
           tolwfr      1.00000000E-20
            typat      1  1  2
           useylm           1
              wtk        0.50000    0.50000
           xangst      3.8771852975E+00  2.7415840158E+00  6.7154819257E+00
                       1.2923950992E+00  9.1386133859E-01  2.2384939752E+00
                       0.0000000000E+00  0.0000000000E+00  0.0000000000E+00
            xcart      7.3268183787E+00  5.1808429601E+00  1.2690421690E+01
                       2.4422727929E+00  1.7269476534E+00  4.2301405633E+00
                       0.0000000000E+00  0.0000000000E+00  0.0000000000E+00
             xred      7.5000000000E-01  7.5000000000E-01  7.5000000000E-01
                       2.5000000000E-01  2.5000000000E-01  2.5000000000E-01
                       0.0000000000E+00  0.0000000000E+00  0.0000000000E+00
            znucl       19.00000    8.00000

- Timing analysis has been suppressed with timopt=0

 Suggested references for the acknowledgment of ABINIT usage.

 Calculation completed.
.Delivered  14 WARNINGs and   9 COMMENTs to log file.