.Version 9.5.1 of ABINIT

 ABINIT is a project of the Universite Catholique de Louvain,
 Corning Inc. and other collaborators, see ~abinit/doc/developers/contributors.txt .
 acknowledgments of the ABINIT effort.

.Starting date : Tue 18 May 2021.
- ( at 13h19 )

- input  file    -> /scratch/users/j/a/jabreu/flow_simple_8atoms/flow/w275/t1/run.abi
- output file    -> /scratch/users/j/a/jabreu/flow_simple_8atoms/flow/w275/t1/run.abo
- root for input  files -> /scratch/users/j/a/jabreu/flow_simple_8atoms/flow/w275/t1/indata/in
- root for output files -> /scratch/users/j/a/jabreu/flow_simple_8atoms/flow/w275/t1/outdata/out

 Symmetries : space group R-3 m (#166); Bravais hR (rhombohedral)
     intxc =       0      iscf =       7    lmnmax =      25     lnmax =       7
     mgfft =      90  mpssoang =       4    mqgrid =    3001     natom =       8
  nloc_mem =       1    nspden =       1   nspinor =       1    nsppol =       1
      nsym =      12    n1xccc =    2501    ntypat =       3    occopt =       1
   xclevel =       2
-    mband =          66        mffmem =           1         mkmem =           2
-   mkqmem =           2        mk1mem =           2           mpw =       22408
      nfft =      729000          nkpt =           2
  Rough estimation (10% accuracy) of disk space for files :

------------- Echo of variables that govern the present computation ------------
-
- outvars: echo of selected default values
-   iomode0 =  0 , fftalg0 =512 , wfoptalg0 =  0
-
- outvars: echo of global parameters not present in the input file
-  max_nthreads =    0
-
 -outvars: echo values of preprocessed input variables --------
            acell      1.0000000000E+00  1.0000000000E+00  1.0000000000E+00 Bohr
              amu      8.54678000E+01  1.21753000E+02  1.96966540E+02
             ecut      4.20000000E+01 Hartree
-          fftalg         512
           irdden           1
           irdwfk           1
           istwfk        0    1
              ixc     -116133
              kpt      5.64646426E-01  4.35353574E-01  0.00000000E+00
                       5.00000000E-01  5.00000000E-01  5.00000000E-01
           kptopt           0
P           mkmem           2
P          mkqmem           2
P          mk1mem           2
            natom           8
            nband          66
           nbdbuf           4
            ngfft          90      90      90
             nkpt           2
            nstep        2000
             nsym          12
           ntypat           3
              occ      2.000000  2.000000  2.000000  2.000000  2.000000  2.000000
                       2.000000  2.000000  2.000000  2.000000  2.000000  2.000000
                       2.000000  2.000000  2.000000  2.000000  2.000000  2.000000
                       2.000000  2.000000  2.000000  2.000000  2.000000  2.000000
                       2.000000  2.000000  2.000000  2.000000  2.000000  2.000000
                       2.000000  2.000000  2.000000  2.000000  2.000000  2.000000
                       2.000000  2.000000  2.000000  2.000000  2.000000  2.000000
                       2.000000  2.000000  2.000000  2.000000  2.000000  2.000000
                       2.000000  2.000000  2.000000  2.000000  2.000000  2.000000
                       2.000000  2.000000  2.000000  0.000000  0.000000  0.000000
                       0.000000  0.000000  0.000000  0.000000  0.000000  0.000000
        optdriver           1
            prtwf          -1
            rfdir           1       1       1
           rfelfd           2
            rprim      1.1078313981E+01  0.0000000000E+00  1.0727811159E+01
                       4.5449454753E+00  1.0103094144E+01  1.0727811159E+01
                       0.0000000000E+00  0.0000000000E+00  1.5421250692E+01
          spgroup         166
           symrel      1  0  0   0  1  0   0  0  1      -1  0  0   0 -1  0   0  0 -1
                       0  1  0   1  0  0   0  0  1       0 -1  0  -1  0  0   0  0 -1
                       0  0  1   1  0  0   0  1  0       0  0 -1  -1  0  0   0 -1  0
                       1  0  0   0  0  1   0  1  0      -1  0  0   0  0 -1   0 -1  0
                       0  1  0   0  0  1   1  0  0       0 -1  0   0  0 -1  -1  0  0
                       0  0  1   0  1  0   1  0  0       0  0 -1   0 -1  0  -1  0  0
           tolwfr      1.00000000E-20
            typat      1  1  1  2  2  3  3  3
           useylm           1
              wtk        0.50000    0.50000
           xangst      4.1337364140E+00  2.6731635786E+00  9.7572003605E+00
                       7.5984193220E+00  4.9136702858E+00  1.7935178328E+01
                       6.6905350608E-01  4.3265687153E-01  1.5792223927E+00
                       2.0270768603E+00  1.3108499167E+00  4.7846773696E+00
                       6.2403959678E+00  4.0354772406E+00  1.4729723351E+01
                       2.9311956341E+00  0.0000000000E+00  6.9187437788E+00
                       1.2025407799E+00  2.6731635786E+00  6.9187437788E+00
                       4.1337364140E+00  2.6731635786E+00  5.6769131633E+00
            xcart      7.8116297281E+00  5.0515470720E+00  1.8438436505E+01
                       1.4358931561E+01  9.2854911474E+00  3.3892575185E+01
                       1.2643278947E+00  8.1760299671E-01  2.9842978252E+00
                       3.8306201163E+00  2.4771473439E+00  9.0417298627E+00
                       1.1792639340E+01  7.6259468002E+00  2.7835143147E+01
                       5.5391569904E+00  0.0000000000E+00  1.3074530926E+01
                       2.2724727376E+00  5.0515470720E+00  1.3074530926E+01
                       7.8116297281E+00  5.0515470720E+00  1.0727811159E+01
             xred      5.0000000000E-01  5.0000000000E-01  5.0000000000E-01
                       9.1907400000E-01  9.1907400000E-01  9.1907400000E-01
                       8.0926000000E-02  8.0926000000E-02  8.0926000000E-02
                       2.4518700000E-01  2.4518700000E-01  2.4518700000E-01
                       7.5481300000E-01  7.5481300000E-01  7.5481300000E-01
                       5.0000000000E-01  0.0000000000E+00  5.0000000000E-01
                       0.0000000000E+00  5.0000000000E-01  5.0000000000E-01
                       5.0000000000E-01  5.0000000000E-01 -1.6653345369E-16
            znucl       37.00000   51.00000   79.00000

 chkinp: Checking input parameters for consistency.

== DATASET  1 ==================================================================
-   mpi_nproc: 1, omp_nthreads: -1 (-1 if OMP is not activated)

--- !DatasetInfo
iteration_state: {dtset: 1, }
dimensions: {natom: 8, nkpt: 2, mband: 66, nsppol: 1, nspinor: 1, nspden: 1, mpw: 22408, }
cutoff_energies: {ecut:  42.0, pawecutdg:  -1.0, }
electrons: {nelect:   1.14000000E+02, charge:   0.00000000E+00, occopt:   1.00000000E+00, tsmear:   1.00000000E-02, }
meta: {optdriver: 1, rfelfd: 2, }
...

 Real(R)+Recip(G) space primitive vectors, cartesian coordinates (Bohr,Bohr^-1):
 R(1)= 11.0783140  0.0000000 10.7278112  G(1)=  0.0902664 -0.0406070  0.0000000
 R(2)=  4.5449455 10.1030941 10.7278112  G(2)=  0.0000000  0.0989796  0.0000000
 R(3)=  0.0000000  0.0000000 15.4212507  G(3)= -0.0627940 -0.0406070  0.0648456
 Unit cell volume ucvol=  1.7260273E+03 bohr^3
 Angles (23,13,12)=  4.59208698E+01  4.59208698E+01  4.59208698E+01 degrees

 getcut: wavevector=  0.0000  0.0000  0.0000  ngfft=  90  90  90
         ecut(hartree)=     42.000   => boxcut(ratio)=   2.00060

--- Pseudopotential description ------------------------------------------------
- pspini: atom type   1  psp file is /scratch/users/j/a/jabreu/pseudos/PBEsol/Rb.psp8
- pspatm: opening atomic psp file    /scratch/users/j/a/jabreu/pseudos/PBEsol/Rb.psp8
- Rb    ONCVPSP-3.3.0  r_core=   1.71227   1.75361   1.90633
- 37.00000   9.00000    180112                znucl, zion, pspdat
    8 -116133    2    4       600   0.00000   pspcod,pspxc,lmax,lloc,mmax,r2well
    5.99000000000000    7.00000000000000    0.00000000000000   rchrg,fchrg,qchrg
     nproj     2     2     2
     extension_switch     1
  pspatm : epsatm=   34.48400912
         --- l  ekb(1:nproj) -->
             0    8.196957   -0.477221
             1    3.231347   -0.378736
             2   -1.047201    0.996637
 pspatm: atomic psp has been read  and splines computed

- pspini: atom type   2  psp file is /scratch/users/j/a/jabreu/pseudos/PBEsol/Sb.psp8
- pspatm: opening atomic psp file    /scratch/users/j/a/jabreu/pseudos/PBEsol/Sb.psp8
- Sb    ONCVPSP-3.3.0  r_core=   1.81962   2.12485   1.81962
- 51.00000  15.00000    180112                znucl, zion, pspdat
    8 -116133    2    4       600   0.00000   pspcod,pspxc,lmax,lloc,mmax,r2well
    5.99000000000000    5.00000000000000    0.00000000000000   rchrg,fchrg,qchrg
     nproj     2     2     2
     extension_switch     1
  pspatm : epsatm=   26.35641246
         --- l  ekb(1:nproj) -->
             0    9.727814    1.485032
             1    5.505335    0.704623
             2   -4.710637   -1.436443
 pspatm: atomic psp has been read  and splines computed

- pspini: atom type   3  psp file is /scratch/users/j/a/jabreu/pseudos/PBEsol/Au.psp8
- pspatm: opening atomic psp file    /scratch/users/j/a/jabreu/pseudos/PBEsol/Au.psp8
- Au    ONCVPSP-3.3.0  r_core=   1.45604   1.56407   1.56407   1.60183
- 79.00000  19.00000    180112                znucl, zion, pspdat
    8 -116133    3    4       500   0.00000   pspcod,pspxc,lmax,lloc,mmax,r2well
    4.99000000000000    5.00000000000000    0.00000000000000   rchrg,fchrg,qchrg
     nproj     2     2     2     1
     extension_switch     1
  pspatm : epsatm=   32.21965837
         --- l  ekb(1:nproj) -->
             0    9.413866   -0.196587
             1    2.474292   -1.517497
             2    1.503483    0.298081
             3    1.177996
 pspatm: atomic psp has been read  and splines computed

   2.88219163E+04                                ecore*ucvol(ha*bohr**3)

-inwffil : will read wavefunctions from disk file /scratch/users/j/a/jabreu/flow_simple_8atoms/flow/w275/t1/indata/in_WFK

 ==>  initialize data related to q vector <==

 The list of irreducible perturbations for this q vector is:
    1)    idir= 1    ipert=   9
    2)    idir= 2    ipert=   9
    3)    idir= 3    ipert=   9

 Perturbation wavevector (in red.coord.)   0.000000  0.000000  0.000000
 Perturbation : derivative vs k along direction   1

 dfpt_looppert : COMMENT -
  In a d/dk calculation, iscf is set to -3 automatically.
 The set of symmetries contains only one element for this perturbation.
 symkpt : not enough symmetry to change the number of k points.

[...]

 Initialisation of the first-order wave-functions :
  ireadwf=   0

--- !BeginCycle
iteration_state: {dtset: 1, }
solver: {iscf: 7, nstep: 2000, nline: 4, wfoptalg: 0, }
tolerances: {tolwfr: 1.00E-20, }
...

     iter   2DEtotal(Ha)        deltaE(Ha) residm    vres2
-ETOT  1  -61.535105624569     -6.154E+01 8.046E-02 0.000E+00
 ETOT  2  -61.645798934643     -1.107E-01 1.130E-02 0.000E+00
 ETOT  3  -61.646986174307     -1.187E-03 9.228E-04 0.000E+00
 ETOT  4  -61.647011875587     -2.570E-05 1.576E-04 0.000E+00
[...]
 ETOT 14  -61.647012597731     -2.842E-14 6.567E-13 0.000E+00
 ETOT 15  -61.647012597731      0.000E+00 6.377E-14 0.000E+00
 ETOT 16  -61.647012597731      0.000E+00 1.424E-14 0.000E+00
 ETOT 17  -61.647012597731      0.000E+00 1.387E-15 0.000E+00
 ETOT 18  -61.647012597731      0.000E+00 3.099E-16 0.000E+00
 ETOT 19  -61.647012597731      1.421E-14 3.031E-17 0.000E+00
 ETOT 20  -61.647012597731      2.842E-14 6.771E-18 0.000E+00
 ETOT 21  -61.647012597731     -2.842E-14 6.649E-19 0.000E+00
 ETOT 22  -61.647012597731      1.421E-14 1.484E-19 0.000E+00
 ETOT 23  -61.647012597731      0.000E+00 1.463E-20 0.000E+00
 ETOT 24  -61.647012597731     -1.421E-14 9.993E-21 0.000E+00

 At SCF step   24   max residual=  9.99E-21 < tolwfr=  1.00E-20 =>converged.

 ----iterations are completed or convergence reached----

 dfpt_looppert: DFPT cycle converged with prtwf=-1. Will skip output of the 1st-order WFK file.
 dfpt_looppert : ek2=    8.8183185665E+01
          f-sum rule ratio=    1.0542554999E+00
 prteigrs : about to open file /scratch/users/j/a/jabreu/flow_simple_8atoms/flow/w275/t1/tmpdata/tmp_1WF1_EIG
 Expectation of eigenvalue derivatives (hartree) for nkpt=   2  k points:
  (in case of degenerate eigenvalues, averaged derivative)
 kpt#   1, nband= 66, wtk=  0.50000, kpt=  0.5646  0.4354  0.0000 (reduced coord)
   0.00002   -0.00002    0.00000    0.00034   -0.00034    0.00002    0.00008    0.00017
  -0.00023    0.00032   -0.00026   -0.00010    0.00003    0.00009   -0.00009   -0.00004
   0.00003   -0.00002    0.00001    0.00000   -0.00001   -0.00002    0.00002   -0.00005
   0.00004    0.00155   -0.00757   -0.00025    0.00749   -0.00072   -0.00827    0.00359
   0.00274   -0.00063    0.01748   -0.01573    0.03906    0.00418   -0.00027   -0.02067
   0.01025   -0.01522    0.00444   -0.01622   -0.00296   -0.01084   -0.01560    0.01799
   0.01064    0.00229   -0.00158    0.02997    0.01695   -0.16902   -0.03278   -0.00114
   0.00046    0.17138    0.02426    0.09690    0.05594   -0.04242   -0.14531    0.04155
  -0.04615    0.02867
 prteigrs : prtvol=0 or 1, do not print more k-points.

 Eight components of 2nd-order total energy (hartree) are
 1,2,3: 0th-order hamiltonian combined with 1st-order wavefunctions
     kin0=   8.52528284E+01 eigvalue=   6.81572837E+00  local=  -4.82166943E+01
 4,5,6: 1st-order hamiltonian combined with 1st and 0th-order wfs
     kin1=  -9.29676085E+01  Hartree=   0.00000000E+00     xc=   0.00000000E+00
 7,8,9: eventually, occupation + non-local contributions
    edocc=   1.05964819E+01     enl0=   7.19866822E+00   enl1=  -3.03264167E+01
 1-9 gives the relaxation energy (to be shifted if some occ is /=2.0)
   erelax=  -6.16470126E+01
  No Ewald or frozen-wf contrib.: the relaxation energy is the total one
 2DEtotal=   -0.6164701260E+02 Ha. Also 2DEtotal=   -0.167750052362E+04 eV
    (  non-var. 2DEtotal :   -6.1647012597E+01 Ha)

 Perturbation wavevector (in red.coord.)   0.000000  0.000000  0.000000
 Perturbation : derivative vs k along direction   2
 The set of symmetries contains only one element for this perturbation.
 symkpt : not enough symmetry to change the number of k points.

[...]

 Perturbation wavevector (in red.coord.)   0.000000  0.000000  0.000000
 Perturbation : derivative vs k along direction   3
 The set of symmetries contains only one element for this perturbation.
 symkpt : not enough symmetry to change the number of k points.

-inwffil : will read wavefunctions from disk file /scratch/users/j/a/jabreu/flow_simple_8atoms/flow/w275/t1/indata/in_WFK

 Initialisation of the first-order wave-functions :
  ireadwf=   0

--- !BeginCycle
iteration_state: {dtset: 1, }
solver: {iscf: 7, nstep: 2000, nline: 4, wfoptalg: 0, }
tolerances: {tolwfr: 1.00E-20, }
...

     iter   2DEtotal(Ha)        deltaE(Ha) residm    vres2
-ETOT  1  -60.476598371252     -6.048E+01 8.840E-02 0.000E+00
 ETOT  2  -60.577210227805     -1.006E-01 8.106E-03 0.000E+00
 ETOT  3  -60.578240186516     -1.030E-03 7.095E-04 0.000E+00
 ETOT  4  -60.578261713636     -2.153E-05 7.869E-05 0.000E+00
 ETOT  5  -60.578262284850     -5.712E-07 1.011E-05 0.000E+00
 ETOT  6  -60.578262301887     -1.704E-08 1.196E-06 0.000E+00
 ETOT  7  -60.578262302430     -5.432E-10 1.539E-07 0.000E+00
 ETOT  8  -60.578262302448     -1.815E-11 1.877E-08 0.000E+00
 ETOT  9  -60.578262302449     -7.034E-13 2.465E-09 0.000E+00
 ETOT 10  -60.578262302449      0.000E+00 3.027E-10 0.000E+00
 ETOT 11  -60.578262302449      4.974E-14 4.045E-11 0.000E+00
 ETOT 12  -60.578262302449     -2.132E-14 4.956E-12 0.000E+00
 ETOT 13  -60.578262302449      1.421E-14 6.697E-13 0.000E+00
 ETOT 14  -60.578262302449     -2.842E-14 8.187E-14 0.000E+00
 ETOT 15  -60.578262302449      4.974E-14 1.115E-14 0.000E+00
 ETOT 16  -60.578262302449     -2.132E-14 1.359E-15 0.000E+00
 ETOT 17  -60.578262302449      0.000E+00 1.867E-16 0.000E+00
 ETOT 18  -60.578262302449     -7.105E-15 2.265E-17 0.000E+00
 ETOT 19  -60.578262302449     -7.105E-15 3.137E-18 0.000E+00
 ETOT 20  -60.578262302449     -1.421E-14 3.784E-19 0.000E+00
 ETOT 21  -60.578262302449      2.132E-14 5.287E-20 0.000E+00
 ETOT 22  -60.578262302449     -7.105E-15 9.968E-21 0.000E+00

 At SCF step   22   max residual=  9.97E-21 < tolwfr=  1.00E-20 =>converged.

 ----iterations are completed or convergence reached----

 dfpt_looppert: DFPT cycle converged with prtwf=-1. Will skip output of the 1st-order WFK file.
 dfpt_looppert : ek2=    8.8183185665E+01
          f-sum rule ratio=    1.0311185862E+00
 prteigrs : about to open file /scratch/users/j/a/jabreu/flow_simple_8atoms/flow/w275/t1/tmpdata/tmp_1WF1_EIG
 Expectation of eigenvalue derivatives (hartree) for nkpt=   2  k points:
  (in case of degenerate eigenvalues, averaged derivative)
 kpt#   1, nband= 66, wtk=  0.50000, kpt=  0.5646  0.4354  0.0000 (reduced coord)
   0.00000   -0.00000    0.00000    0.00000   -0.00000    0.00000    0.00000    0.00000
  -0.00000   -0.00000    0.00000   -0.00000    0.00000   -0.00000    0.00000    0.00000
  -0.00000    0.00000    0.00000    0.00000   -0.00000    0.00000   -0.00000   -0.00000
   0.00000   -0.00000    0.00000    0.00000   -0.00000    0.00000    0.00000    0.00000
  -0.00000    0.00000    0.00000   -0.00000   -0.00000    0.00000    0.00000   -0.00000
  -0.00000   -0.00000    0.00000    0.00000   -0.00000    0.00000   -0.00000   -0.00000
  -0.00000    0.00000   -0.00000    0.00000    0.00000    0.00000    0.00000   -0.00000
   0.00000   -0.00000   -0.00000    0.00000    0.00000   -0.00000    0.00000    0.00000
   0.00000   -0.00000
 prteigrs : prtvol=0 or 1, do not print more k-points.

 Eight components of 2nd-order total energy (hartree) are
 1,2,3: 0th-order hamiltonian combined with 1st-order wavefunctions
     kin0=   8.55483803E+01 eigvalue=   6.74206362E+00  local=  -4.85550116E+01
 4,5,6: 1st-order hamiltonian combined with 1st and 0th-order wfs
     kin1=  -9.09273217E+01  Hartree=   0.00000000E+00     xc=   0.00000000E+00
 7,8,9: eventually, occupation + non-local contributions
    edocc=   9.59155120E+00     enl0=   7.25127876E+00   enl1=  -3.02292029E+01
 1-9 gives the relaxation energy (to be shifted if some occ is /=2.0)
   erelax=  -6.05782623E+01
  No Ewald or frozen-wf contrib.: the relaxation energy is the total one
 2DEtotal=   -0.6057826230E+02 Ha. Also 2DEtotal=   -0.164841834908E+04 eV
    (  non-var. 2DEtotal :   -6.0578262302E+01 Ha)

 CALCULATION OF EFFECTIVE MASSES
 NOTE : Additional infos (eff. mass eigenvalues, eigenvectors and, if degenerate, average mass) are available in stdout.

 K-point ( 0.565, 0.435, 0.000) | band =    57
 Effective mass tensor:
             -1.0467130494              1.0561071866              0.3319036550
              1.0561071866             -1.9969071176              0.2146322404
              0.3319036550              0.2146322404             -1.0181582037
 Effective mass tensor eigenvalues:
             -2.6798599880             -1.2040734364             -0.1778449463
 Angular average effective mass 1/(<1/m>)=  -0.4394610537
 Angular average effective mass for Frohlich model (<m**0.5>)**2=  -0.6452138423
 Effective masses along directions: (cart. coord. / red. coord. -> eff. mass)
    1:   1.000000  0.000000  0.000000 /   0.925169  0.379556  0.000000 ->  -0.2887930951
    2:   0.000000  1.000000  0.000000 /   0.000000  1.000000  0.000000 ->  -0.6005496251
    3:   0.000000  0.000000  1.000000 /   0.495900  0.495900  0.712858 ->  -0.5886800919
    4:   0.577350  0.577350  0.577350 /   0.591899  0.688795  0.418590 ->  -0.1883609095
    5:   0.000000  0.707107  0.707107 /   0.382447  0.742623  0.549768 ->  -0.3725457004
    6:   0.707107  0.000000  0.707107 /   0.708761  0.496408  0.501235 ->  -0.2420926081
    7:   0.707107  0.707107  0.000000 /   0.603211  0.797582  0.000000 ->  -0.2192106401

 K-point ( 0.500, 0.500, 0.500) | band =    58
 Effective mass tensor:
              0.3799443888              0.1242339864              0.4534340258
              0.1242339864              0.2681838300              0.2932377550
              0.4534340258              0.2932377550              1.2581117157
 Effective mass tensor eigenvalues:
              0.1878411705              0.1878411716              1.5305575924
 Angular average effective mass 1/(<1/m>)=   0.2654714614
 Angular average effective mass for Frohlich model (<m**0.5>)**2=   0.3149857729
 Effective masses along directions: (cart. coord. / red. coord. -> eff. mass)
    1:   1.000000  0.000000  0.000000 /   0.925169  0.379556  0.000000 ->   0.2148012928
    2:   0.000000  1.000000  0.000000 /   0.000000  1.000000  0.000000 ->   0.1982476696
    3:   0.000000  0.000000  1.000000 /   0.495900  0.495900  0.712858 ->   0.6246139930
    4:   0.577350  0.577350  0.577350 /   0.591899  0.688795  0.418590 ->   0.5722775814
    5:   0.000000  0.707107  0.707107 /   0.382447  0.742623  0.549768 ->   0.4342839612
    6:   0.707107  0.000000  0.707107 /   0.708761  0.496408  0.501235 ->   0.6447142375
    7:   0.707107  0.707107  0.000000 /   0.603211  0.797582  0.000000 ->   0.2263613731

 END OF EFFECTIVE MASSES SECTION

 ---- first-order wavefunction calculations are completed ----

 Total localisation tensor (bohr^2) in cartesian coordinates
  WARNING : still subject to testing - especially symmetries.
      direction              matrix element
   alpha     beta       real part   imaginary part
     1        1       2.2265267669    0.0000000000
     1        2       0.7130252597    0.0000000000
     1        3       2.6025862413    0.0000000000
     2        1       0.7130252597    0.0000000000
     2        2       1.5850050049    0.0000000000
     2        3       1.6830125639    0.0000000000
     3        1       2.6025862413    0.0000000000
     3        2       1.6830125639    0.0000000000
     3        3       6.8946119319    0.0000000000

 respfn : d/dk was computed, but no 2DTE, so no DDB output.

== END DATASET(S) ==============================================================

 -outvars: echo values of variables after computation  --------
            acell      1.0000000000E+00  1.0000000000E+00  1.0000000000E+00 Bohr
              amu      8.54678000E+01  1.21753000E+02  1.96966540E+02
             ecut      4.20000000E+01 Hartree
           etotal     -6.0578262302E+01
            fcart      0.0000000000E+00  0.0000000000E+00  0.0000000000E+00
                       0.0000000000E+00  0.0000000000E+00  0.0000000000E+00
                       0.0000000000E+00  0.0000000000E+00  0.0000000000E+00
                       0.0000000000E+00  0.0000000000E+00  0.0000000000E+00
                       0.0000000000E+00  0.0000000000E+00  0.0000000000E+00
                       0.0000000000E+00  0.0000000000E+00  0.0000000000E+00
                       0.0000000000E+00  0.0000000000E+00  0.0000000000E+00
                       0.0000000000E+00  0.0000000000E+00  0.0000000000E+00
-          fftalg         512
           irdden           1
           irdwfk           1
           istwfk        0    1
              ixc     -116133
              kpt      5.64646426E-01  4.35353574E-01  0.00000000E+00
                       5.00000000E-01  5.00000000E-01  5.00000000E-01
           kptopt           0
P           mkmem           2
P          mkqmem           2
P          mk1mem           2
            natom           8
            nband          66
           nbdbuf           4
            ngfft          90      90      90
             nkpt           2
            nstep        2000
             nsym          12
           ntypat           3
              occ      2.000000  2.000000  2.000000  2.000000  2.000000  2.000000
                       2.000000  2.000000  2.000000  2.000000  2.000000  2.000000
                       2.000000  2.000000  2.000000  2.000000  2.000000  2.000000
                       2.000000  2.000000  2.000000  2.000000  2.000000  2.000000
                       2.000000  2.000000  2.000000  2.000000  2.000000  2.000000
                       2.000000  2.000000  2.000000  2.000000  2.000000  2.000000
                       2.000000  2.000000  2.000000  2.000000  2.000000  2.000000
                       2.000000  2.000000  2.000000  2.000000  2.000000  2.000000
                       2.000000  2.000000  2.000000  2.000000  2.000000  2.000000
                       2.000000  2.000000  2.000000  0.000000  0.000000  0.000000
                       0.000000  0.000000  0.000000  0.000000  0.000000  0.000000
        optdriver           1
            prtwf          -1
            rfdir           1       1       1
           rfelfd           2
            rprim      1.1078313981E+01  0.0000000000E+00  1.0727811159E+01
                       4.5449454753E+00  1.0103094144E+01  1.0727811159E+01
                       0.0000000000E+00  0.0000000000E+00  1.5421250692E+01
          spgroup         166
           strten      0.0000000000E+00  0.0000000000E+00  0.0000000000E+00
                       0.0000000000E+00  0.0000000000E+00  0.0000000000E+00
           symrel      1  0  0   0  1  0   0  0  1      -1  0  0   0 -1  0   0  0 -1
                       0  1  0   1  0  0   0  0  1       0 -1  0  -1  0  0   0  0 -1
                       0  0  1   1  0  0   0  1  0       0  0 -1  -1  0  0   0 -1  0
                       1  0  0   0  0  1   0  1  0      -1  0  0   0  0 -1   0 -1  0
                       0  1  0   0  0  1   1  0  0       0 -1  0   0  0 -1  -1  0  0
                       0  0  1   0  1  0   1  0  0       0  0 -1   0 -1  0  -1  0  0
           tolwfr      1.00000000E-20
            typat      1  1  1  2  2  3  3  3
           useylm           1
              wtk        0.50000    0.50000
           xangst      4.1337364140E+00  2.6731635786E+00  9.7572003605E+00
                       7.5984193220E+00  4.9136702858E+00  1.7935178328E+01
                       6.6905350608E-01  4.3265687153E-01  1.5792223927E+00
                       2.0270768603E+00  1.3108499167E+00  4.7846773696E+00
                       6.2403959678E+00  4.0354772406E+00  1.4729723351E+01
                       2.9311956341E+00  0.0000000000E+00  6.9187437788E+00
                       1.2025407799E+00  2.6731635786E+00  6.9187437788E+00
                       4.1337364140E+00  2.6731635786E+00  5.6769131633E+00
            xcart      7.8116297281E+00  5.0515470720E+00  1.8438436505E+01
                       1.4358931561E+01  9.2854911474E+00  3.3892575185E+01
                       1.2643278947E+00  8.1760299671E-01  2.9842978252E+00
                       3.8306201163E+00  2.4771473439E+00  9.0417298627E+00
                       1.1792639340E+01  7.6259468002E+00  2.7835143147E+01
                       5.5391569904E+00  0.0000000000E+00  1.3074530926E+01
                       2.2724727376E+00  5.0515470720E+00  1.3074530926E+01
                       7.8116297281E+00  5.0515470720E+00  1.0727811159E+01
             xred      5.0000000000E-01  5.0000000000E-01  5.0000000000E-01
                       9.1907400000E-01  9.1907400000E-01  9.1907400000E-01
                       8.0926000000E-02  8.0926000000E-02  8.0926000000E-02
                       2.4518700000E-01  2.4518700000E-01  2.4518700000E-01
                       7.5481300000E-01  7.5481300000E-01  7.5481300000E-01
                       5.0000000000E-01  0.0000000000E+00  5.0000000000E-01
                       0.0000000000E+00  5.0000000000E-01  5.0000000000E-01
                       5.0000000000E-01  5.0000000000E-01 -1.6653345369E-16
            znucl       37.00000   51.00000   79.00000

- Timing analysis has been suppressed with timopt=0

 Suggested references for the acknowledgment of ABINIT usage.

 Calculation completed.
.Delivered  14 WARNINGs and  11 COMMENTs to log file.