.Version 9.7.2 of ABINIT

 ABINIT is a project of the Universite Catholique de Louvain,
 Corning Inc. and other collaborators, see ~abinit/doc/developers/contributors.txt .
 acknowledgments of the ABINIT effort.

.Starting date : Wed  1 Dec 2021.
- ( at 21h16 )

- input  file    -> /scratch/users/j/a/jabreu/flow_simple_remain_atoms/flow/w167/t1/run.abi
- output file    -> /scratch/users/j/a/jabreu/flow_simple_remain_atoms/flow/w167/t1/run.abo
- root for input  files -> /scratch/users/j/a/jabreu/flow_simple_remain_atoms/flow/w167/t1/indata/in
- root for output files -> /scratch/users/j/a/jabreu/flow_simple_remain_atoms/flow/w167/t1/outdata/out

 Symmetries : space group P-3 m 1 (#164); Bravais hP (primitive hexag.)
     intxc =       0      iscf =       7    lmnmax =      32     lnmax =       8
     mgfft =      60  mpssoang =       4    mqgrid =    3001     natom =       5
  nloc_mem =       1    nspden =       1   nspinor =       1    nsppol =       1
      nsym =      12    n1xccc =    2501    ntypat =       3    occopt =       1
   xclevel =       2
-    mband =          31        mffmem =           1         mkmem =           2
-   mkqmem =           2        mk1mem =           2           mpw =       10248
      nfft =      216000          nkpt =           2
  Rough estimation (10% accuracy) of disk space for files :

------------- Echo of variables that govern the present computation ------------
-
- outvars: echo of selected default values
-   iomode0 =  0 , fftalg0 =512 , wfoptalg0 =  0
-
- outvars: echo of global parameters not present in the input file
-  max_nthreads =    0
-
 -outvars: echo values of preprocessed input variables --------
            acell      1.0000000000E+00  1.0000000000E+00  1.0000000000E+00 Bohr
              amu      3.90983000E+01  1.95080000E+02  1.20110000E+01
             ecut      4.20000000E+01 Hartree
-          fftalg         512
           irdden           1
           irdwfk           1
           istwfk        1    1
              ixc     -116133
              kpt      0.00000000E+00  0.00000000E+00  5.00000000E-01
                       5.00000000E-01  0.00000000E+00  5.00000000E-01
           kptopt           0
P           mkmem           2
P          mkqmem           2
P          mk1mem           2
            natom           5
            nband          31
           nbdbuf           4
            ngfft          60      60      60
             nkpt           2
            nstep        2000
             nsym          12
           ntypat           3
              occ      2.000000  2.000000  2.000000  2.000000  2.000000  2.000000
                       2.000000  2.000000  2.000000  2.000000  2.000000  2.000000
                       2.000000  2.000000  2.000000  2.000000  2.000000  2.000000
                       2.000000  2.000000  2.000000  2.000000  0.000000  0.000000
                       0.000000  0.000000  0.000000  0.000000  0.000000  0.000000
                       0.000000
        optdriver           1
            prtwf          -1
            rfdir           1       1       1
           rfelfd           2
            rprim      9.6341663151E+00  0.0000000000E+00  0.0000000000E+00
                      -4.8170831575E+00  8.3434327732E+00  0.0000000000E+00
                       0.0000000000E+00  0.0000000000E+00  9.8100344517E+00
          spgroup         164
           symrel      1  0  0   0  1  0   0  0  1      -1  0  0   0 -1  0   0  0 -1
                      -1  0  0   1  1  0   0  0  1       1  0  0  -1 -1  0   0  0 -1
                       0  1  0  -1 -1  0   0  0  1       0 -1  0   1  1  0   0  0 -1
                       0 -1  0  -1  0  0   0  0  1       0  1  0   1  0  0   0  0 -1
                      -1 -1  0   1  0  0   0  0  1       1  1  0  -1  0  0   0  0 -1
                       1  1  0   0 -1  0   0  0  1      -1 -1  0   0  1  0   0  0 -1
           tolwfr      1.00000000E-20
            typat      1  1  2  3  3
           useylm           1
              wtk        0.50000    0.50000
           xangst      1.7639241746E-11  2.9434363100E+00  3.7670385121E+00
                       2.5490906189E+00  1.4717181550E+00  1.4242081352E+00
                       0.0000000000E+00  0.0000000000E+00  0.0000000000E+00
                       0.0000000000E+00  0.0000000000E+00  3.2336483016E+00
                       0.0000000000E+00  0.0000000000E+00  1.9575983457E+00
            xcart      3.3333336091E-11  5.5622885155E+00  7.1186711199E+00
                       4.8170831576E+00  2.7811442577E+00  2.6913633318E+00
                       0.0000000000E+00  0.0000000000E+00  0.0000000000E+00
                       0.0000000000E+00  0.0000000000E+00  6.1107097001E+00
                       0.0000000000E+00  0.0000000000E+00  3.6993247516E+00
             xred      3.3333333333E-01  6.6666666667E-01  7.2565200000E-01
                       6.6666666667E-01  3.3333333333E-01  2.7434800000E-01
                       0.0000000000E+00  0.0000000000E+00  0.0000000000E+00
                       0.0000000000E+00  0.0000000000E+00  6.2290400000E-01
                       0.0000000000E+00  0.0000000000E+00  3.7709600000E-01
            znucl       19.00000   78.00000    6.00000

 chkinp: Checking input parameters for consistency.

== DATASET  1 ==================================================================
-   mpi_nproc: 1, omp_nthreads: -1 (-1 if OMP is not activated)

--- !DatasetInfo
iteration_state: {dtset: 1, }
dimensions: {natom: 5, nkpt: 2, mband: 31, nsppol: 1, nspinor: 1, nspden: 1, mpw: 10248, }
cutoff_energies: {ecut:  42.0, pawecutdg:  -1.0, }
electrons: {nelect:   4.40000000E+01, charge:   0.00000000E+00, occopt:   1.00000000E+00, tsmear:   1.00000000E-02, }
meta: {optdriver: 1, rfelfd: 2, }
...

 Real(R)+Recip(G) space primitive vectors, cartesian coordinates (Bohr,Bohr^-1):
 R(1)=  9.6341663  0.0000000  0.0000000  G(1)=  0.1037973  0.0599274  0.0000000
 R(2)= -4.8170832  8.3434328  0.0000000  G(2)=  0.0000000  0.1198547  0.0000000
 R(3)=  0.0000000  0.0000000  9.8100345  G(3)=  0.0000000  0.0000000  0.1019364
 Unit cell volume ucvol=  7.8855038E+02 bohr^3
 Angles (23,13,12)=  9.00000000E+01  9.00000000E+01  1.20000000E+02 degrees

 getcut: wavevector=  0.0000  0.0000  0.0000  ngfft=  60  60  60
         ecut(hartree)=     42.000   => boxcut(ratio)=   2.09648

--- Pseudopotential description ------------------------------------------------
- pspini: atom type   1  psp file is /scratch/users/j/a/jabreu/pseudos/PBEsol/K.psp8
- pspatm: opening atomic psp file    /scratch/users/j/a/jabreu/pseudos/PBEsol/K.psp8
- K     ONCVPSP-3.3.0  r_core=   1.36296   1.46408   1.61068
- 19.00000   9.00000    180112                znucl, zion, pspdat
    8 -116133    2    4       400   0.00000   pspcod,pspxc,lmax,lloc,mmax,r2well
    3.99000000000000    5.00000000000000    0.00000000000000   rchrg,fchrg,qchrg
     nproj     2     2     2
     extension_switch     1
  pspatm : epsatm=    8.32487830
         --- l  ekb(1:nproj) -->
             0   10.921326    0.816676
             1    4.431000    0.560368
             2   -3.384038   -1.043186
 pspatm: atomic psp has been read  and splines computed

- pspini: atom type   2  psp file is /scratch/users/j/a/jabreu/pseudos/PBEsol/Pt.psp8
- pspatm: opening atomic psp file    /scratch/users/j/a/jabreu/pseudos/PBEsol/Pt.psp8
- Pt    ONCVPSP-3.3.0  r_core=   1.45722   1.45722   1.45722   1.91724
- 78.00000  18.00000    180112                znucl, zion, pspdat
    8 -116133    3    4       500   0.00000   pspcod,pspxc,lmax,lloc,mmax,r2well
    4.99000000000000    5.00000000000000    0.00000000000000   rchrg,fchrg,qchrg
     nproj     2     2     2     2
     extension_switch     1
  pspatm : epsatm=   26.54019552
         --- l  ekb(1:nproj) -->
             0   18.149684    1.747248
             1    8.048135    1.208190
             2    2.365973    0.348456
             3    3.491561    0.381218
 pspatm: atomic psp has been read  and splines computed

- pspini: atom type   3  psp file is /scratch/users/j/a/jabreu/pseudos/PBEsol/C.psp8
- pspatm: opening atomic psp file    /scratch/users/j/a/jabreu/pseudos/PBEsol/C.psp8
- C     ONCVPSP-3.3.0  r_core=   1.20440   1.26326
-  6.00000   4.00000    180112                znucl, zion, pspdat
    8 -116133    1    4       600   0.00000   pspcod,pspxc,lmax,lloc,mmax,r2well
    5.99000000000000    4.00000000000000    0.00000000000000   rchrg,fchrg,qchrg
     nproj     2     2
     extension_switch     1
  pspatm : epsatm=    4.34909529
         --- l  ekb(1:nproj) -->
             0    6.468939    0.390031
             1   -4.179695   -0.878453
 pspatm: atomic psp has been read  and splines computed

   2.28307828E+03                                ecore*ucvol(ha*bohr**3)

 ==>  initialize data related to q vector <==

 The list of irreducible perturbations for this q vector is:
    1)    idir= 1    ipert=   6
    2)    idir= 2    ipert=   6
    3)    idir= 3    ipert=   6

 Perturbation wavevector (in red.coord.)   0.000000  0.000000  0.000000
 Perturbation : derivative vs k along direction   1

 dfpt_looppert : COMMENT -
  In a d/dk calculation, iscf is set to -3 automatically.
 The set of symmetries contains only one element for this perturbation.
 symkpt : not enough symmetry to change the number of k points.

 Initialisation of the first-order wave-functions :
  ireadwf=   0

--- !BeginCycle
iteration_state: {dtset: 1, }
solver: {iscf: 7, nstep: 2000, nline: 4, wfoptalg: 0, }
tolerances: {tolwfr: 1.00E-20, }
...

     iter   2DEtotal(Ha)        deltaE(Ha) residm    vres2
-ETOT  1  -24.937196082001     -2.494E+01 1.105E-01 0.000E+00
 ETOT  2  -24.983635190716     -4.644E-02 7.787E-03 0.000E+00
 ETOT  3  -24.984065545869     -4.304E-04 9.675E-04 0.000E+00
 ETOT  4  -24.984072300455     -6.755E-06 1.054E-04 0.000E+00
 ETOT  5  -24.984072448298     -1.478E-07 1.611E-05 0.000E+00
 ETOT  6  -24.984072452060     -3.763E-09 2.440E-06 0.000E+00
 ETOT  7  -24.984072452163     -1.029E-10 3.089E-07 0.000E+00
 ETOT  8  -24.984072452166     -2.963E-12 6.280E-08 0.000E+00
 ETOT  9  -24.984072452166     -8.882E-14 7.433E-09 0.000E+00
 ETOT 10  -24.984072452166     -1.066E-14 1.684E-09 0.000E+00
 ETOT 11  -24.984072452166     -3.197E-14 1.942E-10 0.000E+00
 ETOT 12  -24.984072452166      1.066E-14 4.611E-11 0.000E+00
 ETOT 13  -24.984072452166      2.487E-14 5.203E-12 0.000E+00
 ETOT 14  -24.984072452166     -7.105E-15 1.275E-12 0.000E+00
 ETOT 15  -24.984072452166      3.553E-15 1.432E-13 0.000E+00
 ETOT 16  -24.984072452166     -1.066E-14 3.546E-14 0.000E+00
 ETOT 17  -24.984072452166      3.553E-15 4.173E-15 0.000E+00
 ETOT 18  -24.984072452166      7.105E-15 9.890E-16 0.000E+00
 ETOT 19  -24.984072452166     -1.066E-14 1.231E-16 0.000E+00
 ETOT 20  -24.984072452166      1.776E-14 2.765E-17 0.000E+00
 ETOT 21  -24.984072452166     -1.776E-14 3.664E-18 0.000E+00
 ETOT 22  -24.984072452166      0.000E+00 7.744E-19 0.000E+00
 ETOT 23  -24.984072452166      3.553E-15 1.100E-19 0.000E+00
 ETOT 24  -24.984072452166     -7.105E-15 2.172E-20 0.000E+00
 ETOT 25  -24.984072452166     -1.421E-14 9.862E-21 0.000E+00

 At SCF step   25   max residual=  9.86E-21 < tolwfr=  1.00E-20 =>converged.

 ----iterations are completed or convergence reached----

 dfpt_looppert: DFPT cycle converged with prtwf=-1. Will skip output of the 1st-order WFK file.
 dfpt_looppert : ek2=    4.9906012023E+01
          f-sum rule ratio=    1.0134551505E+00
 prteigrs : about to open file /scratch/users/j/a/jabreu/flow_simple_remain_atoms/flow/w167/t1/tmpdata/tmp_1WF1_EIG
 Expectation of eigenvalue derivatives (hartree) for nkpt=   2  k points:
  (in case of degenerate eigenvalues, averaged derivative)
 kpt#   1, nband= 31, wtk=  0.50000, kpt=  0.0000  0.0000  0.5000 (reduced coord)
  -0.00000   -0.00000    0.00000    0.00000    0.00000    0.00000   -0.00000   -0.00000
  -0.00000   -0.00000    0.00000    0.00000   -0.00000    0.00000   -0.00000   -0.00000
   0.00000   -0.00000   -0.00000   -0.00000   -0.00000   -0.00000    0.00000    0.00000
   0.00000    0.00000   -0.00000   -0.00000   -0.00000   -0.00000   -0.00000
 prteigrs : prtvol=0 or 1, do not print more k-points.

 Eight components of 2nd-order total energy (hartree) are
 1,2,3: 0th-order hamiltonian combined with 1st-order wavefunctions
     kin0=   3.59056611E+01 eigvalue=   1.39607301E+00  local=  -2.00471614E+01
 4,5,6: 1st-order hamiltonian combined with 1st and 0th-order wfs
     kin1=  -5.05775049E+01  Hartree=   0.00000000E+00     xc=   0.00000000E+00
 7,8,9: eventually, occupation + non-local contributions
    edocc=   6.00864434E+00     enl0=   1.72085540E+00   enl1=   6.09360023E-01
 1-9 gives the relaxation energy (to be shifted if some occ is /=2.0)
   erelax=  -2.49840725E+01
  No Ewald or frozen-wf contrib.: the relaxation energy is the total one
 2DEtotal=   -0.2498407245E+02 Ha. Also 2DEtotal=   -0.679851185882E+03 eV
    (  non-var. 2DEtotal :   -2.4984072452E+01 Ha)

 Perturbation wavevector (in red.coord.)   0.000000  0.000000  0.000000
 Perturbation : derivative vs k along direction   2
 The set of symmetries contains only one element for this perturbation.
 symkpt : not enough symmetry to change the number of k points.

[...]

 Perturbation wavevector (in red.coord.)   0.000000  0.000000  0.000000
 Perturbation : derivative vs k along direction   3
 The set of symmetries contains only one element for this perturbation.
 symkpt : not enough symmetry to change the number of k points.

 Initialisation of the first-order wave-functions :
  ireadwf=   0

--- !BeginCycle
iteration_state: {dtset: 1, }
solver: {iscf: 7, nstep: 2000, nline: 4, wfoptalg: 0, }
tolerances: {tolwfr: 1.00E-20, }
...

     iter   2DEtotal(Ha)        deltaE(Ha) residm    vres2
-ETOT  1  -29.740660547743     -2.974E+01 7.646E-02 0.000E+00
 ETOT  2  -29.785258990373     -4.460E-02 1.463E-02 0.000E+00
 ETOT  3  -29.785707415902     -4.484E-04 1.270E-03 0.000E+00
 ETOT  4  -29.785713819232     -6.403E-06 1.982E-04 0.000E+00
 ETOT  5  -29.785713947538     -1.283E-07 2.652E-05 0.000E+00
 ETOT  6  -29.785713950583     -3.046E-09 4.522E-06 0.000E+00
 ETOT  7  -29.785713950663     -7.969E-11 9.384E-07 0.000E+00
 ETOT  8  -29.785713950665     -2.210E-12 2.671E-07 0.000E+00
 ETOT  9  -29.785713950666     -1.492E-13 3.906E-08 0.000E+00
 ETOT 10  -29.785713950665      2.487E-14 9.631E-09 0.000E+00
 ETOT 11  -29.785713950665      0.000E+00 1.473E-09 0.000E+00
 ETOT 12  -29.785713950666     -1.776E-14 3.587E-10 0.000E+00
 ETOT 13  -29.785713950666     -1.776E-14 5.762E-11 0.000E+00
 ETOT 14  -29.785713950666      1.776E-14 1.320E-11 0.000E+00
 ETOT 15  -29.785713950666     -3.553E-15 2.434E-12 0.000E+00
 ETOT 16  -29.785713950666      3.553E-15 5.200E-13 0.000E+00
 ETOT 17  -29.785713950666      7.105E-15 1.058E-13 0.000E+00
 ETOT 18  -29.785713950666     -7.105E-15 2.192E-14 0.000E+00
 ETOT 19  -29.785713950665      2.487E-14 4.668E-15 0.000E+00
 ETOT 20  -29.785713950665     -1.066E-14 9.588E-16 0.000E+00
 ETOT 21  -29.785713950666     -1.066E-14 2.087E-16 0.000E+00
 ETOT 22  -29.785713950666     -3.553E-15 4.276E-17 0.000E+00
 ETOT 23  -29.785713950666     -3.553E-15 9.417E-18 0.000E+00
 ETOT 24  -29.785713950666      3.553E-15 1.928E-18 0.000E+00
 ETOT 25  -29.785713950666     -3.553E-15 4.277E-19 0.000E+00
 ETOT 26  -29.785713950665      1.421E-14 8.747E-20 0.000E+00
 ETOT 27  -29.785713950666     -3.553E-15 1.949E-20 0.000E+00
 ETOT 28  -29.785713950666     -3.553E-15 9.891E-21 0.000E+00

 At SCF step   28   max residual=  9.89E-21 < tolwfr=  1.00E-20 =>converged.

 ----iterations are completed or convergence reached----

 dfpt_looppert: DFPT cycle converged with prtwf=-1. Will skip output of the 1st-order WFK file.
 dfpt_looppert : ek2=    3.6099513051E+01
          f-sum rule ratio=    1.6664441486E+00
 prteigrs : about to open file /scratch/users/j/a/jabreu/flow_simple_remain_atoms/flow/w167/t1/tmpdata/tmp_1WF1_EIG
 Expectation of eigenvalue derivatives (hartree) for nkpt=   2  k points:
  (in case of degenerate eigenvalues, averaged derivative)
 kpt#   1, nband= 31, wtk=  0.50000, kpt=  0.0000  0.0000  0.5000 (reduced coord)
   0.00000   -0.00000   -0.00000   -0.00000    0.00000   -0.00000    0.00000   -0.00000
   0.00000    0.00000    0.00000    0.00000   -0.00000    0.00000   -0.00000   -0.00000
   0.00000    0.00000   -0.00000   -0.00000   -0.00000   -0.00000    0.00000    0.00000
  -0.00000   -0.00000   -0.00000   -0.00000   -0.00000   -0.00000   -0.00000
 prteigrs : prtvol=0 or 1, do not print more k-points.

 Eight components of 2nd-order total energy (hartree) are
 1,2,3: 0th-order hamiltonian combined with 1st-order wavefunctions
     kin0=   2.76515432E+01 eigvalue=   9.46493634E-01  local=  -1.78453296E+01
 4,5,6: 1st-order hamiltonian combined with 1st and 0th-order wfs
     kin1=  -6.01578223E+01  Hartree=   0.00000000E+00     xc=   0.00000000E+00
 7,8,9: eventually, occupation + non-local contributions
    edocc=   1.66516660E+01     enl0=   2.38134079E+00   enl1=   5.86394392E-01
 1-9 gives the relaxation energy (to be shifted if some occ is /=2.0)
   erelax=  -2.97857140E+01
  No Ewald or frozen-wf contrib.: the relaxation energy is the total one
 2DEtotal=   -0.2978571395E+02 Ha. Also 2DEtotal=   -0.810510495856E+03 eV
    (  non-var. 2DEtotal :   -2.9785713951E+01 Ha)

 CALCULATION OF EFFECTIVE MASSES
 NOTE : Additional infos (eff. mass eigenvalues, eigenvectors and, if degenerate, average mass) are available in stdout.

 COMMENTS:
 - At k-point ( 0.000, 0.000, 0.500), bands    21 through    22
   are DEGENERATE (effective mass tensor is therefore not defined).
   See Section IIIB Eqs. (67)-(70) and Appendix E of PRB 93 205147 (2016).
 - Angular average effective mass for Frohlich model is to be averaged over degenerate bands. See later.
 - Associated theta integrals calculated with ntheta=   1000 points.

 K-point ( 0.000, 0.000, 0.500) | band =    21
 Transport equivalent effective mass tensor:
             -9.5696466511             -0.0000000010              0.0000000000
             -0.0000000010             -9.5696473680              0.0000001710
              0.0000000000              0.0000001710             -0.1573808284
 Transport equivalent effective mass tensor eigenvalues:
             -9.5696473680             -9.5696466511             -0.1573808284
 Angular average effective mass 1/(<1/m>)=  -0.4535221350
 Angular average effective mass for Frohlich model (<m**0.5>)**2=  -1.1937110071
 Effective masses along directions: (cart. coord. / red. coord. -> eff. mass)
    1:   1.000000  0.000000  0.000000 /   0.894427 -0.447214  0.000000 ->  -9.5079163019
    2:   0.000000  1.000000  0.000000 /   0.000000  1.000000  0.000000 ->  -9.5079163014
    3:   0.000000  0.000000  1.000000 /   0.000000  0.000000  1.000000 ->  -0.1572123554
    4:   0.577350  0.577350  0.577350 /   0.678716  0.248427  0.691106 ->  -0.4497654565
    5:   0.000000  0.707107  0.707107 /   0.000000  0.647869  0.761751 ->  -0.3081190322
    6:   0.707107  0.000000  0.707107 /   0.661275 -0.330637  0.673346 ->  -0.3066716527
    7:   0.707107  0.707107  0.000000 /   0.939071  0.343724  0.000000 ->  -9.5079163029

 K-point ( 0.000, 0.000, 0.500) | band =    22
 Transport equivalent effective mass tensor:
            -19.2680319879             -0.0000000004              0.0000000000
             -0.0000000004            -19.2680307947             -0.0000001832
              0.0000000000             -0.0000001832             -0.1621143866
 Transport equivalent effective mass tensor eigenvalues:
            -19.2680319879            -19.2680307947             -0.1621143866
 Angular average effective mass 1/(<1/m>)=  -0.4671254190
 Angular average effective mass for Frohlich model (<m**0.5>)**2=  -1.5228670268
 Effective masses along directions: (cart. coord. / red. coord. -> eff. mass)
    1:   1.000000  0.000000  0.000000 /   0.894427 -0.447214  0.000000 -> -19.0199496094
    2:   0.000000  1.000000  0.000000 /   0.000000  1.000000  0.000000 -> -19.0199496061
    3:   0.000000  0.000000  1.000000 /   0.000000  0.000000  1.000000 ->  -0.1572123554
    4:   0.577350  0.577350  0.577350 /   0.678716  0.248427  0.691106 ->  -0.4711790002
    5:   0.000000  0.707107  0.707107 /   0.000000  0.647869  0.761751 ->  -0.3130674155
    6:   0.707107  0.000000  0.707107 /   0.661275 -0.330637  0.673346 ->  -0.3145759444
    7:   0.707107  0.707107  0.000000 /   0.939071  0.343724  0.000000 -> -19.0199496070

 Angular average effective mass for Frohlich model, averaged over degenerate bands.
 Value of     (<<m**0.5>>)**2 =     1.353285E+00
 Absolute Value of <<m**0.5>> =     1.163308E+00

 K-point ( 0.500, 0.000, 0.500) | band =    23
 Effective mass tensor:
              0.6640931650             -0.1200636937              0.0012168319
             -0.1200636937              0.8027307657              0.0007025400
              0.0012168319              0.0007025400              0.1015118935
 Effective mass tensor eigenvalues:
              0.1015078911              0.5947783588              0.8720495743
 Angular average effective mass 1/(<1/m>)=   0.2366028896
 Angular average effective mass for Frohlich model (<m**0.5>)**2=   0.3147900030
 Effective masses along directions: (cart. coord. / red. coord. -> eff. mass)
    1:   1.000000  0.000000  0.000000 /   0.894427 -0.447214  0.000000 ->   0.6461181358
    2:   0.000000  1.000000  0.000000 /   0.000000  1.000000  0.000000 ->   0.7810156523
    3:   0.000000  0.000000  1.000000 /   0.000000  0.000000  1.000000 ->   0.1015085742
    4:   0.577350  0.577350  0.577350 /   0.678716  0.248427  0.691106 ->   0.2293770187
    5:   0.000000  0.707107  0.707107 /   0.000000  0.647869  0.761751 ->   0.1800423751
    6:   0.707107  0.000000  0.707107 /   0.661275 -0.330637  0.673346 ->   0.1760752506
    7:   0.707107  0.707107  0.000000 /   0.939071  0.343724  0.000000 ->   0.6076992947

 END OF EFFECTIVE MASSES SECTION

 ---- first-order wavefunction calculations are completed ----

 Total localisation tensor (bohr^2) in cartesian coordinates
  WARNING : still subject to testing - especially symmetries.
      direction              matrix element
   alpha     beta       real part   imaginary part
     1        1       1.3809417748    0.0000000000
     1        2      -0.4424744333    0.0000000000
     1        3       0.0000000000    0.0000000000
     2        1      -0.4424744333    0.0000000000
     2        2       0.7663881995    0.0000000000
     2        3       0.0000000000    0.0000000000
     3        1       0.0000000000    0.0000000000
     3        2       0.0000000000    0.0000000000
     3        3       6.5497471257    0.0000000000

 respfn : d/dk was computed, but no 2DTE, so no DDB output.

== END DATASET(S) ==============================================================

 -outvars: echo values of variables after computation  --------
            acell      1.0000000000E+00  1.0000000000E+00  1.0000000000E+00 Bohr
              amu      3.90983000E+01  1.95080000E+02  1.20110000E+01
             ecut      4.20000000E+01 Hartree
           etotal     -2.9785713951E+01
            fcart      0.0000000000E+00  0.0000000000E+00  0.0000000000E+00
                       0.0000000000E+00  0.0000000000E+00  0.0000000000E+00
                       0.0000000000E+00  0.0000000000E+00  0.0000000000E+00
                       0.0000000000E+00  0.0000000000E+00  0.0000000000E+00
                       0.0000000000E+00  0.0000000000E+00  0.0000000000E+00
-          fftalg         512
           irdden           1
           irdwfk           1
           istwfk        1    1
              ixc     -116133
              kpt      0.00000000E+00  0.00000000E+00  5.00000000E-01
                       5.00000000E-01  0.00000000E+00  5.00000000E-01
           kptopt           0
P           mkmem           2
P          mkqmem           2
P          mk1mem           2
            natom           5
            nband          31
           nbdbuf           4
            ngfft          60      60      60
             nkpt           2
            nstep        2000
             nsym          12
           ntypat           3
              occ      2.000000  2.000000  2.000000  2.000000  2.000000  2.000000
                       2.000000  2.000000  2.000000  2.000000  2.000000  2.000000
                       2.000000  2.000000  2.000000  2.000000  2.000000  2.000000
                       2.000000  2.000000  2.000000  2.000000  0.000000  0.000000
                       0.000000  0.000000  0.000000  0.000000  0.000000  0.000000
                       0.000000
        optdriver           1
            prtwf          -1
            rfdir           1       1       1
           rfelfd           2
            rprim      9.6341663151E+00  0.0000000000E+00  0.0000000000E+00
                      -4.8170831575E+00  8.3434327732E+00  0.0000000000E+00
                       0.0000000000E+00  0.0000000000E+00  9.8100344517E+00
          spgroup         164
           strten      0.0000000000E+00  0.0000000000E+00  0.0000000000E+00
                       0.0000000000E+00  0.0000000000E+00  0.0000000000E+00
           symrel      1  0  0   0  1  0   0  0  1      -1  0  0   0 -1  0   0  0 -1
                      -1  0  0   1  1  0   0  0  1       1  0  0  -1 -1  0   0  0 -1
                       0  1  0  -1 -1  0   0  0  1       0 -1  0   1  1  0   0  0 -1
                       0 -1  0  -1  0  0   0  0  1       0  1  0   1  0  0   0  0 -1
                      -1 -1  0   1  0  0   0  0  1       1  1  0  -1  0  0   0  0 -1
                       1  1  0   0 -1  0   0  0  1      -1 -1  0   0  1  0   0  0 -1
           tolwfr      1.00000000E-20
            typat      1  1  2  3  3
           useylm           1
              wtk        0.50000    0.50000
           xangst      1.7639241746E-11  2.9434363100E+00  3.7670385121E+00
                       2.5490906189E+00  1.4717181550E+00  1.4242081352E+00
                       0.0000000000E+00  0.0000000000E+00  0.0000000000E+00
                       0.0000000000E+00  0.0000000000E+00  3.2336483016E+00
                       0.0000000000E+00  0.0000000000E+00  1.9575983457E+00
            xcart      3.3333336091E-11  5.5622885155E+00  7.1186711199E+00
                       4.8170831576E+00  2.7811442577E+00  2.6913633318E+00
                       0.0000000000E+00  0.0000000000E+00  0.0000000000E+00
                       0.0000000000E+00  0.0000000000E+00  6.1107097001E+00
                       0.0000000000E+00  0.0000000000E+00  3.6993247516E+00
             xred      3.3333333333E-01  6.6666666667E-01  7.2565200000E-01
                       6.6666666667E-01  3.3333333333E-01  2.7434800000E-01
                       0.0000000000E+00  0.0000000000E+00  0.0000000000E+00
                       0.0000000000E+00  0.0000000000E+00  6.2290400000E-01
                       0.0000000000E+00  0.0000000000E+00  3.7709600000E-01
            znucl       19.00000   78.00000    6.00000

- Timing analysis has been suppressed with timopt=0

 Suggested references for the acknowledgment of ABINIT usage.

 Calculation completed.
.Delivered   2 WARNINGs and   5 COMMENTs to log file.