.Version 9.5.1 of ABINIT

 ABINIT is a project of the Universite Catholique de Louvain,
 Corning Inc. and other collaborators, see ~abinit/doc/developers/contributors.txt .
 acknowledgments of the ABINIT effort.

.Starting date : Tue  4 May 2021.
- ( at 21h50 )

- input  file    -> /scratch/users/j/a/jabreu/flow_simple_6atoms/flow/w266/t1/run.abi
- output file    -> /scratch/users/j/a/jabreu/flow_simple_6atoms/flow/w266/t1/run.abo
- root for input  files -> /scratch/users/j/a/jabreu/flow_simple_6atoms/flow/w266/t1/indata/in
- root for output files -> /scratch/users/j/a/jabreu/flow_simple_6atoms/flow/w266/t1/outdata/out

 Symmetries : space group P4/n m m (#129); Bravais tP (primitive tetrag.)
     intxc =       0      iscf =       7    lmnmax =      18     lnmax =       6
     mgfft =      90  mpssoang =       3    mqgrid =    4147     natom =       6
  nloc_mem =       1    nspden =       1   nspinor =       1    nsppol =       1
      nsym =      16    n1xccc =    2501    ntypat =       3    occopt =       1
   xclevel =       2
-    mband =          37        mffmem =           1         mkmem =           2
-   mkqmem =           2        mk1mem =           2           mpw =       14065
      nfft =      262440          nkpt =           2
  Rough estimation (10% accuracy) of disk space for files :

------------- Echo of variables that govern the present computation ------------
-
- outvars: echo of selected default values
-   iomode0 =  0 , fftalg0 =512 , wfoptalg0 =  0
-
- outvars: echo of global parameters not present in the input file
-  max_nthreads =    0
-
 -outvars: echo values of preprocessed input variables --------
            acell      1.0000000000E+00  1.0000000000E+00  1.0000000000E+00 Bohr
              amu      8.54678000E+01  6.94100000E+00  7.89600000E+01
             ecut      4.30000000E+01 Hartree
-          fftalg         512
           irdden           1
           irdwfk           1
           istwfk        1    1
              ixc     -116133
              kpt      0.00000000E+00  0.00000000E+00  5.00000000E-01
                       0.00000000E+00  0.00000000E+00  0.00000000E+00
           kptopt           0
P           mkmem           2
P          mkqmem           2
P          mk1mem           2
            natom           6
            nband          37
           nbdbuf           4
            ngfft          54      54      90
             nkpt           2
            nstep        1000
             nsym          16
           ntypat           3
              occ      2.000000  2.000000  2.000000  2.000000  2.000000  2.000000
                       2.000000  2.000000  2.000000  2.000000  2.000000  2.000000
                       2.000000  2.000000  2.000000  2.000000  2.000000  2.000000
                       2.000000  2.000000  2.000000  2.000000  2.000000  2.000000
                       2.000000  2.000000  2.000000  2.000000  0.000000  0.000000
                       0.000000  0.000000  0.000000  0.000000  0.000000  0.000000
                       0.000000
        optdriver           1
            prtwf          -1
            rfdir           1       1       1
           rfelfd           2
            rprim      8.6134802786E+00  0.0000000000E+00  0.0000000000E+00
                       0.0000000000E+00  8.6134802786E+00  0.0000000000E+00
                       0.0000000000E+00  0.0000000000E+00  1.4047709986E+01
          spgroup         129
           symrel      1  0  0   0  1  0   0  0  1      -1  0  0   0 -1  0   0  0 -1
                      -1  0  0   0  1  0   0  0 -1       1  0  0   0 -1  0   0  0  1
                      -1  0  0   0 -1  0   0  0  1       1  0  0   0  1  0   0  0 -1
                       1  0  0   0 -1  0   0  0 -1      -1  0  0   0  1  0   0  0  1
                       0  1  0   1  0  0   0  0  1       0 -1  0  -1  0  0   0  0 -1
                       0 -1  0   1  0  0   0  0 -1       0  1  0  -1  0  0   0  0  1
                       0 -1  0  -1  0  0   0  0  1       0  1  0   1  0  0   0  0 -1
                       0  1  0  -1  0  0   0  0 -1       0 -1  0   1  0  0   0  0  1
            tnons      0.0000000  0.0000000  0.0000000     0.5000000  0.5000000  0.0000000
                       0.5000000  0.5000000  0.0000000     0.0000000  0.0000000  0.0000000
                       0.0000000  0.0000000  0.0000000     0.5000000  0.5000000  0.0000000
                       0.5000000  0.5000000  0.0000000     0.0000000  0.0000000  0.0000000
                       0.5000000  0.5000000  0.0000000     0.0000000  0.0000000  0.0000000
                       0.0000000  0.0000000  0.0000000     0.5000000  0.5000000  0.0000000
                       0.5000000  0.5000000  0.0000000     0.0000000  0.0000000  0.0000000
                       0.0000000  0.0000000  0.0000000     0.5000000  0.5000000  0.0000000
           tolwfr      1.00000000E-20
            typat      1  1  2  2  3  3
           useylm           1
              wtk        0.50000    0.50000
           xangst      0.0000000000E+00  2.2790287250E+00  2.5177739243E+00
                       2.2790287250E+00  0.0000000000E+00  4.9159540332E+00
                       0.0000000000E+00  0.0000000000E+00  0.0000000000E+00
                       2.2790287250E+00  2.2790287250E+00  0.0000000000E+00
                       2.2790287250E+00  0.0000000000E+00  1.3480991314E+00
                       0.0000000000E+00  2.2790287250E+00  6.0856288262E+00
            xcart      0.0000000000E+00  4.3067401393E+00  4.7579031815E+00
                       4.3067401393E+00  0.0000000000E+00  9.2898068046E+00
                       0.0000000000E+00  0.0000000000E+00  0.0000000000E+00
                       4.3067401393E+00  4.3067401393E+00  0.0000000000E+00
                       4.3067401393E+00  0.0000000000E+00  2.5475381583E+00
                       0.0000000000E+00  4.3067401393E+00  1.1500171828E+01
             xred      0.0000000000E+00  5.0000000000E-01  3.3869600000E-01
                       5.0000000000E-01  0.0000000000E+00  6.6130400000E-01
                       0.0000000000E+00  0.0000000000E+00  0.0000000000E+00
                       5.0000000000E-01  5.0000000000E-01  0.0000000000E+00
                       5.0000000000E-01  0.0000000000E+00  1.8134900000E-01
                       0.0000000000E+00  5.0000000000E-01  8.1865100000E-01
            znucl       37.00000    3.00000   34.00000

 chkinp: Checking input parameters for consistency.

== DATASET  1 ==================================================================
-   mpi_nproc: 1, omp_nthreads: -1 (-1 if OMP is not activated)

--- !DatasetInfo
iteration_state: {dtset: 1, }
dimensions: {natom: 6, nkpt: 2, mband: 37, nsppol: 1, nspinor: 1, nspden: 1, mpw: 14065, }
cutoff_energies: {ecut:  43.0, pawecutdg:  -1.0, }
electrons: {nelect:   5.60000000E+01, charge:   0.00000000E+00, occopt:   1.00000000E+00, tsmear:   1.00000000E-02, }
meta: {optdriver: 1, rfelfd: 2, }
...

 Real(R)+Recip(G) space primitive vectors, cartesian coordinates (Bohr,Bohr^-1):
 R(1)=  8.6134803  0.0000000  0.0000000  G(1)=  0.1160971  0.0000000  0.0000000
 R(2)=  0.0000000  8.6134803  0.0000000  G(2)=  0.0000000  0.1160971  0.0000000
 R(3)=  0.0000000  0.0000000 14.0477100  G(3)=  0.0000000  0.0000000  0.0711860
 Unit cell volume ucvol=  1.0422283E+03 bohr^3
 Angles (23,13,12)=  9.00000000E+01  9.00000000E+01  9.00000000E+01 degrees

 getcut: wavevector=  0.0000  0.0000  0.0000  ngfft=  54  54  90
         ecut(hartree)=     43.000   => boxcut(ratio)=   2.12381

--- Pseudopotential description ------------------------------------------------
- pspini: atom type   1  psp file is /scratch/users/j/a/jabreu/pseudos/PBEsol/Rb.psp8
- pspatm: opening atomic psp file    /scratch/users/j/a/jabreu/pseudos/PBEsol/Rb.psp8
- Rb    ONCVPSP-3.3.0  r_core=   1.71227   1.75361   1.90633
- 37.00000   9.00000    180112                znucl, zion, pspdat
    8 -116133    2    4       600   0.00000   pspcod,pspxc,lmax,lloc,mmax,r2well
    5.99000000000000    7.00000000000000    0.00000000000000   rchrg,fchrg,qchrg
     nproj     2     2     2
     extension_switch     1
  pspatm : epsatm=   34.48400912
         --- l  ekb(1:nproj) -->
             0    8.196957   -0.477221
             1    3.231347   -0.378736
             2   -1.047201    0.996637
 pspatm: atomic psp has been read  and splines computed

- pspini: atom type   2  psp file is /scratch/users/j/a/jabreu/pseudos/PBEsol/Li.psp8
- pspatm: opening atomic psp file    /scratch/users/j/a/jabreu/pseudos/PBEsol/Li.psp8
- Li    ONCVPSP-3.3.0  r_core=   1.40824   1.10935
-  3.00000   3.00000    180112                znucl, zion, pspdat
    8 -116133    1    4       400   0.00000   pspcod,pspxc,lmax,lloc,mmax,r2well
    3.99000000000000    0.00000000000000    0.00000000000000   rchrg,fchrg,qchrg
     nproj     2     2
     extension_switch     1
  pspatm : epsatm=    2.60859637
         --- l  ekb(1:nproj) -->
             0   -4.855856   -1.482423
             1   -2.171544   -0.427615
 pspatm: atomic psp has been read  and splines computed

- pspini: atom type   3  psp file is /scratch/users/j/a/jabreu/pseudos/PBEsol/Se.psp8
- pspatm: opening atomic psp file    /scratch/users/j/a/jabreu/pseudos/PBEsol/Se.psp8
- Se    ONCVPSP-3.3.0  r_core=   1.81943   1.50330   1.90835
- 34.00000  16.00000    180112                znucl, zion, pspdat
    8 -116133    2    4       600   0.00000   pspcod,pspxc,lmax,lloc,mmax,r2well
    5.99000000000000    5.00000000000000    0.00000000000000   rchrg,fchrg,qchrg
     nproj     2     2     2
     extension_switch     1
  pspatm : epsatm=   29.17862020
         --- l  ekb(1:nproj) -->
             0    8.973804    1.019550
             1    6.849857    1.297308
             2   -9.203962   -3.731027
 pspatm: atomic psp has been read  and splines computed

   7.42237728E+03                                ecore*ucvol(ha*bohr**3)

-inwffil : will read wavefunctions from disk file /scratch/users/j/a/jabreu/flow_simple_6atoms/flow/w266/t1/indata/in_WFK

 ==>  initialize data related to q vector <==

 The list of irreducible perturbations for this q vector is:
    1)    idir= 1    ipert=   7
    2)    idir= 2    ipert=   7
    3)    idir= 3    ipert=   7

 Perturbation wavevector (in red.coord.)   0.000000  0.000000  0.000000
 Perturbation : derivative vs k along direction   1

 dfpt_looppert : COMMENT -
  In a d/dk calculation, iscf is set to -3 automatically.
 The set of symmetries contains only one element for this perturbation.
 symkpt : not enough symmetry to change the number of k points.

[...]

 Initialisation of the first-order wave-functions :
  ireadwf=   0

--- !BeginCycle
iteration_state: {dtset: 1, }
solver: {iscf: 7, nstep: 1000, nline: 4, wfoptalg: 0, }
tolerances: {tolwfr: 1.00E-20, }
...

     iter   2DEtotal(Ha)        deltaE(Ha) residm    vres2
-ETOT  1  -60.897497542791     -6.090E+01 4.745E-02 0.000E+00
 ETOT  2  -60.936951538186     -3.945E-02 5.945E-05 0.000E+00
 ETOT  3  -60.937002357904     -5.082E-05 5.609E-07 0.000E+00
 ETOT  4  -60.937002598451     -2.405E-07 9.750E-09 0.000E+00
 ETOT  5  -60.937002599866     -1.414E-09 1.001E-09 0.000E+00
[...]

 dfpt_looppert: DFPT cycle converged with prtwf=-1. Will skip output of the 1st-order WFK file.
 dfpt_looppert : ek2=    5.9596455659E+01
          f-sum rule ratio=    1.1303482949E+00
 prteigrs : about to open file /scratch/users/j/a/jabreu/flow_simple_6atoms/flow/w266/t1/tmpdata/tmp_1WF1_EIG
 Expectation of eigenvalue derivatives (hartree) for nkpt=   2  k points:
  (in case of degenerate eigenvalues, averaged derivative)
 kpt#   1, nband= 37, wtk=  0.50000, kpt=  0.0000  0.0000  0.5000 (reduced coord)
  -0.00000   -0.00000   -0.00000   -0.00000    0.00000    0.00000    0.00000   -0.00000
   0.00000   -0.00000   -0.00000   -0.00000   -0.00000    0.00000   -0.00000   -0.00000
   0.00000   -0.00000   -0.00000    0.00000    0.00000   -0.00000    0.00000   -0.00000
  -0.00000    0.00000   -0.00000   -0.00000    0.00000   -0.00000    0.00000   -0.00000
  -0.00000    0.00000    0.00000   -0.00585   -0.00000
 prteigrs : prtvol=0 or 1, do not print more k-points.

 Eight components of 2nd-order total energy (hartree) are
 1,2,3: 0th-order hamiltonian combined with 1st-order wavefunctions
     kin0=   6.16370945E+01 eigvalue=   1.09161849E+01  local=  -2.62679726E+01
 4,5,6: 1st-order hamiltonian combined with 1st and 0th-order wfs
     kin1=  -6.73647520E+01  Hartree=   0.00000000E+00     xc=   0.00000000E+00
 7,8,9: eventually, occupation + non-local contributions
    edocc=   1.13346569E+01     enl0=   3.31703893E+00   enl1=  -5.45092532E+01
 1-9 gives the relaxation energy (to be shifted if some occ is /=2.0)
   erelax=  -6.09370026E+01
  No Ewald or frozen-wf contrib.: the relaxation energy is the total one
 2DEtotal=   -0.6093700260E+02 Ha. Also 2DEtotal=   -0.165818016902E+04 eV
    (  non-var. 2DEtotal :   -6.0937002600E+01 Ha)

 Perturbation wavevector (in red.coord.)   0.000000  0.000000  0.000000
 Perturbation : derivative vs k along direction   2
 The set of symmetries contains only one element for this perturbation.
 symkpt : not enough symmetry to change the number of k points.

[...]

 Perturbation wavevector (in red.coord.)   0.000000  0.000000  0.000000
 Perturbation : derivative vs k along direction   3
 The set of symmetries contains only one element for this perturbation.
 symkpt : not enough symmetry to change the number of k points.

-inwffil : will read wavefunctions from disk file /scratch/users/j/a/jabreu/flow_simple_6atoms/flow/w266/t1/indata/in_WFK

 Initialisation of the first-order wave-functions :
  ireadwf=   0

--- !BeginCycle
iteration_state: {dtset: 1, }
solver: {iscf: 7, nstep: 1000, nline: 4, wfoptalg: 0, }
tolerances: {tolwfr: 1.00E-20, }
...

     iter   2DEtotal(Ha)        deltaE(Ha) residm    vres2
-ETOT  1  -21.608066857651     -2.161E+01 5.162E-02 0.000E+00
 ETOT  2  -21.621428081012     -1.336E-02 2.530E-03 0.000E+00
 ETOT  3  -21.621442406131     -1.433E-05 8.311E-05 0.000E+00
 ETOT  4  -21.621442473899     -6.777E-08 3.125E-06 0.000E+00
 ETOT  5  -21.621442474326     -4.267E-10 1.424E-07 0.000E+00
 ETOT  6  -21.621442474329     -2.903E-12 6.837E-09 0.000E+00
 ETOT  7  -21.621442474329     -3.197E-14 3.249E-10 0.000E+00
 ETOT  8  -21.621442474329      1.421E-14 1.637E-11 0.000E+00
 ETOT  9  -21.621442474329      1.776E-14 7.876E-13 0.000E+00
 ETOT 10  -21.621442474329     -1.776E-14 4.012E-14 0.000E+00
 ETOT 11  -21.621442474329      3.553E-15 1.954E-15 0.000E+00
 ETOT 12  -21.621442474329     -7.105E-15 9.915E-17 0.000E+00
 ETOT 13  -21.621442474329      0.000E+00 4.904E-18 0.000E+00
 ETOT 14  -21.621442474329      0.000E+00 2.460E-19 0.000E+00
 ETOT 15  -21.621442474329      3.553E-15 1.239E-20 0.000E+00
 ETOT 16  -21.621442474329      0.000E+00 9.805E-21 0.000E+00

 At SCF step   16   max residual=  9.81E-21 < tolwfr=  1.00E-20 =>converged.

 ----iterations are completed or convergence reached----

 dfpt_looppert: DFPT cycle converged with prtwf=-1. Will skip output of the 1st-order WFK file.
 dfpt_looppert : ek2=    2.2406121880E+01
          f-sum rule ratio=    1.0176612456E+00
 prteigrs : about to open file /scratch/users/j/a/jabreu/flow_simple_6atoms/flow/w266/t1/tmpdata/tmp_1WF1_EIG
 Expectation of eigenvalue derivatives (hartree) for nkpt=   2  k points:
  (in case of degenerate eigenvalues, averaged derivative)
 kpt#   1, nband= 37, wtk=  0.50000, kpt=  0.0000  0.0000  0.5000 (reduced coord)
   0.00000    0.00000   -0.00000   -0.00000   -0.00000    0.00000    0.00000   -0.00000
  -0.00000   -0.00000   -0.00000   -0.00000    0.00000    0.00000   -0.00000   -0.00000
  -0.00000   -0.00000   -0.00000    0.00000    0.00000   -0.00000    0.00000   -0.00000
  -0.00000    0.00000    0.00000    0.00000   -0.00000    0.00000    0.00000   -0.00000
   0.00000   -0.00000   -0.00000    0.00011    0.00000
 prteigrs : prtvol=0 or 1, do not print more k-points.

 Eight components of 2nd-order total energy (hartree) are
 1,2,3: 0th-order hamiltonian combined with 1st-order wavefunctions
     kin0=   2.37747966E+01 eigvalue=   4.23279091E+00  local=  -1.03065225E+01
 4,5,6: 1st-order hamiltonian combined with 1st and 0th-order wfs
     kin1=  -2.28018419E+01  Hartree=   0.00000000E+00     xc=   0.00000000E+00
 7,8,9: eventually, occupation + non-local contributions
    edocc=   2.60890464E+00     enl0=   1.31147274E+00   enl1=  -2.04410430E+01
 1-9 gives the relaxation energy (to be shifted if some occ is /=2.0)
   erelax=  -2.16214425E+01
  No Ewald or frozen-wf contrib.: the relaxation energy is the total one
 2DEtotal=   -0.2162144247E+02 Ha. Also 2DEtotal=   -0.588349370776E+03 eV
    (  non-var. 2DEtotal :   -2.1621442474E+01 Ha)

 CALCULATION OF EFFECTIVE MASSES
 NOTE : Additional infos (eff. mass eigenvalues, eigenvectors and, if degenerate, average mass) are available in stdout.

 COMMENTS:
 - At k-point ( 0.000, 0.000, 0.500), bands    27 through    28
   are DEGENERATE (effective mass tensor is therefore not defined).
   See Section IIIB Eqs. (67)-(70) and Appendix E of PRB 93 205147 (2016).
 - Angular average effective mass for Frohlich model is to be averaged over degenerate bands. See later.
 - Associated theta integrals calculated with ntheta=   1000 points.

 K-point ( 0.000, 0.000, 0.500) | band =    27
 Transport equivalent effective mass tensor:
             -0.4176600854             -0.0001137330              0.0000181919
             -0.0001137330             -0.4178281630              0.0000002983
              0.0000181919              0.0000002983             -4.6548179564
 Transport equivalent effective mass tensor eigenvalues:
             -4.6548179565             -0.4178855375             -0.4176027108
 Angular average effective mass 1/(<1/m>)=  -0.5900774512
 Angular average effective mass for Frohlich model (<m**0.5>)**2=  -0.7249410934
 Effective masses along directions: (cart. coord. / red. coord. -> eff. mass)
    1:   1.000000  0.000000  0.000000 /   1.000000  0.000000  0.000000 ->  -0.3827486037
    2:   0.000000  1.000000  0.000000 /   0.000000  1.000000  0.000000 ->  -0.3827486062
    3:   0.000000  0.000000  1.000000 /   0.000000  0.000000  1.000000 ->  -4.5319503311
    4:   0.577350  0.577350  0.577350 /   0.463250  0.463250  0.755513 ->  -0.6414537611
    5:   0.000000  0.707107  0.707107 /   0.000000  0.522721  0.852504 ->  -0.7060181809
    6:   0.707107  0.000000  0.707107 /   0.522721  0.000000  0.852504 ->  -0.7059040009
    7:   0.707107  0.707107  0.000000 /   0.707107  0.707107  0.000000 ->  -0.4487596214

 K-point ( 0.000, 0.000, 0.500) | band =    28
 Transport equivalent effective mass tensor:
             -1.4900146090              0.0000014809              0.0000609143
              0.0000014809             -1.4885061885              0.0000046024
              0.0000609143              0.0000046024             -5.7195731196
 Transport equivalent effective mass tensor eigenvalues:
             -5.7195731205             -1.4900146096             -1.4885061871
 Angular average effective mass 1/(<1/m>)=  -1.6905248205
 Angular average effective mass for Frohlich model (<m**0.5>)**2=  -1.8574055261
 Effective masses along directions: (cart. coord. / red. coord. -> eff. mass)
    1:   1.000000  0.000000  0.000000 /   1.000000  0.000000  0.000000 ->  -1.6769273581
    2:   0.000000  1.000000  0.000000 /   0.000000  1.000000  0.000000 ->  -1.6769273656
    3:   0.000000  0.000000  1.000000 /   0.000000  0.000000  1.000000 ->  -4.5454507433
    4:   0.577350  0.577350  0.577350 /   0.463250  0.463250  0.755513 ->  -1.3749875436
    5:   0.000000  0.707107  0.707107 /   0.000000  0.522721  0.852504 ->  -2.4483459042
    6:   0.707107  0.000000  0.707107 /   0.522721  0.000000  0.852504 ->  -2.4496070144
    7:   0.707107  0.707107  0.000000 /   0.707107  0.707107  0.000000 ->  -1.0197367811

 Angular average effective mass for Frohlich model, averaged over degenerate bands.
 Value of     (<<m**0.5>>)**2 =     1.225783E+00
 Absolute Value of <<m**0.5>> =     1.107151E+00

 K-point ( 0.000, 0.000, 0.000) | band =    29
 Effective mass tensor:
              0.2634762643              0.0000000000              0.0000000000
              0.0000000000              0.2634762643              0.0000000000
              0.0000000000              0.0000000000              0.2288778567
 Effective mass tensor eigenvalues:
              0.2288778567              0.2634762643              0.2634762643
 Angular average effective mass 1/(<1/m>)=   0.2508369756
 Angular average effective mass for Frohlich model (<m**0.5>)**2=   0.2511764692
 Effective masses along directions: (cart. coord. / red. coord. -> eff. mass)
    1:   1.000000  0.000000  0.000000 /   1.000000  0.000000  0.000000 ->   0.2634762643
    2:   0.000000  1.000000  0.000000 /   0.000000  1.000000  0.000000 ->   0.2634762643
    3:   0.000000  0.000000  1.000000 /   0.000000  0.000000  1.000000 ->   0.2288778567
    4:   0.577350  0.577350  0.577350 /   0.463250  0.463250  0.755513 ->   0.2508369756
    5:   0.000000  0.707107  0.707107 /   0.000000  0.522721  0.852504 ->   0.2449614214
    6:   0.707107  0.000000  0.707107 /   0.522721  0.000000  0.852504 ->   0.2449614214
    7:   0.707107  0.707107  0.000000 /   0.707107  0.707107  0.000000 ->   0.2634762643

 END OF EFFECTIVE MASSES SECTION

 ---- first-order wavefunction calculations are completed ----

 Total localisation tensor (bohr^2) in cartesian coordinates
  WARNING : still subject to testing - especially symmetries.
      direction              matrix element
   alpha     beta       real part   imaginary part
     1        1       1.3603779031    0.0000000000
     1        2       0.0000000000    0.0000000000
     1        3       0.0000000000    0.0000000000
     2        1       0.0000000000    0.0000000000
     2        2       1.3603648280    0.0000000000
     2        3       0.0000000000    0.0000000000
     3        1       0.0000000000    0.0000000000
     3        2       0.0000000000    0.0000000000
     3        3       0.9789007019    0.0000000000

 respfn : d/dk was computed, but no 2DTE, so no DDB output.

== END DATASET(S) ==============================================================

 -outvars: echo values of variables after computation  --------
            acell      1.0000000000E+00  1.0000000000E+00  1.0000000000E+00 Bohr
              amu      8.54678000E+01  6.94100000E+00  7.89600000E+01
             ecut      4.30000000E+01 Hartree
           etotal     -2.1621442474E+01
            fcart      0.0000000000E+00  0.0000000000E+00  0.0000000000E+00
                       0.0000000000E+00  0.0000000000E+00  0.0000000000E+00
                       0.0000000000E+00  0.0000000000E+00  0.0000000000E+00
                       0.0000000000E+00  0.0000000000E+00  0.0000000000E+00
                       0.0000000000E+00  0.0000000000E+00  0.0000000000E+00
                       0.0000000000E+00  0.0000000000E+00  0.0000000000E+00
-          fftalg         512
           irdden           1
           irdwfk           1
           istwfk        1    1
              ixc     -116133
              kpt      0.00000000E+00  0.00000000E+00  5.00000000E-01
                       0.00000000E+00  0.00000000E+00  0.00000000E+00
           kptopt           0
P           mkmem           2
P          mkqmem           2
P          mk1mem           2
            natom           6
            nband          37
           nbdbuf           4
            ngfft          54      54      90
             nkpt           2
            nstep        1000
             nsym          16
           ntypat           3
              occ      2.000000  2.000000  2.000000  2.000000  2.000000  2.000000
                       2.000000  2.000000  2.000000  2.000000  2.000000  2.000000
                       2.000000  2.000000  2.000000  2.000000  2.000000  2.000000
                       2.000000  2.000000  2.000000  2.000000  2.000000  2.000000
                       2.000000  2.000000  2.000000  2.000000  0.000000  0.000000
                       0.000000  0.000000  0.000000  0.000000  0.000000  0.000000
                       0.000000
        optdriver           1
            prtwf          -1
            rfdir           1       1       1
           rfelfd           2
            rprim      8.6134802786E+00  0.0000000000E+00  0.0000000000E+00
                       0.0000000000E+00  8.6134802786E+00  0.0000000000E+00
                       0.0000000000E+00  0.0000000000E+00  1.4047709986E+01
          spgroup         129
           strten      0.0000000000E+00  0.0000000000E+00  0.0000000000E+00
                       0.0000000000E+00  0.0000000000E+00  0.0000000000E+00
           symrel      1  0  0   0  1  0   0  0  1      -1  0  0   0 -1  0   0  0 -1
                      -1  0  0   0  1  0   0  0 -1       1  0  0   0 -1  0   0  0  1
                      -1  0  0   0 -1  0   0  0  1       1  0  0   0  1  0   0  0 -1
                       1  0  0   0 -1  0   0  0 -1      -1  0  0   0  1  0   0  0  1
                       0  1  0   1  0  0   0  0  1       0 -1  0  -1  0  0   0  0 -1
                       0 -1  0   1  0  0   0  0 -1       0  1  0  -1  0  0   0  0  1
                       0 -1  0  -1  0  0   0  0  1       0  1  0   1  0  0   0  0 -1
                       0  1  0  -1  0  0   0  0 -1       0 -1  0   1  0  0   0  0  1
            tnons      0.0000000  0.0000000  0.0000000     0.5000000  0.5000000  0.0000000
                       0.5000000  0.5000000  0.0000000     0.0000000  0.0000000  0.0000000
                       0.0000000  0.0000000  0.0000000     0.5000000  0.5000000  0.0000000
                       0.5000000  0.5000000  0.0000000     0.0000000  0.0000000  0.0000000
                       0.5000000  0.5000000  0.0000000     0.0000000  0.0000000  0.0000000
                       0.0000000  0.0000000  0.0000000     0.5000000  0.5000000  0.0000000
                       0.5000000  0.5000000  0.0000000     0.0000000  0.0000000  0.0000000
                       0.0000000  0.0000000  0.0000000     0.5000000  0.5000000  0.0000000
           tolwfr      1.00000000E-20
            typat      1  1  2  2  3  3
           useylm           1
              wtk        0.50000    0.50000
           xangst      0.0000000000E+00  2.2790287250E+00  2.5177739243E+00
                       2.2790287250E+00  0.0000000000E+00  4.9159540332E+00
                       0.0000000000E+00  0.0000000000E+00  0.0000000000E+00
                       2.2790287250E+00  2.2790287250E+00  0.0000000000E+00
                       2.2790287250E+00  0.0000000000E+00  1.3480991314E+00
                       0.0000000000E+00  2.2790287250E+00  6.0856288262E+00
            xcart      0.0000000000E+00  4.3067401393E+00  4.7579031815E+00
                       4.3067401393E+00  0.0000000000E+00  9.2898068046E+00
                       0.0000000000E+00  0.0000000000E+00  0.0000000000E+00
                       4.3067401393E+00  4.3067401393E+00  0.0000000000E+00
                       4.3067401393E+00  0.0000000000E+00  2.5475381583E+00
                       0.0000000000E+00  4.3067401393E+00  1.1500171828E+01
             xred      0.0000000000E+00  5.0000000000E-01  3.3869600000E-01
                       5.0000000000E-01  0.0000000000E+00  6.6130400000E-01
                       0.0000000000E+00  0.0000000000E+00  0.0000000000E+00
                       5.0000000000E-01  5.0000000000E-01  0.0000000000E+00
                       5.0000000000E-01  0.0000000000E+00  1.8134900000E-01
                       0.0000000000E+00  5.0000000000E-01  8.1865100000E-01
            znucl       37.00000    3.00000   34.00000

- Timing analysis has been suppressed with timopt=0

 Suggested references for the acknowledgment of ABINIT usage.

 Calculation completed.
.Delivered  14 WARNINGs and   9 COMMENTs to log file.