.Version 9.5.1 of ABINIT

 ABINIT is a project of the Universite Catholique de Louvain,
 Corning Inc. and other collaborators, see ~abinit/doc/developers/contributors.txt .
 acknowledgments of the ABINIT effort.

.Starting date : Tue 27 Apr 2021.
- ( at 18h46 )

- input  file    -> /scratch/users/j/a/jabreu/flow_simple_4atoms/flow/w258/t1/run.abi
- output file    -> /scratch/users/j/a/jabreu/flow_simple_4atoms/flow/w258/t1/run.abo
- root for input  files -> /scratch/users/j/a/jabreu/flow_simple_4atoms/flow/w258/t1/indata/in
- root for output files -> /scratch/users/j/a/jabreu/flow_simple_4atoms/flow/w258/t1/outdata/out

 Symmetries : space group P3 m 1 (#156); Bravais hP (primitive hexag.)
     intxc =       0      iscf =       7    lmnmax =      18     lnmax =       6
     mgfft =      60  mpssoang =       3    mqgrid =    3001     natom =       4
  nloc_mem =       1    nspden =       1   nspinor =       1    nsppol =       1
      nsym =       6    n1xccc =    2501    ntypat =       4    occopt =       1
   xclevel =       2
-    mband =          28        mffmem =           1         mkmem =           2
-   mkqmem =           2        mk1mem =           2           mpw =        6944
      nfft =      138240          nkpt =           2
  Rough estimation (10% accuracy) of disk space for files :

------------- Echo of variables that govern the present computation ------------
-
- outvars: echo of selected default values
-   iomode0 =  0 , fftalg0 =512 , wfoptalg0 =  0
-
- outvars: echo of global parameters not present in the input file
-  max_nthreads =    0
-
 -outvars: echo values of preprocessed input variables --------
            acell      1.0000000000E+00  1.0000000000E+00  1.0000000000E+00 Bohr
              amu      8.76200000E+01  6.97230000E+01  1.18710000E+02
                       1.00794000E+00
             ecut      4.00000000E+01 Hartree
-          fftalg         512
           irdden           1
           irdwfk           1
           istwfk        1    1
              ixc     -116133
              kpt      0.00000000E+00  0.00000000E+00  5.00000000E-01
                       5.00000000E-01  0.00000000E+00  0.00000000E+00
           kptopt           0
P           mkmem           2
P          mkqmem           2
P          mk1mem           2
            natom           4
            nband          28
           nbdbuf           4
            ngfft          48      48      60
             nkpt           2
            nstep         100
             nsym           6
           ntypat           4
              occ      2.000000  2.000000  2.000000  2.000000  2.000000  2.000000
                       2.000000  2.000000  2.000000  2.000000  2.000000  2.000000
                       2.000000  2.000000  2.000000  2.000000  2.000000  2.000000
                       2.000000  0.000000  0.000000  0.000000  0.000000  0.000000
                       0.000000  0.000000  0.000000  0.000000
        optdriver           1
            prtwf          -1
            rfdir           1       1       1
           rfelfd           2
            rprim      8.3636868119E+00  0.0000000000E+00  0.0000000000E+00
                      -4.1818434060E+00  7.2431652484E+00  0.0000000000E+00
                       0.0000000000E+00  0.0000000000E+00  9.4858826808E+00
          spgroup         156
           symrel      1  0  0   0  1  0   0  0  1      -1  0  0   1  1  0   0  0  1
                       0  1  0  -1 -1  0   0  0  1       0 -1  0  -1  0  0   0  0  1
                      -1 -1  0   1  0  0   0  0  1       1  1  0   0 -1  0   0  0  1
            tnons      0.0000000  0.0000000  0.0000000     0.0000000  0.0000000  0.0000000
                       0.0000000 -0.0000000  0.0000000     0.0000000  0.0000000  0.0000000
                       0.0000000  0.0000000  0.0000000     0.0000000 -0.0000000  0.0000000
           tolwfr      1.00000000E-20
            typat      1  2  3  4
           useylm           1
              wtk        0.50000    0.50000
           xangst      2.2129362205E+00  1.2776393224E+00  5.0126050045E+00
                       2.2129273950E-10 -1.2776380097E-10  3.0013516100E+00
                       2.0365381153E-10  2.5552786449E+00  2.2577112594E+00
                       2.2129273950E-10 -1.2776380097E-10  4.7337800308E+00
            xcart      4.1818434064E+00  2.4143884159E+00  9.4724506709E+00
                       4.1818267285E-10 -2.4143859354E-10  5.6717325713E+00
                       3.8484992970E-10  4.8287768320E+00  4.2664559675E+00
                       4.1818267285E-10 -2.4143859354E-10  8.9455478315E+00
             xred      6.6666666670E-01  3.3333333330E-01  9.9858400000E-01
                       3.3333151054E-11 -3.3333299084E-11  5.9791300000E-01
                       3.3333333337E-01  6.6666666663E-01  4.4976900000E-01
                       3.3333151054E-11 -3.3333299084E-11  9.4303800000E-01
            znucl       38.00000   31.00000   50.00000    1.00000

 chkinp: Checking input parameters for consistency.

== DATASET  1 ==================================================================
-   mpi_nproc: 1, omp_nthreads: -1 (-1 if OMP is not activated)

--- !DatasetInfo
iteration_state: {dtset: 1, }
dimensions: {natom: 4, nkpt: 2, mband: 28, nsppol: 1, nspinor: 1, nspden: 1, mpw: 6944, }
cutoff_energies: {ecut:  40.0, pawecutdg:  -1.0, }
electrons: {nelect:   3.80000000E+01, charge:   0.00000000E+00, occopt:   1.00000000E+00, tsmear:   1.00000000E-02, }
meta: {optdriver: 1, rfelfd: 2, }
...

 Real(R)+Recip(G) space primitive vectors, cartesian coordinates (Bohr,Bohr^-1):
 R(1)=  8.3636868  0.0000000  0.0000000  G(1)=  0.1195645  0.0690306  0.0000000
 R(2)= -4.1818434  7.2431652  0.0000000  G(2)=  0.0000000  0.1380612  0.0000000
 R(3)=  0.0000000  0.0000000  9.4858827  G(3)=  0.0000000  0.0000000  0.1054198
 Unit cell volume ucvol=  5.7465065E+02 bohr^3
 Angles (23,13,12)=  9.00000000E+01  9.00000000E+01  1.20000000E+02 degrees

 getcut: wavevector=  0.0000  0.0000  0.0000  ngfft=  48  48  60
         ecut(hartree)=     40.000   => boxcut(ratio)=   2.01580

--- Pseudopotential description ------------------------------------------------
- pspini: atom type   1  psp file is /scratch/users/j/a/jabreu/pseudos/PBEsol/Sr.psp8
- pspatm: opening atomic psp file    /scratch/users/j/a/jabreu/pseudos/PBEsol/Sr.psp8
- Sr    ONCVPSP-3.3.0  r_core=   1.66721   1.31335   1.51547
- 38.00000  10.00000    180112                znucl, zion, pspdat
    8 -116133    2    4       600   0.00000   pspcod,pspxc,lmax,lloc,mmax,r2well
    5.99000000000000    6.00000000000000    0.00000000000000   rchrg,fchrg,qchrg
     nproj     2     2     2
     extension_switch     1
  pspatm : epsatm=   12.46450977
         --- l  ekb(1:nproj) -->
             0   10.029206    1.044171
             1    7.472414    1.670829
             2    4.142950    0.968140
 pspatm: atomic psp has been read  and splines computed

- pspini: atom type   2  psp file is /scratch/users/j/a/jabreu/pseudos/PBEsol/Ga.psp8
- pspatm: opening atomic psp file    /scratch/users/j/a/jabreu/pseudos/PBEsol/Ga.psp8
- Ga    ONCVPSP-3.3.0  r_core=   1.66857   1.75011   1.90252
- 31.00000  13.00000    180112                znucl, zion, pspdat
    8 -116133    2    4       600   0.00000   pspcod,pspxc,lmax,lloc,mmax,r2well
    5.99000000000000    5.00000000000000    0.00000000000000   rchrg,fchrg,qchrg
     nproj     2     2     2
     extension_switch     1
  pspatm : epsatm=   24.50969055
         --- l  ekb(1:nproj) -->
             0    7.053021    1.156713
             1    6.846070    1.293139
             2   -8.368667   -2.819170
 pspatm: atomic psp has been read  and splines computed

[...]

- pspini: atom type   4  psp file is /scratch/users/j/a/jabreu/pseudos/PBEsol/H.psp8
- pspatm: opening atomic psp file    /scratch/users/j/a/jabreu/pseudos/PBEsol/H.psp8
- H     ONCVPSP-3.3.0  r_core=   1.00957   0.70586
-  1.00000   1.00000    180112                znucl, zion, pspdat
    8 -116133    1    4       300   0.00000   pspcod,pspxc,lmax,lloc,mmax,r2well
    2.99000000000000    0.00000000000000    0.00000000000000   rchrg,fchrg,qchrg
     nproj     2     1
     extension_switch     1
  pspatm : epsatm=    0.35627032
         --- l  ekb(1:nproj) -->
             0   -1.674911   -0.523609
             1   -0.494138
 pspatm: atomic psp has been read  and splines computed

   2.65150059E+03                                ecore*ucvol(ha*bohr**3)

-inwffil : will read wavefunctions from disk file /scratch/users/j/a/jabreu/flow_simple_4atoms/flow/w258/t1/indata/in_WFK

 ==>  initialize data related to q vector <==

 The list of irreducible perturbations for this q vector is:
    1)    idir= 1    ipert=   5
    2)    idir= 2    ipert=   5
    3)    idir= 3    ipert=   5

 Perturbation wavevector (in red.coord.)   0.000000  0.000000  0.000000
 Perturbation : derivative vs k along direction   1

 dfpt_looppert : COMMENT -
  In a d/dk calculation, iscf is set to -3 automatically.
 The set of symmetries contains only one element for this perturbation.
 symkpt : not enough symmetry to change the number of k points.

[...]

 Initialisation of the first-order wave-functions :
  ireadwf=   0

--- !BeginCycle
iteration_state: {dtset: 1, }
solver: {iscf: 7, nstep: 100, nline: 4, wfoptalg: 0, }
tolerances: {tolwfr: 1.00E-20, }
...

     iter   2DEtotal(Ha)        deltaE(Ha) residm    vres2
-ETOT  1  -91.495260197130     -9.150E+01 3.135E-02 0.000E+00
 ETOT  2  -91.528833220530     -3.357E-02 1.682E-04 0.000E+00
 ETOT  3  -91.528959537285     -1.263E-04 3.066E-06 0.000E+00
 ETOT  4  -91.528960815430     -1.278E-06 1.027E-07 0.000E+00
 ETOT  5  -91.528960832437     -1.701E-08 4.072E-09 0.000E+00
 ETOT  6  -91.528960832685     -2.477E-10 3.189E-10 0.000E+00
 ETOT  7  -91.528960832688     -3.567E-12 1.153E-11 0.000E+00
 ETOT  8  -91.528960832689     -7.105E-14 1.632E-12 0.000E+00
 ETOT  9  -91.528960832689      1.421E-14 6.092E-14 0.000E+00
 ETOT 10  -91.528960832688      1.421E-13 8.876E-15 0.000E+00
 ETOT 11  -91.528960832688     -1.279E-13 3.377E-16 0.000E+00
 ETOT 12  -91.528960832688      4.263E-14 4.895E-17 0.000E+00
 ETOT 13  -91.528960832689     -5.684E-14 1.870E-18 0.000E+00
 ETOT 14  -91.528960832688      2.842E-14 2.752E-19 0.000E+00
 ETOT 15  -91.528960832688      0.000E+00 1.061E-20 0.000E+00
 ETOT 16  -91.528960832689     -2.842E-14 9.811E-21 0.000E+00

 At SCF step   16   max residual=  9.81E-21 < tolwfr=  1.00E-20 =>converged.

 ----iterations are completed or convergence reached----

 dfpt_looppert: DFPT cycle converged with prtwf=-1. Will skip output of the 1st-order WFK file.
 dfpt_looppert : ek2=    5.7189531928E+01
          f-sum rule ratio=    2.0675698329E+00
 prteigrs : about to open file /scratch/users/j/a/jabreu/flow_simple_4atoms/flow/w258/t1/tmpdata/tmp_1WF1_EIG
 Expectation of eigenvalue derivatives (hartree) for nkpt=   2  k points:
  (in case of degenerate eigenvalues, averaged derivative)
 kpt#   1, nband= 28, wtk=  0.50000, kpt=  0.0000  0.0000  0.5000 (reduced coord)
  -0.00000   -0.00000   -0.00000    0.00000    0.00000   -0.00000    0.00000    0.00000
   0.00000   -0.00000   -0.00000   -0.00000    0.00000    0.00000    0.00000    0.00000
   0.00000   -0.00000   -0.00000    0.00000   -0.00000   -0.00000    0.00000    0.00000
  -0.00000    0.00000   -0.00021    0.00046
 prteigrs : prtvol=0 or 1, do not print more k-points.

 Eight components of 2nd-order total energy (hartree) are
 1,2,3: 0th-order hamiltonian combined with 1st-order wavefunctions
     kin0=   5.69934750E+01 eigvalue=   5.26537543E+00  local=  -2.55657355E+01
 4,5,6: 1st-order hamiltonian combined with 1st and 0th-order wfs
     kin1=  -1.18243351E+02  Hartree=   0.00000000E+00     xc=   0.00000000E+00
 7,8,9: eventually, occupation + non-local contributions
    edocc=   4.57948843E+01     enl0=   9.04096159E+00   enl1=  -6.48145707E+01
 1-9 gives the relaxation energy (to be shifted if some occ is /=2.0)
   erelax=  -9.15289608E+01
  No Ewald or frozen-wf contrib.: the relaxation energy is the total one
 2DEtotal=   -0.9152896083E+02 Ha. Also 2DEtotal=   -0.249062968753E+04 eV
    (  non-var. 2DEtotal :   -9.1528960833E+01 Ha)

 Perturbation wavevector (in red.coord.)   0.000000  0.000000  0.000000
 Perturbation : derivative vs k along direction   2
 The set of symmetries contains only one element for this perturbation.
 symkpt : not enough symmetry to change the number of k points.

[...]

 Perturbation wavevector (in red.coord.)   0.000000  0.000000  0.000000
 Perturbation : derivative vs k along direction   3
 The set of symmetries contains only one element for this perturbation.
 symkpt : not enough symmetry to change the number of k points.

-inwffil : will read wavefunctions from disk file /scratch/users/j/a/jabreu/flow_simple_4atoms/flow/w258/t1/indata/in_WFK

 Initialisation of the first-order wave-functions :
  ireadwf=   0

--- !BeginCycle
iteration_state: {dtset: 1, }
solver: {iscf: 7, nstep: 100, nline: 4, wfoptalg: 0, }
tolerances: {tolwfr: 1.00E-20, }
...

     iter   2DEtotal(Ha)        deltaE(Ha) residm    vres2
-ETOT  1  -38.342818714160     -3.834E+01 1.840E-02 0.000E+00
 ETOT  2  -38.361700664717     -1.888E-02 1.771E-04 0.000E+00
 ETOT  3  -38.361735993504     -3.533E-05 2.975E-06 0.000E+00
 ETOT  4  -38.361736131894     -1.384E-07 5.772E-08 0.000E+00
 ETOT  5  -38.361736132625     -7.313E-10 1.060E-09 0.000E+00
 ETOT  6  -38.361736132630     -4.789E-12 2.251E-11 0.000E+00
 ETOT  7  -38.361736132630     -2.842E-14 4.073E-13 0.000E+00
 ETOT  8  -38.361736132630     -2.132E-14 3.483E-14 0.000E+00
 ETOT  9  -38.361736132630     -7.105E-15 1.286E-15 0.000E+00
 ETOT 10  -38.361736132630      7.105E-15 1.616E-16 0.000E+00
 ETOT 11  -38.361736132630      0.000E+00 6.179E-18 0.000E+00
 ETOT 12  -38.361736132630      1.421E-14 8.049E-19 0.000E+00
 ETOT 13  -38.361736132630      0.000E+00 3.115E-20 0.000E+00
 ETOT 14  -38.361736132630      7.105E-15 9.978E-21 0.000E+00

 At SCF step   14   max residual=  9.98E-21 < tolwfr=  1.00E-20 =>converged.

 ----iterations are completed or convergence reached----

 dfpt_looppert: DFPT cycle converged with prtwf=-1. Will skip output of the 1st-order WFK file.
 dfpt_looppert : ek2=    3.3344010252E+01
          f-sum rule ratio=    1.2747532124E+00
 prteigrs : about to open file /scratch/users/j/a/jabreu/flow_simple_4atoms/flow/w258/t1/tmpdata/tmp_1WF1_EIG
 Expectation of eigenvalue derivatives (hartree) for nkpt=   2  k points:
  (in case of degenerate eigenvalues, averaged derivative)
 kpt#   1, nband= 28, wtk=  0.50000, kpt=  0.0000  0.0000  0.5000 (reduced coord)
  -0.00000    0.00000    0.00000    0.00000    0.00000    0.00000   -0.00000    0.00000
   0.00000    0.00000   -0.00000   -0.00000    0.00000    0.00000    0.00000    0.00000
  -0.00000   -0.00000   -0.00000    0.00000    0.00000    0.00000    0.00000    0.00000
  -0.00000   -0.00000   -0.00002    0.00257
 prteigrs : prtvol=0 or 1, do not print more k-points.

 Eight components of 2nd-order total energy (hartree) are
 1,2,3: 0th-order hamiltonian combined with 1st-order wavefunctions
     kin0=   3.37008671E+01 eigvalue=   3.14900831E+00  local=  -1.52102456E+01
 4,5,6: 1st-order hamiltonian combined with 1st and 0th-order wfs
     kin1=  -4.25053842E+01  Hartree=   0.00000000E+00     xc=   0.00000000E+00
 7,8,9: eventually, occupation + non-local contributions
    edocc=   1.14222010E+01     enl0=   5.29990526E+00   enl1=  -3.42180881E+01
 1-9 gives the relaxation energy (to be shifted if some occ is /=2.0)
   erelax=  -3.83617361E+01
  No Ewald or frozen-wf contrib.: the relaxation energy is the total one
 2DEtotal=   -0.3836173613E+02 Ha. Also 2DEtotal=   -0.104387592744E+04 eV
    (  non-var. 2DEtotal :   -3.8361736133E+01 Ha)

 CALCULATION OF EFFECTIVE MASSES
 NOTE : Additional infos (eff. mass eigenvalues, eigenvectors and, if degenerate, average mass) are available in stdout.

 COMMENTS:
 - At k-point ( 0.000, 0.000, 0.500), bands    18 through    19
   are DEGENERATE (effective mass tensor is therefore not defined).
   See Section IIIB Eqs. (67)-(70) and Appendix E of PRB 93 205147 (2016).
 - Angular average effective mass for Frohlich model is to be averaged over degenerate bands. See later.
 - Associated theta integrals calculated with ntheta=   1000 points.

 K-point ( 0.000, 0.000, 0.500) | band =    18
 Transport equivalent effective mass tensor:
             -0.0283649599             -0.0000000003              0.0000000115
             -0.0000000003             -0.0283649803              0.0000000843
              0.0000000115              0.0000000843             -0.5354999019
 Transport equivalent effective mass tensor eigenvalues:
             -0.5354999019             -0.0283649803             -0.0283649599
 Angular average effective mass 1/(<1/m>)=  -0.0395547544
 Angular average effective mass for Frohlich model (<m**0.5>)**2=  -0.0511727195
 Effective masses along directions: (cart. coord. / red. coord. -> eff. mass)
    1:   1.000000  0.000000  0.000000 /   0.894427 -0.447214  0.000000 ->  -0.0270856019
    2:   0.000000  1.000000  0.000000 /   0.000000  1.000000  0.000000 ->  -0.0270856044
    3:   0.000000  0.000000  1.000000 /   0.000000  0.000000  1.000000 ->  -0.5196146321
    4:   0.577350  0.577350  0.577350 /   0.642781  0.235274  0.729026 ->  -0.0384282854
    5:   0.000000  0.707107  0.707107 /   0.000000  0.606882  0.794792 ->  -0.0546220509
    6:   0.707107  0.000000  0.707107 /   0.627907 -0.313953  0.712156 ->  -0.0512795491
    7:   0.707107  0.707107  0.000000 /   0.939071  0.343724  0.000000 ->  -0.0270855900

 K-point ( 0.000, 0.000, 0.500) | band =    19
 Transport equivalent effective mass tensor:
             -0.2517227588              0.0000001691              0.0000002928
              0.0000001691             -0.2517220215             -0.0000008057
              0.0000002928             -0.0000008057             -0.9153156457
 Transport equivalent effective mass tensor eigenvalues:
             -0.9153156457             -0.2517227957             -0.2517219846
 Angular average effective mass 1/(<1/m>)=  -0.2332595181
 Angular average effective mass for Frohlich model (<m**0.5>)**2=  -0.2535479752
 Effective masses along directions: (cart. coord. / red. coord. -> eff. mass)
    1:   1.000000  0.000000  0.000000 /   0.894427 -0.447214  0.000000 ->  -0.1815462408
    2:   0.000000  1.000000  0.000000 /   0.000000  1.000000  0.000000 ->  -0.1815462450
    3:   0.000000  0.000000  1.000000 /   0.000000  0.000000  1.000000 ->  -0.5196158295
    4:   0.577350  0.577350  0.577350 /   0.642781  0.235274  0.729026 ->  -0.2820093728
    5:   0.000000  0.707107  0.707107 /   0.000000  0.606882  0.794792 ->  -0.2069974779
    6:   0.707107  0.000000  0.707107 /   0.627907 -0.313953  0.712156 ->  -0.2749016573
    7:   0.707107  0.707107  0.000000 /   0.939071  0.343724  0.000000 ->  -0.1815467131

 Angular average effective mass for Frohlich model, averaged over degenerate bands.
 Value of     (<<m**0.5>>)**2 =     1.331335E-01
 Absolute Value of <<m**0.5>> =     3.648747E-01

--- !WARNING
src_file: m_efmas.F90
src_line: 0
message: |

    Band(s)    20,
    are not band extrema, but saddle points;
    the transport equivalent formalism breaks down in these conditions.
    The associated tensor(s) will therefore not be printed.
...

 K-point ( 0.500, 0.000, 0.000) | band =    20
 Effective mass tensor:
     *** SADDLE POINT: TRANSPORT EQV. EFF. MASS NOT DEFINED (see WARNING above) ***
 Angular average effective mass 1/(<1/m>)=   0.2411196921
 Angular average effective mass for Frohlich model (<m**0.5>)**2=   0.5911910392
 Effective masses along directions: (cart. coord. / red. coord. -> eff. mass)
    1:   1.000000  0.000000  0.000000 /   0.894427 -0.447214  0.000000 ->   0.3252484625
    2:   0.000000  1.000000  0.000000 /   0.000000  1.000000  0.000000 ->   0.1256348673
    3:   0.000000  0.000000  1.000000 /   0.000000  0.000000  1.000000 ->   0.7103245733
    4:   0.577350  0.577350  0.577350 /   0.642781  0.235274  0.729026 ->   3.8293001475
    5:   0.000000  0.707107  0.707107 /   0.000000  0.606882  0.794792 ->   0.2439905101
    6:   0.707107  0.000000  0.707107 /   0.627907 -0.313953  0.712156 ->   0.8145637372
    7:   0.707107  0.707107  0.000000 /   0.939071  0.343724  0.000000 ->   0.7772893674

 END OF EFFECTIVE MASSES SECTION

 ---- first-order wavefunction calculations are completed ----

 Total localisation tensor (bohr^2) in cartesian coordinates
  WARNING : still subject to testing - especially symmetries.
      direction              matrix element
   alpha     beta       real part   imaginary part
     1        1      41.7603638310    0.0000000000
     1        2     -15.0097567110    0.0000000000
     1        3       0.0000000000    0.0000000000
     2        1     -15.0097567110    0.0000000000
     2        2      25.9976612324    0.0000000000
     2        3       0.0000000000    0.0000000000
     3        1       0.0000000000    0.0000000000
     3        2       0.0000000000    0.0000000000
     3        3       4.7496053238    0.0000000000

 respfn : d/dk was computed, but no 2DTE, so no DDB output.

== END DATASET(S) ==============================================================

 -outvars: echo values of variables after computation  --------
            acell      1.0000000000E+00  1.0000000000E+00  1.0000000000E+00 Bohr
              amu      8.76200000E+01  6.97230000E+01  1.18710000E+02
                       1.00794000E+00
             ecut      4.00000000E+01 Hartree
           etotal     -3.8361736133E+01
            fcart      0.0000000000E+00  0.0000000000E+00  0.0000000000E+00
                       0.0000000000E+00  0.0000000000E+00  0.0000000000E+00
                       0.0000000000E+00  0.0000000000E+00  0.0000000000E+00
                       0.0000000000E+00  0.0000000000E+00  0.0000000000E+00
-          fftalg         512
           irdden           1
           irdwfk           1
           istwfk        1    1
              ixc     -116133
              kpt      0.00000000E+00  0.00000000E+00  5.00000000E-01
                       5.00000000E-01  0.00000000E+00  0.00000000E+00
           kptopt           0
P           mkmem           2
P          mkqmem           2
P          mk1mem           2
            natom           4
            nband          28
           nbdbuf           4
            ngfft          48      48      60
             nkpt           2
            nstep         100
             nsym           6
           ntypat           4
              occ      2.000000  2.000000  2.000000  2.000000  2.000000  2.000000
                       2.000000  2.000000  2.000000  2.000000  2.000000  2.000000
                       2.000000  2.000000  2.000000  2.000000  2.000000  2.000000
                       2.000000  0.000000  0.000000  0.000000  0.000000  0.000000
                       0.000000  0.000000  0.000000  0.000000
        optdriver           1
            prtwf          -1
            rfdir           1       1       1
           rfelfd           2
            rprim      8.3636868119E+00  0.0000000000E+00  0.0000000000E+00
                      -4.1818434060E+00  7.2431652484E+00  0.0000000000E+00
                       0.0000000000E+00  0.0000000000E+00  9.4858826808E+00
          spgroup         156
           strten      0.0000000000E+00  0.0000000000E+00  0.0000000000E+00
                       0.0000000000E+00  0.0000000000E+00  0.0000000000E+00
           symrel      1  0  0   0  1  0   0  0  1      -1  0  0   1  1  0   0  0  1
                       0  1  0  -1 -1  0   0  0  1       0 -1  0  -1  0  0   0  0  1
                      -1 -1  0   1  0  0   0  0  1       1  1  0   0 -1  0   0  0  1
            tnons      0.0000000  0.0000000  0.0000000     0.0000000  0.0000000  0.0000000
                       0.0000000 -0.0000000  0.0000000     0.0000000  0.0000000  0.0000000
                       0.0000000  0.0000000  0.0000000     0.0000000 -0.0000000  0.0000000
           tolwfr      1.00000000E-20
            typat      1  2  3  4
           useylm           1
              wtk        0.50000    0.50000
           xangst      2.2129362205E+00  1.2776393224E+00  5.0126050045E+00
                       2.2129273950E-10 -1.2776380097E-10  3.0013516100E+00
                       2.0365381153E-10  2.5552786449E+00  2.2577112594E+00
                       2.2129273950E-10 -1.2776380097E-10  4.7337800308E+00
            xcart      4.1818434064E+00  2.4143884159E+00  9.4724506709E+00
                       4.1818267285E-10 -2.4143859354E-10  5.6717325713E+00
                       3.8484992970E-10  4.8287768320E+00  4.2664559675E+00
                       4.1818267285E-10 -2.4143859354E-10  8.9455478315E+00
             xred      6.6666666670E-01  3.3333333330E-01  9.9858400000E-01
                       3.3333151054E-11 -3.3333299084E-11  5.9791300000E-01
                       3.3333333337E-01  6.6666666663E-01  4.4976900000E-01
                       3.3333151054E-11 -3.3333299084E-11  9.4303800000E-01
            znucl       38.00000   31.00000   50.00000    1.00000

- Timing analysis has been suppressed with timopt=0

 Suggested references for the acknowledgment of ABINIT usage.

 Calculation completed.
.Delivered  15 WARNINGs and   9 COMMENTs to log file.