.Version 9.5.2 of ABINIT

 ABINIT is a project of the Universite Catholique de Louvain,
 Corning Inc. and other collaborators, see ~abinit/doc/developers/contributors.txt .
 acknowledgments of the ABINIT effort.

.Starting date : Mon 24 May 2021.
- ( at 22h50 )

- input  file    -> /scratch/users/j/a/jabreu/flow_simple_10atoms/flow/w446/t1/run.abi
- output file    -> /scratch/users/j/a/jabreu/flow_simple_10atoms/flow/w446/t1/run.abo
- root for input  files -> /scratch/users/j/a/jabreu/flow_simple_10atoms/flow/w446/t1/indata/in
- root for output files -> /scratch/users/j/a/jabreu/flow_simple_10atoms/flow/w446/t1/outdata/out

 Symmetries : space group Fm -3 m (#225); Bravais cF (face-center cubic)
     intxc =       0      iscf =       7    lmnmax =      32     lnmax =       8
     mgfft =      90  mpssoang =       4    mqgrid =    3391     natom =      10
  nloc_mem =       1    nspden =       1   nspinor =       1    nsppol =       1
      nsym =      48    n1xccc =    2501    ntypat =       4    occopt =       1
   xclevel =       2
-    mband =          50        mffmem =           1         mkmem =           1
-   mkqmem =           1        mk1mem =           1           mpw =       26469
      nfft =      729000          nkpt =           1
  Rough estimation (10% accuracy) of disk space for files :

------------- Echo of variables that govern the present computation ------------
-
- outvars: echo of selected default values
-   iomode0 =  0 , fftalg0 =512 , wfoptalg0 =  0
-
- outvars: echo of global parameters not present in the input file
-  max_nthreads =    0
-
 -outvars: echo values of preprocessed input variables --------
            acell      1.0000000000E+00  1.0000000000E+00  1.0000000000E+00 Bohr
              amu      1.32905430E+02  8.54678000E+01  1.14820000E+02
                       7.99040000E+01
             ecut      3.50000000E+01 Hartree
-          fftalg         512
           irdden           1
           irdwfk           1
           istwfk        1
              ixc     -116133
           kptopt           0
P           mkmem           1
P          mkqmem           1
P          mk1mem           1
            natom          10
            nband          50
           nbdbuf           4
            ngfft          90      90      90
             nkpt           1
            nstep        2000
             nsym          48
           ntypat           4
              occ      2.000000  2.000000  2.000000  2.000000  2.000000  2.000000
                       2.000000  2.000000  2.000000  2.000000  2.000000  2.000000
                       2.000000  2.000000  2.000000  2.000000  2.000000  2.000000
                       2.000000  2.000000  2.000000  2.000000  2.000000  2.000000
                       2.000000  2.000000  2.000000  2.000000  2.000000  2.000000
                       2.000000  2.000000  2.000000  2.000000  2.000000  2.000000
                       2.000000  2.000000  2.000000  2.000000  2.000000  0.000000
                       0.000000  0.000000  0.000000  0.000000  0.000000  0.000000
                       0.000000  0.000000
        optdriver           1
            prtwf          -1
            rfdir           1       1       1
           rfelfd           2
            rprim      1.3505164759E+01  0.0000000000E+00  7.7972105090E+00
                       4.5017215863E+00  1.2732791443E+01  7.7972105090E+00
                       0.0000000000E+00  0.0000000000E+00  1.5594421018E+01
          spgroup         225
           symrel      1  0  0   0  1  0   0  0  1      -1  0  0   0 -1  0   0  0 -1
                       0 -1  1   0 -1  0   1 -1  0       0  1 -1   0  1  0  -1  1  0
                      -1  0  0  -1  0  1  -1  1  0       1  0  0   1  0 -1   1 -1  0
                       0  1 -1   1  0 -1   0  0 -1       0 -1  1  -1  0  1   0  0  1
                      -1  0  0  -1  1  0  -1  0  1       1  0  0   1 -1  0   1  0 -1
                       0 -1  1   1 -1  0   0 -1  0       0  1 -1  -1  1  0   0  1  0
                       1  0  0   0  0  1   0  1  0      -1  0  0   0  0 -1   0 -1  0
                       0  1 -1   0  0 -1   1  0 -1       0 -1  1   0  0  1  -1  0  1
                      -1  0  1  -1  1  0  -1  0  0       1  0 -1   1 -1  0   1  0  0
                       0 -1  0   1 -1  0   0 -1  1       0  1  0  -1  1  0   0  1 -1
                       1  0 -1   0  0 -1   0  1 -1      -1  0  1   0  0  1   0 -1  1
                       0  1  0   0  0  1   1  0  0       0 -1  0   0  0 -1  -1  0  0
                       1  0 -1   0  1 -1   0  0 -1      -1  0  1   0 -1  1   0  0  1
                       0 -1  0   0 -1  1   1 -1  0       0  1  0   0  1 -1  -1  1  0
                      -1  0  1  -1  0  0  -1  1  0       1  0 -1   1  0  0   1 -1  0
                       0  1  0   1  0  0   0  0  1       0 -1  0  -1  0  0   0  0 -1
                       0  0 -1   0  1 -1   1  0 -1       0  0  1   0 -1  1  -1  0  1
                       1 -1  0   0 -1  1   0 -1  0      -1  1  0   0  1 -1   0  1  0
                       0  0  1   1  0  0   0  1  0       0  0 -1  -1  0  0   0 -1  0
                      -1  1  0  -1  0  0  -1  0  1       1 -1  0   1  0  0   1  0 -1
                       0  0  1   0  1  0   1  0  0       0  0 -1   0 -1  0  -1  0  0
                       1 -1  0   0 -1  0   0 -1  1      -1  1  0   0  1  0   0  1 -1
                       0  0 -1   1  0 -1   0  1 -1       0  0  1  -1  0  1   0 -1  1
                      -1  1  0  -1  0  1  -1  0  0       1 -1  0   1  0 -1   1  0  0
           tolwfr      1.00000000E-20
            typat      1  1  2  3  4  4  4  4  4  4
           useylm           1
           xangst      2.3822084629E+00  1.6844757583E+00  4.1261060920E+00
                       7.1466253887E+00  5.0534272749E+00  1.2378318276E+01
                       4.7644169258E+00  3.3689515166E+00  8.2522121839E+00
                       0.0000000000E+00  0.0000000000E+00  0.0000000000E+00
                       3.4700725440E+00  5.1994308958E+00  1.0494082416E+01
                       6.0587613076E+00  1.5384721375E+00  1.0494082416E+01
                       3.4700725440E+00  5.1994308958E+00  6.0103419521E+00
                       2.1757281622E+00  1.5384721375E+00  8.2522121839E+00
                       7.3531056894E+00  5.1994308958E+00  8.2522121839E+00
                       6.0587613076E+00  1.5384721375E+00  6.0103419521E+00
            xcart      4.5017215863E+00  3.1831978607E+00  7.7972105090E+00
                       1.3505164759E+01  9.5495935821E+00  2.3391631527E+01
                       9.0034431727E+00  6.3663957214E+00  1.5594421018E+01
                       0.0000000000E+00  0.0000000000E+00  0.0000000000E+00
                       6.5574867694E+00  9.8255004399E+00  1.9830941782E+01
                       1.1449399576E+01  2.9072910029E+00  1.9830941782E+01
                       6.5574867694E+00  9.8255004399E+00  1.1357900254E+01
                       4.1115303661E+00  2.9072910029E+00  1.5594421018E+01
                       1.3895355979E+01  9.8255004399E+00  1.5594421018E+01
                       1.1449399576E+01  2.9072910029E+00  1.1357900254E+01
             xred      2.5000000000E-01  2.5000000000E-01  2.5000000000E-01
                       7.5000000000E-01  7.5000000000E-01  7.5000000000E-01
                       5.0000000000E-01  5.0000000000E-01  5.0000000000E-01
                       0.0000000000E+00  0.0000000000E+00  0.0000000000E+00
                       2.2833100000E-01  7.7166900000E-01  7.7166900000E-01
                       7.7166900000E-01  2.2833100000E-01  7.7166900000E-01
                       2.2833100000E-01  7.7166900000E-01  2.2833100000E-01
                       2.2833100000E-01  2.2833100000E-01  7.7166900000E-01
                       7.7166900000E-01  7.7166900000E-01  2.2833100000E-01
                       7.7166900000E-01  2.2833100000E-01  2.2833100000E-01
            znucl       55.00000   37.00000   49.00000   35.00000

 chkinp: Checking input parameters for consistency.

== DATASET  1 ==================================================================
-   mpi_nproc: 1, omp_nthreads: -1 (-1 if OMP is not activated)

--- !DatasetInfo
iteration_state: {dtset: 1, }
dimensions: {natom: 10, nkpt: 1, mband: 50, nsppol: 1, nspinor: 1, nspden: 1, mpw: 26469, }
cutoff_energies: {ecut:  35.0, pawecutdg:  -1.0, }
electrons: {nelect:   8.20000000E+01, charge:   0.00000000E+00, occopt:   1.00000000E+00, tsmear:   1.00000000E-02, }
meta: {optdriver: 1, rfelfd: 2, }
...

 Real(R)+Recip(G) space primitive vectors, cartesian coordinates (Bohr,Bohr^-1):
 R(1)= 13.5051648  0.0000000  7.7972105  G(1)=  0.0740457 -0.0261791  0.0000000
 R(2)=  4.5017216 12.7327914  7.7972105  G(2)=  0.0000000  0.0785374  0.0000000
 R(3)=  0.0000000  0.0000000 15.5944210  G(3)= -0.0370229 -0.0261791  0.0641255
 Unit cell volume ucvol=  2.6815924E+03 bohr^3
 Angles (23,13,12)=  6.00000000E+01  6.00000000E+01  6.00000000E+01 degrees

 getcut: wavevector=  0.0000  0.0000  0.0000  ngfft=  90  90  90
         ecut(hartree)=     35.000   => boxcut(ratio)=   2.16734

--- Pseudopotential description ------------------------------------------------
- pspini: atom type   1  psp file is /scratch/users/j/a/jabreu/pseudos/PBEsol/Cs.psp8
- pspatm: opening atomic psp file    /scratch/users/j/a/jabreu/pseudos/PBEsol/Cs.psp8
- Cs    ONCVPSP-3.3.0  r_core=   2.27353   1.85623   2.01788   1.90105
- 55.00000   9.00000    180112                znucl, zion, pspdat
    8 -116133    3    4       600   0.00000   pspcod,pspxc,lmax,lloc,mmax,r2well
    5.99000000000000    5.00000000000000    0.00000000000000   rchrg,fchrg,qchrg
     nproj     2     2     2     2
     extension_switch     1
  pspatm : epsatm=   22.12462445
         --- l  ekb(1:nproj) -->
             0    6.214110    0.767882
             1    6.311966    0.793598
             2    3.769790    0.913105
             3   -9.247129   -2.432478
 pspatm: atomic psp has been read  and splines computed

- pspini: atom type   2  psp file is /scratch/users/j/a/jabreu/pseudos/PBEsol/Rb.psp8
- pspatm: opening atomic psp file    /scratch/users/j/a/jabreu/pseudos/PBEsol/Rb.psp8
- Rb    ONCVPSP-3.3.0  r_core=   1.71227   1.75361   1.90633
- 37.00000   9.00000    180112                znucl, zion, pspdat
    8 -116133    2    4       600   0.00000   pspcod,pspxc,lmax,lloc,mmax,r2well
    5.99000000000000    7.00000000000000    0.00000000000000   rchrg,fchrg,qchrg
     nproj     2     2     2
     extension_switch     1
  pspatm : epsatm=   34.48400912
         --- l  ekb(1:nproj) -->
             0    8.196957   -0.477221
             1    3.231347   -0.378736
             2   -1.047201    0.996637
 pspatm: atomic psp has been read  and splines computed

[...]

- pspini: atom type   4  psp file is /scratch/users/j/a/jabreu/pseudos/PBEsol/Br.psp8
- pspatm: opening atomic psp file    /scratch/users/j/a/jabreu/pseudos/PBEsol/Br.psp8
- Br    ONCVPSP-3.3.0  r_core=   1.81012   1.51356   1.92136
- 35.00000   7.00000    180112                znucl, zion, pspdat
    8 -116133    2    4       600   0.00000   pspcod,pspxc,lmax,lloc,mmax,r2well
[...]
 ETOT 34  -27.044731256179     -3.553E-15 3.193E-13 0.000E+00
 ETOT 35  -27.044731256179      0.000E+00 2.249E-13 0.000E+00
 ETOT 36  -27.044731256179      0.000E+00 8.193E-14 0.000E+00
 ETOT 37  -27.044731256179      0.000E+00 5.776E-14 0.000E+00
 ETOT 38  -27.044731256179      0.000E+00 2.103E-14 0.000E+00
 ETOT 39  -27.044731256179      0.000E+00 1.484E-14 0.000E+00
 ETOT 40  -27.044731256179      3.553E-15 5.397E-15 0.000E+00
 ETOT 41  -27.044731256179      0.000E+00 3.812E-15 0.000E+00
 ETOT 42  -27.044731256179     -3.553E-15 1.386E-15 0.000E+00
 ETOT 43  -27.044731256179     -7.105E-15 9.793E-16 0.000E+00
 ETOT 44  -27.044731256179      7.105E-15 3.558E-16 0.000E+00
 ETOT 45  -27.044731256179      0.000E+00 2.516E-16 0.000E+00
 ETOT 46  -27.044731256179      0.000E+00 9.137E-17 0.000E+00
 ETOT 47  -27.044731256179      3.553E-15 6.465E-17 0.000E+00
 ETOT 48  -27.044731256179      3.553E-15 2.347E-17 0.000E+00
 ETOT 49  -27.044731256179     -7.105E-15 1.661E-17 0.000E+00
 ETOT 50  -27.044731256179      3.553E-15 6.027E-18 0.000E+00
 ETOT 51  -27.044731256179      0.000E+00 4.268E-18 0.000E+00
 ETOT 52  -27.044731256179      3.553E-15 1.548E-18 0.000E+00
 ETOT 53  -27.044731256179     -7.105E-15 1.097E-18 0.000E+00
 ETOT 54  -27.044731256179     -7.105E-15 3.977E-19 0.000E+00
 ETOT 55  -27.044731256179      7.105E-15 2.819E-19 0.000E+00
 ETOT 56  -27.044731256179     -7.105E-15 1.022E-19 0.000E+00
 ETOT 57  -27.044731256179      0.000E+00 7.244E-20 0.000E+00
 ETOT 58  -27.044731256179      0.000E+00 2.625E-20 0.000E+00
 ETOT 59  -27.044731256179      3.553E-15 1.862E-20 0.000E+00
 ETOT 60  -27.044731256179     -7.105E-15 9.972E-21 0.000E+00

 At SCF step   60   max residual=  9.97E-21 < tolwfr=  1.00E-20 =>converged.

 ----iterations are completed or convergence reached----

 dfpt_looppert: DFPT cycle converged with prtwf=-1. Will skip output of the 1st-order WFK file.
 dfpt_looppert : ek2=    3.9935243200E+01
          f-sum rule ratio=    1.0911135231E+00
 prteigrs : about to open file /scratch/users/j/a/jabreu/flow_simple_10atoms/flow/w446/t1/tmpdata/tmp_1WF1_EIG
 Expectation of eigenvalue derivatives (hartree) for nkpt=   1  k points:
  (in case of degenerate eigenvalues, averaged derivative)
 kpt#   1, nband= 50, wtk=  1.00000, kpt=  0.0000  0.0000  0.0000 (reduced coord)
  -0.00000   -0.00000   -0.00000   -0.00000   -0.00000    0.00000    0.00000    0.00000
   0.00000    0.00000    0.00000    0.00000    0.00000    0.00000   -0.00000   -0.00000
  -0.00000    0.00000    0.00000    0.00000    0.00000    0.00000    0.00000   -0.00000
   0.00000    0.00000    0.00000   -0.00000   -0.00000   -0.00000    0.00000    0.00000
   0.00000    0.00000    0.00000   -0.00000   -0.00000   -0.00000   -0.00000   -0.00000
  -0.00000   -0.00000    0.00000    0.00000    0.00000   -0.00000   -0.00000   -0.00000
  -0.00037    0.00000

 Eight components of 2nd-order total energy (hartree) are
 1,2,3: 0th-order hamiltonian combined with 1st-order wavefunctions
     kin0=   3.26541448E+01 eigvalue=   3.40633497E+00  local=  -2.02985968E+01
 4,5,6: 1st-order hamiltonian combined with 1st and 0th-order wfs
     kin1=  -4.35738839E+01  Hartree=   0.00000000E+00     xc=   0.00000000E+00
 7,8,9: eventually, occupation + non-local contributions
    edocc=   6.00451282E+00     enl0=   5.27833550E+00   enl1=  -1.05155786E+01
 1-9 gives the relaxation energy (to be shifted if some occ is /=2.0)
   erelax=  -2.70447313E+01
  No Ewald or frozen-wf contrib.: the relaxation energy is the total one
 2DEtotal=   -0.2704473126E+02 Ha. Also 2DEtotal=   -0.735924563602E+03 eV
    (  non-var. 2DEtotal :   -2.7044731256E+01 Ha)

 CALCULATION OF EFFECTIVE MASSES
 NOTE : Additional infos (eff. mass eigenvalues, eigenvectors and, if degenerate, average mass) are available in stdout.

 COMMENTS:
 - At k-point ( 0.000, 0.000, 0.000), bands    39 through    41
   are DEGENERATE (effective mass tensor is therefore not defined).
   See Section IIIB Eqs. (67)-(70) and Appendix E of PRB 93 205147 (2016).
 - Angular average effective mass for Frohlich model is to be averaged over degenerate bands. See later.
 - Associated theta integrals calculated with ntheta=   1000 points.

 K-point ( 0.000, 0.000, 0.000) | band =    39
 Transport equivalent effective mass tensor:
             -1.3695097715             -0.0000004228             -0.0000000002
             -0.0000004228             -1.3695093507             -0.0000000004
             -0.0000000002             -0.0000000004             -1.3695074176
 Transport equivalent effective mass tensor eigenvalues:
             -1.3695100333             -1.3695090888             -1.3695074176
 Angular average effective mass 1/(<1/m>)=  -1.2993639747
 Angular average effective mass for Frohlich model (<m**0.5>)**2=  -1.3020668828
 Effective masses along directions: (cart. coord. / red. coord. -> eff. mass)
    1:   1.000000  0.000000  0.000000 /   0.948683  0.316228  0.000000 ->  -1.3833081826
    2:   0.000000  1.000000  0.000000 /   0.000000  1.000000  0.000000 ->  -1.5646911687
    3:   0.000000  0.000000  1.000000 /   0.408248  0.408248  0.816497 ->  -1.2396094941
    4:   0.577350  0.577350  0.577350 /   0.585539  0.688047  0.428644 ->  -1.3364542227
    5:   0.000000  0.707107  0.707107 /   0.289489  0.762222  0.578977 ->  -1.2478324938
    6:   0.707107  0.000000  0.707107 /   0.731423  0.422287  0.535439 ->  -1.2840150672
    7:   0.707107  0.707107  0.000000 /   0.616798  0.787122  0.000000 ->  -1.2507556454

[...]

 K-point ( 0.000, 0.000, 0.000) | band =    41
 Transport equivalent effective mass tensor:
            -68.1429167850             -0.0000000088             -0.0000000154
             -0.0000000088            -68.1429167675             -0.0000000180
             -0.0000000154             -0.0000000180            -68.1429167847
 Transport equivalent effective mass tensor eigenvalues:
            -68.1429168091            -68.1429167720            -68.1429167561
 Angular average effective mass 1/(<1/m>)=  -4.7776343724
 Angular average effective mass for Frohlich model (<m**0.5>)**2=  -6.0286290421
 Effective masses along directions: (cart. coord. / red. coord. -> eff. mass)
    1:   1.000000  0.000000  0.000000 /   0.948683  0.316228  0.000000 ->  -4.0903806128
    2:   0.000000  1.000000  0.000000 /   0.000000  1.000000  0.000000 ->  -2.7482494118
    3:   0.000000  0.000000  1.000000 /   0.408248  0.408248  0.816497 ->  -3.5705736900
    4:   0.577350  0.577350  0.577350 /   0.585539  0.688047  0.428644 ->  -3.9516036060
    5:   0.000000  0.707107  0.707107 /   0.289489  0.762222  0.578977 ->  -6.9258209531
    6:   0.707107  0.000000  0.707107 /   0.731423  0.422287  0.535439 ->  -3.8353772976
    7:   0.707107  0.707107  0.000000 /   0.616798  0.787122  0.000000 -> -20.7975333670

 Angular average effective mass for Frohlich model, averaged over degenerate bands.
 Value of     (<<m**0.5>>)**2 =     2.591464E+00
 Absolute Value of <<m**0.5>> =     1.609802E+00

 K-point ( 0.000, 0.000, 0.000) | band =    42
 Effective mass tensor:
              0.3830055683             -0.0000000000             -0.0000000000
             -0.0000000000              0.3830055683              0.0000000000
             -0.0000000000              0.0000000000              0.3830055683
 Effective mass tensor eigenvalues:
              0.3830055683              0.3830055683              0.3830055684
 Angular average effective mass 1/(<1/m>)=   0.3830055683
 Angular average effective mass for Frohlich model (<m**0.5>)**2=   0.3830055683
 Effective masses along directions: (cart. coord. / red. coord. -> eff. mass)
    1:   1.000000  0.000000  0.000000 /   0.948683  0.316228  0.000000 ->   0.3830055683
    2:   0.000000  1.000000  0.000000 /   0.000000  1.000000  0.000000 ->   0.3830055683
    3:   0.000000  0.000000  1.000000 /   0.408248  0.408248  0.816497 ->   0.3830055683
    4:   0.577350  0.577350  0.577350 /   0.585539  0.688047  0.428644 ->   0.3830055683
    5:   0.000000  0.707107  0.707107 /   0.289489  0.762222  0.578977 ->   0.3830055683
    6:   0.707107  0.000000  0.707107 /   0.731423  0.422287  0.535439 ->   0.3830055683
    7:   0.707107  0.707107  0.000000 /   0.616798  0.787122  0.000000 ->   0.3830055683

 END OF EFFECTIVE MASSES SECTION

 ---- first-order wavefunction calculations are completed ----

 Total localisation tensor (bohr^2) in cartesian coordinates
  WARNING : still subject to testing - especially symmetries.
      direction              matrix element
   alpha     beta       real part   imaginary part
     1        1       1.7856449168    0.0000000000
     1        2       0.5050563847    0.0000000000
     1        3       1.2371309790    0.0000000000
     2        1       0.5050563847    0.0000000000
     2        2       1.4285151779    0.0000000000
     2        3       0.8747833189    0.0000000000
     3        1       1.2371309790    0.0000000000
     3        2       0.8747833189    0.0000000000
     3        3       3.2141608520    0.0000000000

 respfn : d/dk was computed, but no 2DTE, so no DDB output.

== END DATASET(S) ==============================================================

 -outvars: echo values of variables after computation  --------
            acell      1.0000000000E+00  1.0000000000E+00  1.0000000000E+00 Bohr
              amu      1.32905430E+02  8.54678000E+01  1.14820000E+02
                       7.99040000E+01
             ecut      3.50000000E+01 Hartree
           etotal     -2.7044731256E+01
            fcart      0.0000000000E+00  0.0000000000E+00  0.0000000000E+00
                       0.0000000000E+00  0.0000000000E+00  0.0000000000E+00
                       0.0000000000E+00  0.0000000000E+00  0.0000000000E+00
                       0.0000000000E+00  0.0000000000E+00  0.0000000000E+00
                       0.0000000000E+00  0.0000000000E+00  0.0000000000E+00
                       0.0000000000E+00  0.0000000000E+00  0.0000000000E+00
                       0.0000000000E+00  0.0000000000E+00  0.0000000000E+00
                       0.0000000000E+00  0.0000000000E+00  0.0000000000E+00
                       0.0000000000E+00  0.0000000000E+00  0.0000000000E+00
                       0.0000000000E+00  0.0000000000E+00  0.0000000000E+00
-          fftalg         512
           irdden           1
           irdwfk           1
           istwfk        1
              ixc     -116133
           kptopt           0
P           mkmem           1
P          mkqmem           1
P          mk1mem           1
            natom          10
            nband          50
           nbdbuf           4
            ngfft          90      90      90
             nkpt           1
            nstep        2000
             nsym          48
           ntypat           4
              occ      2.000000  2.000000  2.000000  2.000000  2.000000  2.000000
                       2.000000  2.000000  2.000000  2.000000  2.000000  2.000000
                       2.000000  2.000000  2.000000  2.000000  2.000000  2.000000
                       2.000000  2.000000  2.000000  2.000000  2.000000  2.000000
                       2.000000  2.000000  2.000000  2.000000  2.000000  2.000000
                       2.000000  2.000000  2.000000  2.000000  2.000000  2.000000
                       2.000000  2.000000  2.000000  2.000000  2.000000  0.000000
                       0.000000  0.000000  0.000000  0.000000  0.000000  0.000000
                       0.000000  0.000000
        optdriver           1
            prtwf          -1
            rfdir           1       1       1
           rfelfd           2
            rprim      1.3505164759E+01  0.0000000000E+00  7.7972105090E+00
                       4.5017215863E+00  1.2732791443E+01  7.7972105090E+00
                       0.0000000000E+00  0.0000000000E+00  1.5594421018E+01
          spgroup         225
           strten      0.0000000000E+00  0.0000000000E+00  0.0000000000E+00
                       0.0000000000E+00  0.0000000000E+00  0.0000000000E+00
           symrel      1  0  0   0  1  0   0  0  1      -1  0  0   0 -1  0   0  0 -1
                       0 -1  1   0 -1  0   1 -1  0       0  1 -1   0  1  0  -1  1  0
                      -1  0  0  -1  0  1  -1  1  0       1  0  0   1  0 -1   1 -1  0
                       0  1 -1   1  0 -1   0  0 -1       0 -1  1  -1  0  1   0  0  1
                      -1  0  0  -1  1  0  -1  0  1       1  0  0   1 -1  0   1  0 -1
                       0 -1  1   1 -1  0   0 -1  0       0  1 -1  -1  1  0   0  1  0
                       1  0  0   0  0  1   0  1  0      -1  0  0   0  0 -1   0 -1  0
                       0  1 -1   0  0 -1   1  0 -1       0 -1  1   0  0  1  -1  0  1
                      -1  0  1  -1  1  0  -1  0  0       1  0 -1   1 -1  0   1  0  0
                       0 -1  0   1 -1  0   0 -1  1       0  1  0  -1  1  0   0  1 -1
                       1  0 -1   0  0 -1   0  1 -1      -1  0  1   0  0  1   0 -1  1
                       0  1  0   0  0  1   1  0  0       0 -1  0   0  0 -1  -1  0  0
                       1  0 -1   0  1 -1   0  0 -1      -1  0  1   0 -1  1   0  0  1
                       0 -1  0   0 -1  1   1 -1  0       0  1  0   0  1 -1  -1  1  0
                      -1  0  1  -1  0  0  -1  1  0       1  0 -1   1  0  0   1 -1  0
                       0  1  0   1  0  0   0  0  1       0 -1  0  -1  0  0   0  0 -1
                       0  0 -1   0  1 -1   1  0 -1       0  0  1   0 -1  1  -1  0  1
                       1 -1  0   0 -1  1   0 -1  0      -1  1  0   0  1 -1   0  1  0
                       0  0  1   1  0  0   0  1  0       0  0 -1  -1  0  0   0 -1  0
                      -1  1  0  -1  0  0  -1  0  1       1 -1  0   1  0  0   1  0 -1
                       0  0  1   0  1  0   1  0  0       0  0 -1   0 -1  0  -1  0  0
                       1 -1  0   0 -1  0   0 -1  1      -1  1  0   0  1  0   0  1 -1
                       0  0 -1   1  0 -1   0  1 -1       0  0  1  -1  0  1   0 -1  1
                      -1  1  0  -1  0  1  -1  0  0       1 -1  0   1  0 -1   1  0  0
           tolwfr      1.00000000E-20
            typat      1  1  2  3  4  4  4  4  4  4
           useylm           1
           xangst      2.3822084629E+00  1.6844757583E+00  4.1261060920E+00
                       7.1466253887E+00  5.0534272749E+00  1.2378318276E+01
                       4.7644169258E+00  3.3689515166E+00  8.2522121839E+00
                       0.0000000000E+00  0.0000000000E+00  0.0000000000E+00
                       3.4700725440E+00  5.1994308958E+00  1.0494082416E+01
                       6.0587613076E+00  1.5384721375E+00  1.0494082416E+01
                       3.4700725440E+00  5.1994308958E+00  6.0103419521E+00
                       2.1757281622E+00  1.5384721375E+00  8.2522121839E+00
                       7.3531056894E+00  5.1994308958E+00  8.2522121839E+00
                       6.0587613076E+00  1.5384721375E+00  6.0103419521E+00
            xcart      4.5017215863E+00  3.1831978607E+00  7.7972105090E+00
                       1.3505164759E+01  9.5495935821E+00  2.3391631527E+01
                       9.0034431727E+00  6.3663957214E+00  1.5594421018E+01
                       0.0000000000E+00  0.0000000000E+00  0.0000000000E+00
                       6.5574867694E+00  9.8255004399E+00  1.9830941782E+01
                       1.1449399576E+01  2.9072910029E+00  1.9830941782E+01
                       6.5574867694E+00  9.8255004399E+00  1.1357900254E+01
                       4.1115303661E+00  2.9072910029E+00  1.5594421018E+01
                       1.3895355979E+01  9.8255004399E+00  1.5594421018E+01
                       1.1449399576E+01  2.9072910029E+00  1.1357900254E+01
             xred      2.5000000000E-01  2.5000000000E-01  2.5000000000E-01
                       7.5000000000E-01  7.5000000000E-01  7.5000000000E-01
                       5.0000000000E-01  5.0000000000E-01  5.0000000000E-01
                       0.0000000000E+00  0.0000000000E+00  0.0000000000E+00
                       2.2833100000E-01  7.7166900000E-01  7.7166900000E-01
                       7.7166900000E-01  2.2833100000E-01  7.7166900000E-01
                       2.2833100000E-01  7.7166900000E-01  2.2833100000E-01
                       2.2833100000E-01  2.2833100000E-01  7.7166900000E-01
                       7.7166900000E-01  7.7166900000E-01  2.2833100000E-01
                       7.7166900000E-01  2.2833100000E-01  2.2833100000E-01
            znucl       55.00000   37.00000   49.00000   35.00000

- Timing analysis has been suppressed with timopt=0

 Suggested references for the acknowledgment of ABINIT usage.

 Calculation completed.
.Delivered   2 WARNINGs and   5 COMMENTs to log file.