.Version 9.5.2 of ABINIT

 ABINIT is a project of the Universite Catholique de Louvain,
 Corning Inc. and other collaborators, see ~abinit/doc/developers/contributors.txt .
 acknowledgments of the ABINIT effort.

.Starting date : Mon 24 May 2021.
- ( at 23h12 )

- input  file    -> /scratch/users/j/a/jabreu/flow_simple_10atoms/flow/w484/t1/run.abi
- output file    -> /scratch/users/j/a/jabreu/flow_simple_10atoms/flow/w484/t1/run.abo
- root for input  files -> /scratch/users/j/a/jabreu/flow_simple_10atoms/flow/w484/t1/indata/in
- root for output files -> /scratch/users/j/a/jabreu/flow_simple_10atoms/flow/w484/t1/outdata/out

 Symmetries : space group Pm c 2_1 (# 26); Bravais oP (primitive ortho.)
     intxc =       0      iscf =       7    lmnmax =      32     lnmax =       8
     mgfft =      72  mpssoang =       4    mqgrid =    3299     natom =      10
  nloc_mem =       1    nspden =       1   nspinor =       1    nsppol =       1
      nsym =       4    n1xccc =    2501    ntypat =       3    occopt =       1
   xclevel =       2
-    mband =          49        mffmem =           1         mkmem =           2
-   mkqmem =           2        mk1mem =           2           mpw =       11104
      nfft =      207360          nkpt =           2
  Rough estimation (10% accuracy) of disk space for files :

------------- Echo of variables that govern the present computation ------------
-
- outvars: echo of selected default values
-   iomode0 =  0 , fftalg0 =512 , wfoptalg0 =  0
-
- outvars: echo of global parameters not present in the input file
-  max_nthreads =    0
-
 -outvars: echo values of preprocessed input variables --------
            acell      1.0000000000E+00  1.0000000000E+00  1.0000000000E+00 Bohr
              amu      8.89058500E+01  1.83850000E+02  1.40067400E+01
             ecut      4.20000000E+01 Hartree
-          fftalg         512
           irdden           1
           irdwfk           1
           istwfk        1    0
              ixc     -116133
              kpt      0.00000000E+00  5.00000000E-01  0.00000000E+00
                       5.55555556E-02  0.00000000E+00  0.00000000E+00
           kptopt           0
P           mkmem           2
P          mkqmem           2
P          mk1mem           2
            natom          10
            nband          49
           nbdbuf           4
            ngfft          40      72      72
             nkpt           2
            nstep        2000
             nsym           4
           ntypat           3
              occ      2.000000  2.000000  2.000000  2.000000  2.000000  2.000000
                       2.000000  2.000000  2.000000  2.000000  2.000000  2.000000
                       2.000000  2.000000  2.000000  2.000000  2.000000  2.000000
                       2.000000  2.000000  2.000000  2.000000  2.000000  2.000000
                       2.000000  2.000000  2.000000  2.000000  2.000000  2.000000
                       2.000000  2.000000  2.000000  2.000000  2.000000  2.000000
                       2.000000  2.000000  2.000000  2.000000  0.000000  0.000000
                       0.000000  0.000000  0.000000  0.000000  0.000000  0.000000
                       0.000000
        optdriver           1
            prtwf          -1
            rfdir           1       1       1
           rfelfd           2
            rprim      6.7694336721E+00  0.0000000000E+00  0.0000000000E+00
                       0.0000000000E+00  1.1149152682E+01  0.0000000000E+00
                       0.0000000000E+00  0.0000000000E+00  1.1307631199E+01
          spgroup          26
           symrel      1  0  0   0  1  0   0  0  1       1  0  0   0 -1  0   0  0  1
                      -1  0  0   0 -1  0   0  0  1      -1  0  0   0  1  0   0  0  1
            tnons      0.0000000  0.0000000  0.0000000     0.0000000  0.0000000  0.5000000
                       0.0000000  0.0000000  0.5000000     0.0000000  0.0000000  0.0000000
           tolwfr      1.00000000E-20
            typat      1  1  2  2  3  3  3  3  3  3
           useylm           1
              wtk        0.50000    0.50000
           xangst      0.0000000000E+00  9.0876403031E-01  1.7423336536E+00
                       0.0000000000E+00  4.9911134639E+00  4.7342040105E+00
                       1.7911150072E+00  4.0837418047E+00  1.9217980051E+00
                       1.7911150072E+00  1.8161356895E+00  4.9136683620E+00
                       1.7911150072E+00  5.8464836029E-01  3.5075970016E+00
                       1.7911150072E+00  3.4508088470E+00  4.1299957919E+00
                       0.0000000000E+00  4.5466343931E+00  2.4879915189E+00
                       1.7911150072E+00  5.3152291339E+00  5.1572664465E-01
                       0.0000000000E+00  1.3532431011E+00  5.4798618758E+00
                       1.7911150072E+00  2.4490686472E+00  1.1381254350E+00
            xcart      0.0000000000E+00  1.7173151367E+00  3.2925334374E+00
                       0.0000000000E+00  9.4318375449E+00  8.9463490371E+00
                       3.3847168360E+00  7.7171536082E+00  3.6316719123E+00
                       3.3847168360E+00  3.4319990734E+00  9.2854875120E+00
                       3.3847168360E+00  1.1048252850E+00  6.6283977175E+00
                       3.3847168360E+00  6.5210836577E+00  7.8045609767E+00
                       0.0000000000E+00  8.5918938293E+00  4.7016225917E+00
                       3.3847168360E+00  1.0044327397E+01  9.7458211781E-01
                       0.0000000000E+00  2.5572588523E+00  1.0355438191E+01
                       3.3847168360E+00  4.6280690239E+00  2.1507453770E+00
             xred      0.0000000000E+00  1.5403100000E-01  2.9117800000E-01
                       0.0000000000E+00  8.4596900000E-01  7.9117800000E-01
                       5.0000000000E-01  6.9217400000E-01  3.2117000000E-01
                       5.0000000000E-01  3.0782600000E-01  8.2117000000E-01
                       5.0000000000E-01  9.9095000000E-02  5.8618800000E-01
                       5.0000000000E-01  5.8489500000E-01  6.9020300000E-01
                       0.0000000000E+00  7.7063200000E-01  4.1579200000E-01
                       5.0000000000E-01  9.0090500000E-01  8.6188000000E-02
                       0.0000000000E+00  2.2936800000E-01  9.1579200000E-01
                       5.0000000000E-01  4.1510500000E-01  1.9020300000E-01
            znucl       39.00000   74.00000    7.00000

 chkinp: Checking input parameters for consistency.

== DATASET  1 ==================================================================
-   mpi_nproc: 1, omp_nthreads: -1 (-1 if OMP is not activated)

--- !DatasetInfo
iteration_state: {dtset: 1, }
dimensions: {natom: 10, nkpt: 2, mband: 49, nsppol: 1, nspinor: 1, nspden: 1, mpw: 11104, }
cutoff_energies: {ecut:  42.0, pawecutdg:  -1.0, }
electrons: {nelect:   8.00000000E+01, charge:   0.00000000E+00, occopt:   1.00000000E+00, tsmear:   1.00000000E-02, }
meta: {optdriver: 1, rfelfd: 2, }
...

 Real(R)+Recip(G) space primitive vectors, cartesian coordinates (Bohr,Bohr^-1):
 R(1)=  6.7694337  0.0000000  0.0000000  G(1)=  0.1477228  0.0000000  0.0000000
 R(2)=  0.0000000 11.1491527  0.0000000  G(2)=  0.0000000  0.0896929  0.0000000
 R(3)=  0.0000000  0.0000000 11.3076312  G(3)=  0.0000000  0.0000000  0.0884359
 Unit cell volume ucvol=  8.5342593E+02 bohr^3
 Angles (23,13,12)=  9.00000000E+01  9.00000000E+01  9.00000000E+01 degrees

 getcut: wavevector=  0.0000  0.0000  0.0000  ngfft=  40  72  72
         ecut(hartree)=     42.000   => boxcut(ratio)=   2.02543

--- Pseudopotential description ------------------------------------------------
- pspini: atom type   1  psp file is /scratch/users/j/a/jabreu/pseudos/PBEsol/Y.psp8
- pspatm: opening atomic psp file    /scratch/users/j/a/jabreu/pseudos/PBEsol/Y.psp8
- Y     ONCVPSP-3.3.0  r_core=   1.60520   1.51226   1.56736
- 39.00000  11.00000    180112                znucl, zion, pspdat
    8 -116133    2    4       600   0.00000   pspcod,pspxc,lmax,lloc,mmax,r2well
    5.99000000000000    4.00000000000000    0.00000000000000   rchrg,fchrg,qchrg
     nproj     2     2     2
     extension_switch     1
  pspatm : epsatm=   18.54790046
         --- l  ekb(1:nproj) -->
             0   10.130768    0.866504
             1    5.598307    0.427135
             2    1.217602    0.315447
 pspatm: atomic psp has been read  and splines computed

- pspini: atom type   2  psp file is /scratch/users/j/a/jabreu/pseudos/PBEsol/W.psp8
- pspatm: opening atomic psp file    /scratch/users/j/a/jabreu/pseudos/PBEsol/W.psp8
- W     ONCVPSP-3.3.0  r_core=   1.61105   1.61105   1.61105   2.02088
- 74.00000  14.00000    180112                znucl, zion, pspdat
    8 -116133    3    4       600   0.00000   pspcod,pspxc,lmax,lloc,mmax,r2well
    5.99000000000000    5.00000000000000    0.00000000000000   rchrg,fchrg,qchrg
     nproj     2     2     2     2
     extension_switch     1
  pspatm : epsatm=   11.51367240
         --- l  ekb(1:nproj) -->
             0   13.027742    1.852033
             1    9.109631    1.414397
             2    4.487527    0.514612
             3   47.292176    0.887489
 pspatm: atomic psp has been read  and splines computed

- pspini: atom type   3  psp file is /scratch/users/j/a/jabreu/pseudos/PBEsol/N.psp8
- pspatm: opening atomic psp file    /scratch/users/j/a/jabreu/pseudos/PBEsol/N.psp8
- N     ONCVPSP-3.3.0  r_core=   1.20551   1.35824
-  7.00000   5.00000    180112                znucl, zion, pspdat
    8 -116133    1    4       600   0.00000   pspcod,pspxc,lmax,lloc,mmax,r2well
    5.99000000000000    4.00000000000000    0.00000000000000   rchrg,fchrg,qchrg
     nproj     2     2
     extension_switch     1
  pspatm : epsatm=    5.26508895
         --- l  ekb(1:nproj) -->
             0    7.464189    0.625868
             1   -4.309714   -1.012941
 pspatm: atomic psp has been read  and splines computed

   7.33709436E+03                                ecore*ucvol(ha*bohr**3)

 ==>  initialize data related to q vector <==

 The list of irreducible perturbations for this q vector is:
    1)    idir= 1    ipert=  11
    2)    idir= 2    ipert=  11
    3)    idir= 3    ipert=  11

 Perturbation wavevector (in red.coord.)   0.000000  0.000000  0.000000
 Perturbation : derivative vs k along direction   1

 dfpt_looppert : COMMENT -
  In a d/dk calculation, iscf is set to -3 automatically.
 The set of symmetries contains only one element for this perturbation.
 symkpt : not enough symmetry to change the number of k points.

 Initialisation of the first-order wave-functions :
  ireadwf=   0

--- !BeginCycle
iteration_state: {dtset: 1, }
solver: {iscf: 7, nstep: 2000, nline: 4, wfoptalg: 0, }
tolerances: {tolwfr: 1.00E-20, }
...

     iter   2DEtotal(Ha)        deltaE(Ha) residm    vres2
-ETOT  1  -72.401000784135     -7.240E+01 2.002E-01 0.000E+00
 ETOT  2  -72.657772246655     -2.568E-01 1.742E-01 0.000E+00
 ETOT  3  -72.662023842288     -4.252E-03 7.196E-03 0.000E+00
 ETOT  4  -72.662129628814     -1.058E-04 3.421E-03 0.000E+00
 ETOT  5  -72.662133071427     -3.443E-06 4.297E-04 0.000E+00
 ETOT  6  -72.662133203380     -1.320E-07 7.297E-05 0.000E+00
[...]
 ETOT 35  -72.662133209282      1.421E-14 6.892E-20 0.000E+00
 ETOT 36  -72.662133209282     -2.842E-14 6.772E-20 0.000E+00
 ETOT 37  -72.662133209282      0.000E+00 9.976E-21 0.000E+00

 At SCF step   37   max residual=  9.98E-21 < tolwfr=  1.00E-20 =>converged.

 ----iterations are completed or convergence reached----

 dfpt_looppert: DFPT cycle converged with prtwf=-1. Will skip output of the 1st-order WFK file.
 dfpt_looppert : ek2=    1.3783993027E+02
          f-sum rule ratio=    1.0185693191E+00
 prteigrs : about to open file /scratch/users/j/a/jabreu/flow_simple_10atoms/flow/w484/t1/tmpdata/tmp_1WF1_EIG
 Expectation of eigenvalue derivatives (hartree) for nkpt=   2  k points:
  (in case of degenerate eigenvalues, averaged derivative)
 kpt#   1, nband= 49, wtk=  0.50000, kpt=  0.0000  0.5000  0.0000 (reduced coord)
   0.00000    0.00000   -0.00000   -0.00000   -0.00000   -0.00000    0.00000   -0.00000
   0.00000    0.00000   -0.00000   -0.00000   -0.00000    0.00000   -0.00000    0.00000
   0.00000   -0.00000   -0.00000    0.00000    0.00000    0.00000    0.00000   -0.00000
   0.00000   -0.00000   -0.00000    0.00000    0.00000    0.00000    0.00000   -0.00000
   0.00000   -0.00000   -0.00000   -0.00000    0.00000   -0.00000   -0.00000    0.00000
  -0.00000    0.00000    0.00000    0.00000    0.00000    0.00000    0.00000   -0.00000
  -0.00048
 prteigrs : prtvol=0 or 1, do not print more k-points.

 Eight components of 2nd-order total energy (hartree) are
 1,2,3: 0th-order hamiltonian combined with 1st-order wavefunctions
     kin0=   1.28972648E+02 eigvalue=  -9.17610402E+00  local=  -7.65940309E+01
 4,5,6: 1st-order hamiltonian combined with 1st and 0th-order wfs
     kin1=  -1.40399524E+02  Hartree=   0.00000000E+00     xc=   0.00000000E+00
 7,8,9: eventually, occupation + non-local contributions
    edocc=   1.84510129E+01     enl0=   1.10086070E+01   enl1=  -4.92474250E+00
 1-9 gives the relaxation energy (to be shifted if some occ is /=2.0)
   erelax=  -7.26621332E+01
  No Ewald or frozen-wf contrib.: the relaxation energy is the total one
 2DEtotal=   -0.7266213321E+02 Ha. Also 2DEtotal=   -0.197723719884E+04 eV
    (  non-var. 2DEtotal :   -7.2662133209E+01 Ha)

 Perturbation wavevector (in red.coord.)   0.000000  0.000000  0.000000
 Perturbation : derivative vs k along direction   2
 The set of symmetries contains only one element for this perturbation.
 symkpt : not enough symmetry to change the number of k points.

[...]

 Perturbation wavevector (in red.coord.)   0.000000  0.000000  0.000000
 Perturbation : derivative vs k along direction   3
 The set of symmetries contains only one element for this perturbation.
 symkpt : not enough symmetry to change the number of k points.

 Initialisation of the first-order wave-functions :
  ireadwf=   0

--- !BeginCycle
iteration_state: {dtset: 1, }
solver: {iscf: 7, nstep: 2000, nline: 4, wfoptalg: 0, }
tolerances: {tolwfr: 1.00E-20, }
...

     iter   2DEtotal(Ha)        deltaE(Ha) residm    vres2
-ETOT  1  -26.527462348058     -2.653E+01 4.705E-02 0.000E+00
 ETOT  2  -26.625966409198     -9.850E-02 2.375E-02 0.000E+00
 ETOT  3  -26.627935297062     -1.969E-03 7.216E-04 0.000E+00
 ETOT  4  -26.627989656093     -5.436E-05 3.295E-04 0.000E+00
 ETOT  5  -26.627991388406     -1.732E-06 5.001E-05 0.000E+00
 ETOT  6  -26.627991448835     -6.043E-08 1.798E-05 0.000E+00
 ETOT  7  -26.627991451078     -2.243E-09 3.294E-06 0.000E+00
 ETOT  8  -26.627991451166     -8.742E-11 1.208E-06 0.000E+00
 ETOT  9  -26.627991451169     -3.535E-12 2.252E-07 0.000E+00
 ETOT 10  -26.627991451169     -1.172E-13 8.506E-08 0.000E+00
 ETOT 11  -26.627991451169     -2.842E-14 1.589E-08 0.000E+00
 ETOT 12  -26.627991451169     -1.421E-14 6.153E-09 0.000E+00
 ETOT 13  -26.627991451169      7.105E-15 1.154E-09 0.000E+00
 ETOT 14  -26.627991451169      3.553E-15 4.554E-10 0.000E+00
 ETOT 15  -26.627991451169      0.000E+00 8.584E-11 0.000E+00
 ETOT 16  -26.627991451169     -7.105E-15 3.436E-11 0.000E+00
 ETOT 17  -26.627991451169      0.000E+00 6.510E-12 0.000E+00
 ETOT 18  -26.627991451169      7.105E-15 2.634E-12 0.000E+00
 ETOT 19  -26.627991451169      0.000E+00 5.018E-13 0.000E+00
 ETOT 20  -26.627991451169     -7.105E-15 2.047E-13 0.000E+00
 ETOT 21  -26.627991451169      0.000E+00 3.920E-14 0.000E+00
 ETOT 22  -26.627991451169      7.105E-15 1.608E-14 0.000E+00
 ETOT 23  -26.627991451169      0.000E+00 3.095E-15 0.000E+00
 ETOT 24  -26.627991451169      0.000E+00 1.276E-15 0.000E+00
 ETOT 25  -26.627991451169      0.000E+00 2.465E-16 0.000E+00
 ETOT 26  -26.627991451169      0.000E+00 1.020E-16 0.000E+00
 ETOT 27  -26.627991451169      3.553E-15 1.977E-17 0.000E+00
 ETOT 28  -26.627991451169     -3.553E-15 8.199E-18 0.000E+00
 ETOT 29  -26.627991451169     -7.105E-15 1.595E-18 0.000E+00
 ETOT 30  -26.627991451169      7.105E-15 6.628E-19 0.000E+00
 ETOT 31  -26.627991451169     -7.105E-15 1.292E-19 0.000E+00
 ETOT 32  -26.627991451169      7.105E-15 5.380E-20 0.000E+00
 ETOT 33  -26.627991451169      0.000E+00 1.051E-20 0.000E+00
 ETOT 34  -26.627991451169     -7.105E-15 9.902E-21 0.000E+00

 At SCF step   34   max residual=  9.90E-21 < tolwfr=  1.00E-20 =>converged.

 ----iterations are completed or convergence reached----

 dfpt_looppert: DFPT cycle converged with prtwf=-1. Will skip output of the 1st-order WFK file.
 dfpt_looppert : ek2=    4.9401080564E+01
          f-sum rule ratio=    1.0414223038E+00
 prteigrs : about to open file /scratch/users/j/a/jabreu/flow_simple_10atoms/flow/w484/t1/tmpdata/tmp_1WF1_EIG
 Expectation of eigenvalue derivatives (hartree) for nkpt=   2  k points:
  (in case of degenerate eigenvalues, averaged derivative)
 kpt#   1, nband= 49, wtk=  0.50000, kpt=  0.0000  0.5000  0.0000 (reduced coord)
  -0.00000   -0.00000    0.00000   -0.00000   -0.00000    0.00000   -0.00000   -0.00000
  -0.00000   -0.00000    0.00000    0.00000   -0.00000    0.00000   -0.00000    0.00000
  -0.00000   -0.00000    0.00000    0.00000    0.00000    0.00000   -0.00000   -0.00000
   0.00000   -0.00000    0.00000   -0.00000    0.00000    0.00000   -0.00000    0.00000
  -0.00000    0.00000   -0.00000    0.00000   -0.00000    0.00000   -0.00000    0.00000
   0.00000   -0.00000    0.00000    0.00000   -0.00000   -0.00000   -0.00000   -0.00000
   0.06161
 prteigrs : prtvol=0 or 1, do not print more k-points.

 Eight components of 2nd-order total energy (hartree) are
 1,2,3: 0th-order hamiltonian combined with 1st-order wavefunctions
     kin0=   4.16729849E+01 eigvalue=  -2.80243071E+00  local=  -2.36517340E+01
 4,5,6: 1st-order hamiltonian combined with 1st and 0th-order wfs
     kin1=  -5.14473871E+01  Hartree=   0.00000000E+00     xc=   0.00000000E+00
 7,8,9: eventually, occupation + non-local contributions
    edocc=   8.54380233E+00     enl0=   2.86536893E+00   enl1=  -1.80859577E+00
 1-9 gives the relaxation energy (to be shifted if some occ is /=2.0)
   erelax=  -2.66279915E+01
  No Ewald or frozen-wf contrib.: the relaxation energy is the total one
 2DEtotal=   -0.2662799145E+02 Ha. Also 2DEtotal=   -0.724584496799E+03 eV
    (  non-var. 2DEtotal :   -2.6627991451E+01 Ha)

 CALCULATION OF EFFECTIVE MASSES
 NOTE : Additional infos (eff. mass eigenvalues, eigenvectors and, if degenerate, average mass) are available in stdout.

 K-point ( 0.000, 0.500, 0.000) | band =    40
 Effective mass tensor:
             -2.4352997376             -0.0015173142              0.0006008645
             -0.0015173142             -1.2464094514             -0.0000027488
              0.0006008645             -0.0000027488             -0.5832974053
 Effective mass tensor eigenvalues:
             -2.4353018690             -1.2464075150             -0.5832972103
 Angular average effective mass 1/(<1/m>)=  -1.0248266273
 Angular average effective mass for Frohlich model (<m**0.5>)**2=  -1.1308862117
 Effective masses along directions: (cart. coord. / red. coord. -> eff. mass)
    1:   1.000000  0.000000  0.000000 /   1.000000  0.000000  0.000000 ->  -2.4352972716
    2:   0.000000  1.000000  0.000000 /   0.000000  1.000000  0.000000 ->  -1.2464085060
    3:   0.000000  0.000000  1.000000 /   0.000000  0.000000  1.000000 ->  -0.5832972570
    4:   0.577350  0.577350  0.577350 /   0.392148  0.645862  0.655043 ->  -1.0248834687
    5:   0.000000  0.707107  0.707107 /   0.000000  0.702099  0.712079 ->  -0.7946951464
    6:   0.707107  0.000000  0.707107 /   0.513651  0.000000  0.857999 ->  -0.9407934141
    7:   0.707107  0.707107  0.000000 /   0.518995  0.854777  0.000000 ->  -1.6502563636

 K-point ( 0.056, 0.000, 0.000) | band =    41
 Effective mass tensor:
              2.7992829242              0.0000546549              0.0000048555
              0.0000546549              2.1036294552             -0.0000010593
              0.0000048555             -0.0000010593              1.2989973158
 Effective mass tensor eigenvalues:
              1.2989973158              2.1036294509              2.7992829285
 Angular average effective mass 1/(<1/m>)=   1.8721592713
 Angular average effective mass for Frohlich model (<m**0.5>)**2=   1.9311524644
 Effective masses along directions: (cart. coord. / red. coord. -> eff. mass)
    1:   1.000000  0.000000  0.000000 /   1.000000  0.000000  0.000000 ->   2.7992829227
    2:   0.000000  1.000000  0.000000 /   0.000000  1.000000  0.000000 ->   2.1036294541
    3:   0.000000  0.000000  1.000000 /   0.000000  0.000000  1.000000 ->   1.2989973158
    4:   0.577350  0.577350  0.577350 /   0.392148  0.645862  0.655043 ->   1.8721831732
    5:   0.000000  0.707107  0.707107 /   0.000000  0.702099  0.712079 ->   1.6061751684
    6:   0.707107  0.000000  0.707107 /   0.513651  0.000000  0.857999 ->   1.7745343936
    7:   0.707107  0.707107  0.000000 /   0.518995  0.854777  0.000000 ->   2.4021580822

 END OF EFFECTIVE MASSES SECTION

 ---- first-order wavefunction calculations are completed ----

 Total localisation tensor (bohr^2) in cartesian coordinates
  WARNING : still subject to testing - especially symmetries.
      direction              matrix element
   alpha     beta       real part   imaginary part
     1        1       1.0489191330    0.0000000000
     1        2       0.0000000000    0.0000000000
     1        3       0.0000000000    0.0000000000
     2        1       0.0000000000    0.0000000000
     2        2       1.0060357989    0.0000000000
     2        3       0.0000000000    0.0000000000
     3        1       0.0000000000    0.0000000000
     3        2       0.0000000000    0.0000000000
     3        3       1.0873532751    0.0000000000

 respfn : d/dk was computed, but no 2DTE, so no DDB output.

== END DATASET(S) ==============================================================

 -outvars: echo values of variables after computation  --------
            acell      1.0000000000E+00  1.0000000000E+00  1.0000000000E+00 Bohr
              amu      8.89058500E+01  1.83850000E+02  1.40067400E+01
             ecut      4.20000000E+01 Hartree
           etotal     -2.6627991451E+01
            fcart      0.0000000000E+00  0.0000000000E+00  0.0000000000E+00
                       0.0000000000E+00  0.0000000000E+00  0.0000000000E+00
                       0.0000000000E+00  0.0000000000E+00  0.0000000000E+00
                       0.0000000000E+00  0.0000000000E+00  0.0000000000E+00
                       0.0000000000E+00  0.0000000000E+00  0.0000000000E+00
                       0.0000000000E+00  0.0000000000E+00  0.0000000000E+00
                       0.0000000000E+00  0.0000000000E+00  0.0000000000E+00
                       0.0000000000E+00  0.0000000000E+00  0.0000000000E+00
                       0.0000000000E+00  0.0000000000E+00  0.0000000000E+00
                       0.0000000000E+00  0.0000000000E+00  0.0000000000E+00
-          fftalg         512
           irdden           1
           irdwfk           1
           istwfk        1    0
              ixc     -116133
              kpt      0.00000000E+00  5.00000000E-01  0.00000000E+00
                       5.55555556E-02  0.00000000E+00  0.00000000E+00
           kptopt           0
P           mkmem           2
P          mkqmem           2
P          mk1mem           2
            natom          10
            nband          49
           nbdbuf           4
            ngfft          40      72      72
             nkpt           2
            nstep        2000
             nsym           4
           ntypat           3
              occ      2.000000  2.000000  2.000000  2.000000  2.000000  2.000000
                       2.000000  2.000000  2.000000  2.000000  2.000000  2.000000
                       2.000000  2.000000  2.000000  2.000000  2.000000  2.000000
                       2.000000  2.000000  2.000000  2.000000  2.000000  2.000000
                       2.000000  2.000000  2.000000  2.000000  2.000000  2.000000
                       2.000000  2.000000  2.000000  2.000000  2.000000  2.000000
                       2.000000  2.000000  2.000000  2.000000  0.000000  0.000000
                       0.000000  0.000000  0.000000  0.000000  0.000000  0.000000
                       0.000000
        optdriver           1
            prtwf          -1
            rfdir           1       1       1
           rfelfd           2
            rprim      6.7694336721E+00  0.0000000000E+00  0.0000000000E+00
                       0.0000000000E+00  1.1149152682E+01  0.0000000000E+00
                       0.0000000000E+00  0.0000000000E+00  1.1307631199E+01
          spgroup          26
           strten      0.0000000000E+00  0.0000000000E+00  0.0000000000E+00
                       0.0000000000E+00  0.0000000000E+00  0.0000000000E+00
           symrel      1  0  0   0  1  0   0  0  1       1  0  0   0 -1  0   0  0  1
                      -1  0  0   0 -1  0   0  0  1      -1  0  0   0  1  0   0  0  1
            tnons      0.0000000  0.0000000  0.0000000     0.0000000  0.0000000  0.5000000
                       0.0000000  0.0000000  0.5000000     0.0000000  0.0000000  0.0000000
           tolwfr      1.00000000E-20
            typat      1  1  2  2  3  3  3  3  3  3
           useylm           1
              wtk        0.50000    0.50000
           xangst      0.0000000000E+00  9.0876403031E-01  1.7423336536E+00
                       0.0000000000E+00  4.9911134639E+00  4.7342040105E+00
                       1.7911150072E+00  4.0837418047E+00  1.9217980051E+00
                       1.7911150072E+00  1.8161356895E+00  4.9136683620E+00
                       1.7911150072E+00  5.8464836029E-01  3.5075970016E+00
                       1.7911150072E+00  3.4508088470E+00  4.1299957919E+00
                       0.0000000000E+00  4.5466343931E+00  2.4879915189E+00
                       1.7911150072E+00  5.3152291339E+00  5.1572664465E-01
                       0.0000000000E+00  1.3532431011E+00  5.4798618758E+00
                       1.7911150072E+00  2.4490686472E+00  1.1381254350E+00
            xcart      0.0000000000E+00  1.7173151367E+00  3.2925334374E+00
                       0.0000000000E+00  9.4318375449E+00  8.9463490371E+00
                       3.3847168360E+00  7.7171536082E+00  3.6316719123E+00
                       3.3847168360E+00  3.4319990734E+00  9.2854875120E+00
                       3.3847168360E+00  1.1048252850E+00  6.6283977175E+00
                       3.3847168360E+00  6.5210836577E+00  7.8045609767E+00
                       0.0000000000E+00  8.5918938293E+00  4.7016225917E+00
                       3.3847168360E+00  1.0044327397E+01  9.7458211781E-01
                       0.0000000000E+00  2.5572588523E+00  1.0355438191E+01
                       3.3847168360E+00  4.6280690239E+00  2.1507453770E+00
             xred      0.0000000000E+00  1.5403100000E-01  2.9117800000E-01
                       0.0000000000E+00  8.4596900000E-01  7.9117800000E-01
                       5.0000000000E-01  6.9217400000E-01  3.2117000000E-01
                       5.0000000000E-01  3.0782600000E-01  8.2117000000E-01
                       5.0000000000E-01  9.9095000000E-02  5.8618800000E-01
                       5.0000000000E-01  5.8489500000E-01  6.9020300000E-01
                       0.0000000000E+00  7.7063200000E-01  4.1579200000E-01
                       5.0000000000E-01  9.0090500000E-01  8.6188000000E-02
                       0.0000000000E+00  2.2936800000E-01  9.1579200000E-01
                       5.0000000000E-01  4.1510500000E-01  1.9020300000E-01
            znucl       39.00000   74.00000    7.00000

- Timing analysis has been suppressed with timopt=0

 Suggested references for the acknowledgment of ABINIT usage.

 Calculation completed.
.Delivered   2 WARNINGs and   5 COMMENTs to log file.