.Version 9.7.2 of ABINIT

 ABINIT is a project of the Universite Catholique de Louvain,
 Corning Inc. and other collaborators, see ~abinit/doc/developers/contributors.txt .
 acknowledgments of the ABINIT effort.

.Starting date : Wed  1 Dec 2021.
- ( at 21h47 )

- input  file    -> /scratch/users/j/a/jabreu/flow_simple_remain_atoms/flow/w244/t1/run.abi
- output file    -> /scratch/users/j/a/jabreu/flow_simple_remain_atoms/flow/w244/t1/run.abo
- root for input  files -> /scratch/users/j/a/jabreu/flow_simple_remain_atoms/flow/w244/t1/indata/in
- root for output files -> /scratch/users/j/a/jabreu/flow_simple_remain_atoms/flow/w244/t1/outdata/out

 Symmetries : space group P-3 m 1 (#164); Bravais hP (primitive hexag.)
     intxc =       0      iscf =       7    lmnmax =      18     lnmax =       6
     mgfft =      80  mpssoang =       3    mqgrid =    3878     natom =       5
  nloc_mem =       1    nspden =       1   nspinor =       1    nsppol =       1
      nsym =      12    n1xccc =    2501    ntypat =       3    occopt =       1
   xclevel =       2
-    mband =          39        mffmem =           1         mkmem =           2
-   mkqmem =           2        mk1mem =           2           mpw =       10076
      nfft =      184320          nkpt =           2
  Rough estimation (10% accuracy) of disk space for files :

------------- Echo of variables that govern the present computation ------------
-
- outvars: echo of selected default values
-   iomode0 =  0 , fftalg0 =512 , wfoptalg0 =  0
-
- outvars: echo of global parameters not present in the input file
-  max_nthreads =    0
-
 -outvars: echo values of preprocessed input variables --------
            acell      1.0000000000E+00  1.0000000000E+00  1.0000000000E+00 Bohr
              amu      4.00780000E+01  2.43050000E+01  7.49215900E+01
             ecut      4.20000000E+01 Hartree
-          fftalg         512
           irdden           1
           irdwfk           1
           istwfk        1    1
              ixc     -116133
              kpt      0.00000000E+00  0.00000000E+00  0.00000000E+00
                       5.00000000E-01  0.00000000E+00  0.00000000E+00
           kptopt           0
P           mkmem           2
P          mkqmem           2
P          mk1mem           2
            natom           5
            nband          39
           nbdbuf           4
            ngfft          48      48      80
             nkpt           2
            nstep        2000
             nsym          12
           ntypat           3
              occ      2.000000  2.000000  2.000000  2.000000  2.000000  2.000000
                       2.000000  2.000000  2.000000  2.000000  2.000000  2.000000
                       2.000000  2.000000  2.000000  2.000000  2.000000  2.000000
                       2.000000  2.000000  2.000000  2.000000  2.000000  2.000000
                       2.000000  2.000000  2.000000  2.000000  2.000000  2.000000
                       0.000000  0.000000  0.000000  0.000000  0.000000  0.000000
                       0.000000  0.000000  0.000000
        optdriver           1
            prtwf          -1
            rfdir           1       1       1
           rfelfd           2
            rprim      8.1920262262E+00  0.0000000000E+00  0.0000000000E+00
                      -4.0960131131E+00  7.0945028203E+00  0.0000000000E+00
                       0.0000000000E+00  0.0000000000E+00  1.3290260701E+01
          spgroup         164
           symrel      1  0  0   0  1  0   0  0  1      -1  0  0   0 -1  0   0  0 -1
                      -1  0  0   1  1  0   0  0  1       1  0  0  -1 -1  0   0  0 -1
                       0  1  0  -1 -1  0   0  0  1       0 -1  0   1  1  0   0  0 -1
                       0 -1  0  -1  0  0   0  0  1       0  1  0   1  0  0   0  0 -1
                      -1 -1  0   1  0  0   0  0  1       1  1  0  -1  0  0   0  0 -1
                       1  1  0   0 -1  0   0  0  1      -1 -1  0   0  1  0   0  0 -1
           tolwfr      1.00000000E-20
            typat      1  2  2  3  3
           useylm           1
              wtk        0.50000    0.50000
           xangst      0.0000000000E+00  0.0000000000E+00  0.0000000000E+00
                       2.1675167855E+00  1.2514163996E+00  4.4656402581E+00
                       0.0000000000E+00  2.5028327992E+00  2.5672628011E+00
                       0.0000000000E+00  2.5028327992E+00  5.3001575022E+00
                       2.1675167855E+00  1.2514163996E+00  1.7327455570E+00
            xcart      0.0000000000E+00  0.0000000000E+00  0.0000000000E+00
                       4.0960131131E+00  2.3648342734E+00  8.4388370958E+00
                       0.0000000000E+00  4.7296685469E+00  4.8514236053E+00
                       0.0000000000E+00  4.7296685469E+00  1.0015846140E+01
                       4.0960131131E+00  2.3648342734E+00  3.2744145608E+00
             xred      0.0000000000E+00  0.0000000000E+00  0.0000000000E+00
                       6.6666666667E-01  3.3333333333E-01  6.3496400000E-01
                       3.3333333333E-01  6.6666666667E-01  3.6503600000E-01
                       3.3333333333E-01  6.6666666667E-01  7.5362300000E-01
                       6.6666666667E-01  3.3333333333E-01  2.4637700000E-01
            znucl       20.00000   12.00000   33.00000

 chkinp: Checking input parameters for consistency.

== DATASET  1 ==================================================================
-   mpi_nproc: 1, omp_nthreads: -1 (-1 if OMP is not activated)

--- !DatasetInfo
iteration_state: {dtset: 1, }
dimensions: {natom: 5, nkpt: 2, mband: 39, nsppol: 1, nspinor: 1, nspden: 1, mpw: 10076, }
cutoff_energies: {ecut:  42.0, pawecutdg:  -1.0, }
electrons: {nelect:   6.00000000E+01, charge:   0.00000000E+00, occopt:   1.00000000E+00, tsmear:   1.00000000E-02, }
meta: {optdriver: 1, rfelfd: 2, }
...

 Real(R)+Recip(G) space primitive vectors, cartesian coordinates (Bohr,Bohr^-1):
 R(1)=  8.1920262  0.0000000  0.0000000  G(1)=  0.1220699  0.0704771  0.0000000
 R(2)= -4.0960131  7.0945028  0.0000000  G(2)=  0.0000000  0.1409542  0.0000000
 R(3)=  0.0000000  0.0000000 13.2902607  G(3)=  0.0000000  0.0000000  0.0752431
 Unit cell volume ucvol=  7.7240807E+02 bohr^3
 Angles (23,13,12)=  9.00000000E+01  9.00000000E+01  1.20000000E+02 degrees

 getcut: wavevector=  0.0000  0.0000  0.0000  ngfft=  48  48  80
         ecut(hartree)=     42.000   => boxcut(ratio)=   2.00845

--- Pseudopotential description ------------------------------------------------
- pspini: atom type   1  psp file is /scratch/users/j/a/jabreu/pseudos/PBEsol/Ca.psp8
- pspatm: opening atomic psp file    /scratch/users/j/a/jabreu/pseudos/PBEsol/Ca.psp8
- Ca    ONCVPSP-3.3.0  r_core=   1.45885   1.45885   1.85192
- 20.00000  10.00000    180112                znucl, zion, pspdat
    8 -116133    2    4       400   0.00000   pspcod,pspxc,lmax,lloc,mmax,r2well
    3.99000000000000    6.00000000000000    0.00000000000000   rchrg,fchrg,qchrg
     nproj     2     2     2
     extension_switch     1
  pspatm : epsatm=   12.46045226
         --- l  ekb(1:nproj) -->
             0   10.054847    0.973777
             1    2.998958    0.458102
             2   -3.447298   -1.091650
 pspatm: atomic psp has been read  and splines computed

- pspini: atom type   2  psp file is /scratch/users/j/a/jabreu/pseudos/PBEsol/Mg.psp8
- pspatm: opening atomic psp file    /scratch/users/j/a/jabreu/pseudos/PBEsol/Mg.psp8
- Mg    ONCVPSP-3.3.0  r_core=   1.16056   1.56380
- 12.00000  10.00000    180112                znucl, zion, pspdat
    8 -116133    1    4       400   0.00000   pspcod,pspxc,lmax,lloc,mmax,r2well
    3.99000000000000    0.00000000000000    0.00000000000000   rchrg,fchrg,qchrg
     nproj     2     2
     extension_switch     1
  pspatm : epsatm=    9.18164846
         --- l  ekb(1:nproj) -->
             0    2.230603   -0.826587
             1   -6.503151   -2.501445
 pspatm: atomic psp has been read  and splines computed

- pspini: atom type   3  psp file is /scratch/users/j/a/jabreu/pseudos/PBEsol/As.psp8
- pspatm: opening atomic psp file    /scratch/users/j/a/jabreu/pseudos/PBEsol/As.psp8
- As    ONCVPSP-3.3.0  r_core=   1.76603   1.70395   1.80867
- 33.00000  15.00000    180112                znucl, zion, pspdat
    8 -116133    2    4       600   0.00000   pspcod,pspxc,lmax,lloc,mmax,r2well
    5.99000000000000    5.00000000000000    0.00000000000000   rchrg,fchrg,qchrg
     nproj     2     2     2
     extension_switch     1
  pspatm : epsatm=   28.79155382
         --- l  ekb(1:nproj) -->
             0    8.270760    0.868950
             1    4.919053    0.756587
             2  -10.048665   -4.076802
 pspatm: atomic psp has been read  and splines computed

   5.30441141E+03                                ecore*ucvol(ha*bohr**3)

 ==>  initialize data related to q vector <==

 The list of irreducible perturbations for this q vector is:
    1)    idir= 1    ipert=   6
    2)    idir= 2    ipert=   6
    3)    idir= 3    ipert=   6

 Perturbation wavevector (in red.coord.)   0.000000  0.000000  0.000000
 Perturbation : derivative vs k along direction   1

 dfpt_looppert : COMMENT -
  In a d/dk calculation, iscf is set to -3 automatically.
 The set of symmetries contains only one element for this perturbation.
 symkpt : not enough symmetry to change the number of k points.

 Initialisation of the first-order wave-functions :
  ireadwf=   0

--- !BeginCycle
iteration_state: {dtset: 1, }
solver: {iscf: 7, nstep: 2000, nline: 4, wfoptalg: 0, }
tolerances: {tolwfr: 1.00E-20, }
...

     iter   2DEtotal(Ha)        deltaE(Ha) residm    vres2
-ETOT  1  -94.981292138497     -9.498E+01 2.252E-01 0.000E+00
 ETOT  2  -95.041518979509     -6.023E-02 2.791E-02 0.000E+00
 ETOT  3  -95.041701859001     -1.829E-04 4.835E-03 0.000E+00
 ETOT  4  -95.041704326674     -2.468E-06 5.515E-04 0.000E+00
 ETOT  5  -95.041704374839     -4.816E-08 1.163E-04 0.000E+00
 ETOT  6  -95.041704375895     -1.057E-09 1.639E-05 0.000E+00
 ETOT  7  -95.041704375920     -2.466E-11 5.076E-06 0.000E+00
 ETOT  8  -95.041704375921     -5.969E-13 6.599E-07 0.000E+00
 ETOT  9  -95.041704375921     -5.684E-14 2.369E-07 0.000E+00
 ETOT 10  -95.041704375921      2.842E-14 5.324E-08 0.000E+00
 ETOT 11  -95.041704375921      2.842E-14 2.641E-08 0.000E+00
 ETOT 12  -95.041704375921      0.000E+00 1.021E-08 0.000E+00
 ETOT 13  -95.041704375921      1.421E-14 5.497E-09 0.000E+00
 ETOT 14  -95.041704375921      0.000E+00 2.407E-09 0.000E+00
 ETOT 15  -95.041704375921     -4.263E-14 1.285E-09 0.000E+00
 ETOT 16  -95.041704375921      0.000E+00 5.742E-10 0.000E+00
 ETOT 17  -95.041704375921      0.000E+00 3.048E-10 0.000E+00
 ETOT 18  -95.041704375921      0.000E+00 1.373E-10 0.000E+00
 ETOT 19  -95.041704375921      0.000E+00 7.262E-11 0.000E+00
 ETOT 20  -95.041704375921      1.421E-14 3.285E-11 0.000E+00
 ETOT 21  -95.041704375921     -1.421E-14 1.736E-11 0.000E+00
 ETOT 22  -95.041704375921      0.000E+00 7.870E-12 0.000E+00
 ETOT 23  -95.041704375921      1.421E-14 4.156E-12 0.000E+00
 ETOT 24  -95.041704375921     -2.842E-14 1.887E-12 0.000E+00
 ETOT 25  -95.041704375921      1.421E-14 9.965E-13 0.000E+00
 ETOT 26  -95.041704375921      0.000E+00 4.525E-13 0.000E+00
 ETOT 27  -95.041704375921     -2.842E-14 2.391E-13 0.000E+00
 ETOT 28  -95.041704375921      1.421E-14 1.086E-13 0.000E+00
 ETOT 29  -95.041704375921      1.421E-14 5.740E-14 0.000E+00
 ETOT 30  -95.041704375921      0.000E+00 2.606E-14 0.000E+00
 ETOT 31  -95.041704375921     -2.842E-14 1.379E-14 0.000E+00
 ETOT 32  -95.041704375921      0.000E+00 6.256E-15 0.000E+00
 ETOT 33  -95.041704375921      0.000E+00 3.312E-15 0.000E+00
 ETOT 34  -95.041704375921      0.000E+00 1.502E-15 0.000E+00
 ETOT 35  -95.041704375921      0.000E+00 7.960E-16 0.000E+00
 ETOT 36  -95.041704375921      2.842E-14 3.608E-16 0.000E+00
 ETOT 37  -95.041704375921     -2.842E-14 1.913E-16 0.000E+00
 ETOT 38  -95.041704375921      0.000E+00 8.668E-17 0.000E+00
 ETOT 39  -95.041704375921      2.842E-14 4.599E-17 0.000E+00
 ETOT 40  -95.041704375921     -4.263E-14 2.082E-17 0.000E+00
 ETOT 41  -95.041704375921      1.421E-14 1.106E-17 0.000E+00
 ETOT 42  -95.041704375921      0.000E+00 5.004E-18 0.000E+00
 ETOT 43  -95.041704375921      1.421E-14 2.658E-18 0.000E+00
 ETOT 44  -95.041704375921      1.421E-14 1.202E-18 0.000E+00
 ETOT 45  -95.041704375921     -1.421E-14 6.391E-19 0.000E+00
 ETOT 46  -95.041704375921      1.421E-14 2.890E-19 0.000E+00
 ETOT 47  -95.041704375921      0.000E+00 1.537E-19 0.000E+00
 ETOT 48  -95.041704375921     -2.842E-14 6.945E-20 0.000E+00
 ETOT 49  -95.041704375921      1.421E-14 3.695E-20 0.000E+00
 ETOT 50  -95.041704375921      0.000E+00 1.669E-20 0.000E+00
 ETOT 51  -95.041704375921      1.421E-14 9.979E-21 0.000E+00

 At SCF step   51   max residual=  9.98E-21 < tolwfr=  1.00E-20 =>converged.

 ----iterations are completed or convergence reached----

 dfpt_looppert: DFPT cycle converged with prtwf=-1. Will skip output of the 1st-order WFK file.
 dfpt_looppert : ek2=    9.4123279643E+01
          f-sum rule ratio=    1.1839748418E+00
 prteigrs : about to open file /scratch/users/j/a/jabreu/flow_simple_remain_atoms/flow/w244/t1/tmpdata/tmp_1WF1_EIG
 Expectation of eigenvalue derivatives (hartree) for nkpt=   2  k points:
  (in case of degenerate eigenvalues, averaged derivative)
 kpt#   1, nband= 39, wtk=  0.50000, kpt=  0.0000  0.0000  0.0000 (reduced coord)
  -0.00000   -0.00000   -0.00000   -0.00000   -0.00000    0.00000   -0.00000   -0.00000
  -0.00000   -0.00000   -0.00000   -0.00000   -0.00000   -0.00000   -0.00000    0.00000
   0.00000    0.00000    0.00000   -0.00000   -0.00000   -0.00000    0.00000   -0.00000
  -0.00000   -0.00000   -0.00000    0.00000    0.00000    0.00000    0.00000   -0.00000
  -0.00000   -0.00000   -0.00000   -0.00000   -0.00000   -0.00000   -0.00000
 prteigrs : prtvol=0 or 1, do not print more k-points.

 Eight components of 2nd-order total energy (hartree) are
 1,2,3: 0th-order hamiltonian combined with 1st-order wavefunctions
     kin0=   9.20912407E+01 eigvalue=   1.35799581E+01  local=  -3.72641621E+01
 4,5,6: 1st-order hamiltonian combined with 1st and 0th-order wfs
     kin1=  -1.11439595E+02  Hartree=   0.00000000E+00     xc=   0.00000000E+00
 7,8,9: eventually, occupation + non-local contributions
    edocc=   2.11737308E+01     enl0=   5.46093681E+00   enl1=  -7.86438136E+01
 1-9 gives the relaxation energy (to be shifted if some occ is /=2.0)
   erelax=  -9.50417044E+01
  No Ewald or frozen-wf contrib.: the relaxation energy is the total one
 2DEtotal=   -0.9504170438E+02 Ha. Also 2DEtotal=   -0.258621630048E+04 eV
    (  non-var. 2DEtotal :   -9.5041704376E+01 Ha)

 Perturbation wavevector (in red.coord.)   0.000000  0.000000  0.000000
 Perturbation : derivative vs k along direction   2
 The set of symmetries contains only one element for this perturbation.
 symkpt : not enough symmetry to change the number of k points.

[...]

 Perturbation wavevector (in red.coord.)   0.000000  0.000000  0.000000
 Perturbation : derivative vs k along direction   3
 The set of symmetries contains only one element for this perturbation.
 symkpt : not enough symmetry to change the number of k points.

 Initialisation of the first-order wave-functions :
  ireadwf=   0

--- !BeginCycle
iteration_state: {dtset: 1, }
solver: {iscf: 7, nstep: 2000, nline: 4, wfoptalg: 0, }
tolerances: {tolwfr: 1.00E-20, }
...

     iter   2DEtotal(Ha)        deltaE(Ha) residm    vres2
-ETOT  1  -26.237382033043     -2.624E+01 7.174E-02 0.000E+00
 ETOT  2  -26.256473154001     -1.909E-02 1.383E-02 0.000E+00
 ETOT  3  -26.256519378497     -4.622E-05 1.367E-03 0.000E+00
 ETOT  4  -26.256519805950     -4.275E-07 2.820E-04 0.000E+00
 ETOT  5  -26.256519812121     -6.171E-09 3.729E-05 0.000E+00
 ETOT  6  -26.256519812225     -1.042E-10 7.486E-06 0.000E+00
 ETOT  7  -26.256519812227     -1.926E-12 1.066E-06 0.000E+00
 ETOT  8  -26.256519812227     -7.461E-14 2.130E-07 0.000E+00
 ETOT  9  -26.256519812227     -7.105E-15 3.108E-08 0.000E+00
 ETOT 10  -26.256519812227      3.197E-14 6.241E-09 0.000E+00
 ETOT 11  -26.256519812227     -3.553E-15 9.153E-10 0.000E+00
 ETOT 12  -26.256519812227      0.000E+00 1.853E-10 0.000E+00
 ETOT 13  -26.256519812227      3.553E-15 2.723E-11 0.000E+00
 ETOT 14  -26.256519812227      7.105E-15 5.512E-12 0.000E+00
 ETOT 15  -26.256519812227     -7.105E-15 8.165E-13 0.000E+00
 ETOT 16  -26.256519812227      3.553E-15 1.662E-13 0.000E+00
 ETOT 17  -26.256519812227     -3.553E-15 3.937E-14 0.000E+00
 ETOT 18  -26.256519812227      7.105E-15 2.383E-14 0.000E+00
 ETOT 19  -26.256519812227     -3.553E-15 8.930E-15 0.000E+00
 ETOT 20  -26.256519812227     -3.553E-15 5.444E-15 0.000E+00
 ETOT 21  -26.256519812227      0.000E+00 2.054E-15 0.000E+00
 ETOT 22  -26.256519812227     -7.105E-15 1.248E-15 0.000E+00
 ETOT 23  -26.256519812227      7.105E-15 4.767E-16 0.000E+00
 ETOT 24  -26.256519812227     -3.553E-15 2.875E-16 0.000E+00
 ETOT 25  -26.256519812227      0.000E+00 1.114E-16 0.000E+00
 ETOT 26  -26.256519812227      3.553E-15 6.669E-17 0.000E+00
 ETOT 27  -26.256519812227     -3.553E-15 2.615E-17 0.000E+00
 ETOT 28  -26.256519812227      3.553E-15 1.556E-17 0.000E+00
 ETOT 29  -26.256519812227     -3.553E-15 6.153E-18 0.000E+00
 ETOT 30  -26.256519812227      0.000E+00 3.644E-18 0.000E+00
 ETOT 31  -26.256519812227      7.105E-15 1.450E-18 0.000E+00
 ETOT 32  -26.256519812227     -3.553E-15 8.560E-19 0.000E+00
 ETOT 33  -26.256519812227     -7.105E-15 3.422E-19 0.000E+00
 ETOT 34  -26.256519812227      7.105E-15 2.014E-19 0.000E+00
 ETOT 35  -26.256519812227      0.000E+00 8.078E-20 0.000E+00
 ETOT 36  -26.256519812227      7.105E-15 4.745E-20 0.000E+00
 ETOT 37  -26.256519812227     -7.105E-15 1.908E-20 0.000E+00
 ETOT 38  -26.256519812227     -1.421E-14 1.119E-20 0.000E+00
 ETOT 39  -26.256519812227      1.421E-14 9.996E-21 0.000E+00

 At SCF step   39   max residual=  1.00E-20 < tolwfr=  1.00E-20 =>converged.

 ----iterations are completed or convergence reached----

 dfpt_looppert: DFPT cycle converged with prtwf=-1. Will skip output of the 1st-order WFK file.
 dfpt_looppert : ek2=    2.6820939253E+01
          f-sum rule ratio=    1.1212971627E+00
 prteigrs : about to open file /scratch/users/j/a/jabreu/flow_simple_remain_atoms/flow/w244/t1/tmpdata/tmp_1WF1_EIG
 Expectation of eigenvalue derivatives (hartree) for nkpt=   2  k points:
  (in case of degenerate eigenvalues, averaged derivative)
 kpt#   1, nband= 39, wtk=  0.50000, kpt=  0.0000  0.0000  0.0000 (reduced coord)
  -0.00000   -0.00000   -0.00000   -0.00000   -0.00000    0.00000    0.00000    0.00000
   0.00000   -0.00000   -0.00000   -0.00000   -0.00000    0.00000   -0.00000   -0.00000
  -0.00000   -0.00000   -0.00000    0.00000   -0.00000   -0.00000    0.00000    0.00000
   0.00000   -0.00000   -0.00000   -0.00000   -0.00000   -0.00000   -0.00000   -0.00000
  -0.00000   -0.00000   -0.00000    0.00000    0.00000    0.00000    0.00000
 prteigrs : prtvol=0 or 1, do not print more k-points.

 Eight components of 2nd-order total energy (hartree) are
 1,2,3: 0th-order hamiltonian combined with 1st-order wavefunctions
     kin0=   2.71062574E+01 eigvalue=   3.83251658E+00  local=  -1.11212494E+01
 4,5,6: 1st-order hamiltonian combined with 1st and 0th-order wfs
     kin1=  -3.00742431E+01  Hartree=   0.00000000E+00     xc=   0.00000000E+00
 7,8,9: eventually, occupation + non-local contributions
    edocc=   5.01106665E+00     enl0=   1.42792858E+00   enl1=  -2.24387965E+01
 1-9 gives the relaxation energy (to be shifted if some occ is /=2.0)
   erelax=  -2.62565198E+01
  No Ewald or frozen-wf contrib.: the relaxation energy is the total one
 2DEtotal=   -0.2625651981E+02 Ha. Also 2DEtotal=   -0.714476239438E+03 eV
    (  non-var. 2DEtotal :   -2.6256519812E+01 Ha)

 CALCULATION OF EFFECTIVE MASSES
 NOTE : Additional infos (eff. mass eigenvalues, eigenvectors and, if degenerate, average mass) are available in stdout.

 K-point ( 0.000, 0.000, 0.000) | band =    30
 Effective mass tensor:
             -0.8268539238              0.0000000001             -0.0000000000
              0.0000000001             -0.8268539240              0.0000000001
             -0.0000000000              0.0000000001             -0.0922132547
 Effective mass tensor eigenvalues:
             -0.8268539240             -0.8268539238             -0.0922132547
 Angular average effective mass 1/(<1/m>)=  -0.2261891626
 Angular average effective mass for Frohlich model (<m**0.5>)**2=  -0.3217804036
 Effective masses along directions: (cart. coord. / red. coord. -> eff. mass)
    1:   1.000000  0.000000  0.000000 /   0.894427 -0.447214  0.000000 ->  -0.8268539238
    2:   0.000000  1.000000  0.000000 /   0.000000  1.000000  0.000000 ->  -0.8268539240
    3:   0.000000  0.000000  1.000000 /   0.000000  0.000000  1.000000 ->  -0.0922132547
    4:   0.577350  0.577350  0.577350 /   0.515302  0.188614  0.835996 ->  -0.2261891626
    5:   0.000000  0.707107  0.707107 /   0.000000  0.470917  0.882177 ->  -0.1659223465
    6:   0.707107  0.000000  0.707107 /   0.507543 -0.253771  0.823408 ->  -0.1659223466
    7:   0.707107  0.707107  0.000000 /   0.939071  0.343724  0.000000 ->  -0.8268539238

 K-point ( 0.500, 0.000, 0.000) | band =    31
 Effective mass tensor:
              0.8683337364              0.4155481644              0.5129443887
              0.4155481644              0.3885000227              0.2961481406
              0.5129443887              0.2961481406              2.2669664016
 Effective mass tensor eigenvalues:
              0.1485831843              0.8590728772              2.5161440993
 Angular average effective mass 1/(<1/m>)=   0.3618069006
 Angular average effective mass for Frohlich model (<m**0.5>)**2=   0.5265042021
 Effective masses along directions: (cart. coord. / red. coord. -> eff. mass)
    1:   1.000000  0.000000  0.000000 /   0.894427 -0.447214  0.000000 ->   0.4049999724
    2:   0.000000  1.000000  0.000000 /   0.000000  1.000000  0.000000 ->   0.1883285610
    3:   0.000000  0.000000  1.000000 /   0.000000  0.000000  1.000000 ->   1.9504173512
    4:   0.577350  0.577350  0.577350 /   0.515302  0.188614  0.835996 ->   1.1438166737
    5:   0.000000  0.707107  0.707107 /   0.000000  0.470917  0.882177 ->   0.3604534080
    6:   0.707107  0.000000  0.707107 /   0.507543 -0.253771  0.823408 ->   0.7976905424
    7:   0.707107  0.707107  0.000000 /   0.939071  0.343724  0.000000 ->   0.6996166344

 END OF EFFECTIVE MASSES SECTION

 ---- first-order wavefunction calculations are completed ----

 Total localisation tensor (bohr^2) in cartesian coordinates
  WARNING : still subject to testing - especially symmetries.
      direction              matrix element
   alpha     beta       real part   imaginary part
     1        1       3.6452566708    0.0000000000
     1        2      -1.4966209160    0.0000000000
     1        3       0.0000000000    0.0000000000
     2        1      -1.4966209160    0.0000000000
     2        2       2.5922234662    0.0000000000
     2        3       0.0000000000    0.0000000000
     3        1       0.0000000000    0.0000000000
     3        2       0.0000000000    0.0000000000
     3        3       2.0676982402    0.0000000000

 respfn : d/dk was computed, but no 2DTE, so no DDB output.

== END DATASET(S) ==============================================================

 -outvars: echo values of variables after computation  --------
            acell      1.0000000000E+00  1.0000000000E+00  1.0000000000E+00 Bohr
              amu      4.00780000E+01  2.43050000E+01  7.49215900E+01
             ecut      4.20000000E+01 Hartree
           etotal     -2.6256519812E+01
            fcart      0.0000000000E+00  0.0000000000E+00  0.0000000000E+00
                       0.0000000000E+00  0.0000000000E+00  0.0000000000E+00
                       0.0000000000E+00  0.0000000000E+00  0.0000000000E+00
                       0.0000000000E+00  0.0000000000E+00  0.0000000000E+00
                       0.0000000000E+00  0.0000000000E+00  0.0000000000E+00
-          fftalg         512
           irdden           1
           irdwfk           1
           istwfk        1    1
              ixc     -116133
              kpt      0.00000000E+00  0.00000000E+00  0.00000000E+00
                       5.00000000E-01  0.00000000E+00  0.00000000E+00
           kptopt           0
P           mkmem           2
P          mkqmem           2
P          mk1mem           2
            natom           5
            nband          39
           nbdbuf           4
            ngfft          48      48      80
             nkpt           2
            nstep        2000
             nsym          12
           ntypat           3
              occ      2.000000  2.000000  2.000000  2.000000  2.000000  2.000000
                       2.000000  2.000000  2.000000  2.000000  2.000000  2.000000
                       2.000000  2.000000  2.000000  2.000000  2.000000  2.000000
                       2.000000  2.000000  2.000000  2.000000  2.000000  2.000000
                       2.000000  2.000000  2.000000  2.000000  2.000000  2.000000
                       0.000000  0.000000  0.000000  0.000000  0.000000  0.000000
                       0.000000  0.000000  0.000000
        optdriver           1
            prtwf          -1
            rfdir           1       1       1
           rfelfd           2
            rprim      8.1920262262E+00  0.0000000000E+00  0.0000000000E+00
                      -4.0960131131E+00  7.0945028203E+00  0.0000000000E+00
                       0.0000000000E+00  0.0000000000E+00  1.3290260701E+01
          spgroup         164
           strten      0.0000000000E+00  0.0000000000E+00  0.0000000000E+00
                       0.0000000000E+00  0.0000000000E+00  0.0000000000E+00
           symrel      1  0  0   0  1  0   0  0  1      -1  0  0   0 -1  0   0  0 -1
                      -1  0  0   1  1  0   0  0  1       1  0  0  -1 -1  0   0  0 -1
                       0  1  0  -1 -1  0   0  0  1       0 -1  0   1  1  0   0  0 -1
                       0 -1  0  -1  0  0   0  0  1       0  1  0   1  0  0   0  0 -1
                      -1 -1  0   1  0  0   0  0  1       1  1  0  -1  0  0   0  0 -1
                       1  1  0   0 -1  0   0  0  1      -1 -1  0   0  1  0   0  0 -1
           tolwfr      1.00000000E-20
            typat      1  2  2  3  3
           useylm           1
              wtk        0.50000    0.50000
           xangst      0.0000000000E+00  0.0000000000E+00  0.0000000000E+00
                       2.1675167855E+00  1.2514163996E+00  4.4656402581E+00
                       0.0000000000E+00  2.5028327992E+00  2.5672628011E+00
                       0.0000000000E+00  2.5028327992E+00  5.3001575022E+00
                       2.1675167855E+00  1.2514163996E+00  1.7327455570E+00
            xcart      0.0000000000E+00  0.0000000000E+00  0.0000000000E+00
                       4.0960131131E+00  2.3648342734E+00  8.4388370958E+00
                       0.0000000000E+00  4.7296685469E+00  4.8514236053E+00
                       0.0000000000E+00  4.7296685469E+00  1.0015846140E+01
                       4.0960131131E+00  2.3648342734E+00  3.2744145608E+00
             xred      0.0000000000E+00  0.0000000000E+00  0.0000000000E+00
                       6.6666666667E-01  3.3333333333E-01  6.3496400000E-01
                       3.3333333333E-01  6.6666666667E-01  3.6503600000E-01
                       3.3333333333E-01  6.6666666667E-01  7.5362300000E-01
                       6.6666666667E-01  3.3333333333E-01  2.4637700000E-01
            znucl       20.00000   12.00000   33.00000

- Timing analysis has been suppressed with timopt=0

 Suggested references for the acknowledgment of ABINIT usage.

 Calculation completed.
.Delivered   2 WARNINGs and   5 COMMENTs to log file.