.Version 9.5.2 of ABINIT

 ABINIT is a project of the Universite Catholique de Louvain,
 Corning Inc. and other collaborators, see ~abinit/doc/developers/contributors.txt .
 acknowledgments of the ABINIT effort.

.Starting date : Mon 24 May 2021.
- ( at 22h56 )

- input  file    -> /scratch/users/j/a/jabreu/flow_simple_10atoms/flow/w458/t1/run.abi
- output file    -> /scratch/users/j/a/jabreu/flow_simple_10atoms/flow/w458/t1/run.abo
- root for input  files -> /scratch/users/j/a/jabreu/flow_simple_10atoms/flow/w458/t1/indata/in
- root for output files -> /scratch/users/j/a/jabreu/flow_simple_10atoms/flow/w458/t1/outdata/out

 Symmetries : space group Cm c m (# 63); Bravais oC (1-face-center ortho.)
     intxc =       0      iscf =       7    lmnmax =      18     lnmax =       6
     mgfft =     108  mpssoang =       3    mqgrid =    5044     natom =      10
  nloc_mem =       1    nspden =       1   nspinor =       1    nsppol =       1
      nsym =       8    n1xccc =    2501    ntypat =       3    occopt =       1
   xclevel =       2
-    mband =          53        mffmem =           1         mkmem =           2
-   mkqmem =           2        mk1mem =           2           mpw =       16908
      nfft =      559872          nkpt =           2
  Rough estimation (10% accuracy) of disk space for files :

------------- Echo of variables that govern the present computation ------------
-
- outvars: echo of selected default values
-   iomode0 =  0 , fftalg0 =512 , wfoptalg0 =  0
-
- outvars: echo of global parameters not present in the input file
-  max_nthreads =    0
-
 -outvars: echo values of preprocessed input variables --------
            acell      1.0000000000E+00  1.0000000000E+00  1.0000000000E+00 Bohr
              amu      8.54678000E+01  2.07200000E+02  7.99040000E+01
             ecut      2.80000000E+01 Hartree
-          fftalg         512
           irdden           1
           irdwfk           1
              ixc     -116133
              kpt      1.36705092E-01  1.36705092E-01  0.00000000E+00
                      -5.00000000E-01  5.00000000E-01  0.00000000E+00
           kptopt           0
P           mkmem           2
P          mkqmem           2
P          mk1mem           2
            natom          10
            nband          53
           nbdbuf           4
            ngfft          72      72     108
             nkpt           2
            nstep        2000
             nsym           8
           ntypat           3
              occ      2.000000  2.000000  2.000000  2.000000  2.000000  2.000000
                       2.000000  2.000000  2.000000  2.000000  2.000000  2.000000
                       2.000000  2.000000  2.000000  2.000000  2.000000  2.000000
                       2.000000  2.000000  2.000000  2.000000  2.000000  2.000000
                       2.000000  2.000000  2.000000  2.000000  2.000000  2.000000
                       2.000000  2.000000  2.000000  2.000000  2.000000  2.000000
                       2.000000  2.000000  2.000000  2.000000  2.000000  2.000000
                       2.000000  2.000000  0.000000  0.000000  0.000000  0.000000
                       0.000000  0.000000  0.000000  0.000000  0.000000
        optdriver           1
            prtwf          -1
            rfdir           1       1       1
           rfelfd           2
            rprim      1.4201223041E+01  0.0000000000E+00  0.0000000000E+00
                      -1.1769322150E+01  7.9471876780E+00  0.0000000000E+00
                       0.0000000000E+00  0.0000000000E+00  2.1171259399E+01
          spgroup          63
           symrel      1  0  0   0  1  0   0  0  1      -1  0  0   0 -1  0   0  0 -1
                       0  1  0   1  0  0   0  0 -1       0 -1  0  -1  0  0   0  0  1
                      -1  0  0   0 -1  0   0  0  1       1  0  0   0  1  0   0  0 -1
                       0 -1  0  -1  0  0   0  0 -1       0  1  0   1  0  0   0  0  1
            tnons      0.0000000  0.0000000  0.0000000     0.0000000  0.0000000  0.0000000
                       0.0000000  0.0000000  0.0000000     0.0000000  0.0000000  0.0000000
                       0.0000000  0.0000000  0.5000000     0.0000000  0.0000000  0.5000000
                       0.0000000  0.0000000  0.5000000     0.0000000  0.0000000  0.5000000
           tolwfr      1.00000000E-20
            typat      1  1  2  2  3  3  3  3  3  3
           useylm           1
              wtk        0.50000    0.50000
           xangst      4.0576043864E+00  1.0579786477E+00  2.8008369878E+00
                      -2.7706978614E+00  3.1474919439E+00  8.4025109633E+00
                       0.0000000000E+00  0.0000000000E+00  5.6016739755E+00
                       0.0000000000E+00  0.0000000000E+00  0.0000000000E+00
                       2.5659644156E+00  1.5144320147E+00  6.1678463676E+00
                      -1.2790578905E+00  2.6910385768E+00  5.6617239205E-01
                       2.5659644156E+00  1.5144320147E+00  1.0637175559E+01
                      -1.2790578905E+00  2.6910385768E+00  5.0355015835E+00
                      -5.2766964404E+00  3.9143468899E+00  2.8008369878E+00
                       6.5636029655E+00  2.9112370170E-01  8.4025109633E+00
            xcart      7.6677610460E+00  1.9992898985E+00  5.2928148497E+00
                      -5.2358601550E+00  5.9478977795E+00  1.5878444549E+01
                       0.0000000000E+00  0.0000000000E+00  1.0585629699E+01
                       0.0000000000E+00  0.0000000000E+00  0.0000000000E+00
                       4.8489700121E+00  2.8618617547E+00  1.1655540464E+01
                      -2.4170691211E+00  5.0853259233E+00  1.0699107650E+00
                       4.8489700121E+00  2.8618617547E+00  2.0101348634E+01
                      -2.4170691211E+00  5.0853259233E+00  9.5157189345E+00
                      -9.9715111587E+00  7.3970436110E+00  5.2928148497E+00
                       1.2403412050E+01  5.5014406701E-01  1.5878444549E+01
             xred      7.4842800000E-01  2.5157200000E-01  2.5000000000E-01
                       2.5157200000E-01  7.4842800000E-01  7.5000000000E-01
                       0.0000000000E+00  0.0000000000E+00  5.0000000000E-01
                       0.0000000000E+00  0.0000000000E+00  0.0000000000E+00
                       6.3989000000E-01  3.6011000000E-01  5.5053600000E-01
                       3.6011000000E-01  6.3989000000E-01  5.0536000000E-02
                       6.3989000000E-01  3.6011000000E-01  9.4946400000E-01
                       3.6011000000E-01  6.3989000000E-01  4.4946400000E-01
                       6.9225000000E-02  9.3077500000E-01  2.5000000000E-01
                       9.3077500000E-01  6.9225000000E-02  7.5000000000E-01
            znucl       37.00000   82.00000   35.00000

 chkinp: Checking input parameters for consistency.

== DATASET  1 ==================================================================
-   mpi_nproc: 1, omp_nthreads: -1 (-1 if OMP is not activated)

--- !DatasetInfo
iteration_state: {dtset: 1, }
dimensions: {natom: 10, nkpt: 2, mband: 53, nsppol: 1, nspinor: 1, nspden: 1, mpw: 16908, }
cutoff_energies: {ecut:  28.0, pawecutdg:  -1.0, }
electrons: {nelect:   8.80000000E+01, charge:   0.00000000E+00, occopt:   1.00000000E+00, tsmear:   1.00000000E-02, }
meta: {optdriver: 1, rfelfd: 2, }
...

 Real(R)+Recip(G) space primitive vectors, cartesian coordinates (Bohr,Bohr^-1):
 R(1)= 14.2012230  0.0000000  0.0000000  G(1)=  0.0704165  0.1042827  0.0000000
 R(2)=-11.7693221  7.9471877  0.0000000  G(2)=  0.0000000  0.1258307  0.0000000
 R(3)=  0.0000000  0.0000000 21.1712594  G(3)=  0.0000000  0.0000000  0.0472338
 Unit cell volume ucvol=  2.3893838E+03 bohr^3
 Angles (23,13,12)=  9.00000000E+01  9.00000000E+01  1.45970968E+02 degrees

 getcut: wavevector=  0.0000  0.0000  0.0000  ngfft=  72  72 108
         ecut(hartree)=     28.000   => boxcut(ratio)=   2.12852

--- Pseudopotential description ------------------------------------------------
- pspini: atom type   1  psp file is /scratch/users/j/a/jabreu/pseudos/PBEsol/Rb.psp8
- pspatm: opening atomic psp file    /scratch/users/j/a/jabreu/pseudos/PBEsol/Rb.psp8
- Rb    ONCVPSP-3.3.0  r_core=   1.71227   1.75361   1.90633
- 37.00000   9.00000    180112                znucl, zion, pspdat
    8 -116133    2    4       600   0.00000   pspcod,pspxc,lmax,lloc,mmax,r2well
    5.99000000000000    7.00000000000000    0.00000000000000   rchrg,fchrg,qchrg
     nproj     2     2     2
     extension_switch     1
  pspatm : epsatm=   34.48400912
         --- l  ekb(1:nproj) -->
             0    8.196957   -0.477221
             1    3.231347   -0.378736
             2   -1.047201    0.996637
 pspatm: atomic psp has been read  and splines computed

- pspini: atom type   2  psp file is /scratch/users/j/a/jabreu/pseudos/PBEsol/Pb.psp8
- pspatm: opening atomic psp file    /scratch/users/j/a/jabreu/pseudos/PBEsol/Pb.psp8
- Pb    ONCVPSP-3.3.0  r_core=   2.42823   2.42823   2.10438
- 82.00000  14.00000    180112                znucl, zion, pspdat
    8 -116133    2    4       600   0.00000   pspcod,pspxc,lmax,lloc,mmax,r2well
    5.99000000000000    6.00000000000000    0.00000000000000   rchrg,fchrg,qchrg
     nproj     2     2     2
     extension_switch     1
  pspatm : epsatm=   44.32675151
         --- l  ekb(1:nproj) -->
             0    6.256780    1.206521
             1    4.272336    0.573876
             2   -3.251371   -0.847363
 pspatm: atomic psp has been read  and splines computed

- pspini: atom type   3  psp file is /scratch/users/j/a/jabreu/pseudos/PBEsol/Br.psp8
- pspatm: opening atomic psp file    /scratch/users/j/a/jabreu/pseudos/PBEsol/Br.psp8
- Br    ONCVPSP-3.3.0  r_core=   1.81012   1.51356   1.92136
- 35.00000   7.00000    180112                znucl, zion, pspdat
    8 -116133    2    4       600   0.00000   pspcod,pspxc,lmax,lloc,mmax,r2well
    5.99000000000000    8.00000000000000    0.00000000000000   rchrg,fchrg,qchrg
     nproj     2     2     2
     extension_switch     1
  pspatm : epsatm=   10.94933070
         --- l  ekb(1:nproj) -->
             0    8.508690    0.897946
             1    5.393311    0.892021
             2    2.527513    0.394763
 pspatm: atomic psp has been read  and splines computed

   1.96519405E+04                                ecore*ucvol(ha*bohr**3)

 ==>  initialize data related to q vector <==

 The list of irreducible perturbations for this q vector is:
    1)    idir= 1    ipert=  11
    2)    idir= 2    ipert=  11
    3)    idir= 3    ipert=  11

 Perturbation wavevector (in red.coord.)   0.000000  0.000000  0.000000
 Perturbation : derivative vs k along direction   1

 dfpt_looppert : COMMENT -
  In a d/dk calculation, iscf is set to -3 automatically.
 The set of symmetries contains only one element for this perturbation.
 symkpt : not enough symmetry to change the number of k points.

 Initialisation of the first-order wave-functions :
  ireadwf=   0

--- !BeginCycle
iteration_state: {dtset: 1, }
solver: {iscf: 7, nstep: 2000, nline: 4, wfoptalg: 0, }
tolerances: {tolwfr: 1.00E-20, }
...

     iter   2DEtotal(Ha)        deltaE(Ha) residm    vres2
-ETOT  1  -85.938509222386     -8.594E+01 1.530E-01 0.000E+00
 ETOT  2  -85.997496240365     -5.899E-02 6.650E-03 0.000E+00
 ETOT  3  -85.997641569633     -1.453E-04 1.987E-04 0.000E+00
 ETOT  4  -85.997642292721     -7.231E-07 1.380E-05 0.000E+00
 ETOT  5  -85.997642297328     -4.608E-09 4.740E-07 0.000E+00
 ETOT  6  -85.997642297361     -3.260E-11 4.137E-08 0.000E+00
 ETOT  7  -85.997642297361     -3.126E-13 1.432E-09 0.000E+00
 ETOT  8  -85.997642297361      1.421E-13 1.351E-10 0.000E+00
 ETOT  9  -85.997642297361     -8.527E-14 4.592E-12 0.000E+00
 ETOT 10  -85.997642297361      5.684E-14 4.594E-13 0.000E+00
 ETOT 11  -85.997642297361     -1.421E-14 1.606E-14 0.000E+00
 ETOT 12  -85.997642297361     -1.421E-14 1.748E-15 0.000E+00
 ETOT 13  -85.997642297361      0.000E+00 7.085E-17 0.000E+00
 ETOT 14  -85.997642297361      0.000E+00 8.884E-18 0.000E+00
 ETOT 15  -85.997642297361      1.421E-14 4.553E-19 0.000E+00
 ETOT 16  -85.997642297361      0.000E+00 6.189E-20 0.000E+00
 ETOT 17  -85.997642297361      1.421E-14 9.975E-21 0.000E+00

 At SCF step   17   max residual=  9.98E-21 < tolwfr=  1.00E-20 =>converged.

 ----iterations are completed or convergence reached----

 dfpt_looppert: DFPT cycle converged with prtwf=-1. Will skip output of the 1st-order WFK file.
 dfpt_looppert : ek2=    1.1001336937E+02
          f-sum rule ratio=    1.0883023822E+00
 prteigrs : about to open file /scratch/users/j/a/jabreu/flow_simple_10atoms/flow/w458/t1/tmpdata/tmp_1WF1_EIG
 Expectation of eigenvalue derivatives (hartree) for nkpt=   2  k points:
  (in case of degenerate eigenvalues, averaged derivative)
 kpt#   1, nband= 53, wtk=  0.50000, kpt=  0.1367  0.1367  0.0000 (reduced coord)
   0.00114    0.00109    0.00345   -0.01030   -0.01022    0.00363    0.00132    0.00164
   0.00182    0.00202   -0.00101   -0.00098    0.03130    0.01952    0.00615    0.01842
   0.02003   -0.01174   -0.01868   -0.01791   -0.00295    0.00142   -0.00443   -0.00287
  -0.02569   -0.02231    0.01381   -0.06774   -0.07443   -0.11656   -0.09370   -0.01232
   0.00653    0.01403    0.04425   -0.06316   -0.01360   -0.03023   -0.00941   -0.01689
  -0.02716   -0.00860    0.00860   -0.00062   -0.02789   -0.04636    0.00780    0.13722
   0.13282    0.02875    0.11126    0.13178   -0.03787
 prteigrs : prtvol=0 or 1, do not print more k-points.

 Eight components of 2nd-order total energy (hartree) are
 1,2,3: 0th-order hamiltonian combined with 1st-order wavefunctions
     kin0=   9.77694599E+01 eigvalue=   1.18437030E+01  local=  -5.46567198E+01
 4,5,6: 1st-order hamiltonian combined with 1st and 0th-order wfs
     kin1=  -1.19727812E+02  Hartree=   0.00000000E+00     xc=   0.00000000E+00
 7,8,9: eventually, occupation + non-local contributions
    edocc=   1.87817724E+01     enl0=   1.22594268E+01   enl1=  -5.22674726E+01
 1-9 gives the relaxation energy (to be shifted if some occ is /=2.0)
   erelax=  -8.59976423E+01
  No Ewald or frozen-wf contrib.: the relaxation energy is the total one
 2DEtotal=   -0.8599764230E+02 Ha. Also 2DEtotal=   -0.234011485561E+04 eV
    (  non-var. 2DEtotal :   -8.5997642297E+01 Ha)

 Perturbation wavevector (in red.coord.)   0.000000  0.000000  0.000000
 Perturbation : derivative vs k along direction   2
 The set of symmetries contains only one element for this perturbation.
 symkpt : not enough symmetry to change the number of k points.

[...]

 Perturbation wavevector (in red.coord.)   0.000000  0.000000  0.000000
 Perturbation : derivative vs k along direction   3
 The set of symmetries contains only one element for this perturbation.
 symkpt : not enough symmetry to change the number of k points.

 Initialisation of the first-order wave-functions :
  ireadwf=   0

--- !BeginCycle
iteration_state: {dtset: 1, }
solver: {iscf: 7, nstep: 2000, nline: 4, wfoptalg: 0, }
tolerances: {tolwfr: 1.00E-20, }
...

     iter   2DEtotal(Ha)        deltaE(Ha) residm    vres2
-ETOT  1  -11.736505728018     -1.174E+01 3.711E-03 0.000E+00
 ETOT  2  -11.744270960464     -7.765E-03 8.487E-05 0.000E+00
 ETOT  3  -11.744285114216     -1.415E-05 7.709E-07 0.000E+00
 ETOT  4  -11.744285181010     -6.679E-08 4.476E-08 0.000E+00
 ETOT  5  -11.744285181443     -4.331E-10 5.526E-10 0.000E+00
 ETOT  6  -11.744285181446     -3.247E-12 2.780E-11 0.000E+00
 ETOT  7  -11.744285181446     -2.132E-14 5.385E-13 0.000E+00
 ETOT  8  -11.744285181446      1.066E-14 2.051E-14 0.000E+00
 ETOT  9  -11.744285181446     -7.105E-15 5.816E-16 0.000E+00
 ETOT 10  -11.744285181446      1.776E-15 1.970E-17 0.000E+00
 ETOT 11  -11.744285181446     -3.553E-15 6.754E-19 0.000E+00
 ETOT 12  -11.744285181446      1.776E-15 2.380E-20 0.000E+00
 ETOT 13  -11.744285181446     -1.776E-15 9.611E-21 0.000E+00

 At SCF step   13   max residual=  9.61E-21 < tolwfr=  1.00E-20 =>converged.

 ----iterations are completed or convergence reached----

 dfpt_looppert: DFPT cycle converged with prtwf=-1. Will skip output of the 1st-order WFK file.
 dfpt_looppert : ek2=    1.5501688935E+01
          f-sum rule ratio=    1.0416222175E+00
 prteigrs : about to open file /scratch/users/j/a/jabreu/flow_simple_10atoms/flow/w458/t1/tmpdata/tmp_1WF1_EIG
 Expectation of eigenvalue derivatives (hartree) for nkpt=   2  k points:
  (in case of degenerate eigenvalues, averaged derivative)
 kpt#   1, nband= 53, wtk=  0.50000, kpt=  0.1367  0.1367  0.0000 (reduced coord)
   0.00000    0.00000    0.00000   -0.00000    0.00000   -0.00000    0.00000    0.00000
  -0.00000    0.00000    0.00000    0.00000    0.00000    0.00000   -0.00000   -0.00000
   0.00000    0.00000   -0.00000    0.00000   -0.00000    0.00000   -0.00000   -0.00000
  -0.00000    0.00000   -0.00000    0.00000   -0.00000   -0.00000    0.00000   -0.00000
  -0.00000   -0.00000    0.00000    0.00000   -0.00000    0.00000    0.00000   -0.00000
   0.00000    0.00000    0.00000   -0.00000   -0.00000    0.00000   -0.00000   -0.00000
   0.00000    0.00000    0.00000    0.00000   -0.00633
 prteigrs : prtvol=0 or 1, do not print more k-points.

 Eight components of 2nd-order total energy (hartree) are
 1,2,3: 0th-order hamiltonian combined with 1st-order wavefunctions
     kin0=   1.37170605E+01 eigvalue=   1.71139951E+00  local=  -7.68332368E+00
 4,5,6: 1st-order hamiltonian combined with 1st and 0th-order wfs
     kin1=  -1.61469036E+01  Hartree=   0.00000000E+00     xc=   0.00000000E+00
 7,8,9: eventually, occupation + non-local contributions
    edocc=   2.25490686E+00     enl0=   1.74424201E+00   enl1=  -7.34166676E+00
 1-9 gives the relaxation energy (to be shifted if some occ is /=2.0)
   erelax=  -1.17442852E+01
  No Ewald or frozen-wf contrib.: the relaxation energy is the total one
 2DEtotal=   -0.1174428518E+02 Ha. Also 2DEtotal=   -0.319578252234E+03 eV
    (  non-var. 2DEtotal :   -1.1744285181E+01 Ha)

 CALCULATION OF EFFECTIVE MASSES
 NOTE : Additional infos (eff. mass eigenvalues, eigenvectors and, if degenerate, average mass) are available in stdout.

 K-point ( 0.137, 0.137, 0.000) | band =    44
 Effective mass tensor:
             -0.8709930790              0.0070450243              0.0000092664
              0.0070450243             -0.8500972314             -0.0000104167
              0.0000092664             -0.0000104167             -0.4298439339
 Effective mass tensor eigenvalues:
             -0.8731464047             -0.8479439062             -0.4298439335
 Angular average effective mass 1/(<1/m>)=  -0.6450180881
 Angular average effective mass for Frohlich model (<m**0.5>)**2=  -0.6681630853
 Effective masses along directions: (cart. coord. / red. coord. -> eff. mass)
    1:   1.000000  0.000000  0.000000 /   0.769952 -0.638101  0.000000 ->  -0.8709346945
    2:   0.000000  1.000000  0.000000 /   0.000000  1.000000  0.000000 ->  -0.8500402475
    3:   0.000000  0.000000  1.000000 /   0.000000  0.000000  1.000000 ->  -0.4298439337
    4:   0.577350  0.577350  0.577350 /   0.550905 -0.148271  0.821292 ->  -0.6423906320
    5:   0.000000  0.707107  0.707107 /   0.000000  0.351432  0.936213 ->  -0.5709743960
    6:   0.707107  0.000000  0.707107 /   0.505765 -0.419155  0.753997 ->  -0.5755948060
    7:   0.707107  0.707107  0.000000 /   0.965637 -0.259893  0.000000 ->  -0.8533743121

 K-point (-0.500, 0.500, 0.000) | band =    45
 Effective mass tensor:
              2.8693619637             -0.7705379828              0.0001551341
             -0.7705379828              0.5872546359             -0.0000476921
              0.0001551341             -0.0000476921              0.2989085405
 Effective mass tensor eigenvalues:
              0.2989085312              0.3514523717              3.1051642373
 Angular average effective mass 1/(<1/m>)=   0.4606253630
 Angular average effective mass for Frohlich model (<m**0.5>)**2=   0.5575734273
 Effective masses along directions: (cart. coord. / red. coord. -> eff. mass)
    1:   1.000000  0.000000  0.000000 /   0.769952 -0.638101  0.000000 ->   1.8583375060
    2:   0.000000  1.000000  0.000000 /   0.000000  1.000000  0.000000 ->   0.3803344945
    3:   0.000000  0.000000  1.000000 /   0.000000  0.000000  1.000000 ->   0.2989085321
    4:   0.577350  0.577350  0.577350 /   0.550905 -0.148271  0.821292 ->   0.3785592926
    5:   0.000000  0.707107  0.707107 /   0.000000  0.351432  0.936213 ->   0.3347349968
    6:   0.707107  0.000000  0.707107 /   0.505765 -0.419155  0.753997 ->   0.5150275821
    7:   0.707107  0.707107  0.000000 /   0.965637 -0.259893  0.000000 ->   0.4367284771

 END OF EFFECTIVE MASSES SECTION

 ---- first-order wavefunction calculations are completed ----

 Total localisation tensor (bohr^2) in cartesian coordinates
  WARNING : still subject to testing - especially symmetries.
      direction              matrix element
   alpha     beta       real part   imaginary part
     1        1       8.2744619998    0.0000000000
     1        2      -2.2749661510    0.0000000000
     1        3       0.0000000000    0.0000000000
     2        1      -2.2749661510    0.0000000000
     2        2       1.5361617885    0.0000000000
     2        3       0.0000000000    0.0000000000
     3        1       0.0000000000    0.0000000000
     3        2       0.0000000000    0.0000000000
     3        3       1.4485679068    0.0000000000

 respfn : d/dk was computed, but no 2DTE, so no DDB output.

== END DATASET(S) ==============================================================

 -outvars: echo values of variables after computation  --------
            acell      1.0000000000E+00  1.0000000000E+00  1.0000000000E+00 Bohr
              amu      8.54678000E+01  2.07200000E+02  7.99040000E+01
             ecut      2.80000000E+01 Hartree
           etotal     -1.1744285181E+01
            fcart      0.0000000000E+00  0.0000000000E+00  0.0000000000E+00
                       0.0000000000E+00  0.0000000000E+00  0.0000000000E+00
                       0.0000000000E+00  0.0000000000E+00  0.0000000000E+00
                       0.0000000000E+00  0.0000000000E+00  0.0000000000E+00
                       0.0000000000E+00  0.0000000000E+00  0.0000000000E+00
                       0.0000000000E+00  0.0000000000E+00  0.0000000000E+00
                       0.0000000000E+00  0.0000000000E+00  0.0000000000E+00
                       0.0000000000E+00  0.0000000000E+00  0.0000000000E+00
                       0.0000000000E+00  0.0000000000E+00  0.0000000000E+00
                       0.0000000000E+00  0.0000000000E+00  0.0000000000E+00
-          fftalg         512
           irdden           1
           irdwfk           1
              ixc     -116133
              kpt      1.36705092E-01  1.36705092E-01  0.00000000E+00
                      -5.00000000E-01  5.00000000E-01  0.00000000E+00
           kptopt           0
P           mkmem           2
P          mkqmem           2
P          mk1mem           2
            natom          10
            nband          53
           nbdbuf           4
            ngfft          72      72     108
             nkpt           2
            nstep        2000
             nsym           8
           ntypat           3
              occ      2.000000  2.000000  2.000000  2.000000  2.000000  2.000000
                       2.000000  2.000000  2.000000  2.000000  2.000000  2.000000
                       2.000000  2.000000  2.000000  2.000000  2.000000  2.000000
                       2.000000  2.000000  2.000000  2.000000  2.000000  2.000000
                       2.000000  2.000000  2.000000  2.000000  2.000000  2.000000
                       2.000000  2.000000  2.000000  2.000000  2.000000  2.000000
                       2.000000  2.000000  2.000000  2.000000  2.000000  2.000000
                       2.000000  2.000000  0.000000  0.000000  0.000000  0.000000
                       0.000000  0.000000  0.000000  0.000000  0.000000
        optdriver           1
            prtwf          -1
            rfdir           1       1       1
           rfelfd           2
            rprim      1.4201223041E+01  0.0000000000E+00  0.0000000000E+00
                      -1.1769322150E+01  7.9471876780E+00  0.0000000000E+00
                       0.0000000000E+00  0.0000000000E+00  2.1171259399E+01
          spgroup          63
           strten      0.0000000000E+00  0.0000000000E+00  0.0000000000E+00
                       0.0000000000E+00  0.0000000000E+00  0.0000000000E+00
           symrel      1  0  0   0  1  0   0  0  1      -1  0  0   0 -1  0   0  0 -1
                       0  1  0   1  0  0   0  0 -1       0 -1  0  -1  0  0   0  0  1
                      -1  0  0   0 -1  0   0  0  1       1  0  0   0  1  0   0  0 -1
                       0 -1  0  -1  0  0   0  0 -1       0  1  0   1  0  0   0  0  1
            tnons      0.0000000  0.0000000  0.0000000     0.0000000  0.0000000  0.0000000
                       0.0000000  0.0000000  0.0000000     0.0000000  0.0000000  0.0000000
                       0.0000000  0.0000000  0.5000000     0.0000000  0.0000000  0.5000000
                       0.0000000  0.0000000  0.5000000     0.0000000  0.0000000  0.5000000
           tolwfr      1.00000000E-20
            typat      1  1  2  2  3  3  3  3  3  3
           useylm           1
              wtk        0.50000    0.50000
           xangst      4.0576043864E+00  1.0579786477E+00  2.8008369878E+00
                      -2.7706978614E+00  3.1474919439E+00  8.4025109633E+00
                       0.0000000000E+00  0.0000000000E+00  5.6016739755E+00
                       0.0000000000E+00  0.0000000000E+00  0.0000000000E+00
                       2.5659644156E+00  1.5144320147E+00  6.1678463676E+00
                      -1.2790578905E+00  2.6910385768E+00  5.6617239205E-01
                       2.5659644156E+00  1.5144320147E+00  1.0637175559E+01
                      -1.2790578905E+00  2.6910385768E+00  5.0355015835E+00
                      -5.2766964404E+00  3.9143468899E+00  2.8008369878E+00
                       6.5636029655E+00  2.9112370170E-01  8.4025109633E+00
            xcart      7.6677610460E+00  1.9992898985E+00  5.2928148497E+00
                      -5.2358601550E+00  5.9478977795E+00  1.5878444549E+01
                       0.0000000000E+00  0.0000000000E+00  1.0585629699E+01
                       0.0000000000E+00  0.0000000000E+00  0.0000000000E+00
                       4.8489700121E+00  2.8618617547E+00  1.1655540464E+01
                      -2.4170691211E+00  5.0853259233E+00  1.0699107650E+00
                       4.8489700121E+00  2.8618617547E+00  2.0101348634E+01
                      -2.4170691211E+00  5.0853259233E+00  9.5157189345E+00
                      -9.9715111587E+00  7.3970436110E+00  5.2928148497E+00
                       1.2403412050E+01  5.5014406701E-01  1.5878444549E+01
             xred      7.4842800000E-01  2.5157200000E-01  2.5000000000E-01
                       2.5157200000E-01  7.4842800000E-01  7.5000000000E-01
                       0.0000000000E+00  0.0000000000E+00  5.0000000000E-01
                       0.0000000000E+00  0.0000000000E+00  0.0000000000E+00
                       6.3989000000E-01  3.6011000000E-01  5.5053600000E-01
                       3.6011000000E-01  6.3989000000E-01  5.0536000000E-02
                       6.3989000000E-01  3.6011000000E-01  9.4946400000E-01
                       3.6011000000E-01  6.3989000000E-01  4.4946400000E-01
                       6.9225000000E-02  9.3077500000E-01  2.5000000000E-01
                       9.3077500000E-01  6.9225000000E-02  7.5000000000E-01
            znucl       37.00000   82.00000   35.00000

- Timing analysis has been suppressed with timopt=0

 Suggested references for the acknowledgment of ABINIT usage.

 Calculation completed.
.Delivered   2 WARNINGs and   5 COMMENTs to log file.