.Version 9.7.2 of ABINIT

 ABINIT is a project of the Universite Catholique de Louvain,
 Corning Inc. and other collaborators, see ~abinit/doc/developers/contributors.txt .
 acknowledgments of the ABINIT effort.

.Starting date : Wed  1 Dec 2021.
- ( at 21h16 )

- input  file    -> /scratch/users/j/a/jabreu/flow_simple_remain_atoms/flow/w160/t1/run.abi
- output file    -> /scratch/users/j/a/jabreu/flow_simple_remain_atoms/flow/w160/t1/run.abo
- root for input  files -> /scratch/users/j/a/jabreu/flow_simple_remain_atoms/flow/w160/t1/indata/in
- root for output files -> /scratch/users/j/a/jabreu/flow_simple_remain_atoms/flow/w160/t1/outdata/out

 Symmetries : space group P-3 m 1 (#164); Bravais hP (primitive hexag.)
     intxc =       0      iscf =       7    lmnmax =      18     lnmax =       6
     mgfft =      90  mpssoang =       3    mqgrid =    4110     natom =       5
  nloc_mem =       1    nspden =       1   nspinor =       1    nsppol =       1
      nsym =      12    n1xccc =    2501    ntypat =       3    occopt =       1
   xclevel =       2
-    mband =          39        mffmem =           1         mkmem =           2
-   mkqmem =           2        mk1mem =           2           mpw =       12203
      nfft =      262440          nkpt =           2
  Rough estimation (10% accuracy) of disk space for files :

------------- Echo of variables that govern the present computation ------------
-
- outvars: echo of selected default values
-   iomode0 =  0 , fftalg0 =512 , wfoptalg0 =  0
-
- outvars: echo of global parameters not present in the input file
-  max_nthreads =    0
-
 -outvars: echo values of preprocessed input variables --------
            acell      1.0000000000E+00  1.0000000000E+00  1.0000000000E+00 Bohr
              amu      4.00780000E+01  2.43050000E+01  1.21753000E+02
             ecut      4.20000000E+01 Hartree
-          fftalg         512
           irdden           1
           irdwfk           1
           istwfk        1    1
              ixc     -116133
              kpt      0.00000000E+00  0.00000000E+00  0.00000000E+00
                       5.00000000E-01  0.00000000E+00  0.00000000E+00
           kptopt           0
P           mkmem           2
P          mkqmem           2
P          mk1mem           2
            natom           5
            nband          39
           nbdbuf           4
            ngfft          54      54      90
             nkpt           2
            nstep        2000
             nsym          12
           ntypat           3
              occ      2.000000  2.000000  2.000000  2.000000  2.000000  2.000000
                       2.000000  2.000000  2.000000  2.000000  2.000000  2.000000
                       2.000000  2.000000  2.000000  2.000000  2.000000  2.000000
                       2.000000  2.000000  2.000000  2.000000  2.000000  2.000000
                       2.000000  2.000000  2.000000  2.000000  2.000000  2.000000
                       0.000000  0.000000  0.000000  0.000000  0.000000  0.000000
                       0.000000  0.000000  0.000000
        optdriver           1
            prtwf          -1
            rfdir           1       1       1
           rfelfd           2
            rprim      8.7637223305E+00  0.0000000000E+00  0.0000000000E+00
                      -4.3818611653E+00  7.5896061700E+00  0.0000000000E+00
                       0.0000000000E+00  0.0000000000E+00  1.4086142726E+01
          spgroup         164
           symrel      1  0  0   0  1  0   0  0  1      -1  0  0   0 -1  0   0  0 -1
                      -1  0  0   1  1  0   0  0  1       1  0  0  -1 -1  0   0  0 -1
                       0  1  0  -1 -1  0   0  0  1       0 -1  0   1  1  0   0  0 -1
                       0 -1  0  -1  0  0   0  0  1       0  1  0   1  0  0   0  0 -1
                      -1 -1  0   1  0  0   0  0  1       1  1  0  -1  0  0   0  0 -1
                       1  1  0   0 -1  0   0  0  1      -1 -1  0   0  1  0   0  0 -1
           tolwfr      1.00000000E-20
            typat      1  2  2  3  3
           useylm           1
              wtk        0.50000    0.50000
           xangst      0.0000000000E+00  0.0000000000E+00  0.0000000000E+00
                       2.3187810598E+00  1.3387488691E+00  2.7428129185E+00
                      -1.7639711750E-11  2.6774977382E+00  4.7112527690E+00
                      -1.7639711750E-11  2.6774977382E+00  1.7991580187E+00
                       2.3187810598E+00  1.3387488691E+00  5.6549076687E+00
            xcart      0.0000000000E+00  0.0000000000E+00  0.0000000000E+00
                       4.3818611652E+00  2.5298687233E+00  5.1831652497E+00
                      -3.3334224270E-11  5.0597374467E+00  8.9029774761E+00
                      -3.3334224270E-11  5.0597374467E+00  3.3999159252E+00
                       4.3818611652E+00  2.5298687233E+00  1.0686226801E+01
             xred      0.0000000000E+00  0.0000000000E+00  0.0000000000E+00
                       6.6666666667E-01  3.3333333333E-01  3.6796200000E-01
                       3.3333333333E-01  6.6666666667E-01  6.3203800000E-01
                       3.3333333333E-01  6.6666666667E-01  2.4136600000E-01
                       6.6666666667E-01  3.3333333333E-01  7.5863400000E-01
            znucl       20.00000   12.00000   51.00000

 chkinp: Checking input parameters for consistency.

== DATASET  1 ==================================================================
-   mpi_nproc: 1, omp_nthreads: -1 (-1 if OMP is not activated)

--- !DatasetInfo
iteration_state: {dtset: 1, }
dimensions: {natom: 5, nkpt: 2, mband: 39, nsppol: 1, nspinor: 1, nspden: 1, mpw: 12203, }
cutoff_energies: {ecut:  42.0, pawecutdg:  -1.0, }
electrons: {nelect:   6.00000000E+01, charge:   0.00000000E+00, occopt:   1.00000000E+00, tsmear:   1.00000000E-02, }
meta: {optdriver: 1, rfelfd: 2, }
...

 Real(R)+Recip(G) space primitive vectors, cartesian coordinates (Bohr,Bohr^-1):
 R(1)=  8.7637223  0.0000000  0.0000000  G(1)=  0.1141068  0.0658796  0.0000000
 R(2)= -4.3818612  7.5896062  0.0000000  G(2)=  0.0000000  0.1317591  0.0000000
 R(3)=  0.0000000  0.0000000 14.0861427  G(3)=  0.0000000  0.0000000  0.0709918
 Unit cell volume ucvol=  9.3691444E+02 bohr^3
 Angles (23,13,12)=  9.00000000E+01  9.00000000E+01  1.20000000E+02 degrees

 getcut: wavevector=  0.0000  0.0000  0.0000  ngfft=  54  54  90
         ecut(hartree)=     42.000   => boxcut(ratio)=   2.11259

--- Pseudopotential description ------------------------------------------------
- pspini: atom type   1  psp file is /scratch/users/j/a/jabreu/pseudos/PBEsol/Ca.psp8
- pspatm: opening atomic psp file    /scratch/users/j/a/jabreu/pseudos/PBEsol/Ca.psp8
- Ca    ONCVPSP-3.3.0  r_core=   1.45885   1.45885   1.85192
- 20.00000  10.00000    180112                znucl, zion, pspdat
    8 -116133    2    4       400   0.00000   pspcod,pspxc,lmax,lloc,mmax,r2well
    3.99000000000000    6.00000000000000    0.00000000000000   rchrg,fchrg,qchrg
     nproj     2     2     2
     extension_switch     1
  pspatm : epsatm=   12.46045226
         --- l  ekb(1:nproj) -->
             0   10.054847    0.973777
             1    2.998958    0.458102
             2   -3.447298   -1.091650
 pspatm: atomic psp has been read  and splines computed

- pspini: atom type   2  psp file is /scratch/users/j/a/jabreu/pseudos/PBEsol/Mg.psp8
- pspatm: opening atomic psp file    /scratch/users/j/a/jabreu/pseudos/PBEsol/Mg.psp8
- Mg    ONCVPSP-3.3.0  r_core=   1.16056   1.56380
- 12.00000  10.00000    180112                znucl, zion, pspdat
    8 -116133    1    4       400   0.00000   pspcod,pspxc,lmax,lloc,mmax,r2well
    3.99000000000000    0.00000000000000    0.00000000000000   rchrg,fchrg,qchrg
     nproj     2     2
     extension_switch     1
  pspatm : epsatm=    9.18164846
         --- l  ekb(1:nproj) -->
             0    2.230603   -0.826587
             1   -6.503151   -2.501445
 pspatm: atomic psp has been read  and splines computed

- pspini: atom type   3  psp file is /scratch/users/j/a/jabreu/pseudos/PBEsol/Sb.psp8
- pspatm: opening atomic psp file    /scratch/users/j/a/jabreu/pseudos/PBEsol/Sb.psp8
- Sb    ONCVPSP-3.3.0  r_core=   1.81962   2.12485   1.81962
- 51.00000  15.00000    180112                znucl, zion, pspdat
    8 -116133    2    4       600   0.00000   pspcod,pspxc,lmax,lloc,mmax,r2well
    5.99000000000000    5.00000000000000    0.00000000000000   rchrg,fchrg,qchrg
     nproj     2     2     2
     extension_switch     1
  pspatm : epsatm=   26.35641246
         --- l  ekb(1:nproj) -->
             0    9.727814    1.485032
             1    5.505335    0.704623
             2   -4.710637   -1.436443
 pspatm: atomic psp has been read  and splines computed

   5.01219445E+03                                ecore*ucvol(ha*bohr**3)

 ==>  initialize data related to q vector <==

 The list of irreducible perturbations for this q vector is:
    1)    idir= 1    ipert=   6
    2)    idir= 2    ipert=   6
    3)    idir= 3    ipert=   6

 Perturbation wavevector (in red.coord.)   0.000000  0.000000  0.000000
 Perturbation : derivative vs k along direction   1

 dfpt_looppert : COMMENT -
  In a d/dk calculation, iscf is set to -3 automatically.
 The set of symmetries contains only one element for this perturbation.
 symkpt : not enough symmetry to change the number of k points.

 Initialisation of the first-order wave-functions :
  ireadwf=   0

--- !BeginCycle
iteration_state: {dtset: 1, }
solver: {iscf: 7, nstep: 2000, nline: 4, wfoptalg: 0, }
tolerances: {tolwfr: 1.00E-20, }
...

     iter   2DEtotal(Ha)        deltaE(Ha) residm    vres2
-ETOT  1  -76.194853492375     -7.619E+01 1.598E-01 0.000E+00
 ETOT  2  -76.238822900336     -4.397E-02 2.096E-02 0.000E+00
 ETOT  3  -76.238963712255     -1.408E-04 2.275E-03 0.000E+00
 ETOT  4  -76.238965372068     -1.660E-06 4.237E-04 0.000E+00
 ETOT  5  -76.238965398903     -2.684E-08 5.449E-05 0.000E+00
 ETOT  6  -76.238965399394     -4.910E-10 1.123E-05 0.000E+00
 ETOT  7  -76.238965399404     -9.663E-12 1.489E-06 0.000E+00
 ETOT  8  -76.238965399404     -2.416E-13 3.390E-07 0.000E+00
 ETOT  9  -76.238965399404     -9.948E-14 5.608E-08 0.000E+00
 ETOT 10  -76.238965399404      1.137E-13 1.975E-08 0.000E+00
 ETOT 11  -76.238965399404      2.842E-14 5.604E-09 0.000E+00
 ETOT 12  -76.238965399404      1.421E-14 3.005E-09 0.000E+00
 ETOT 13  -76.238965399404     -2.842E-14 9.817E-10 0.000E+00
 ETOT 14  -76.238965399404      2.842E-14 5.719E-10 0.000E+00
 ETOT 15  -76.238965399404     -1.421E-14 1.854E-10 0.000E+00
 ETOT 16  -76.238965399404      0.000E+00 1.097E-10 0.000E+00
 ETOT 17  -76.238965399404      0.000E+00 3.516E-11 0.000E+00
 ETOT 18  -76.238965399404     -1.421E-14 2.107E-11 0.000E+00
 ETOT 19  -76.238965399404      0.000E+00 6.683E-12 0.000E+00
 ETOT 20  -76.238965399404      0.000E+00 4.051E-12 0.000E+00
 ETOT 21  -76.238965399404      0.000E+00 1.273E-12 0.000E+00
 ETOT 22  -76.238965399404      1.421E-14 7.795E-13 0.000E+00
 ETOT 23  -76.238965399404     -2.842E-14 2.430E-13 0.000E+00
 ETOT 24  -76.238965399404      1.421E-14 1.501E-13 0.000E+00
 ETOT 25  -76.238965399404      0.000E+00 4.647E-14 0.000E+00
 ETOT 26  -76.238965399404      1.421E-14 2.893E-14 0.000E+00
 ETOT 27  -76.238965399404      0.000E+00 8.905E-15 0.000E+00
 ETOT 28  -76.238965399404      0.000E+00 5.581E-15 0.000E+00
 ETOT 29  -76.238965399404      0.000E+00 1.710E-15 0.000E+00
 ETOT 30  -76.238965399404      1.421E-14 1.078E-15 0.000E+00
 ETOT 31  -76.238965399404      0.000E+00 3.288E-16 0.000E+00
 ETOT 32  -76.238965399404      0.000E+00 2.082E-16 0.000E+00
 ETOT 33  -76.238965399404     -2.842E-14 6.332E-17 0.000E+00
 ETOT 34  -76.238965399404      0.000E+00 4.026E-17 0.000E+00
 ETOT 35  -76.238965399404     -1.421E-14 1.221E-17 0.000E+00
 ETOT 36  -76.238965399404      2.842E-14 7.791E-18 0.000E+00
 ETOT 37  -76.238965399404     -1.421E-14 2.359E-18 0.000E+00
 ETOT 38  -76.238965399404      2.842E-14 1.509E-18 0.000E+00
 ETOT 39  -76.238965399404     -1.421E-14 4.562E-19 0.000E+00
 ETOT 40  -76.238965399404      0.000E+00 2.923E-19 0.000E+00
 ETOT 41  -76.238965399404      0.000E+00 8.830E-20 0.000E+00
 ETOT 42  -76.238965399404      0.000E+00 5.666E-20 0.000E+00
 ETOT 43  -76.238965399404      0.000E+00 1.711E-20 0.000E+00
 ETOT 44  -76.238965399404     -1.421E-14 1.099E-20 0.000E+00
 ETOT 45  -76.238965399404      2.842E-14 9.713E-21 0.000E+00

 At SCF step   45   max residual=  9.71E-21 < tolwfr=  1.00E-20 =>converged.

 ----iterations are completed or convergence reached----

 dfpt_looppert: DFPT cycle converged with prtwf=-1. Will skip output of the 1st-order WFK file.
 dfpt_looppert : ek2=    8.2243673727E+01
          f-sum rule ratio=    1.2039812729E+00
 prteigrs : about to open file /scratch/users/j/a/jabreu/flow_simple_remain_atoms/flow/w160/t1/tmpdata/tmp_1WF1_EIG
 Expectation of eigenvalue derivatives (hartree) for nkpt=   2  k points:
  (in case of degenerate eigenvalues, averaged derivative)
 kpt#   1, nband= 39, wtk=  0.50000, kpt=  0.0000  0.0000  0.0000 (reduced coord)
   0.00000   -0.00000    0.00000    0.00000   -0.00000   -0.00000   -0.00000   -0.00000
  -0.00000   -0.00000   -0.00000   -0.00000   -0.00000   -0.00000   -0.00000    0.00000
   0.00000   -0.00000   -0.00000   -0.00000   -0.00000   -0.00000    0.00000   -0.00000
  -0.00000   -0.00000   -0.00000    0.00000    0.00000    0.00000    0.00000   -0.00000
  -0.00000    0.00000    0.00000   -0.00000   -0.00000    0.00000    0.00000
 prteigrs : prtvol=0 or 1, do not print more k-points.

 Eight components of 2nd-order total energy (hartree) are
 1,2,3: 0th-order hamiltonian combined with 1st-order wavefunctions
     kin0=   7.82226881E+01 eigvalue=   1.25592503E+01  local=  -4.41842081E+01
 4,5,6: 1st-order hamiltonian combined with 1st and 0th-order wfs
     kin1=  -9.90198430E+01  Hartree=   0.00000000E+00     xc=   0.00000000E+00
 7,8,9: eventually, occupation + non-local contributions
    edocc=   2.04531471E+01     enl0=   9.18808802E+00   enl1=  -5.34580878E+01
 1-9 gives the relaxation energy (to be shifted if some occ is /=2.0)
   erelax=  -7.62389654E+01
  No Ewald or frozen-wf contrib.: the relaxation energy is the total one
 2DEtotal=   -0.7623896540E+02 Ha. Also 2DEtotal=   -0.207456775257E+04 eV
    (  non-var. 2DEtotal :   -7.6238965399E+01 Ha)

 Perturbation wavevector (in red.coord.)   0.000000  0.000000  0.000000
 Perturbation : derivative vs k along direction   2
 The set of symmetries contains only one element for this perturbation.
 symkpt : not enough symmetry to change the number of k points.

[...]

 Perturbation wavevector (in red.coord.)   0.000000  0.000000  0.000000
 Perturbation : derivative vs k along direction   3
 The set of symmetries contains only one element for this perturbation.
 symkpt : not enough symmetry to change the number of k points.

 Initialisation of the first-order wave-functions :
  ireadwf=   0

--- !BeginCycle
iteration_state: {dtset: 1, }
solver: {iscf: 7, nstep: 2000, nline: 4, wfoptalg: 0, }
tolerances: {tolwfr: 1.00E-20, }
...

     iter   2DEtotal(Ha)        deltaE(Ha) residm    vres2
-ETOT  1  -21.110586645947     -2.111E+01 5.380E-02 0.000E+00
 ETOT  2  -21.123052889661     -1.247E-02 1.113E-02 0.000E+00
 ETOT  3  -21.123087022496     -3.413E-05 1.136E-03 0.000E+00
 ETOT  4  -21.123087310510     -2.880E-07 2.160E-04 0.000E+00
 ETOT  5  -21.123087313966     -3.455E-09 2.618E-05 0.000E+00
 ETOT  6  -21.123087314016     -5.050E-11 6.221E-06 0.000E+00
 ETOT  7  -21.123087314017     -9.202E-13 7.096E-07 0.000E+00
 ETOT  8  -21.123087314017     -2.487E-14 1.777E-07 0.000E+00
 ETOT  9  -21.123087314017      1.776E-14 2.087E-08 0.000E+00
 ETOT 10  -21.123087314017      3.553E-15 5.481E-09 0.000E+00
 ETOT 11  -21.123087314017     -1.776E-14 6.509E-10 0.000E+00
 ETOT 12  -21.123087314017      0.000E+00 1.736E-10 0.000E+00
 ETOT 13  -21.123087314017      0.000E+00 2.075E-11 0.000E+00
 ETOT 14  -21.123087314017      0.000E+00 5.561E-12 0.000E+00
 ETOT 15  -21.123087314017     -7.105E-15 6.668E-13 0.000E+00
 ETOT 16  -21.123087314017      7.105E-15 1.791E-13 0.000E+00
 ETOT 17  -21.123087314017      0.000E+00 4.584E-14 0.000E+00
 ETOT 18  -21.123087314017      0.000E+00 1.954E-14 0.000E+00
 ETOT 19  -21.123087314017      3.553E-15 7.826E-15 0.000E+00
 ETOT 20  -21.123087314017     -3.553E-15 3.873E-15 0.000E+00
 ETOT 21  -21.123087314017     -3.553E-15 1.603E-15 0.000E+00
 ETOT 22  -21.123087314017     -3.553E-15 8.068E-16 0.000E+00
 ETOT 23  -21.123087314017      7.105E-15 3.323E-16 0.000E+00
 ETOT 24  -21.123087314017     -3.553E-15 1.680E-16 0.000E+00
 ETOT 25  -21.123087314017      7.105E-15 6.892E-17 0.000E+00
 ETOT 26  -21.123087314017      7.105E-15 3.496E-17 0.000E+00
 ETOT 27  -21.123087314017      3.553E-15 1.429E-17 0.000E+00
 ETOT 28  -21.123087314017      0.000E+00 7.270E-18 0.000E+00
 ETOT 29  -21.123087314017     -2.132E-14 2.964E-18 0.000E+00
 ETOT 30  -21.123087314017      1.066E-14 1.512E-18 0.000E+00
 ETOT 31  -21.123087314017      1.066E-14 6.145E-19 0.000E+00
 ETOT 32  -21.123087314017     -7.105E-15 3.143E-19 0.000E+00
 ETOT 33  -21.123087314017      3.553E-15 1.274E-19 0.000E+00
 ETOT 34  -21.123087314017     -3.553E-15 6.532E-20 0.000E+00
 ETOT 35  -21.123087314017     -7.105E-15 2.642E-20 0.000E+00
 ETOT 36  -21.123087314017      0.000E+00 1.358E-20 0.000E+00
 ETOT 37  -21.123087314017      0.000E+00 9.718E-21 0.000E+00

 At SCF step   37   max residual=  9.72E-21 < tolwfr=  1.00E-20 =>converged.

 ----iterations are completed or convergence reached----

 dfpt_looppert: DFPT cycle converged with prtwf=-1. Will skip output of the 1st-order WFK file.
 dfpt_looppert : ek2=    2.3875738508E+01
          f-sum rule ratio=    1.1211398379E+00
 prteigrs : about to open file /scratch/users/j/a/jabreu/flow_simple_remain_atoms/flow/w160/t1/tmpdata/tmp_1WF1_EIG
 Expectation of eigenvalue derivatives (hartree) for nkpt=   2  k points:
  (in case of degenerate eigenvalues, averaged derivative)
 kpt#   1, nband= 39, wtk=  0.50000, kpt=  0.0000  0.0000  0.0000 (reduced coord)
  -0.00000   -0.00000    0.00000    0.00000    0.00000   -0.00000   -0.00000    0.00000
   0.00000    0.00000    0.00000   -0.00000   -0.00000   -0.00000   -0.00000   -0.00000
  -0.00000    0.00000    0.00000   -0.00000    0.00000    0.00000   -0.00000   -0.00000
   0.00000    0.00000    0.00000    0.00000    0.00000    0.00000    0.00000   -0.00000
   0.00000   -0.00000   -0.00000   -0.00000   -0.00000   -0.00000   -0.00000
 prteigrs : prtvol=0 or 1, do not print more k-points.

 Eight components of 2nd-order total energy (hartree) are
 1,2,3: 0th-order hamiltonian combined with 1st-order wavefunctions
     kin0=   2.37958729E+01 eigvalue=   3.56104815E+00  local=  -1.35127377E+01
 4,5,6: 1st-order hamiltonian combined with 1st and 0th-order wfs
     kin1=  -2.67680416E+01  Hartree=   0.00000000E+00     xc=   0.00000000E+00
 7,8,9: eventually, occupation + non-local contributions
    edocc=   4.74289269E+00     enl0=   2.53601128E+00   enl1=  -1.54781330E+01
 1-9 gives the relaxation energy (to be shifted if some occ is /=2.0)
   erelax=  -2.11230873E+01
  No Ewald or frozen-wf contrib.: the relaxation energy is the total one
 2DEtotal=   -0.2112308731E+02 Ha. Also 2DEtotal=   -0.574788437210E+03 eV
    (  non-var. 2DEtotal :   -2.1123087314E+01 Ha)

 CALCULATION OF EFFECTIVE MASSES
 NOTE : Additional infos (eff. mass eigenvalues, eigenvectors and, if degenerate, average mass) are available in stdout.

 K-point ( 0.000, 0.000, 0.000) | band =    30
 Effective mass tensor:
             -0.6225519407             -0.0000000000              0.0000000000
             -0.0000000000             -0.6225519405              0.0000000001
              0.0000000000              0.0000000001             -0.0858787545
 Effective mass tensor eigenvalues:
             -0.6225519407             -0.6225519405             -0.0858787545
 Angular average effective mass 1/(<1/m>)=  -0.2019262844
 Angular average effective mass for Frohlich model (<m**0.5>)**2=  -0.2702894144
 Effective masses along directions: (cart. coord. / red. coord. -> eff. mass)
    1:   1.000000  0.000000  0.000000 /   0.894427 -0.447214  0.000000 ->  -0.6225519407
    2:   0.000000  1.000000  0.000000 /   0.000000  1.000000  0.000000 ->  -0.6225519405
    3:   0.000000  0.000000  1.000000 /   0.000000  0.000000  1.000000 ->  -0.0858787545
    4:   0.577350  0.577350  0.577350 /   0.518653  0.189840  0.833643 ->  -0.2019262843
    5:   0.000000  0.707107  0.707107 /   0.000000  0.474330  0.880347 ->  -0.1509363883
    6:   0.707107  0.000000  0.707107 /   0.510743 -0.255372  0.820930 ->  -0.1509363884
    7:   0.707107  0.707107  0.000000 /   0.939071  0.343724  0.000000 ->  -0.6225519407

 K-point ( 0.500, 0.000, 0.000) | band =    31
 Effective mass tensor:
              0.7020194508              0.3344726620             -0.0846642292
              0.3344726620              0.3158036449             -0.0488809890
             -0.0846642292             -0.0488809890              1.0430614846
 Effective mass tensor eigenvalues:
              0.1226957742              0.8465035716              1.0916852345
 Angular average effective mass 1/(<1/m>)=   0.2927519071
 Angular average effective mass for Frohlich model (<m**0.5>)**2=   0.4004470949
 Effective masses along directions: (cart. coord. / red. coord. -> eff. mass)
    1:   1.000000  0.000000  0.000000 /   0.894427 -0.447214  0.000000 ->   0.3467292365
    2:   0.000000  1.000000  0.000000 /   0.000000  1.000000  0.000000 ->   0.1563756257
    3:   0.000000  0.000000  1.000000 /   0.000000  0.000000  1.000000 ->   1.0323843635
    4:   0.577350  0.577350  0.577350 /   0.518653  0.189840  0.833643 ->   0.6732816118
    5:   0.000000  0.707107  0.707107 /   0.000000  0.474330  0.880347 ->   0.2677634057
    6:   0.707107  0.000000  0.707107 /   0.510743 -0.255372  0.820930 ->   0.4955451870
    7:   0.707107  0.707107  0.000000 /   0.939071  0.343724  0.000000 ->   0.6253648230

 END OF EFFECTIVE MASSES SECTION

 ---- first-order wavefunction calculations are completed ----

 Total localisation tensor (bohr^2) in cartesian coordinates
  WARNING : still subject to testing - especially symmetries.
      direction              matrix element
   alpha     beta       real part   imaginary part
     1        1       4.4184406280    0.0000000000
     1        2      -1.8505991515    0.0000000000
     1        3       0.0000000000    0.0000000000
     2        1      -1.8505991515    0.0000000000
     2        2       3.2053317549    0.0000000000
     2        3       0.0000000000    0.0000000000
     3        1       0.0000000000    0.0000000000
     3        2       0.0000000000    0.0000000000
     3        3       2.2742685819    0.0000000000

 respfn : d/dk was computed, but no 2DTE, so no DDB output.

== END DATASET(S) ==============================================================

 -outvars: echo values of variables after computation  --------
            acell      1.0000000000E+00  1.0000000000E+00  1.0000000000E+00 Bohr
              amu      4.00780000E+01  2.43050000E+01  1.21753000E+02
             ecut      4.20000000E+01 Hartree
           etotal     -2.1123087314E+01
            fcart      0.0000000000E+00  0.0000000000E+00  0.0000000000E+00
                       0.0000000000E+00  0.0000000000E+00  0.0000000000E+00
                       0.0000000000E+00  0.0000000000E+00  0.0000000000E+00
                       0.0000000000E+00  0.0000000000E+00  0.0000000000E+00
                       0.0000000000E+00  0.0000000000E+00  0.0000000000E+00
-          fftalg         512
           irdden           1
           irdwfk           1
           istwfk        1    1
              ixc     -116133
              kpt      0.00000000E+00  0.00000000E+00  0.00000000E+00
                       5.00000000E-01  0.00000000E+00  0.00000000E+00
           kptopt           0
P           mkmem           2
P          mkqmem           2
P          mk1mem           2
            natom           5
            nband          39
           nbdbuf           4
            ngfft          54      54      90
             nkpt           2
            nstep        2000
             nsym          12
           ntypat           3
              occ      2.000000  2.000000  2.000000  2.000000  2.000000  2.000000
                       2.000000  2.000000  2.000000  2.000000  2.000000  2.000000
                       2.000000  2.000000  2.000000  2.000000  2.000000  2.000000
                       2.000000  2.000000  2.000000  2.000000  2.000000  2.000000
                       2.000000  2.000000  2.000000  2.000000  2.000000  2.000000
                       0.000000  0.000000  0.000000  0.000000  0.000000  0.000000
                       0.000000  0.000000  0.000000
        optdriver           1
            prtwf          -1
            rfdir           1       1       1
           rfelfd           2
            rprim      8.7637223305E+00  0.0000000000E+00  0.0000000000E+00
                      -4.3818611653E+00  7.5896061700E+00  0.0000000000E+00
                       0.0000000000E+00  0.0000000000E+00  1.4086142726E+01
          spgroup         164
           strten      0.0000000000E+00  0.0000000000E+00  0.0000000000E+00
                       0.0000000000E+00  0.0000000000E+00  0.0000000000E+00
           symrel      1  0  0   0  1  0   0  0  1      -1  0  0   0 -1  0   0  0 -1
                      -1  0  0   1  1  0   0  0  1       1  0  0  -1 -1  0   0  0 -1
                       0  1  0  -1 -1  0   0  0  1       0 -1  0   1  1  0   0  0 -1
                       0 -1  0  -1  0  0   0  0  1       0  1  0   1  0  0   0  0 -1
                      -1 -1  0   1  0  0   0  0  1       1  1  0  -1  0  0   0  0 -1
                       1  1  0   0 -1  0   0  0  1      -1 -1  0   0  1  0   0  0 -1
           tolwfr      1.00000000E-20
            typat      1  2  2  3  3
           useylm           1
              wtk        0.50000    0.50000
           xangst      0.0000000000E+00  0.0000000000E+00  0.0000000000E+00
                       2.3187810598E+00  1.3387488691E+00  2.7428129185E+00
                      -1.7639711750E-11  2.6774977382E+00  4.7112527690E+00
                      -1.7639711750E-11  2.6774977382E+00  1.7991580187E+00
                       2.3187810598E+00  1.3387488691E+00  5.6549076687E+00
            xcart      0.0000000000E+00  0.0000000000E+00  0.0000000000E+00
                       4.3818611652E+00  2.5298687233E+00  5.1831652497E+00
                      -3.3334224270E-11  5.0597374467E+00  8.9029774761E+00
                      -3.3334224270E-11  5.0597374467E+00  3.3999159252E+00
                       4.3818611652E+00  2.5298687233E+00  1.0686226801E+01
             xred      0.0000000000E+00  0.0000000000E+00  0.0000000000E+00
                       6.6666666667E-01  3.3333333333E-01  3.6796200000E-01
                       3.3333333333E-01  6.6666666667E-01  6.3203800000E-01
                       3.3333333333E-01  6.6666666667E-01  2.4136600000E-01
                       6.6666666667E-01  3.3333333333E-01  7.5863400000E-01
            znucl       20.00000   12.00000   51.00000

- Timing analysis has been suppressed with timopt=0

 Suggested references for the acknowledgment of ABINIT usage.

 Calculation completed.
.Delivered   2 WARNINGs and   5 COMMENTs to log file.