.Version 9.5.1 of ABINIT

 ABINIT is a project of the Universite Catholique de Louvain,
 Corning Inc. and other collaborators, see ~abinit/doc/developers/contributors.txt .
 acknowledgments of the ABINIT effort.

.Starting date : Wed 19 May 2021.
- ( at 01h51 )

- input  file    -> /scratch/users/j/a/jabreu/flow_simple_8atoms/flow/w488/t1/run.abi
- output file    -> /scratch/users/j/a/jabreu/flow_simple_8atoms/flow/w488/t1/run.abo
- root for input  files -> /scratch/users/j/a/jabreu/flow_simple_8atoms/flow/w488/t1/indata/in
- root for output files -> /scratch/users/j/a/jabreu/flow_simple_8atoms/flow/w488/t1/outdata/out

 Symmetries : space group Cm c m (# 63); Bravais oC (1-face-center ortho.)
     intxc =       0      iscf =       7    lmnmax =      18     lnmax =       6
     mgfft =      72  mpssoang =       3    mqgrid =    3077     natom =       8
  nloc_mem =       1    nspden =       1   nspinor =       1    nsppol =       1
      nsym =       8    n1xccc =    2501    ntypat =       3    occopt =       1
   xclevel =       2
-    mband =          49        mffmem =           1         mkmem =           2
-   mkqmem =           2        mk1mem =           2           mpw =       10599
      nfft =      331776          nkpt =           2
  Rough estimation (10% accuracy) of disk space for files :

------------- Echo of variables that govern the present computation ------------
-
- outvars: echo of selected default values
-   iomode0 =  0 , fftalg0 =512 , wfoptalg0 =  0
-
- outvars: echo of global parameters not present in the input file
-  max_nthreads =    0
-
 -outvars: echo values of preprocessed input variables --------
            acell      1.0000000000E+00  1.0000000000E+00  1.0000000000E+00 Bohr
              amu      2.29897680E+01  6.35460000E+01  1.59994000E+01
             ecut      4.60000000E+01 Hartree
-          fftalg         512
           irdden           1
           irdwfk           1
           istwfk        1    0
              ixc     -116133
              kpt      0.00000000E+00  0.00000000E+00  0.00000000E+00
                      -5.00000000E-01  5.00000000E-01  4.72222222E-01
           kptopt           0
P           mkmem           2
P          mkqmem           2
P          mk1mem           2
            natom           8
            nband          49
           nbdbuf           4
            ngfft          72      72      64
             nkpt           2
            nstep        2000
             nsym           8
           ntypat           3
              occ      2.000000  2.000000  2.000000  2.000000  2.000000  2.000000
                       2.000000  2.000000  2.000000  2.000000  2.000000  2.000000
                       2.000000  2.000000  2.000000  2.000000  2.000000  2.000000
                       2.000000  2.000000  2.000000  2.000000  2.000000  2.000000
                       2.000000  2.000000  2.000000  2.000000  2.000000  2.000000
                       2.000000  2.000000  2.000000  2.000000  2.000000  2.000000
                       2.000000  2.000000  2.000000  2.000000  0.000000  0.000000
                       0.000000  0.000000  0.000000  0.000000  0.000000  0.000000
                       0.000000
        optdriver           1
            prtwf          -1
            rfdir           1       1       1
           rfelfd           2
            rprim      1.0763762786E+01  0.0000000000E+00  0.0000000000E+00
                      -8.5401311610E+00  6.5516981822E+00  0.0000000000E+00
                       0.0000000000E+00  0.0000000000E+00  1.0075133906E+01
          spgroup          63
           symrel      1  0  0   0  1  0   0  0  1      -1  0  0   0 -1  0   0  0 -1
                       0  1  0   1  0  0   0  0 -1       0 -1  0  -1  0  0   0  0  1
                      -1  0  0   0 -1  0   0  0  1       1  0  0   0  1  0   0  0 -1
                       0 -1  0  -1  0  0   0  0 -1       0  1  0   1  0  0   0  0  1
            tnons      0.0000000  0.0000000  0.0000000     0.0000000  0.0000000  0.0000000
                      -0.0000000  0.0000000  0.0000000     0.0000000  0.0000000  0.0000000
                       0.0000000  0.0000000  0.5000000     0.0000000  0.0000000  0.5000000
                       0.0000000  0.0000000  0.5000000    -0.0000000  0.0000000  0.5000000
           tolwfr      1.00000000E-20
            typat      1  1  2  2  3  3  3  3
           useylm           1
              wtk        0.50000    0.50000
           xangst      2.7254757605E+00  1.0081681835E+00  1.3328828092E+00
                      -1.5487805842E+00  2.4588411721E+00  3.9986484275E+00
                       5.6630246329E+00  1.1170704144E-02  1.3328828092E+00
                      -4.4863294565E+00  3.4558386514E+00  3.9986484275E+00
                      -3.3537315100E+00  3.0714374561E+00  2.6327474454E+00
                       4.5304266864E+00  3.9557189943E-01  2.6987837913E+00
                      -3.3537315100E+00  3.0714374561E+00  3.3018172949E-02
                       4.5304266864E+00  3.9557189943E-01  5.2985130638E+00
            xcart      5.1504027692E+00  1.9051617627E+00  2.5187834766E+00
                      -2.9267711440E+00  4.6465364195E+00  7.5563504297E+00
                       1.0701565640E+01  2.1109571543E-02  2.5187834766E+00
                      -8.4779340147E+00  6.5305886107E+00  7.5563504297E+00
                      -6.3376340772E+00  5.8041756264E+00  4.9751716489E+00
                       8.5612657024E+00  7.4752255580E-01  5.0999622574E+00
                      -6.3376340772E+00  5.8041756264E+00  6.2395304282E-02
                       8.5612657024E+00  7.4752255580E-01  1.0012738602E+01
             xred      7.0921100000E-01  2.9078900000E-01  2.5000000000E-01
                       2.9078900000E-01  7.0921100000E-01  7.5000000000E-01
                       9.9677800000E-01  3.2220000000E-03  2.5000000000E-01
                       3.2220000000E-03  9.9677800000E-01  7.5000000000E-01
                       1.1409600000E-01  8.8590400000E-01  4.9380700000E-01
                       8.8590400000E-01  1.1409600000E-01  5.0619300000E-01
                       1.1409600000E-01  8.8590400000E-01  6.1930000000E-03
                       8.8590400000E-01  1.1409600000E-01  9.9380700000E-01
            znucl       11.00000   29.00000    8.00000

 chkinp: Checking input parameters for consistency.

== DATASET  1 ==================================================================
-   mpi_nproc: 1, omp_nthreads: -1 (-1 if OMP is not activated)

--- !DatasetInfo
iteration_state: {dtset: 1, }
dimensions: {natom: 8, nkpt: 2, mband: 49, nsppol: 1, nspinor: 1, nspden: 1, mpw: 10599, }
cutoff_energies: {ecut:  46.0, pawecutdg:  -1.0, }
electrons: {nelect:   8.00000000E+01, charge:   0.00000000E+00, occopt:   1.00000000E+00, tsmear:   1.00000000E-02, }
meta: {optdriver: 1, rfelfd: 2, }
...

 Real(R)+Recip(G) space primitive vectors, cartesian coordinates (Bohr,Bohr^-1):
 R(1)= 10.7637628  0.0000000  0.0000000  G(1)=  0.0929043  0.1211007  0.0000000
 R(2)= -8.5401312  6.5516982  0.0000000  G(2)=  0.0000000  0.1526322  0.0000000
 R(3)=  0.0000000  0.0000000 10.0751339  G(3)=  0.0000000  0.0000000  0.0992543
 Unit cell volume ucvol=  7.1050776E+02 bohr^3
 Angles (23,13,12)=  9.00000000E+01  9.00000000E+01  1.42505806E+02 degrees

 getcut: wavevector=  0.0000  0.0000  0.0000  ngfft=  72  72  64
         ecut(hartree)=     46.000   => boxcut(ratio)=   2.08058

--- Pseudopotential description ------------------------------------------------
- pspini: atom type   1  psp file is /scratch/users/j/a/jabreu/pseudos/PBEsol/Na.psp8
- pspatm: opening atomic psp file    /scratch/users/j/a/jabreu/pseudos/PBEsol/Na.psp8
- Na    ONCVPSP-3.3.0  r_core=   1.20708   1.55069
- 11.00000   9.00000    180112                znucl, zion, pspdat
    8 -116133    1    4       400   0.00000   pspcod,pspxc,lmax,lloc,mmax,r2well
    3.99000000000000    0.00000000000000    0.00000000000000   rchrg,fchrg,qchrg
     nproj     2     2
     extension_switch     1
  pspatm : epsatm=    9.32878306
         --- l  ekb(1:nproj) -->
             0    2.657905   -0.678300
             1   -6.761319   -2.404728
 pspatm: atomic psp has been read  and splines computed

- pspini: atom type   2  psp file is /scratch/users/j/a/jabreu/pseudos/PBEsol/Cu.psp8
- pspatm: opening atomic psp file    /scratch/users/j/a/jabreu/pseudos/PBEsol/Cu.psp8
- Cu    ONCVPSP-3.3.0  r_core=   1.26204   1.45626   1.76249
- 29.00000  19.00000    180112                znucl, zion, pspdat
    8 -116133    2    4       600   0.00000   pspcod,pspxc,lmax,lloc,mmax,r2well
    5.99000000000000    3.50000000000000    0.00000000000000   rchrg,fchrg,qchrg
     nproj     2     2     2
     extension_switch     1
  pspatm : epsatm=   21.63488701
         --- l  ekb(1:nproj) -->
             0    5.008230   -0.401634
             1   -3.496700   -0.765945
             2   -6.895851   -2.521180
 pspatm: atomic psp has been read  and splines computed

- pspini: atom type   3  psp file is /scratch/users/j/a/jabreu/pseudos/PBEsol/O.psp8
- pspatm: opening atomic psp file    /scratch/users/j/a/jabreu/pseudos/PBEsol/O.psp8
- O     ONCVPSP-3.3.0  r_core=   1.35509   1.45563   1.26150
-  8.00000   6.00000    180112                znucl, zion, pspdat
    8 -116133    2    4       600   0.00000   pspcod,pspxc,lmax,lloc,mmax,r2well
    5.99000000000000    4.00000000000000    0.00000000000000   rchrg,fchrg,qchrg
     nproj     2     2     1
     extension_switch     1
  pspatm : epsatm=    6.22910522
         --- l  ekb(1:nproj) -->
             0    6.050032    0.820363
             1   -4.739617   -1.153841
             2   -1.335834
 pspatm: atomic psp has been read  and splines computed

   6.94750088E+03                                ecore*ucvol(ha*bohr**3)

-inwffil : will read wavefunctions from disk file /scratch/users/j/a/jabreu/flow_simple_8atoms/flow/w488/t1/indata/in_WFK

 ==>  initialize data related to q vector <==

 The list of irreducible perturbations for this q vector is:
    1)    idir= 1    ipert=   9
    2)    idir= 2    ipert=   9
    3)    idir= 3    ipert=   9

 Perturbation wavevector (in red.coord.)   0.000000  0.000000  0.000000
 Perturbation : derivative vs k along direction   1

 dfpt_looppert : COMMENT -
  In a d/dk calculation, iscf is set to -3 automatically.
 The set of symmetries contains only one element for this perturbation.
 symkpt : not enough symmetry to change the number of k points.

[...]

 Initialisation of the first-order wave-functions :
  ireadwf=   0

--- !BeginCycle
iteration_state: {dtset: 1, }
solver: {iscf: 7, nstep: 2000, nline: 4, wfoptalg: 0, }
tolerances: {tolwfr: 1.00E-20, }
...

     iter   2DEtotal(Ha)        deltaE(Ha) residm    vres2
-ETOT  1  -85.831658264080     -8.583E+01 6.427E-02 0.000E+00
 ETOT  2  -85.918591811994     -8.693E-02 3.839E-04 0.000E+00
 ETOT  3  -85.919007544325     -4.157E-04 2.811E-06 0.000E+00
 ETOT  4  -85.919011303653     -3.759E-06 4.494E-08 0.000E+00
 ETOT  5  -85.919011345797     -4.214E-08 1.066E-09 0.000E+00
 ETOT  6  -85.919011346325     -5.285E-10 1.941E-11 0.000E+00
 ETOT  7  -85.919011346332     -7.120E-12 5.001E-13 0.000E+00
 ETOT  8  -85.919011346332     -1.421E-13 2.871E-14 0.000E+00
 ETOT  9  -85.919011346332     -2.842E-14 1.083E-15 0.000E+00
 ETOT 10  -85.919011346332      5.684E-14 9.344E-17 0.000E+00
 ETOT 11  -85.919011346332      0.000E+00 4.153E-18 0.000E+00
 ETOT 12  -85.919011346332     -2.842E-14 3.637E-19 0.000E+00
 ETOT 13  -85.919011346332      0.000E+00 1.627E-20 0.000E+00
 ETOT 14  -85.919011346332      0.000E+00 9.833E-21 0.000E+00

 At SCF step   14   max residual=  9.83E-21 < tolwfr=  1.00E-20 =>converged.

 ----iterations are completed or convergence reached----

 dfpt_looppert: DFPT cycle converged with prtwf=-1. Will skip output of the 1st-order WFK file.
 dfpt_looppert : ek2=    1.4715396021E+02
          f-sum rule ratio=    1.0476086326E+00
 prteigrs : about to open file /scratch/users/j/a/jabreu/flow_simple_8atoms/flow/w488/t1/tmpdata/tmp_1WF1_EIG
 Expectation of eigenvalue derivatives (hartree) for nkpt=   2  k points:
  (in case of degenerate eigenvalues, averaged derivative)
 kpt#   1, nband= 49, wtk=  0.50000, kpt=  0.0000  0.0000  0.0000 (reduced coord)
   0.00000    0.00000    0.00000    0.00000    0.00000   -0.00000   -0.00000   -0.00000
  -0.00000   -0.00000   -0.00000   -0.00000    0.00000   -0.00000    0.00000    0.00000
   0.00000    0.00000    0.00000    0.00000   -0.00000   -0.00000    0.00000   -0.00000
  -0.00000    0.00000    0.00000   -0.00000    0.00000    0.00000   -0.00000   -0.00000
   0.00000    0.00000   -0.00000    0.00000    0.00000    0.00000   -0.00000    0.00000
  -0.00000   -0.00000   -0.00000    0.00000    0.00000    0.00000    0.00000    0.00000
   0.00001
 prteigrs : prtvol=0 or 1, do not print more k-points.

 Eight components of 2nd-order total energy (hartree) are
 1,2,3: 0th-order hamiltonian combined with 1st-order wavefunctions
     kin0=   1.22034433E+02 eigvalue=   5.81675895E+00  local=  -4.55179833E+01
 4,5,6: 1st-order hamiltonian combined with 1st and 0th-order wfs
     kin1=  -1.54159759E+02  Hartree=   0.00000000E+00     xc=   0.00000000E+00
 7,8,9: eventually, occupation + non-local contributions
    edocc=   9.23651478E+00     enl0=  -5.65071160E+00   enl1=  -1.76782637E+01
 1-9 gives the relaxation energy (to be shifted if some occ is /=2.0)
   erelax=  -8.59190113E+01
  No Ewald or frozen-wf contrib.: the relaxation energy is the total one
 2DEtotal=   -0.8591901135E+02 Ha. Also 2DEtotal=   -0.233797519862E+04 eV
    (  non-var. 2DEtotal :   -8.5919011346E+01 Ha)

 Perturbation wavevector (in red.coord.)   0.000000  0.000000  0.000000
 Perturbation : derivative vs k along direction   2
 The set of symmetries contains only one element for this perturbation.
 symkpt : not enough symmetry to change the number of k points.

[...]

 Perturbation wavevector (in red.coord.)   0.000000  0.000000  0.000000
 Perturbation : derivative vs k along direction   3
 The set of symmetries contains only one element for this perturbation.
 symkpt : not enough symmetry to change the number of k points.

-inwffil : will read wavefunctions from disk file /scratch/users/j/a/jabreu/flow_simple_8atoms/flow/w488/t1/indata/in_WFK

 Initialisation of the first-order wave-functions :
  ireadwf=   0

--- !BeginCycle
iteration_state: {dtset: 1, }
solver: {iscf: 7, nstep: 2000, nline: 4, wfoptalg: 0, }
tolerances: {tolwfr: 1.00E-20, }
...

     iter   2DEtotal(Ha)        deltaE(Ha) residm    vres2
-ETOT  1  -35.732906230980     -3.573E+01 5.948E-02 0.000E+00
 ETOT  2  -35.767636889709     -3.473E-02 4.513E-04 0.000E+00
 ETOT  3  -35.767836560460     -1.997E-04 2.823E-06 0.000E+00
 ETOT  4  -35.767838884266     -2.324E-06 9.611E-08 0.000E+00
 ETOT  5  -35.767838918468     -3.420E-08 6.788E-10 0.000E+00
 ETOT  6  -35.767838919019     -5.509E-10 2.580E-11 0.000E+00
 ETOT  7  -35.767838919028     -9.372E-12 2.120E-13 0.000E+00
 ETOT  8  -35.767838919028     -1.847E-13 8.073E-15 0.000E+00
 ETOT  9  -35.767838919028     -1.421E-14 7.207E-17 0.000E+00
 ETOT 10  -35.767838919028      2.132E-14 2.724E-18 0.000E+00
 ETOT 11  -35.767838919028      0.000E+00 2.520E-20 0.000E+00
 ETOT 12  -35.767838919028     -2.132E-14 9.891E-21 0.000E+00

 At SCF step   12   max residual=  9.89E-21 < tolwfr=  1.00E-20 =>converged.

 ----iterations are completed or convergence reached----

 dfpt_looppert: DFPT cycle converged with prtwf=-1. Will skip output of the 1st-order WFK file.
 dfpt_looppert : ek2=    6.2226885596E+01
          f-sum rule ratio=    1.0375284768E+00
 prteigrs : about to open file /scratch/users/j/a/jabreu/flow_simple_8atoms/flow/w488/t1/tmpdata/tmp_1WF1_EIG
 Expectation of eigenvalue derivatives (hartree) for nkpt=   2  k points:
  (in case of degenerate eigenvalues, averaged derivative)
 kpt#   1, nband= 49, wtk=  0.50000, kpt=  0.0000  0.0000  0.0000 (reduced coord)
   0.00000   -0.00000    0.00000    0.00000    0.00000    0.00000    0.00000    0.00000
  -0.00000   -0.00000    0.00000    0.00000    0.00000    0.00000   -0.00000   -0.00000
   0.00000   -0.00000    0.00000    0.00000    0.00000   -0.00000    0.00000   -0.00000
   0.00000    0.00000    0.00000    0.00000   -0.00000   -0.00000   -0.00000    0.00000
   0.00000   -0.00000    0.00000    0.00000    0.00000   -0.00000   -0.00000    0.00000
   0.00000   -0.00000    0.00000   -0.00000   -0.00000    0.00000    0.00000   -0.00000
  -0.00000
 prteigrs : prtvol=0 or 1, do not print more k-points.

 Eight components of 2nd-order total energy (hartree) are
 1,2,3: 0th-order hamiltonian combined with 1st-order wavefunctions
     kin0=   5.00632501E+01 eigvalue=   2.40040423E+00  local=  -1.93457555E+01
 4,5,6: 1st-order hamiltonian combined with 1st and 0th-order wfs
     kin1=  -6.45621658E+01  Hartree=   0.00000000E+00     xc=   0.00000000E+00
 7,8,9: eventually, occupation + non-local contributions
    edocc=   5.24320271E+00     enl0=  -2.59326257E+00   enl1=  -6.97351201E+00
 1-9 gives the relaxation energy (to be shifted if some occ is /=2.0)
   erelax=  -3.57678389E+01
  No Ewald or frozen-wf contrib.: the relaxation energy is the total one
 2DEtotal=   -0.3576783892E+02 Ha. Also 2DEtotal=   -0.973292394668E+03 eV
    (  non-var. 2DEtotal :   -3.5767838919E+01 Ha)

 CALCULATION OF EFFECTIVE MASSES
 NOTE : Additional infos (eff. mass eigenvalues, eigenvectors and, if degenerate, average mass) are available in stdout.

 K-point ( 0.000, 0.000, 0.000) | band =    40
 Effective mass tensor:
             -4.5127880264              0.5031145579              0.0000049774
              0.5031145579             -3.2011695164              0.0000076252
              0.0000049774              0.0000076252             -1.2174293338
 Effective mass tensor eigenvalues:
             -4.6835439759             -3.0304135669             -1.2174293338
 Angular average effective mass 1/(<1/m>)=  -2.1979561295
 Angular average effective mass for Frohlich model (<m**0.5>)**2=  -2.4275776563
 Effective masses along directions: (cart. coord. / red. coord. -> eff. mass)
    1:   1.000000  0.000000  0.000000 /   0.783379 -0.621545  0.000000 ->  -4.4337155946
    2:   0.000000  1.000000  0.000000 /   0.000000  1.000000  0.000000 ->  -3.1450790780
    3:   0.000000  0.000000  1.000000 /   0.000000  0.000000  1.000000 ->  -1.2174293338
    4:   0.577350  0.577350  0.577350 /   0.723524 -0.133660  0.677236 ->  -2.0894176841
    5:   0.000000  0.707107  0.707107 /   0.000000  0.545156  0.838335 ->  -1.7553649443
    6:   0.707107  0.000000  0.707107 /   0.631742 -0.501234  0.591326 ->  -1.9103115185
    7:   0.707107  0.707107  0.000000 /   0.983361 -0.181660  0.000000 ->  -3.2552227976

 K-point (-0.500, 0.500, 0.472) | band =    41
 Effective mass tensor:
              1.2330364291              0.7492280605             -0.0000018600
              0.7492280605              3.1862792079              0.0000005447
             -0.0000018600              0.0000005447              0.4983874703
 Effective mass tensor eigenvalues:
              0.4983874703              0.9787508258              3.4405648113
 Angular average effective mass 1/(<1/m>)=   0.9039326188
 Angular average effective mass for Frohlich model (<m**0.5>)**2=   1.0503598454
 Effective masses along directions: (cart. coord. / red. coord. -> eff. mass)
    1:   1.000000  0.000000  0.000000 /   0.783379 -0.621545  0.000000 ->   1.0568614457
    2:   0.000000  1.000000  0.000000 /   0.000000  1.000000  0.000000 ->   2.7310268947
    3:   0.000000  0.000000  1.000000 /   0.000000  0.000000  1.000000 ->   0.4983874703
    4:   0.577350  0.577350  0.577350 /   0.723524 -0.133660  0.677236 ->   1.0438940615
    5:   0.000000  0.707107  0.707107 /   0.000000  0.545156  0.838335 ->   0.8429460226
    6:   0.707107  0.000000  0.707107 /   0.631742 -0.501234  0.591326 ->   0.6773515806
    7:   0.707107  0.707107  0.000000 /   0.983361 -0.181660  0.000000 ->   2.3057977500

 END OF EFFECTIVE MASSES SECTION

 ---- first-order wavefunction calculations are completed ----

 Total localisation tensor (bohr^2) in cartesian coordinates
  WARNING : still subject to testing - especially symmetries.
      direction              matrix element
   alpha     beta       real part   imaginary part
     1        1       2.0588134791    0.0000000000
     1        2      -0.6101747860    0.0000000000
     1        3       0.0000000000    0.0000000000
     2        1      -0.6101747860    0.0000000000
     2        2       0.4681053442    0.0000000000
     2        3       0.0000000000    0.0000000000
     3        1       0.0000000000    0.0000000000
     3        2       0.0000000000    0.0000000000
     3        3       0.6800992386    0.0000000000

 respfn : d/dk was computed, but no 2DTE, so no DDB output.

== END DATASET(S) ==============================================================

 -outvars: echo values of variables after computation  --------
            acell      1.0000000000E+00  1.0000000000E+00  1.0000000000E+00 Bohr
              amu      2.29897680E+01  6.35460000E+01  1.59994000E+01
             ecut      4.60000000E+01 Hartree
           etotal     -3.5767838919E+01
            fcart      0.0000000000E+00  0.0000000000E+00  0.0000000000E+00
                       0.0000000000E+00  0.0000000000E+00  0.0000000000E+00
                       0.0000000000E+00  0.0000000000E+00  0.0000000000E+00
                       0.0000000000E+00  0.0000000000E+00  0.0000000000E+00
                       0.0000000000E+00  0.0000000000E+00  0.0000000000E+00
                       0.0000000000E+00  0.0000000000E+00  0.0000000000E+00
                       0.0000000000E+00  0.0000000000E+00  0.0000000000E+00
                       0.0000000000E+00  0.0000000000E+00  0.0000000000E+00
-          fftalg         512
           irdden           1
           irdwfk           1
           istwfk        1    0
              ixc     -116133
              kpt      0.00000000E+00  0.00000000E+00  0.00000000E+00
                      -5.00000000E-01  5.00000000E-01  4.72222222E-01
           kptopt           0
P           mkmem           2
P          mkqmem           2
P          mk1mem           2
            natom           8
            nband          49
           nbdbuf           4
            ngfft          72      72      64
             nkpt           2
            nstep        2000
             nsym           8
           ntypat           3
              occ      2.000000  2.000000  2.000000  2.000000  2.000000  2.000000
                       2.000000  2.000000  2.000000  2.000000  2.000000  2.000000
                       2.000000  2.000000  2.000000  2.000000  2.000000  2.000000
                       2.000000  2.000000  2.000000  2.000000  2.000000  2.000000
                       2.000000  2.000000  2.000000  2.000000  2.000000  2.000000
                       2.000000  2.000000  2.000000  2.000000  2.000000  2.000000
                       2.000000  2.000000  2.000000  2.000000  0.000000  0.000000
                       0.000000  0.000000  0.000000  0.000000  0.000000  0.000000
                       0.000000
        optdriver           1
            prtwf          -1
            rfdir           1       1       1
           rfelfd           2
            rprim      1.0763762786E+01  0.0000000000E+00  0.0000000000E+00
                      -8.5401311610E+00  6.5516981822E+00  0.0000000000E+00
                       0.0000000000E+00  0.0000000000E+00  1.0075133906E+01
          spgroup          63
           strten      0.0000000000E+00  0.0000000000E+00  0.0000000000E+00
                       0.0000000000E+00  0.0000000000E+00  0.0000000000E+00
           symrel      1  0  0   0  1  0   0  0  1      -1  0  0   0 -1  0   0  0 -1
                       0  1  0   1  0  0   0  0 -1       0 -1  0  -1  0  0   0  0  1
                      -1  0  0   0 -1  0   0  0  1       1  0  0   0  1  0   0  0 -1
                       0 -1  0  -1  0  0   0  0 -1       0  1  0   1  0  0   0  0  1
            tnons      0.0000000  0.0000000  0.0000000     0.0000000  0.0000000  0.0000000
                      -0.0000000  0.0000000  0.0000000     0.0000000  0.0000000  0.0000000
                       0.0000000  0.0000000  0.5000000     0.0000000  0.0000000  0.5000000
                       0.0000000  0.0000000  0.5000000    -0.0000000  0.0000000  0.5000000
           tolwfr      1.00000000E-20
            typat      1  1  2  2  3  3  3  3
           useylm           1
              wtk        0.50000    0.50000
           xangst      2.7254757605E+00  1.0081681835E+00  1.3328828092E+00
                      -1.5487805842E+00  2.4588411721E+00  3.9986484275E+00
                       5.6630246329E+00  1.1170704144E-02  1.3328828092E+00
                      -4.4863294565E+00  3.4558386514E+00  3.9986484275E+00
                      -3.3537315100E+00  3.0714374561E+00  2.6327474454E+00
                       4.5304266864E+00  3.9557189943E-01  2.6987837913E+00
                      -3.3537315100E+00  3.0714374561E+00  3.3018172949E-02
                       4.5304266864E+00  3.9557189943E-01  5.2985130638E+00
            xcart      5.1504027692E+00  1.9051617627E+00  2.5187834766E+00
                      -2.9267711440E+00  4.6465364195E+00  7.5563504297E+00
                       1.0701565640E+01  2.1109571543E-02  2.5187834766E+00
                      -8.4779340147E+00  6.5305886107E+00  7.5563504297E+00
                      -6.3376340772E+00  5.8041756264E+00  4.9751716489E+00
                       8.5612657024E+00  7.4752255580E-01  5.0999622574E+00
                      -6.3376340772E+00  5.8041756264E+00  6.2395304282E-02
                       8.5612657024E+00  7.4752255580E-01  1.0012738602E+01
             xred      7.0921100000E-01  2.9078900000E-01  2.5000000000E-01
                       2.9078900000E-01  7.0921100000E-01  7.5000000000E-01
                       9.9677800000E-01  3.2220000000E-03  2.5000000000E-01
                       3.2220000000E-03  9.9677800000E-01  7.5000000000E-01
                       1.1409600000E-01  8.8590400000E-01  4.9380700000E-01
                       8.8590400000E-01  1.1409600000E-01  5.0619300000E-01
                       1.1409600000E-01  8.8590400000E-01  6.1930000000E-03
                       8.8590400000E-01  1.1409600000E-01  9.9380700000E-01
            znucl       11.00000   29.00000    8.00000

- Timing analysis has been suppressed with timopt=0

 Suggested references for the acknowledgment of ABINIT usage.

 Calculation completed.
.Delivered  14 WARNINGs and   9 COMMENTs to log file.