.Version 9.5.2 of ABINIT

 ABINIT is a project of the Universite Catholique de Louvain,
 Corning Inc. and other collaborators, see ~abinit/doc/developers/contributors.txt .
 acknowledgments of the ABINIT effort.

.Starting date : Mon 24 May 2021.
- ( at 18h11 )

- input  file    -> /scratch/users/j/a/jabreu/flow_simple_10atoms/flow/w380/t1/run.abi
- output file    -> /scratch/users/j/a/jabreu/flow_simple_10atoms/flow/w380/t1/run.abo
- root for input  files -> /scratch/users/j/a/jabreu/flow_simple_10atoms/flow/w380/t1/indata/in
- root for output files -> /scratch/users/j/a/jabreu/flow_simple_10atoms/flow/w380/t1/outdata/out

 Symmetries : space group Fm -3 m (#225); Bravais cF (face-center cubic)
     intxc =       0      iscf =       7    lmnmax =      18     lnmax =       6
     mgfft =      80  mpssoang =       3    mqgrid =    3191     natom =      10
  nloc_mem =       1    nspden =       1   nspinor =       1    nsppol =       1
      nsym =      48    n1xccc =    2501    ntypat =       4    occopt =       1
   xclevel =       2
-    mband =          50        mffmem =           1         mkmem =           1
-   mkqmem =           1        mk1mem =           1           mpw =       22219
      nfft =      512000          nkpt =           1
  Rough estimation (10% accuracy) of disk space for files :

------------- Echo of variables that govern the present computation ------------
-
- outvars: echo of selected default values
-   iomode0 =  0 , fftalg0 =512 , wfoptalg0 =  0
-
- outvars: echo of global parameters not present in the input file
-  max_nthreads =    0
-
 -outvars: echo values of preprocessed input variables --------
            acell      1.0000000000E+00  1.0000000000E+00  1.0000000000E+00 Bohr
              amu      3.90983000E+01  8.54678000E+01  1.14820000E+02
                       3.54527000E+01
             ecut      3.60000000E+01 Hartree
-          fftalg         512
           irdden           1
           irdwfk           1
           istwfk        1
              ixc     -116133
           kptopt           0
P           mkmem           1
P          mkqmem           1
P          mk1mem           1
            natom          10
            nband          50
           nbdbuf           4
            ngfft          80      80      80
             nkpt           1
            nstep        2000
             nsym          48
           ntypat           4
              occ      2.000000  2.000000  2.000000  2.000000  2.000000  2.000000
                       2.000000  2.000000  2.000000  2.000000  2.000000  2.000000
                       2.000000  2.000000  2.000000  2.000000  2.000000  2.000000
                       2.000000  2.000000  2.000000  2.000000  2.000000  2.000000
                       2.000000  2.000000  2.000000  2.000000  2.000000  2.000000
                       2.000000  2.000000  2.000000  2.000000  2.000000  2.000000
                       2.000000  2.000000  2.000000  2.000000  2.000000  0.000000
                       0.000000  0.000000  0.000000  0.000000  0.000000  0.000000
                       0.000000  0.000000
        optdriver           1
            prtwf          -1
            rfdir           1       1       1
           rfelfd           2
            rprim      1.2527253826E+01  0.0000000000E+00  7.2326133687E+00
                       4.1757512754E+00  1.1810808173E+01  7.2326133687E+00
                       0.0000000000E+00  0.0000000000E+00  1.4465226737E+01
          spgroup         225
           symrel      1  0  0   0  1  0   0  0  1      -1  0  0   0 -1  0   0  0 -1
                       0 -1  1   0 -1  0   1 -1  0       0  1 -1   0  1  0  -1  1  0
                      -1  0  0  -1  0  1  -1  1  0       1  0  0   1  0 -1   1 -1  0
                       0  1 -1   1  0 -1   0  0 -1       0 -1  1  -1  0  1   0  0  1
                      -1  0  0  -1  1  0  -1  0  1       1  0  0   1 -1  0   1  0 -1
                       0 -1  1   1 -1  0   0 -1  0       0  1 -1  -1  1  0   0  1  0
                       1  0  0   0  0  1   0  1  0      -1  0  0   0  0 -1   0 -1  0
                       0  1 -1   0  0 -1   1  0 -1       0 -1  1   0  0  1  -1  0  1
                      -1  0  1  -1  1  0  -1  0  0       1  0 -1   1 -1  0   1  0  0
                       0 -1  0   1 -1  0   0 -1  1       0  1  0  -1  1  0   0  1 -1
                       1  0 -1   0  0 -1   0  1 -1      -1  0  1   0  0  1   0 -1  1
                       0  1  0   0  0  1   1  0  0       0 -1  0   0  0 -1  -1  0  0
                       1  0 -1   0  1 -1   0  0 -1      -1  0  1   0 -1  1   0  0  1
                       0 -1  0   0 -1  1   1 -1  0       0  1  0   0  1 -1  -1  1  0
                      -1  0  1  -1  0  0  -1  1  0       1  0 -1   1  0  0   1 -1  0
                       0  1  0   1  0  0   0  0  1       0 -1  0  -1  0  0   0  0 -1
                       0  0 -1   0  1 -1   1  0 -1       0  0  1   0 -1  1  -1  0  1
                       1 -1  0   0 -1  1   0 -1  0      -1  1  0   0  1 -1   0  1  0
                       0  0  1   1  0  0   0  1  0       0  0 -1  -1  0  0   0 -1  0
                      -1  1  0  -1  0  0  -1  0  1       1 -1  0   1  0  0   1  0 -1
                       0  0  1   0  1  0   1  0  0       0  0 -1   0 -1  0  -1  0  0
                       1 -1  0   0 -1  0   0 -1  1      -1  1  0   0  1  0   0  1 -1
                       0  0 -1   1  0 -1   0  1 -1       0  0  1  -1  0  1   0 -1  1
                      -1  1  0  -1  0  1  -1  0  0       1 -1  0   1  0 -1   1  0  0
           tolwfr      1.00000000E-20
            typat      1  2  2  3  4  4  4  4  4  4
           useylm           1
           xangst      0.0000000000E+00  0.0000000000E+00  0.0000000000E+00
                       2.2097124037E+00  1.5625026251E+00  3.8273341533E+00
                       6.6291372110E+00  4.6875078753E+00  1.1482002460E+01
                       4.4194248073E+00  3.1250052502E+00  7.6546683065E+00
                       3.3963279644E+00  4.5718826811E+00  9.4267240195E+00
                       5.4425216502E+00  1.6781278194E+00  9.4267240195E+00
                       3.3963279644E+00  4.5718826811E+00  5.8826125936E+00
                       2.3732311215E+00  1.6781278194E+00  7.6546683065E+00
                       6.4656184931E+00  4.5718826811E+00  7.6546683065E+00
                       5.4425216502E+00  1.6781278194E+00  5.8826125936E+00
            xcart      0.0000000000E+00  0.0000000000E+00  0.0000000000E+00
                       4.1757512754E+00  2.9527020434E+00  7.2326133687E+00
                       1.2527253826E+01  8.8581061301E+00  2.1697840106E+01
                       8.3515025508E+00  5.9054040867E+00  1.4465226737E+01
                       6.4181297103E+00  8.6396061789E+00  1.7813926727E+01
                       1.0284875391E+01  3.1712019946E+00  1.7813926727E+01
                       6.4181297103E+00  8.6396061789E+00  1.1116526748E+01
                       4.4847568698E+00  3.1712019946E+00  1.4465226737E+01
                       1.2218248232E+01  8.6396061789E+00  1.4465226737E+01
                       1.0284875391E+01  3.1712019946E+00  1.1116526748E+01
             xred      0.0000000000E+00  0.0000000000E+00  0.0000000000E+00
                       2.5000000000E-01  2.5000000000E-01  2.5000000000E-01
                       7.5000000000E-01  7.5000000000E-01  7.5000000000E-01
                       5.0000000000E-01  5.0000000000E-01  5.0000000000E-01
                       2.6850000000E-01  7.3150000000E-01  7.3150000000E-01
                       7.3150000000E-01  2.6850000000E-01  7.3150000000E-01
                       2.6850000000E-01  7.3150000000E-01  2.6850000000E-01
                       2.6850000000E-01  2.6850000000E-01  7.3150000000E-01
                       7.3150000000E-01  7.3150000000E-01  2.6850000000E-01
                       7.3150000000E-01  2.6850000000E-01  2.6850000000E-01
            znucl       19.00000   37.00000   49.00000   17.00000

 chkinp: Checking input parameters for consistency.

== DATASET  1 ==================================================================
-   mpi_nproc: 1, omp_nthreads: -1 (-1 if OMP is not activated)

--- !DatasetInfo
iteration_state: {dtset: 1, }
dimensions: {natom: 10, nkpt: 1, mband: 50, nsppol: 1, nspinor: 1, nspden: 1, mpw: 22219, }
cutoff_energies: {ecut:  36.0, pawecutdg:  -1.0, }
electrons: {nelect:   8.20000000E+01, charge:   0.00000000E+00, occopt:   1.00000000E+00, tsmear:   1.00000000E-02, }
meta: {optdriver: 1, rfelfd: 2, }
...

 Real(R)+Recip(G) space primitive vectors, cartesian coordinates (Bohr,Bohr^-1):
 R(1)= 12.5272538  0.0000000  7.2326134  G(1)=  0.0798260 -0.0282227  0.0000000
 R(2)=  4.1757513 11.8108082  7.2326134  G(2)=  0.0000000  0.0846682  0.0000000
 R(3)=  0.0000000  0.0000000 14.4652267  G(3)= -0.0399130 -0.0282227  0.0691313
 Unit cell volume ucvol=  2.1402314E+03 bohr^3
 Angles (23,13,12)=  6.00000000E+01  6.00000000E+01  6.00000000E+01 degrees

 getcut: wavevector=  0.0000  0.0000  0.0000  ngfft=  80  80  80
         ecut(hartree)=     36.000   => boxcut(ratio)=   2.04762

--- Pseudopotential description ------------------------------------------------
- pspini: atom type   1  psp file is /scratch/users/j/a/jabreu/pseudos/PBEsol/K.psp8
- pspatm: opening atomic psp file    /scratch/users/j/a/jabreu/pseudos/PBEsol/K.psp8
- K     ONCVPSP-3.3.0  r_core=   1.36296   1.46408   1.61068
- 19.00000   9.00000    180112                znucl, zion, pspdat
    8 -116133    2    4       400   0.00000   pspcod,pspxc,lmax,lloc,mmax,r2well
    3.99000000000000    5.00000000000000    0.00000000000000   rchrg,fchrg,qchrg
     nproj     2     2     2
     extension_switch     1
  pspatm : epsatm=    8.32487830
         --- l  ekb(1:nproj) -->
             0   10.921326    0.816676
             1    4.431000    0.560368
             2   -3.384038   -1.043186
 pspatm: atomic psp has been read  and splines computed

- pspini: atom type   2  psp file is /scratch/users/j/a/jabreu/pseudos/PBEsol/Rb.psp8
- pspatm: opening atomic psp file    /scratch/users/j/a/jabreu/pseudos/PBEsol/Rb.psp8
- Rb    ONCVPSP-3.3.0  r_core=   1.71227   1.75361   1.90633
- 37.00000   9.00000    180112                znucl, zion, pspdat
    8 -116133    2    4       600   0.00000   pspcod,pspxc,lmax,lloc,mmax,r2well
    5.99000000000000    7.00000000000000    0.00000000000000   rchrg,fchrg,qchrg
     nproj     2     2     2
     extension_switch     1
  pspatm : epsatm=   34.48400912
         --- l  ekb(1:nproj) -->
             0    8.196957   -0.477221
             1    3.231347   -0.378736
             2   -1.047201    0.996637
 pspatm: atomic psp has been read  and splines computed

[...]

- pspini: atom type   4  psp file is /scratch/users/j/a/jabreu/pseudos/PBEsol/Cl.psp8
- pspatm: opening atomic psp file    /scratch/users/j/a/jabreu/pseudos/PBEsol/Cl.psp8
- Cl    ONCVPSP-3.3.0  r_core=   1.56009   1.35202   1.75774
- 17.00000   7.00000    180112                znucl, zion, pspdat
    8 -116133    2    4       600   0.00000   pspcod,pspxc,lmax,lloc,mmax,r2well
[...]
 ETOT 41  -28.249526644729      7.105E-15 7.397E-14 0.000E+00
 ETOT 42  -28.249526644729     -1.421E-14 6.673E-14 0.000E+00
 ETOT 43  -28.249526644729      7.105E-15 2.138E-14 0.000E+00
 ETOT 44  -28.249526644729      0.000E+00 1.933E-14 0.000E+00
 ETOT 45  -28.249526644729      0.000E+00 6.179E-15 0.000E+00
 ETOT 46  -28.249526644729     -1.421E-14 5.601E-15 0.000E+00
 ETOT 47  -28.249526644729      1.421E-14 1.786E-15 0.000E+00
 ETOT 48  -28.249526644729     -1.421E-14 1.623E-15 0.000E+00
 ETOT 49  -28.249526644729      0.000E+00 5.162E-16 0.000E+00
 ETOT 50  -28.249526644729      1.421E-14 4.704E-16 0.000E+00
 ETOT 51  -28.249526644729      0.000E+00 1.492E-16 0.000E+00
 ETOT 52  -28.249526644729      0.000E+00 1.363E-16 0.000E+00
 ETOT 53  -28.249526644729     -1.421E-14 4.314E-17 0.000E+00
 ETOT 54  -28.249526644729      1.066E-14 3.952E-17 0.000E+00
 ETOT 55  -28.249526644729      3.553E-15 1.247E-17 0.000E+00
 ETOT 56  -28.249526644729     -3.553E-15 1.146E-17 0.000E+00
 ETOT 57  -28.249526644729      3.553E-15 3.607E-18 0.000E+00
 ETOT 58  -28.249526644729     -1.421E-14 3.321E-18 0.000E+00
 ETOT 59  -28.249526644729      3.553E-15 1.043E-18 0.000E+00
 ETOT 60  -28.249526644729      1.066E-14 9.630E-19 0.000E+00
 ETOT 61  -28.249526644729      0.000E+00 3.017E-19 0.000E+00
 ETOT 62  -28.249526644729     -1.776E-14 2.792E-19 0.000E+00
 ETOT 63  -28.249526644729      1.421E-14 8.726E-20 0.000E+00
 ETOT 64  -28.249526644729     -3.553E-15 8.098E-20 0.000E+00
 ETOT 65  -28.249526644729      7.105E-15 2.524E-20 0.000E+00
 ETOT 66  -28.249526644729      0.000E+00 2.348E-20 0.000E+00
 ETOT 67  -28.249526644729      0.000E+00 9.987E-21 0.000E+00

 At SCF step   67   max residual=  9.99E-21 < tolwfr=  1.00E-20 =>converged.

 ----iterations are completed or convergence reached----

 dfpt_looppert: DFPT cycle converged with prtwf=-1. Will skip output of the 1st-order WFK file.
 dfpt_looppert : ek2=    4.6413503581E+01
          f-sum rule ratio=    1.0725229942E+00
 prteigrs : about to open file /scratch/users/j/a/jabreu/flow_simple_10atoms/flow/w380/t1/tmpdata/tmp_1WF1_EIG
 Expectation of eigenvalue derivatives (hartree) for nkpt=   1  k points:
  (in case of degenerate eigenvalues, averaged derivative)
 kpt#   1, nband= 50, wtk=  1.00000, kpt=  0.0000  0.0000  0.0000 (reduced coord)
  -0.00000    0.00000   -0.00000    0.00000    0.00000   -0.00000   -0.00000   -0.00000
  -0.00000    0.00000    0.00000    0.00000    0.00000    0.00000    0.00000    0.00000
   0.00000   -0.00000   -0.00000   -0.00000   -0.00000   -0.00000   -0.00000    0.00000
  -0.00000   -0.00000   -0.00000    0.00000    0.00000    0.00000   -0.00000   -0.00000
  -0.00000   -0.00000   -0.00000   -0.00000   -0.00000   -0.00000    0.00000    0.00000
   0.00000    0.00000   -0.00000    0.00000    0.00000    0.00000    0.00000    0.00000
   0.00000   -0.00000

 Eight components of 2nd-order total energy (hartree) are
 1,2,3: 0th-order hamiltonian combined with 1st-order wavefunctions
     kin0=   3.68941847E+01 eigvalue=   4.48281093E+00  local=  -2.16884776E+01
 4,5,6: 1st-order hamiltonian combined with 1st and 0th-order wfs
     kin1=  -4.97795498E+01  Hartree=   0.00000000E+00     xc=   0.00000000E+00
 7,8,9: eventually, occupation + non-local contributions
    edocc=   5.84767471E+00     enl0=   2.71333395E+00   enl1=  -6.71950346E+00
 1-9 gives the relaxation energy (to be shifted if some occ is /=2.0)
   erelax=  -2.82495266E+01
  No Ewald or frozen-wf contrib.: the relaxation energy is the total one
 2DEtotal=   -0.2824952664E+02 Ha. Also 2DEtotal=   -0.768708713393E+03 eV
    (  non-var. 2DEtotal :   -2.8249526644E+01 Ha)

 CALCULATION OF EFFECTIVE MASSES
 NOTE : Additional infos (eff. mass eigenvalues, eigenvectors and, if degenerate, average mass) are available in stdout.

 COMMENTS:
 - At k-point ( 0.000, 0.000, 0.000), bands    39 through    41
   are DEGENERATE (effective mass tensor is therefore not defined).
   See Section IIIB Eqs. (67)-(70) and Appendix E of PRB 93 205147 (2016).
 - Angular average effective mass for Frohlich model is to be averaged over degenerate bands. See later.
 - Associated theta integrals calculated with ntheta=   1000 points.

 K-point ( 0.000, 0.000, 0.000) | band =    39
 Transport equivalent effective mass tensor:
             -1.5591854050             -0.0000004789             -0.0000000003
             -0.0000004789             -1.5591849294             -0.0000000002
             -0.0000000003             -0.0000000002             -1.5591827486
 Transport equivalent effective mass tensor eigenvalues:
             -1.5591857019             -1.5591846325             -1.5591827486
 Angular average effective mass 1/(<1/m>)=  -1.4802440718
 Angular average effective mass for Frohlich model (<m**0.5>)**2=  -1.4832909895
 Effective masses along directions: (cart. coord. / red. coord. -> eff. mass)
    1:   1.000000  0.000000  0.000000 /   0.948683  0.316228  0.000000 ->  -1.5752275456
    2:   0.000000  1.000000  0.000000 /   0.000000  1.000000  0.000000 ->  -1.7803925028
    3:   0.000000  0.000000  1.000000 /   0.408248  0.408248  0.816497 ->  -1.4124614224
    4:   0.577350  0.577350  0.577350 /   0.585539  0.688047  0.428644 ->  -1.5223666847
    5:   0.000000  0.707107  0.707107 /   0.289489  0.762222  0.578977 ->  -1.4218046353
    6:   0.707107  0.000000  0.707107 /   0.731423  0.422287  0.535439 ->  -1.4628984954
    7:   0.707107  0.707107  0.000000 /   0.616798  0.787122  0.000000 ->  -1.4250937321

[...]

 K-point ( 0.000, 0.000, 0.000) | band =    41
 Transport equivalent effective mass tensor:
            -90.7838791805             -0.0000000117             -0.0000000119
             -0.0000000117            -90.7838791811             -0.0000000111
             -0.0000000119             -0.0000000111            -90.7838792078
 Transport equivalent effective mass tensor eigenvalues:
            -90.7838792181            -90.7838791822            -90.7838791690
 Angular average effective mass 1/(<1/m>)=  -5.5473145001
 Angular average effective mass for Frohlich model (<m**0.5>)**2=  -7.0878347533
 Effective masses along directions: (cart. coord. / red. coord. -> eff. mass)
    1:   1.000000  0.000000  0.000000 /   0.948683  0.316228  0.000000 ->  -4.7344816185
    2:   0.000000  1.000000  0.000000 /   0.000000  1.000000  0.000000 ->  -3.1754866986
    3:   0.000000  0.000000  1.000000 /   0.408248  0.408248  0.816497 ->  -4.1363791098
    4:   0.577350  0.577350  0.577350 /   0.585539  0.688047  0.428644 ->  -4.5734585943
    5:   0.000000  0.707107  0.707107 /   0.289489  0.762222  0.578977 ->  -8.0859676647
    6:   0.707107  0.000000  0.707107 /   0.731423  0.422287  0.535439 ->  -4.4403155446
    7:   0.707107  0.707107  0.000000 /   0.616798  0.787122  0.000000 -> -25.4330312651

 Angular average effective mass for Frohlich model, averaged over degenerate bands.
 Value of     (<<m**0.5>>)**2 =     2.999609E+00
 Absolute Value of <<m**0.5>> =     1.731938E+00

 K-point ( 0.000, 0.000, 0.000) | band =    42
 Effective mass tensor:
              0.4814824351              0.0000000000              0.0000000000
              0.0000000000              0.4814824351              0.0000000000
              0.0000000000              0.0000000000              0.4814824352
 Effective mass tensor eigenvalues:
              0.4814824351              0.4814824351              0.4814824352
 Angular average effective mass 1/(<1/m>)=   0.4814824351
 Angular average effective mass for Frohlich model (<m**0.5>)**2=   0.4814824351
 Effective masses along directions: (cart. coord. / red. coord. -> eff. mass)
    1:   1.000000  0.000000  0.000000 /   0.948683  0.316228  0.000000 ->   0.4814824351
    2:   0.000000  1.000000  0.000000 /   0.000000  1.000000  0.000000 ->   0.4814824351
    3:   0.000000  0.000000  1.000000 /   0.408248  0.408248  0.816497 ->   0.4814824352
    4:   0.577350  0.577350  0.577350 /   0.585539  0.688047  0.428644 ->   0.4814824352
    5:   0.000000  0.707107  0.707107 /   0.289489  0.762222  0.578977 ->   0.4814824352
    6:   0.707107  0.000000  0.707107 /   0.731423  0.422287  0.535439 ->   0.4814824352
    7:   0.707107  0.707107  0.000000 /   0.616798  0.787122  0.000000 ->   0.4814824351

 END OF EFFECTIVE MASSES SECTION

 ---- first-order wavefunction calculations are completed ----

 Total localisation tensor (bohr^2) in cartesian coordinates
  WARNING : still subject to testing - especially symmetries.
      direction              matrix element
   alpha     beta       real part   imaginary part
     1        1       1.3107434043    0.0000000000
     1        2       0.3707342198    0.0000000000
     1        3       0.9081096688    0.0000000000
     2        1       0.3707342198    0.0000000000
     2        2       1.0485947235    0.0000000000
     2        3       0.6421305049    0.0000000000
     3        1       0.9081096688    0.0000000000
     3        2       0.6421305049    0.0000000000
     3        3       2.3593381278    0.0000000000

 respfn : d/dk was computed, but no 2DTE, so no DDB output.

== END DATASET(S) ==============================================================

 -outvars: echo values of variables after computation  --------
            acell      1.0000000000E+00  1.0000000000E+00  1.0000000000E+00 Bohr
              amu      3.90983000E+01  8.54678000E+01  1.14820000E+02
                       3.54527000E+01
             ecut      3.60000000E+01 Hartree
           etotal     -2.8249526645E+01
            fcart      0.0000000000E+00  0.0000000000E+00  0.0000000000E+00
                       0.0000000000E+00  0.0000000000E+00  0.0000000000E+00
                       0.0000000000E+00  0.0000000000E+00  0.0000000000E+00
                       0.0000000000E+00  0.0000000000E+00  0.0000000000E+00
                       0.0000000000E+00  0.0000000000E+00  0.0000000000E+00
                       0.0000000000E+00  0.0000000000E+00  0.0000000000E+00
                       0.0000000000E+00  0.0000000000E+00  0.0000000000E+00
                       0.0000000000E+00  0.0000000000E+00  0.0000000000E+00
                       0.0000000000E+00  0.0000000000E+00  0.0000000000E+00
                       0.0000000000E+00  0.0000000000E+00  0.0000000000E+00
-          fftalg         512
           irdden           1
           irdwfk           1
           istwfk        1
              ixc     -116133
           kptopt           0
P           mkmem           1
P          mkqmem           1
P          mk1mem           1
            natom          10
            nband          50
           nbdbuf           4
            ngfft          80      80      80
             nkpt           1
            nstep        2000
             nsym          48
           ntypat           4
              occ      2.000000  2.000000  2.000000  2.000000  2.000000  2.000000
                       2.000000  2.000000  2.000000  2.000000  2.000000  2.000000
                       2.000000  2.000000  2.000000  2.000000  2.000000  2.000000
                       2.000000  2.000000  2.000000  2.000000  2.000000  2.000000
                       2.000000  2.000000  2.000000  2.000000  2.000000  2.000000
                       2.000000  2.000000  2.000000  2.000000  2.000000  2.000000
                       2.000000  2.000000  2.000000  2.000000  2.000000  0.000000
                       0.000000  0.000000  0.000000  0.000000  0.000000  0.000000
                       0.000000  0.000000
        optdriver           1
            prtwf          -1
            rfdir           1       1       1
           rfelfd           2
            rprim      1.2527253826E+01  0.0000000000E+00  7.2326133687E+00
                       4.1757512754E+00  1.1810808173E+01  7.2326133687E+00
                       0.0000000000E+00  0.0000000000E+00  1.4465226737E+01
          spgroup         225
           strten      0.0000000000E+00  0.0000000000E+00  0.0000000000E+00
                       0.0000000000E+00  0.0000000000E+00  0.0000000000E+00
           symrel      1  0  0   0  1  0   0  0  1      -1  0  0   0 -1  0   0  0 -1
                       0 -1  1   0 -1  0   1 -1  0       0  1 -1   0  1  0  -1  1  0
                      -1  0  0  -1  0  1  -1  1  0       1  0  0   1  0 -1   1 -1  0
                       0  1 -1   1  0 -1   0  0 -1       0 -1  1  -1  0  1   0  0  1
                      -1  0  0  -1  1  0  -1  0  1       1  0  0   1 -1  0   1  0 -1
                       0 -1  1   1 -1  0   0 -1  0       0  1 -1  -1  1  0   0  1  0
                       1  0  0   0  0  1   0  1  0      -1  0  0   0  0 -1   0 -1  0
                       0  1 -1   0  0 -1   1  0 -1       0 -1  1   0  0  1  -1  0  1
                      -1  0  1  -1  1  0  -1  0  0       1  0 -1   1 -1  0   1  0  0
                       0 -1  0   1 -1  0   0 -1  1       0  1  0  -1  1  0   0  1 -1
                       1  0 -1   0  0 -1   0  1 -1      -1  0  1   0  0  1   0 -1  1
                       0  1  0   0  0  1   1  0  0       0 -1  0   0  0 -1  -1  0  0
                       1  0 -1   0  1 -1   0  0 -1      -1  0  1   0 -1  1   0  0  1
                       0 -1  0   0 -1  1   1 -1  0       0  1  0   0  1 -1  -1  1  0
                      -1  0  1  -1  0  0  -1  1  0       1  0 -1   1  0  0   1 -1  0
                       0  1  0   1  0  0   0  0  1       0 -1  0  -1  0  0   0  0 -1
                       0  0 -1   0  1 -1   1  0 -1       0  0  1   0 -1  1  -1  0  1
                       1 -1  0   0 -1  1   0 -1  0      -1  1  0   0  1 -1   0  1  0
                       0  0  1   1  0  0   0  1  0       0  0 -1  -1  0  0   0 -1  0
                      -1  1  0  -1  0  0  -1  0  1       1 -1  0   1  0  0   1  0 -1
                       0  0  1   0  1  0   1  0  0       0  0 -1   0 -1  0  -1  0  0
                       1 -1  0   0 -1  0   0 -1  1      -1  1  0   0  1  0   0  1 -1
                       0  0 -1   1  0 -1   0  1 -1       0  0  1  -1  0  1   0 -1  1
                      -1  1  0  -1  0  1  -1  0  0       1 -1  0   1  0 -1   1  0  0
           tolwfr      1.00000000E-20
            typat      1  2  2  3  4  4  4  4  4  4
           useylm           1
           xangst      0.0000000000E+00  0.0000000000E+00  0.0000000000E+00
                       2.2097124037E+00  1.5625026251E+00  3.8273341533E+00
                       6.6291372110E+00  4.6875078753E+00  1.1482002460E+01
                       4.4194248073E+00  3.1250052502E+00  7.6546683065E+00
                       3.3963279644E+00  4.5718826811E+00  9.4267240195E+00
                       5.4425216502E+00  1.6781278194E+00  9.4267240195E+00
                       3.3963279644E+00  4.5718826811E+00  5.8826125936E+00
                       2.3732311215E+00  1.6781278194E+00  7.6546683065E+00
                       6.4656184931E+00  4.5718826811E+00  7.6546683065E+00
                       5.4425216502E+00  1.6781278194E+00  5.8826125936E+00
            xcart      0.0000000000E+00  0.0000000000E+00  0.0000000000E+00
                       4.1757512754E+00  2.9527020434E+00  7.2326133687E+00
                       1.2527253826E+01  8.8581061301E+00  2.1697840106E+01
                       8.3515025508E+00  5.9054040867E+00  1.4465226737E+01
                       6.4181297103E+00  8.6396061789E+00  1.7813926727E+01
                       1.0284875391E+01  3.1712019946E+00  1.7813926727E+01
                       6.4181297103E+00  8.6396061789E+00  1.1116526748E+01
                       4.4847568698E+00  3.1712019946E+00  1.4465226737E+01
                       1.2218248232E+01  8.6396061789E+00  1.4465226737E+01
                       1.0284875391E+01  3.1712019946E+00  1.1116526748E+01
             xred      0.0000000000E+00  0.0000000000E+00  0.0000000000E+00
                       2.5000000000E-01  2.5000000000E-01  2.5000000000E-01
                       7.5000000000E-01  7.5000000000E-01  7.5000000000E-01
                       5.0000000000E-01  5.0000000000E-01  5.0000000000E-01
                       2.6850000000E-01  7.3150000000E-01  7.3150000000E-01
                       7.3150000000E-01  2.6850000000E-01  7.3150000000E-01
                       2.6850000000E-01  7.3150000000E-01  2.6850000000E-01
                       2.6850000000E-01  2.6850000000E-01  7.3150000000E-01
                       7.3150000000E-01  7.3150000000E-01  2.6850000000E-01
                       7.3150000000E-01  2.6850000000E-01  2.6850000000E-01
            znucl       19.00000   37.00000   49.00000   17.00000

- Timing analysis has been suppressed with timopt=0

 Suggested references for the acknowledgment of ABINIT usage.

 Calculation completed.
.Delivered   2 WARNINGs and   5 COMMENTs to log file.