.Version 9.7.2 of ABINIT

 ABINIT is a project of the Universite Catholique de Louvain,
 Corning Inc. and other collaborators, see ~abinit/doc/developers/contributors.txt .
 acknowledgments of the ABINIT effort.

.Starting date : Wed  1 Dec 2021.
- ( at 21h43 )

- input  file    -> /scratch/users/j/a/jabreu/flow_simple_remain_atoms/flow/w239/t1/run.abi
- output file    -> /scratch/users/j/a/jabreu/flow_simple_remain_atoms/flow/w239/t1/run.abo
- root for input  files -> /scratch/users/j/a/jabreu/flow_simple_remain_atoms/flow/w239/t1/indata/in
- root for output files -> /scratch/users/j/a/jabreu/flow_simple_remain_atoms/flow/w239/t1/outdata/out

 Symmetries : space group P-3 m 1 (#164); Bravais hP (primitive hexag.)
     intxc =       0      iscf =       7    lmnmax =      18     lnmax =       6
     mgfft =      80  mpssoang =       3    mqgrid =    3808     natom =       5
  nloc_mem =       1    nspden =       1   nspinor =       1    nsppol =       1
      nsym =      12    n1xccc =    2501    ntypat =       3    occopt =       1
   xclevel =       2
-    mband =          49        mffmem =           1         mkmem =           2
-   mkqmem =           2        mk1mem =           2           mpw =        8907
      nfft =      184320          nkpt =           2
  Rough estimation (10% accuracy) of disk space for files :

------------- Echo of variables that govern the present computation ------------
-
- outvars: echo of selected default values
-   iomode0 =  0 , fftalg0 =512 , wfoptalg0 =  0
-
- outvars: echo of global parameters not present in the input file
-  max_nthreads =    0
-
 -outvars: echo values of preprocessed input variables --------
            acell      1.0000000000E+00  1.0000000000E+00  1.0000000000E+00 Bohr
              amu      4.00780000E+01  6.53900000E+01  7.49215900E+01
             ecut      4.20000000E+01 Hartree
-          fftalg         512
           irdden           1
           irdwfk           1
           istwfk        1    0
              ixc     -116133
              kpt      0.00000000E+00  0.00000000E+00  0.00000000E+00
                       0.00000000E+00  0.00000000E+00  3.57142857E-02
           kptopt           0
P           mkmem           2
P          mkqmem           2
P          mk1mem           2
            natom           5
            nband          49
           nbdbuf           4
            ngfft          48      48      80
             nkpt           2
            nstep        2000
             nsym          12
           ntypat           3
              occ      2.000000  2.000000  2.000000  2.000000  2.000000  2.000000
                       2.000000  2.000000  2.000000  2.000000  2.000000  2.000000
                       2.000000  2.000000  2.000000  2.000000  2.000000  2.000000
                       2.000000  2.000000  2.000000  2.000000  2.000000  2.000000
                       2.000000  2.000000  2.000000  2.000000  2.000000  2.000000
                       2.000000  2.000000  2.000000  2.000000  2.000000  2.000000
                       2.000000  2.000000  2.000000  2.000000  0.000000  0.000000
                       0.000000  0.000000  0.000000  0.000000  0.000000  0.000000
                       0.000000
        optdriver           1
            prtwf          -1
            rfdir           1       1       1
           rfelfd           2
            rprim      7.7823759133E+00  0.0000000000E+00  0.0000000000E+00
                      -3.8911879567E+00  6.7397352427E+00  0.0000000000E+00
                       0.0000000000E+00  0.0000000000E+00  1.3050492761E+01
          spgroup         164
           symrel      1  0  0   0  1  0   0  0  1      -1  0  0   0 -1  0   0  0 -1
                      -1  0  0   1  1  0   0  0  1       1  0  0  -1 -1  0   0  0 -1
                       0  1  0  -1 -1  0   0  0  1       0 -1  0   1  1  0   0  0 -1
                       0 -1  0  -1  0  0   0  0  1       0  1  0   1  0  0   0  0 -1
                      -1 -1  0   1  0  0   0  0  1       1  1  0  -1  0  0   0  0 -1
                       1  1  0   0 -1  0   0  0  1      -1 -1  0   0  1  0   0  0 -1
           tolwfr      1.00000000E-20
            typat      1  2  2  3  3
           useylm           1
              wtk        0.50000    0.50000
           xangst      0.0000000000E+00  0.0000000000E+00  0.0000000000E+00
                      -1.7639241746E-11  2.3776761882E+00  4.3573277959E+00
                       2.0591279810E+00  1.1888380941E+00  2.5486955340E+00
                      -1.7639241746E-11  2.3776761882E+00  1.7774377545E+00
                       2.0591279810E+00  1.1888380941E+00  5.1285855753E+00
            xcart      0.0000000000E+00  0.0000000000E+00  0.0000000000E+00
                      -3.3333336091E-11  4.4931568285E+00  8.2341562054E+00
                       3.8911879566E+00  2.2465784142E+00  4.8163365553E+00
                      -3.3333336091E-11  4.4931568285E+00  3.3588705743E+00
                       3.8911879566E+00  2.2465784142E+00  9.6916221864E+00
             xred      0.0000000000E+00  0.0000000000E+00  0.0000000000E+00
                       3.3333333333E-01  6.6666666667E-01  6.3094600000E-01
                       6.6666666667E-01  3.3333333333E-01  3.6905400000E-01
                       3.3333333333E-01  6.6666666667E-01  2.5737500000E-01
                       6.6666666667E-01  3.3333333333E-01  7.4262500000E-01
            znucl       20.00000   30.00000   33.00000

 chkinp: Checking input parameters for consistency.

== DATASET  1 ==================================================================
-   mpi_nproc: 1, omp_nthreads: -1 (-1 if OMP is not activated)

--- !DatasetInfo
iteration_state: {dtset: 1, }
dimensions: {natom: 5, nkpt: 2, mband: 49, nsppol: 1, nspinor: 1, nspden: 1, mpw: 8907, }
cutoff_energies: {ecut:  42.0, pawecutdg:  -1.0, }
electrons: {nelect:   8.00000000E+01, charge:   0.00000000E+00, occopt:   1.00000000E+00, tsmear:   1.00000000E-02, }
meta: {optdriver: 1, rfelfd: 2, }
...

 Real(R)+Recip(G) space primitive vectors, cartesian coordinates (Bohr,Bohr^-1):
 R(1)=  7.7823759  0.0000000  0.0000000  G(1)=  0.1284955  0.0741869  0.0000000
 R(2)= -3.8911880  6.7397352  0.0000000  G(2)=  0.0000000  0.1483738  0.0000000
 R(3)=  0.0000000  0.0000000 13.0504928  G(3)=  0.0000000  0.0000000  0.0766255
 Unit cell volume ucvol=  6.8451340E+02 bohr^3
 Angles (23,13,12)=  9.00000000E+01  9.00000000E+01  1.20000000E+02 degrees

 getcut: wavevector=  0.0000  0.0000  0.0000  ngfft=  48  48  80
         ecut(hartree)=     42.000   => boxcut(ratio)=   2.10123

--- Pseudopotential description ------------------------------------------------
- pspini: atom type   1  psp file is /scratch/users/j/a/jabreu/pseudos/PBEsol/Ca.psp8
- pspatm: opening atomic psp file    /scratch/users/j/a/jabreu/pseudos/PBEsol/Ca.psp8
- Ca    ONCVPSP-3.3.0  r_core=   1.45885   1.45885   1.85192
- 20.00000  10.00000    180112                znucl, zion, pspdat
    8 -116133    2    4       400   0.00000   pspcod,pspxc,lmax,lloc,mmax,r2well
    3.99000000000000    6.00000000000000    0.00000000000000   rchrg,fchrg,qchrg
     nproj     2     2     2
     extension_switch     1
  pspatm : epsatm=   12.46045226
         --- l  ekb(1:nproj) -->
             0   10.054847    0.973777
             1    2.998958    0.458102
             2   -3.447298   -1.091650
 pspatm: atomic psp has been read  and splines computed

- pspini: atom type   2  psp file is /scratch/users/j/a/jabreu/pseudos/PBEsol/Zn.psp8
- pspatm: opening atomic psp file    /scratch/users/j/a/jabreu/pseudos/PBEsol/Zn.psp8
- Zn    ONCVPSP-3.3.0  r_core=   1.35823   1.66358   1.85211
- 30.00000  20.00000    180112                znucl, zion, pspdat
    8 -116133    2    4       600   0.00000   pspcod,pspxc,lmax,lloc,mmax,r2well
    5.99000000000000    2.50000000000000    0.00000000000000   rchrg,fchrg,qchrg
     nproj     2     2     2
     extension_switch     1
  pspatm : epsatm=   26.57343589
         --- l  ekb(1:nproj) -->
             0    2.830835   -1.519107
             1   -4.626739   -1.324150
             2   -6.948510   -2.555500
 pspatm: atomic psp has been read  and splines computed

- pspini: atom type   3  psp file is /scratch/users/j/a/jabreu/pseudos/PBEsol/As.psp8
- pspatm: opening atomic psp file    /scratch/users/j/a/jabreu/pseudos/PBEsol/As.psp8
- As    ONCVPSP-3.3.0  r_core=   1.76603   1.70395   1.80867
- 33.00000  15.00000    180112                znucl, zion, pspdat
    8 -116133    2    4       600   0.00000   pspcod,pspxc,lmax,lloc,mmax,r2well
    5.99000000000000    5.00000000000000    0.00000000000000   rchrg,fchrg,qchrg
     nproj     2     2     2
     extension_switch     1
  pspatm : epsatm=   28.79155382
         --- l  ekb(1:nproj) -->
             0    8.270760    0.868950
             1    4.919053    0.756587
             2  -10.048665   -4.076802
 pspatm: atomic psp has been read  and splines computed

   9.85523453E+03                                ecore*ucvol(ha*bohr**3)

 ==>  initialize data related to q vector <==

 The list of irreducible perturbations for this q vector is:
    1)    idir= 1    ipert=   6
    2)    idir= 2    ipert=   6
    3)    idir= 3    ipert=   6

 Perturbation wavevector (in red.coord.)   0.000000  0.000000  0.000000
 Perturbation : derivative vs k along direction   1

 dfpt_looppert : COMMENT -
  In a d/dk calculation, iscf is set to -3 automatically.
 The set of symmetries contains only one element for this perturbation.
 symkpt : not enough symmetry to change the number of k points.

 Initialisation of the first-order wave-functions :
  ireadwf=   0

--- !BeginCycle
iteration_state: {dtset: 1, }
solver: {iscf: 7, nstep: 2000, nline: 4, wfoptalg: 0, }
tolerances: {tolwfr: 1.00E-20, }
...

     iter   2DEtotal(Ha)        deltaE(Ha) residm    vres2
-ETOT  1  -166.13114824556     -1.661E+02 1.038E-01 0.000E+00
 ETOT  2  -166.32561804390     -1.945E-01 1.105E-03 0.000E+00
 ETOT  3  -166.32860564612     -2.988E-03 6.297E-05 0.000E+00
 ETOT  4  -166.32869898178     -9.334E-05 1.731E-06 0.000E+00
 ETOT  5  -166.32870235512     -3.373E-06 8.544E-08 0.000E+00
 ETOT  6  -166.32870248535     -1.302E-07 4.440E-09 0.000E+00
 ETOT  7  -166.32870249061     -5.255E-09 5.788E-10 0.000E+00
 ETOT  8  -166.32870249082     -2.192E-10 5.806E-11 0.000E+00
 ETOT  9  -166.32870249083     -9.379E-12 7.778E-12 0.000E+00
 ETOT 10  -166.32870249083     -4.547E-13 7.974E-13 0.000E+00
 ETOT 11  -166.32870249083      2.558E-13 1.073E-13 0.000E+00
 ETOT 12  -166.32870249083     -1.990E-13 1.114E-14 0.000E+00
 ETOT 13  -166.32870249083      8.527E-14 1.497E-15 0.000E+00
 ETOT 14  -166.32870249083      0.000E+00 1.568E-16 0.000E+00
 ETOT 15  -166.32870249083      1.421E-13 2.105E-17 0.000E+00
 ETOT 16  -166.32870249083     -8.527E-14 2.220E-18 0.000E+00
 ETOT 17  -166.32870249083     -2.842E-14 2.976E-19 0.000E+00
 ETOT 18  -166.32870249083     -2.842E-14 3.154E-20 0.000E+00
 ETOT 19  -166.32870249083     -2.842E-14 9.996E-21 0.000E+00

 At SCF step   19   max residual=  1.00E-20 < tolwfr=  1.00E-20 =>converged.

 ----iterations are completed or convergence reached----

 dfpt_looppert: DFPT cycle converged with prtwf=-1. Will skip output of the 1st-order WFK file.
 dfpt_looppert : ek2=    1.3905738126E+02
          f-sum rule ratio=    1.7027624262E+00
 prteigrs : about to open file /scratch/users/j/a/jabreu/flow_simple_remain_atoms/flow/w239/t1/tmpdata/tmp_1WF1_EIG
 Expectation of eigenvalue derivatives (hartree) for nkpt=   2  k points:
  (in case of degenerate eigenvalues, averaged derivative)
 kpt#   1, nband= 49, wtk=  0.50000, kpt=  0.0000  0.0000  0.0000 (reduced coord)
  -0.00000   -0.00000   -0.00000   -0.00000   -0.00000   -0.00000    0.00000    0.00000
   0.00000    0.00000    0.00000   -0.00000   -0.00000   -0.00000   -0.00000   -0.00000
  -0.00000   -0.00000   -0.00000   -0.00000    0.00000    0.00000    0.00000    0.00000
  -0.00000   -0.00000    0.00000    0.00000    0.00000    0.00000    0.00000   -0.00000
  -0.00000   -0.00000    0.00000   -0.00000   -0.00000    0.00000   -0.00000   -0.00000
   0.00000    0.00000    0.00000    0.00000    0.00000    0.00000    0.00000   -0.00000
  -0.00000
 prteigrs : prtvol=0 or 1, do not print more k-points.

 Eight components of 2nd-order total energy (hartree) are
 1,2,3: 0th-order hamiltonian combined with 1st-order wavefunctions
     kin0=   1.51837758E+02 eigvalue=   9.21652269E+00  local=  -5.85083807E+01
 4,5,6: 1st-order hamiltonian combined with 1st and 0th-order wfs
     kin1=  -2.36781684E+02  Hartree=   0.00000000E+00     xc=   0.00000000E+00
 7,8,9: eventually, occupation + non-local contributions
    edocc=   6.19289243E+01     enl0=   1.85387785E+00   enl1=  -9.58757211E+01
 1-9 gives the relaxation energy (to be shifted if some occ is /=2.0)
   erelax=  -1.66328702E+02
  No Ewald or frozen-wf contrib.: the relaxation energy is the total one
 2DEtotal=   -0.1663287025E+03 Ha. Also 2DEtotal=   -0.452603417041E+04 eV
    (  non-var. 2DEtotal :   -1.6632870249E+02 Ha)

 Perturbation wavevector (in red.coord.)   0.000000  0.000000  0.000000
 Perturbation : derivative vs k along direction   2
 The set of symmetries contains only one element for this perturbation.
 symkpt : not enough symmetry to change the number of k points.

[...]

 Perturbation wavevector (in red.coord.)   0.000000  0.000000  0.000000
 Perturbation : derivative vs k along direction   3
 The set of symmetries contains only one element for this perturbation.
 symkpt : not enough symmetry to change the number of k points.

 Initialisation of the first-order wave-functions :
  ireadwf=   0

--- !BeginCycle
iteration_state: {dtset: 1, }
solver: {iscf: 7, nstep: 2000, nline: 4, wfoptalg: 0, }
tolerances: {tolwfr: 1.00E-20, }
...

     iter   2DEtotal(Ha)        deltaE(Ha) residm    vres2
-ETOT  1  -37.749998078805     -3.775E+01 6.227E-02 0.000E+00
 ETOT  2  -37.802325533352     -5.233E-02 5.578E-04 0.000E+00
 ETOT  3  -37.803012018411     -6.865E-04 3.703E-05 0.000E+00
 ETOT  4  -37.803029137505     -1.712E-05 8.466E-07 0.000E+00
 ETOT  5  -37.803029629780     -4.923E-07 7.490E-08 0.000E+00
 ETOT  6  -37.803029645023     -1.524E-08 4.576E-09 0.000E+00
 ETOT  7  -37.803029645523     -5.003E-10 4.690E-10 0.000E+00
 ETOT  8  -37.803029645541     -1.712E-11 2.841E-11 0.000E+00
 ETOT  9  -37.803029645541     -6.111E-13 3.031E-12 0.000E+00
 ETOT 10  -37.803029645541     -4.263E-14 1.831E-13 0.000E+00
 ETOT 11  -37.803029645541      2.842E-14 2.003E-14 0.000E+00
 ETOT 12  -37.803029645541      0.000E+00 1.207E-15 0.000E+00
 ETOT 13  -37.803029645541      1.421E-14 1.343E-16 0.000E+00
 ETOT 14  -37.803029645541      0.000E+00 8.080E-18 0.000E+00
 ETOT 15  -37.803029645541      0.000E+00 9.089E-19 0.000E+00
 ETOT 16  -37.803029645541     -7.105E-15 5.462E-20 0.000E+00
 ETOT 17  -37.803029645541     -7.105E-15 9.889E-21 0.000E+00

 At SCF step   17   max residual=  9.89E-21 < tolwfr=  1.00E-20 =>converged.

 ----iterations are completed or convergence reached----

 dfpt_looppert: DFPT cycle converged with prtwf=-1. Will skip output of the 1st-order WFK file.
 dfpt_looppert : ek2=    3.7087358231E+01
          f-sum rule ratio=    1.3388735297E+00
 prteigrs : about to open file /scratch/users/j/a/jabreu/flow_simple_remain_atoms/flow/w239/t1/tmpdata/tmp_1WF1_EIG
 Expectation of eigenvalue derivatives (hartree) for nkpt=   2  k points:
  (in case of degenerate eigenvalues, averaged derivative)
 kpt#   1, nband= 49, wtk=  0.50000, kpt=  0.0000  0.0000  0.0000 (reduced coord)
   0.00000    0.00000   -0.00000   -0.00000   -0.00000   -0.00000    0.00000    0.00000
  -0.00000    0.00000    0.00000    0.00000    0.00000   -0.00000    0.00000   -0.00000
  -0.00000   -0.00000   -0.00000   -0.00000   -0.00000   -0.00000   -0.00000    0.00000
  -0.00000   -0.00000    0.00000    0.00000   -0.00000   -0.00000   -0.00000   -0.00000
  -0.00000   -0.00000   -0.00000   -0.00000   -0.00000    0.00000    0.00000    0.00000
   0.00000    0.00000   -0.00000    0.00000    0.00000    0.00000    0.00000    0.00000
   0.00000
 prteigrs : prtvol=0 or 1, do not print more k-points.

 Eight components of 2nd-order total energy (hartree) are
 1,2,3: 0th-order hamiltonian combined with 1st-order wavefunctions
     kin0=   4.28701818E+01 eigvalue=   2.26420088E+00  local=  -1.70724104E+01
 4,5,6: 1st-order hamiltonian combined with 1st and 0th-order wfs
     kin1=  -4.96552822E+01  Hartree=   0.00000000E+00     xc=   0.00000000E+00
 7,8,9: eventually, occupation + non-local contributions
    edocc=   9.51923454E+00     enl0=   2.21822876E-01   enl1=  -2.59507771E+01
 1-9 gives the relaxation energy (to be shifted if some occ is /=2.0)
   erelax=  -3.78030296E+01
  No Ewald or frozen-wf contrib.: the relaxation energy is the total one
 2DEtotal=   -0.3780302965E+02 Ha. Also 2DEtotal=   -0.102867275076E+04 eV
    (  non-var. 2DEtotal :   -3.7803029645E+01 Ha)

 CALCULATION OF EFFECTIVE MASSES
 NOTE : Additional infos (eff. mass eigenvalues, eigenvectors and, if degenerate, average mass) are available in stdout.

 COMMENTS:
 - At k-point ( 0.000, 0.000, 0.000), bands    39 through    40
   are DEGENERATE (effective mass tensor is therefore not defined).
   See Section IIIB Eqs. (67)-(70) and Appendix E of PRB 93 205147 (2016).
 - Angular average effective mass for Frohlich model is to be averaged over degenerate bands. See later.
 - Associated theta integrals calculated with ntheta=   1000 points.

 K-point ( 0.000, 0.000, 0.000) | band =    39
 Transport equivalent effective mass tensor:
             -0.0658597084             -0.0000000000              0.0000000001
             -0.0000000000             -0.0658597866             -0.0000001990
              0.0000000001             -0.0000001990             -0.5259988673
 Transport equivalent effective mass tensor eigenvalues:
             -0.5259988673             -0.0658597866             -0.0658597084
 Angular average effective mass 1/(<1/m>)=  -0.0849251757
 Angular average effective mass for Frohlich model (<m**0.5>)**2=  -0.1004618287
 Effective masses along directions: (cart. coord. / red. coord. -> eff. mass)
    1:   1.000000  0.000000  0.000000 /   0.894427 -0.447214  0.000000 ->  -0.0603217802
    2:   0.000000  1.000000  0.000000 /   0.000000  1.000000  0.000000 ->  -0.0603217802
    3:   0.000000  0.000000  1.000000 /   0.000000  0.000000  1.000000 ->  -0.5044818482
    4:   0.577350  0.577350  0.577350 /   0.503405  0.184259  0.844175 ->  -0.0906606672
    5:   0.000000  0.707107  0.707107 /   0.000000  0.458858  0.888510 ->  -0.0960458340
    6:   0.707107  0.000000  0.707107 /   0.496164 -0.248082  0.832032 ->  -0.1057273656
    7:   0.707107  0.707107  0.000000 /   0.939071  0.343724  0.000000 ->  -0.0603217802

 K-point ( 0.000, 0.000, 0.000) | band =    40
 Transport equivalent effective mass tensor:
             -0.7624562718             -0.0000000002              0.0000000003
             -0.0000000002             -0.7624556413              0.0000004756
              0.0000000003              0.0000004756             -1.5501735149
 Transport equivalent effective mass tensor eigenvalues:
             -1.5501735149             -0.7624562718             -0.7624556413
 Angular average effective mass 1/(<1/m>)=  -0.4328989987
 Angular average effective mass for Frohlich model (<m**0.5>)**2=  -0.4606693912
 Effective masses along directions: (cart. coord. / red. coord. -> eff. mass)
    1:   1.000000  0.000000  0.000000 /   0.894427 -0.447214  0.000000 ->  -0.3894647463
    2:   0.000000  1.000000  0.000000 /   0.000000  1.000000  0.000000 ->  -0.3894647465
    3:   0.000000  0.000000  1.000000 /   0.000000  0.000000  1.000000 ->  -0.5044818482
    4:   0.577350  0.577350  0.577350 /   0.503405  0.184259  0.844175 ->  -0.3273389579
    5:   0.000000  0.707107  0.707107 /   0.000000  0.458858  0.888510 ->  -0.8747150668
    6:   0.707107  0.000000  0.707107 /   0.496164 -0.248082  0.832032 ->  -0.4769545193
    7:   0.707107  0.707107  0.000000 /   0.939071  0.343724  0.000000 ->  -0.3894647467

 Angular average effective mass for Frohlich model, averaged over degenerate bands.
 Value of     (<<m**0.5>>)**2 =     2.478464E-01
 Absolute Value of <<m**0.5>> =     4.978417E-01

 K-point ( 0.000, 0.000, 0.036) | band =    41
 Effective mass tensor:
              0.1225412627              0.0000000000              0.0000000002
              0.0000000000              0.1225412627             -0.0000000007
              0.0000000002             -0.0000000007              4.7017869710
 Effective mass tensor eigenvalues:
              0.1225412627              0.1225412627              4.7017869710
 Angular average effective mass 1/(<1/m>)=   0.1814473897
 Angular average effective mass for Frohlich model (<m**0.5>)**2=   0.2496639615
 Effective masses along directions: (cart. coord. / red. coord. -> eff. mass)
    1:   1.000000  0.000000  0.000000 /   0.894427 -0.447214  0.000000 ->   0.1225412627
    2:   0.000000  1.000000  0.000000 /   0.000000  1.000000  0.000000 ->   0.1225412627
    3:   0.000000  0.000000  1.000000 /   0.000000  0.000000  1.000000 ->   4.7017869710
    4:   0.577350  0.577350  0.577350 /   0.503405  0.184259  0.844175 ->   0.1814473897
    5:   0.000000  0.707107  0.707107 /   0.000000  0.458858  0.888510 ->   0.2388572603
    6:   0.707107  0.000000  0.707107 /   0.496164 -0.248082  0.832032 ->   0.2388572604
    7:   0.707107  0.707107  0.000000 /   0.939071  0.343724  0.000000 ->   0.1225412627

 END OF EFFECTIVE MASSES SECTION

 ---- first-order wavefunction calculations are completed ----

 Total localisation tensor (bohr^2) in cartesian coordinates
  WARNING : still subject to testing - especially symmetries.
      direction              matrix element
   alpha     beta       real part   imaginary part
     1        1      11.5701495783    0.0000000000
     1        2      -4.0080173842    0.0000000000
     1        3       0.0000000000    0.0000000000
     2        1      -4.0080173842    0.0000000000
     2        2       6.9420897470    0.0000000000
     2        3       0.0000000000    0.0000000000
     3        1       0.0000000000    0.0000000000
     3        2       0.0000000000    0.0000000000
     3        3       4.5326392257    0.0000000000

 respfn : d/dk was computed, but no 2DTE, so no DDB output.

== END DATASET(S) ==============================================================

 -outvars: echo values of variables after computation  --------
            acell      1.0000000000E+00  1.0000000000E+00  1.0000000000E+00 Bohr
              amu      4.00780000E+01  6.53900000E+01  7.49215900E+01
             ecut      4.20000000E+01 Hartree
           etotal     -3.7803029646E+01
            fcart      0.0000000000E+00  0.0000000000E+00  0.0000000000E+00
                       0.0000000000E+00  0.0000000000E+00  0.0000000000E+00
                       0.0000000000E+00  0.0000000000E+00  0.0000000000E+00
                       0.0000000000E+00  0.0000000000E+00  0.0000000000E+00
                       0.0000000000E+00  0.0000000000E+00  0.0000000000E+00
-          fftalg         512
           irdden           1
           irdwfk           1
           istwfk        1    0
              ixc     -116133
              kpt      0.00000000E+00  0.00000000E+00  0.00000000E+00
                       0.00000000E+00  0.00000000E+00  3.57142857E-02
           kptopt           0
P           mkmem           2
P          mkqmem           2
P          mk1mem           2
            natom           5
            nband          49
           nbdbuf           4
            ngfft          48      48      80
             nkpt           2
            nstep        2000
             nsym          12
           ntypat           3
              occ      2.000000  2.000000  2.000000  2.000000  2.000000  2.000000
                       2.000000  2.000000  2.000000  2.000000  2.000000  2.000000
                       2.000000  2.000000  2.000000  2.000000  2.000000  2.000000
                       2.000000  2.000000  2.000000  2.000000  2.000000  2.000000
                       2.000000  2.000000  2.000000  2.000000  2.000000  2.000000
                       2.000000  2.000000  2.000000  2.000000  2.000000  2.000000
                       2.000000  2.000000  2.000000  2.000000  0.000000  0.000000
                       0.000000  0.000000  0.000000  0.000000  0.000000  0.000000
                       0.000000
        optdriver           1
            prtwf          -1
            rfdir           1       1       1
           rfelfd           2
            rprim      7.7823759133E+00  0.0000000000E+00  0.0000000000E+00
                      -3.8911879567E+00  6.7397352427E+00  0.0000000000E+00
                       0.0000000000E+00  0.0000000000E+00  1.3050492761E+01
          spgroup         164
           strten      0.0000000000E+00  0.0000000000E+00  0.0000000000E+00
                       0.0000000000E+00  0.0000000000E+00  0.0000000000E+00
           symrel      1  0  0   0  1  0   0  0  1      -1  0  0   0 -1  0   0  0 -1
                      -1  0  0   1  1  0   0  0  1       1  0  0  -1 -1  0   0  0 -1
                       0  1  0  -1 -1  0   0  0  1       0 -1  0   1  1  0   0  0 -1
                       0 -1  0  -1  0  0   0  0  1       0  1  0   1  0  0   0  0 -1
                      -1 -1  0   1  0  0   0  0  1       1  1  0  -1  0  0   0  0 -1
                       1  1  0   0 -1  0   0  0  1      -1 -1  0   0  1  0   0  0 -1
           tolwfr      1.00000000E-20
            typat      1  2  2  3  3
           useylm           1
              wtk        0.50000    0.50000
           xangst      0.0000000000E+00  0.0000000000E+00  0.0000000000E+00
                      -1.7639241746E-11  2.3776761882E+00  4.3573277959E+00
                       2.0591279810E+00  1.1888380941E+00  2.5486955340E+00
                      -1.7639241746E-11  2.3776761882E+00  1.7774377545E+00
                       2.0591279810E+00  1.1888380941E+00  5.1285855753E+00
            xcart      0.0000000000E+00  0.0000000000E+00  0.0000000000E+00
                      -3.3333336091E-11  4.4931568285E+00  8.2341562054E+00
                       3.8911879566E+00  2.2465784142E+00  4.8163365553E+00
                      -3.3333336091E-11  4.4931568285E+00  3.3588705743E+00
                       3.8911879566E+00  2.2465784142E+00  9.6916221864E+00
             xred      0.0000000000E+00  0.0000000000E+00  0.0000000000E+00
                       3.3333333333E-01  6.6666666667E-01  6.3094600000E-01
                       6.6666666667E-01  3.3333333333E-01  3.6905400000E-01
                       3.3333333333E-01  6.6666666667E-01  2.5737500000E-01
                       6.6666666667E-01  3.3333333333E-01  7.4262500000E-01
            znucl       20.00000   30.00000   33.00000

- Timing analysis has been suppressed with timopt=0

 Suggested references for the acknowledgment of ABINIT usage.

 Calculation completed.
.Delivered   2 WARNINGs and   5 COMMENTs to log file.