.Version 9.5.1 of ABINIT

 ABINIT is a project of the Universite Catholique de Louvain,
 Corning Inc. and other collaborators, see ~abinit/doc/developers/contributors.txt .
 acknowledgments of the ABINIT effort.

.Starting date : Tue 27 Apr 2021.
- ( at 15h32 )

- input  file    -> /scratch/users/j/a/jabreu/flow_simple/flow/w139/t1/run.abi
- output file    -> /scratch/users/j/a/jabreu/flow_simple/flow/w139/t1/run.abo
- root for input  files -> /scratch/users/j/a/jabreu/flow_simple/flow/w139/t1/indata/in
- root for output files -> /scratch/users/j/a/jabreu/flow_simple/flow/w139/t1/outdata/out

 Symmetries : space group F-4 3 m (#216); Bravais cF (face-center cubic)
     intxc =       0      iscf =       7    lmnmax =      32     lnmax =       8
     mgfft =      48  mpssoang =       4    mqgrid =    3001     natom =       3
  nloc_mem =       1    nspden =       1   nspinor =       1    nsppol =       1
      nsym =      24    n1xccc =    2501    ntypat =       3    occopt =       1
   xclevel =       2
-    mband =          26        mffmem =           1         mkmem =           2
-   mkqmem =           2        mk1mem =           2           mpw =        4957
      nfft =      110592          nkpt =           2
  Rough estimation (10% accuracy) of disk space for files :

------------- Echo of variables that govern the present computation ------------
-
- outvars: echo of selected default values
-   iomode0 =  0 , fftalg0 =512 , wfoptalg0 =  0
-
- outvars: echo of global parameters not present in the input file
-  max_nthreads =    0
-
 -outvars: echo values of preprocessed input variables --------
            acell      1.0000000000E+00  1.0000000000E+00  1.0000000000E+00 Bohr
              amu      9.12240000E+01  2.80855000E+01  1.95080000E+02
             ecut      4.20000000E+01 Hartree
-          fftalg         512
           irdden           1
           irdwfk           1
           istwfk        1    1
              ixc     -116133
              kpt      0.00000000E+00  0.00000000E+00  0.00000000E+00
                       5.00000000E-01  3.69778549E-32  5.00000000E-01
           kptopt           0
P           mkmem           2
P          mkqmem           2
P          mk1mem           2
            natom           3
            nband          26
           nbdbuf           4
            ngfft          48      48      48
             nkpt           2
            nstep         100
             nsym          24
           ntypat           3
              occ      2.000000  2.000000  2.000000  2.000000  2.000000  2.000000
                       2.000000  2.000000  2.000000  2.000000  2.000000  2.000000
                       2.000000  2.000000  2.000000  2.000000  2.000000  0.000000
                       0.000000  0.000000  0.000000  0.000000  0.000000  0.000000
                       0.000000  0.000000
        optdriver           1
            prtwf          -1
            rfdir           1       1       1
           rfelfd           2
            rprim      7.0249688032E+00  0.0000000000E+00  4.0558676296E+00
                       2.3416562677E+00  6.6232041045E+00  4.0558676296E+00
                       0.0000000000E+00  0.0000000000E+00  8.1117352591E+00
          spgroup         216
           symrel      1  0  0   0  1  0   0  0  1       0 -1  1   0 -1  0   1 -1  0
                      -1  0  0  -1  0  1  -1  1  0       0  1 -1   1  0 -1   0  0 -1
                      -1  0  0  -1  1  0  -1  0  1       0 -1  1   1 -1  0   0 -1  0
                       1  0  0   0  0  1   0  1  0       0  1 -1   0  0 -1   1  0 -1
                      -1  0  1  -1  1  0  -1  0  0       0 -1  0   1 -1  0   0 -1  1
                       1  0 -1   0  0 -1   0  1 -1       0  1  0   0  0  1   1  0  0
                       1  0 -1   0  1 -1   0  0 -1       0 -1  0   0 -1  1   1 -1  0
                      -1  0  1  -1  0  0  -1  1  0       0  1  0   1  0  0   0  0  1
                       0  0 -1   0  1 -1   1  0 -1       1 -1  0   0 -1  1   0 -1  0
                       0  0  1   1  0  0   0  1  0      -1  1  0  -1  0  0  -1  0  1
                       0  0  1   0  1  0   1  0  0       1 -1  0   0 -1  0   0 -1  1
                       0  0 -1   1  0 -1   0  1 -1      -1  1  0  -1  0  1  -1  0  0
           tolwfr      1.00000000E-20
            typat      1  2  3
           useylm           1
              wtk        0.50000    0.50000
           xangst      2.4783022545E+00  1.7524243300E+00  4.2925454213E+00
                       0.0000000000E+00  0.0000000000E+00  0.0000000000E+00
                       3.7174533817E+00  2.6286364950E+00  6.4388181319E+00
            xcart      4.6833125354E+00  3.3116020523E+00  8.1117352591E+00
                       0.0000000000E+00  0.0000000000E+00  0.0000000000E+00
                       7.0249688032E+00  4.9674030784E+00  1.2167602889E+01
             xred      5.0000000000E-01  5.0000000000E-01  5.0000000000E-01
                       0.0000000000E+00  0.0000000000E+00  0.0000000000E+00
                       7.5000000000E-01  7.5000000000E-01  7.5000000000E-01
            znucl       40.00000   14.00000   78.00000

 chkinp: Checking input parameters for consistency.

== DATASET  1 ==================================================================
-   mpi_nproc: 1, omp_nthreads: -1 (-1 if OMP is not activated)

--- !DatasetInfo
iteration_state: {dtset: 1, }
dimensions: {natom: 3, nkpt: 2, mband: 26, nsppol: 1, nspinor: 1, nspden: 1, mpw: 4957, }
cutoff_energies: {ecut:  42.0, pawecutdg:  -1.0, }
electrons: {nelect:   3.40000000E+01, charge:   0.00000000E+00, occopt:   1.00000000E+00, tsmear:   1.00000000E-02, }
meta: {optdriver: 1, rfelfd: 2, }
...

 Real(R)+Recip(G) space primitive vectors, cartesian coordinates (Bohr,Bohr^-1):
 R(1)=  7.0249688  0.0000000  4.0558676  G(1)=  0.1423494 -0.0503281  0.0000000
 R(2)=  2.3416563  6.6232041  4.0558676  G(2)=  0.0000000  0.1509843  0.0000000
 R(3)=  0.0000000  0.0000000  8.1117353  G(3)= -0.0711747 -0.0503281  0.1232782
 Unit cell volume ucvol=  3.7742121E+02 bohr^3
 Angles (23,13,12)=  6.00000000E+01  6.00000000E+01  6.00000000E+01 degrees

 getcut: wavevector=  0.0000  0.0000  0.0000  ngfft=  48  48  48
         ecut(hartree)=     42.000   => boxcut(ratio)=   2.02833

--- Pseudopotential description ------------------------------------------------
- pspini: atom type   1  psp file is /scratch/users/j/a/jabreu/pseudos/PBEsol/Zr.psp8
- pspatm: opening atomic psp file    /scratch/users/j/a/jabreu/pseudos/PBEsol/Zr.psp8
- Zr    ONCVPSP-3.3.0  r_core=   1.56507   1.56507   1.51006
- 40.00000  12.00000    180112                znucl, zion, pspdat
    8 -116133    2    4       600   0.00000   pspcod,pspxc,lmax,lloc,mmax,r2well
    5.99000000000000    5.00000000000000    0.00000000000000   rchrg,fchrg,qchrg
     nproj     2     2     2
     extension_switch     1
  pspatm : epsatm=   18.88750170
         --- l  ekb(1:nproj) -->
             0   10.584966    0.890424
             1    5.814585    0.741293
             2    1.525459    0.487901
 pspatm: atomic psp has been read  and splines computed

- pspini: atom type   2  psp file is /scratch/users/j/a/jabreu/pseudos/PBEsol/Si.psp8
- pspatm: opening atomic psp file    /scratch/users/j/a/jabreu/pseudos/PBEsol/Si.psp8
- Si    ONCVPSP-3.3.0  r_core=   1.60303   1.72197   1.91712
- 14.00000   4.00000    180112                znucl, zion, pspdat
    8 -116133    2    4       600   0.00000   pspcod,pspxc,lmax,lloc,mmax,r2well
    5.99000000000000    4.00000000000000    0.00000000000000   rchrg,fchrg,qchrg
     nproj     2     2     2
     extension_switch     1
  pspatm : epsatm=    7.86468782
         --- l  ekb(1:nproj) -->
             0    5.384426    0.843824
             1    2.663259    0.615854
             2   -2.267219   -0.458043
 pspatm: atomic psp has been read  and splines computed

- pspini: atom type   3  psp file is /scratch/users/j/a/jabreu/pseudos/PBEsol/Pt.psp8
- pspatm: opening atomic psp file    /scratch/users/j/a/jabreu/pseudos/PBEsol/Pt.psp8
- Pt    ONCVPSP-3.3.0  r_core=   1.45722   1.45722   1.45722   1.91724
- 78.00000  18.00000    180112                znucl, zion, pspdat
    8 -116133    3    4       500   0.00000   pspcod,pspxc,lmax,lloc,mmax,r2well
    4.99000000000000    5.00000000000000    0.00000000000000   rchrg,fchrg,qchrg
     nproj     2     2     2     2
     extension_switch     1
  pspatm : epsatm=   26.54019552
         --- l  ekb(1:nproj) -->
             0   18.149684    1.747248
             1    8.048135    1.208190
             2    2.365973    0.348456
             3    3.491561    0.381218
 pspatm: atomic psp has been read  and splines computed

   1.81194109E+03                                ecore*ucvol(ha*bohr**3)

-inwffil : will read wavefunctions from disk file /scratch/users/j/a/jabreu/flow_simple/flow/w139/t1/indata/in_WFK

 ==>  initialize data related to q vector <==

 The list of irreducible perturbations for this q vector is:
    1)    idir= 1    ipert=   4
    2)    idir= 2    ipert=   4
    3)    idir= 3    ipert=   4

 Perturbation wavevector (in red.coord.)   0.000000  0.000000  0.000000
 Perturbation : derivative vs k along direction   1

 dfpt_looppert : COMMENT -
  In a d/dk calculation, iscf is set to -3 automatically.
 The set of symmetries contains only one element for this perturbation.
 symkpt : not enough symmetry to change the number of k points.

[...]

 Initialisation of the first-order wave-functions :
  ireadwf=   0

--- !BeginCycle
iteration_state: {dtset: 1, }
solver: {iscf: 7, nstep: 100, nline: 4, wfoptalg: 0, }
tolerances: {tolwfr: 1.00E-20, }
...

     iter   2DEtotal(Ha)        deltaE(Ha) residm    vres2
-ETOT  1  -38.969129938715     -3.897E+01 3.330E-02 0.000E+00
 ETOT  2  -38.981965321318     -1.284E-02 5.338E-04 0.000E+00
 ETOT  3  -38.981997767261     -3.245E-05 6.772E-06 0.000E+00
 ETOT  4  -38.981997901563     -1.343E-07 1.847E-07 0.000E+00
 ETOT  5  -38.981997902297     -7.338E-10 4.119E-09 0.000E+00
 ETOT  6  -38.981997902301     -4.711E-12 1.070E-10 0.000E+00
 ETOT  7  -38.981997902302     -3.553E-14 3.222E-12 0.000E+00
 ETOT  8  -38.981997902302      0.000E+00 7.181E-14 0.000E+00
 ETOT  9  -38.981997902302     -7.105E-14 2.191E-15 0.000E+00
 ETOT 10  -38.981997902302      1.421E-14 4.885E-17 0.000E+00
 ETOT 11  -38.981997902302      4.974E-14 1.494E-18 0.000E+00
 ETOT 12  -38.981997902302      7.105E-15 3.349E-20 0.000E+00
 ETOT 13  -38.981997902302      0.000E+00 9.991E-21 0.000E+00

 At SCF step   13   max residual=  9.99E-21 < tolwfr=  1.00E-20 =>converged.

 ----iterations are completed or convergence reached----

 dfpt_looppert: DFPT cycle converged with prtwf=-1. Will skip output of the 1st-order WFK file.
 dfpt_looppert : ek2=    6.1197315543E+01
          f-sum rule ratio=    1.2503908263E+00
 prteigrs : about to open file /scratch/users/j/a/jabreu/flow_simple/flow/w139/t1/tmpdata/tmp_1WF1_EIG
 Expectation of eigenvalue derivatives (hartree) for nkpt=   2  k points:
  (in case of degenerate eigenvalues, averaged derivative)
 kpt#   1, nband= 26, wtk=  0.50000, kpt=  0.0000  0.0000  0.0000 (reduced coord)
  -0.00000    0.00000    0.00000    0.00000    0.00000    0.00000    0.00000    0.00000
   0.00000    0.00000    0.00000    0.00000    0.00000    0.00000   -0.00000   -0.00000
  -0.00000   -0.00000   -0.00000    0.00000    0.00000    0.00000    0.00000    0.00000
  -0.00003   -0.00003
 prteigrs : prtvol=0 or 1, do not print more k-points.

 Eight components of 2nd-order total energy (hartree) are
 1,2,3: 0th-order hamiltonian combined with 1st-order wavefunctions
     kin0=   2.61860679E+01 eigvalue=  -1.39449910E+00  local=  -1.29062160E+01
 4,5,6: 1st-order hamiltonian combined with 1st and 0th-order wfs
     kin1=  -7.65205620E+01  Hartree=   0.00000000E+00     xc=   0.00000000E+00
 7,8,9: eventually, occupation + non-local contributions
    edocc=   2.44974354E+01     enl0=   2.59920972E+00   enl1=  -1.44343385E+00
 1-9 gives the relaxation energy (to be shifted if some occ is /=2.0)
   erelax=  -3.89819979E+01
  No Ewald or frozen-wf contrib.: the relaxation energy is the total one
 2DEtotal=   -0.3898199790E+02 Ha. Also 2DEtotal=   -0.106075410855E+04 eV
    (  non-var. 2DEtotal :   -3.8981997902E+01 Ha)

 Perturbation wavevector (in red.coord.)   0.000000  0.000000  0.000000
 Perturbation : derivative vs k along direction   2
 The set of symmetries contains only one element for this perturbation.
 symkpt : not enough symmetry to change the number of k points.

[...]

 Perturbation wavevector (in red.coord.)   0.000000  0.000000  0.000000
 Perturbation : derivative vs k along direction   3
 The set of symmetries contains only one element for this perturbation.
 symkpt : not enough symmetry to change the number of k points.

-inwffil : will read wavefunctions from disk file /scratch/users/j/a/jabreu/flow_simple/flow/w139/t1/indata/in_WFK

 Initialisation of the first-order wave-functions :
  ireadwf=   0

--- !BeginCycle
iteration_state: {dtset: 1, }
solver: {iscf: 7, nstep: 100, nline: 4, wfoptalg: 0, }
tolerances: {tolwfr: 1.00E-20, }
...

     iter   2DEtotal(Ha)        deltaE(Ha) residm    vres2
-ETOT  1  -38.971533596082     -3.897E+01 3.330E-02 0.000E+00
 ETOT  2  -38.981972944994     -1.044E-02 1.017E-03 0.000E+00
 ETOT  3  -38.981997117097     -2.417E-05 3.780E-06 0.000E+00
 ETOT  4  -38.981997209764     -9.267E-08 1.920E-07 0.000E+00
 ETOT  5  -38.981997210239     -4.754E-10 1.809E-09 0.000E+00
 ETOT  6  -38.981997210242     -3.048E-12 1.055E-10 0.000E+00
 ETOT  7  -38.981997210242      1.421E-14 1.271E-12 0.000E+00
 ETOT  8  -38.981997210242     -1.421E-14 5.841E-14 0.000E+00
 ETOT  9  -38.981997210242     -2.132E-14 1.174E-15 0.000E+00
 ETOT 10  -38.981997210242     -7.105E-15 3.259E-17 0.000E+00
 ETOT 11  -38.981997210242      0.000E+00 1.099E-18 0.000E+00
 ETOT 12  -38.981997210242      0.000E+00 1.901E-20 0.000E+00
 ETOT 13  -38.981997210242      7.105E-15 9.990E-21 0.000E+00

 At SCF step   13   max residual=  9.99E-21 < tolwfr=  1.00E-20 =>converged.

 ----iterations are completed or convergence reached----

 dfpt_looppert: DFPT cycle converged with prtwf=-1. Will skip output of the 1st-order WFK file.
 dfpt_looppert : ek2=    6.1197315544E+01
          f-sum rule ratio=    1.2503908079E+00
 prteigrs : about to open file /scratch/users/j/a/jabreu/flow_simple/flow/w139/t1/tmpdata/tmp_1WF1_EIG
 Expectation of eigenvalue derivatives (hartree) for nkpt=   2  k points:
  (in case of degenerate eigenvalues, averaged derivative)
 kpt#   1, nband= 26, wtk=  0.50000, kpt=  0.0000  0.0000  0.0000 (reduced coord)
   0.00000   -0.00000   -0.00000   -0.00000   -0.00000   -0.00000   -0.00000   -0.00000
   0.00000    0.00000    0.00000    0.00000   -0.00000   -0.00000    0.00000    0.00000
   0.00000   -0.00000   -0.00000    0.00000   -0.00000   -0.00000   -0.00000   -0.00000
   0.00004    0.00004
 prteigrs : prtvol=0 or 1, do not print more k-points.

 Eight components of 2nd-order total energy (hartree) are
 1,2,3: 0th-order hamiltonian combined with 1st-order wavefunctions
     kin0=   2.61051485E+01 eigvalue=  -1.41774582E+00  local=  -1.28631249E+01
 4,5,6: 1st-order hamiltonian combined with 1st and 0th-order wfs
     kin1=  -7.65205608E+01  Hartree=   0.00000000E+00     xc=   0.00000000E+00
 7,8,9: eventually, occupation + non-local contributions
    edocc=   2.45566027E+01     enl0=   2.60111669E+00   enl1=  -1.44343360E+00
 1-9 gives the relaxation energy (to be shifted if some occ is /=2.0)
   erelax=  -3.89819972E+01
  No Ewald or frozen-wf contrib.: the relaxation energy is the total one
 2DEtotal=   -0.3898199721E+02 Ha. Also 2DEtotal=   -0.106075408972E+04 eV
    (  non-var. 2DEtotal :   -3.8981997210E+01 Ha)

 CALCULATION OF EFFECTIVE MASSES
 NOTE : Additional infos (eff. mass eigenvalues, eigenvectors and, if degenerate, average mass) are available in stdout.

 COMMENTS:
 - At k-point ( 0.000, 0.000, 0.000), bands    15 through    17
   are DEGENERATE (effective mass tensor is therefore not defined).
   See Section IIIB Eqs. (67)-(70) and Appendix E of PRB 93 205147 (2016).
 - Angular average effective mass for Frohlich model is to be averaged over degenerate bands. See later.
 - Associated theta integrals calculated with ntheta=   1000 points.

--- !WARNING
src_file: m_efmas.F90
src_line: 0
message: |

    Band(s)    17,
    are not band extrema, but saddle points;
    the transport equivalent formalism breaks down in these conditions.
    The associated tensor(s) will therefore not be printed.
...

 K-point ( 0.000, 0.000, 0.000) | band =    15
 Transport equivalent effective mass tensor:
             -0.2304604648              0.0000000009             -0.0000000005
              0.0000000009             -0.2304604650             -0.0000000009
             -0.0000000005             -0.0000000009             -0.2304604659
 Transport equivalent effective mass tensor eigenvalues:
             -0.2304604664             -0.2304604657             -0.2304604636
 Angular average effective mass 1/(<1/m>)=  -0.2099910922
 Angular average effective mass for Frohlich model (<m**0.5>)**2=  -0.2112926879
 Effective masses along directions: (cart. coord. / red. coord. -> eff. mass)
    1:   1.000000  0.000000  0.000000 /   0.948683  0.316228  0.000000 ->  -0.1987768004
    2:   0.000000  1.000000  0.000000 /   0.000000  1.000000  0.000000 ->  -0.1860324931
    3:   0.000000  0.000000  1.000000 /   0.408248  0.408248  0.816497 ->  -0.2018747880
    4:   0.577350  0.577350  0.577350 /   0.585539  0.688047  0.428644 ->  -0.1987676317
    5:   0.000000  0.707107  0.707107 /   0.289489  0.762222  0.578977 ->  -0.2207274949
    6:   0.707107  0.000000  0.707107 /   0.731423  0.422287  0.535439 ->  -0.2002861901
    7:   0.707107  0.707107  0.000000 /   0.616798  0.787122  0.000000 ->  -0.2571091322

 K-point ( 0.000, 0.000, 0.000) | band =    16
 Transport equivalent effective mass tensor:
             -2.1970146731              0.0000024060             -0.0000000943
              0.0000024060             -2.1970001057             -0.0000000981
             -0.0000000943             -0.0000000981             -2.1969383387
 Transport equivalent effective mass tensor eigenvalues:
             -2.1970150603             -2.1969997188             -2.1969383384
 Angular average effective mass 1/(<1/m>)=  -0.9424195903
 Angular average effective mass for Frohlich model (<m**0.5>)**2=  -0.9765960739
 Effective masses along directions: (cart. coord. / red. coord. -> eff. mass)
    1:   1.000000  0.000000  0.000000 /   0.948683  0.316228  0.000000 ->  -1.1866677482
    2:   0.000000  1.000000  0.000000 /   0.000000  1.000000  0.000000 ->  -2.3761069753
    3:   0.000000  0.000000  1.000000 /   0.408248  0.408248  0.816497 ->  -0.7908042601
    4:   0.577350  0.577350  0.577350 /   0.585539  0.688047  0.428644 ->  -1.0719568787
    5:   0.000000  0.707107  0.707107 /   0.289489  0.762222  0.578977 ->  -0.8130915133
    6:   0.707107  0.000000  0.707107 /   0.731423  0.422287  0.535439 ->  -0.9164950587
    7:   0.707107  0.707107  0.000000 /   0.616798  0.787122  0.000000 ->  -0.8141021192

 K-point ( 0.000, 0.000, 0.000) | band =    17
 Transport equivalent effective mass tensor:
     *** SADDLE POINT: TRANSPORT EQV. EFF. MASS NOT DEFINED (see WARNING above) ***
 Angular average effective mass 1/(<1/m>)=  -2.5386335902
 Angular average effective mass for Frohlich model (<m**0.5>)**2=  -6.0770931397
 Effective masses along directions: (cart. coord. / red. coord. -> eff. mass)
    1:   1.000000  0.000000  0.000000 /   0.948683  0.316228  0.000000 ->  -2.9099046110
    2:   0.000000  1.000000  0.000000 /   0.000000  1.000000  0.000000 ->  -2.3761074116
    3:   0.000000  0.000000  1.000000 /   0.408248  0.408248  0.816497 -> **************
    4:   0.577350  0.577350  0.577350 /   0.585539  0.688047  0.428644 ->  -3.9487563444
    5:   0.000000  0.707107  0.707107 /   0.289489  0.762222  0.578977 ->  -2.1892816304
    6:   0.707107  0.000000  0.707107 /   0.731423  0.422287  0.535439 ->  -7.5103778096
    7:   0.707107  0.707107  0.000000 /   0.616798  0.787122  0.000000 ->  -0.9096104061

 Angular average effective mass for Frohlich model, averaged over degenerate bands.
 Value of     (<<m**0.5>>)**2 =     1.701347E+00
 Absolute Value of <<m**0.5>> =     1.304357E+00

 K-point ( 0.500, 0.000, 0.500) | band =    18
 Effective mass tensor:
              1.1207339862             -0.2305592549              0.2823763724
             -0.2305592549              1.2837631282             -0.3993402911
              0.2823763724             -0.3993402911              1.4467931716
 Effective mass tensor eigenvalues:
              0.9577031623              0.9577037654              1.9358833582
 Angular average effective mass 1/(<1/m>)=   1.1516804920
 Angular average effective mass for Frohlich model (<m**0.5>)**2=   1.1849516120
 Effective masses along directions: (cart. coord. / red. coord. -> eff. mass)
    1:   1.000000  0.000000  0.000000 /   0.948683  0.316228  0.000000 ->   1.0457734701
    2:   0.000000  1.000000  0.000000 /   0.000000  1.000000  0.000000 ->   1.1516801763
    3:   0.000000  0.000000  1.000000 /   0.408248  0.408248  0.816497 ->   1.2814557580
    4:   0.577350  0.577350  0.577350 /   0.585539  0.688047  0.428644 ->   1.0067860801
    5:   0.000000  0.707107  0.707107 /   0.289489  0.762222  0.578977 ->   0.9617943622
    6:   0.707107  0.000000  0.707107 /   0.731423  0.422287  0.535439 ->   1.3966677364
    7:   0.707107  0.707107  0.000000 /   0.616798  0.787122  0.000000 ->   0.9646728494

 END OF EFFECTIVE MASSES SECTION

 ---- first-order wavefunction calculations are completed ----

 Total localisation tensor (bohr^2) in cartesian coordinates
  WARNING : still subject to testing - especially symmetries.
      direction              matrix element
   alpha     beta       real part   imaginary part
     1        1       2.9747542989    0.0000000000
     1        2       0.8413876143    0.0000000000
     1        3       2.0609702504    0.0000000000
     2        1       0.8413876143    0.0000000000
     2        2       2.3798035506    0.0000000000
     2        3       1.4573260968    0.0000000000
     3        1       2.0609702504    0.0000000000
     3        2       1.4573260968    0.0000000000
     3        3       5.3545577194    0.0000000000

 respfn : d/dk was computed, but no 2DTE, so no DDB output.

== END DATASET(S) ==============================================================

 -outvars: echo values of variables after computation  --------
            acell      1.0000000000E+00  1.0000000000E+00  1.0000000000E+00 Bohr
              amu      9.12240000E+01  2.80855000E+01  1.95080000E+02
             ecut      4.20000000E+01 Hartree
           etotal     -3.8981997210E+01
            fcart      0.0000000000E+00  0.0000000000E+00  0.0000000000E+00
                       0.0000000000E+00  0.0000000000E+00  0.0000000000E+00
                       0.0000000000E+00  0.0000000000E+00  0.0000000000E+00
-          fftalg         512
           irdden           1
           irdwfk           1
           istwfk        1    1
              ixc     -116133
              kpt      0.00000000E+00  0.00000000E+00  0.00000000E+00
                       5.00000000E-01  3.69778549E-32  5.00000000E-01
           kptopt           0
P           mkmem           2
P          mkqmem           2
P          mk1mem           2
            natom           3
            nband          26
           nbdbuf           4
            ngfft          48      48      48
             nkpt           2
            nstep         100
             nsym          24
           ntypat           3
              occ      2.000000  2.000000  2.000000  2.000000  2.000000  2.000000
                       2.000000  2.000000  2.000000  2.000000  2.000000  2.000000
                       2.000000  2.000000  2.000000  2.000000  2.000000  0.000000
                       0.000000  0.000000  0.000000  0.000000  0.000000  0.000000
                       0.000000  0.000000
        optdriver           1
            prtwf          -1
            rfdir           1       1       1
           rfelfd           2
            rprim      7.0249688032E+00  0.0000000000E+00  4.0558676296E+00
                       2.3416562677E+00  6.6232041045E+00  4.0558676296E+00
                       0.0000000000E+00  0.0000000000E+00  8.1117352591E+00
          spgroup         216
           strten      0.0000000000E+00  0.0000000000E+00  0.0000000000E+00
                       0.0000000000E+00  0.0000000000E+00  0.0000000000E+00
           symrel      1  0  0   0  1  0   0  0  1       0 -1  1   0 -1  0   1 -1  0
                      -1  0  0  -1  0  1  -1  1  0       0  1 -1   1  0 -1   0  0 -1
                      -1  0  0  -1  1  0  -1  0  1       0 -1  1   1 -1  0   0 -1  0
                       1  0  0   0  0  1   0  1  0       0  1 -1   0  0 -1   1  0 -1
                      -1  0  1  -1  1  0  -1  0  0       0 -1  0   1 -1  0   0 -1  1
                       1  0 -1   0  0 -1   0  1 -1       0  1  0   0  0  1   1  0  0
                       1  0 -1   0  1 -1   0  0 -1       0 -1  0   0 -1  1   1 -1  0
                      -1  0  1  -1  0  0  -1  1  0       0  1  0   1  0  0   0  0  1
                       0  0 -1   0  1 -1   1  0 -1       1 -1  0   0 -1  1   0 -1  0
                       0  0  1   1  0  0   0  1  0      -1  1  0  -1  0  0  -1  0  1
                       0  0  1   0  1  0   1  0  0       1 -1  0   0 -1  0   0 -1  1
                       0  0 -1   1  0 -1   0  1 -1      -1  1  0  -1  0  1  -1  0  0
           tolwfr      1.00000000E-20
            typat      1  2  3
           useylm           1
              wtk        0.50000    0.50000
           xangst      2.4783022545E+00  1.7524243300E+00  4.2925454213E+00
                       0.0000000000E+00  0.0000000000E+00  0.0000000000E+00
                       3.7174533817E+00  2.6286364950E+00  6.4388181319E+00
            xcart      4.6833125354E+00  3.3116020523E+00  8.1117352591E+00
                       0.0000000000E+00  0.0000000000E+00  0.0000000000E+00
                       7.0249688032E+00  4.9674030784E+00  1.2167602889E+01
             xred      5.0000000000E-01  5.0000000000E-01  5.0000000000E-01
                       0.0000000000E+00  0.0000000000E+00  0.0000000000E+00
                       7.5000000000E-01  7.5000000000E-01  7.5000000000E-01
            znucl       40.00000   14.00000   78.00000

- Timing analysis has been suppressed with timopt=0

 Suggested references for the acknowledgment of ABINIT usage.

 Calculation completed.
.Delivered  15 WARNINGs and   9 COMMENTs to log file.