.Version 9.5.1 of ABINIT

 ABINIT is a project of the Universite Catholique de Louvain,
 Corning Inc. and other collaborators, see ~abinit/doc/developers/contributors.txt .
 acknowledgments of the ABINIT effort.

.Starting date : Tue  4 May 2021.
- ( at 19h31 )

- input  file    -> /scratch/users/j/a/jabreu/flow_simple_6atoms/flow/w206/t1/run.abi
- output file    -> /scratch/users/j/a/jabreu/flow_simple_6atoms/flow/w206/t1/run.abo
- root for input  files -> /scratch/users/j/a/jabreu/flow_simple_6atoms/flow/w206/t1/indata/in
- root for output files -> /scratch/users/j/a/jabreu/flow_simple_6atoms/flow/w206/t1/outdata/out

 Symmetries : space group P6_3 m c (#186); Bravais hP (primitive hexag.)
     intxc =       0      iscf =       7    lmnmax =      18     lnmax =       6
     mgfft =      80  mpssoang =       3    mqgrid =    3777     natom =       6
  nloc_mem =       1    nspden =       1   nspinor =       1    nsppol =       1
      nsym =      12    n1xccc =    2501    ntypat =       3    occopt =       1
   xclevel =       2
-    mband =          31        mffmem =           1         mkmem =           2
-   mkqmem =           2        mk1mem =           2           mpw =        9343
      nfft =      184320          nkpt =           2
  Rough estimation (10% accuracy) of disk space for files :

------------- Echo of variables that govern the present computation ------------
-
- outvars: echo of selected default values
-   iomode0 =  0 , fftalg0 =512 , wfoptalg0 =  0
-
- outvars: echo of global parameters not present in the input file
-  max_nthreads =    0
-
 -outvars: echo values of preprocessed input variables --------
            acell      1.0000000000E+00  1.0000000000E+00  1.0000000000E+00 Bohr
              amu      6.94100000E+00  9.01218200E+00  1.21753000E+02
             ecut      4.40000000E+01 Hartree
-          fftalg         512
           irdden           1
           irdwfk           1
           istwfk        1    1
              ixc     -116133
              kpt      0.00000000E+00  0.00000000E+00  0.00000000E+00
                       5.00000000E-01  0.00000000E+00  0.00000000E+00
           kptopt           0
P           mkmem           2
P          mkqmem           2
P          mk1mem           2
            natom           6
            nband          31
           nbdbuf           4
            ngfft          48      48      80
             nkpt           2
            nstep        1000
             nsym          12
           ntypat           3
              occ      2.000000  2.000000  2.000000  2.000000  2.000000  2.000000
                       2.000000  2.000000  2.000000  2.000000  2.000000  2.000000
                       2.000000  2.000000  2.000000  2.000000  2.000000  2.000000
                       2.000000  2.000000  2.000000  2.000000  0.000000  0.000000
                       0.000000  0.000000  0.000000  0.000000  0.000000  0.000000
                       0.000000
        optdriver           1
            prtwf          -1
            rfdir           1       1       1
           rfelfd           2
            rprim      7.8116458435E+00  0.0000000000E+00  0.0000000000E+00
                      -3.9058229217E+00  6.7650837458E+00  0.0000000000E+00
                       0.0000000000E+00  0.0000000000E+00  1.2648701044E+01
          spgroup         186
           symrel      1  0  0   0  1  0   0  0  1       0  1  0   1  0  0   0  0  1
                       1  1  0  -1  0  0   0  0  1      -1  0  0   1  1  0   0  0  1
                       0  1  0  -1 -1  0   0  0  1      -1 -1  0   0  1  0   0  0  1
                      -1  0  0   0 -1  0   0  0  1       0 -1  0  -1  0  0   0  0  1
                      -1 -1  0   1  0  0   0  0  1       1  0  0  -1 -1  0   0  0  1
                       0 -1  0   1  1  0   0  0  1       1  1  0   0 -1  0   0  0  1
            tnons      0.0000000  0.0000000  0.0000000     0.0000000  0.0000000  0.5000000
                       0.0000000  0.0000000  0.5000000     0.0000000  0.0000000  0.0000000
                       0.0000000  0.0000000  0.0000000     0.0000000  0.0000000  0.5000000
                       0.0000000  0.0000000  0.5000000     0.0000000  0.0000000  0.0000000
                       0.0000000  0.0000000  0.0000000     0.0000000  0.0000000  0.5000000
                       0.0000000  0.0000000  0.5000000     0.0000000  0.0000000  0.0000000
           tolwfr      1.00000000E-20
            typat      1  1  2  2  3  3
           useylm           1
              wtk        0.50000    0.50000
           xangst      0.0000000000E+00  0.0000000000E+00  5.6580082913E+00
                       0.0000000000E+00  0.0000000000E+00  2.3113061360E+00
                       2.0668724710E+00  1.1933093775E+00  6.6552719864E+00
                       1.7639241746E-11  2.3866187550E+00  3.3085698310E+00
                       2.0668724710E+00  1.1933093775E+00  4.0855602836E+00
                       1.7639241746E-11  2.3866187550E+00  7.3885812825E-01
            xcart      0.0000000000E+00  0.0000000000E+00  1.0692086128E+01
                       0.0000000000E+00  0.0000000000E+00  4.3677356062E+00
                       3.9058229218E+00  2.2550279153E+00  1.2576641394E+01
                       3.3333336091E-11  4.5100558305E+00  6.2522908722E+00
                       3.9058229218E+00  2.2550279153E+00  7.7205900354E+00
                       3.3333336091E-11  4.5100558305E+00  1.3962395134E+00
             xred      0.0000000000E+00  0.0000000000E+00  8.4531100000E-01
                       0.0000000000E+00  0.0000000000E+00  3.4531100000E-01
                       6.6666666667E-01  3.3333333333E-01  9.9430300000E-01
                       3.3333333333E-01  6.6666666667E-01  4.9430300000E-01
                       6.6666666667E-01  3.3333333333E-01  6.1038600000E-01
                       3.3333333333E-01  6.6666666667E-01  1.1038600000E-01
            znucl        3.00000    4.00000   51.00000

 chkinp: Checking input parameters for consistency.

== DATASET  1 ==================================================================
-   mpi_nproc: 1, omp_nthreads: -1 (-1 if OMP is not activated)

--- !DatasetInfo
iteration_state: {dtset: 1, }
dimensions: {natom: 6, nkpt: 2, mband: 31, nsppol: 1, nspinor: 1, nspden: 1, mpw: 9343, }
cutoff_energies: {ecut:  44.0, pawecutdg:  -1.0, }
electrons: {nelect:   4.40000000E+01, charge:   0.00000000E+00, occopt:   1.00000000E+00, tsmear:   1.00000000E-02, }
meta: {optdriver: 1, rfelfd: 2, }
...

 Real(R)+Recip(G) space primitive vectors, cartesian coordinates (Bohr,Bohr^-1):
 R(1)=  7.8116458  0.0000000  0.0000000  G(1)=  0.1280140  0.0739089  0.0000000
 R(2)= -3.9058229  6.7650837  0.0000000  G(2)=  0.0000000  0.1478178  0.0000000
 R(3)=  0.0000000  0.0000000 12.6487010  G(3)=  0.0000000  0.0000000  0.0790595
 Unit cell volume ucvol=  6.6843880E+02 bohr^3
 Angles (23,13,12)=  9.00000000E+01  9.00000000E+01  1.20000000E+02 degrees

 getcut: wavevector=  0.0000  0.0000  0.0000  ngfft=  48  48  80
         ecut(hartree)=     44.000   => boxcut(ratio)=   2.05782

--- Pseudopotential description ------------------------------------------------
- pspini: atom type   1  psp file is /scratch/users/j/a/jabreu/pseudos/PBEsol/Li.psp8
- pspatm: opening atomic psp file    /scratch/users/j/a/jabreu/pseudos/PBEsol/Li.psp8
- Li    ONCVPSP-3.3.0  r_core=   1.40824   1.10935
-  3.00000   3.00000    180112                znucl, zion, pspdat
    8 -116133    1    4       400   0.00000   pspcod,pspxc,lmax,lloc,mmax,r2well
    3.99000000000000    0.00000000000000    0.00000000000000   rchrg,fchrg,qchrg
     nproj     2     2
     extension_switch     1
  pspatm : epsatm=    2.60859637
         --- l  ekb(1:nproj) -->
             0   -4.855856   -1.482423
             1   -2.171544   -0.427615
 pspatm: atomic psp has been read  and splines computed

- pspini: atom type   2  psp file is /scratch/users/j/a/jabreu/pseudos/PBEsol/Be.psp8
- pspatm: opening atomic psp file    /scratch/users/j/a/jabreu/pseudos/PBEsol/Be.psp8
- Be    ONCVPSP-3.3.0  r_core=   1.35684   1.10780
-  4.00000   4.00000    180112                znucl, zion, pspdat
    8 -116133    1    4       400   0.00000   pspcod,pspxc,lmax,lloc,mmax,r2well
    3.99000000000000    0.00000000000000    0.00000000000000   rchrg,fchrg,qchrg
     nproj     2     2
     extension_switch     1
  pspatm : epsatm=    3.86293307
         --- l  ekb(1:nproj) -->
             0   -7.966826   -2.672546
             1   -3.431835   -0.651830
 pspatm: atomic psp has been read  and splines computed

- pspini: atom type   3  psp file is /scratch/users/j/a/jabreu/pseudos/PBEsol/Sb.psp8
- pspatm: opening atomic psp file    /scratch/users/j/a/jabreu/pseudos/PBEsol/Sb.psp8
- Sb    ONCVPSP-3.3.0  r_core=   1.81962   2.12485   1.81962
- 51.00000  15.00000    180112                znucl, zion, pspdat
    8 -116133    2    4       600   0.00000   pspcod,pspxc,lmax,lloc,mmax,r2well
    5.99000000000000    5.00000000000000    0.00000000000000   rchrg,fchrg,qchrg
     nproj     2     2     2
     extension_switch     1
  pspatm : epsatm=   26.35641246
         --- l  ekb(1:nproj) -->
             0    9.727814    1.485032
             1    5.505335    0.704623
             2   -4.710637   -1.436443
 pspatm: atomic psp has been read  and splines computed

   2.88885889E+03                                ecore*ucvol(ha*bohr**3)

-inwffil : will read wavefunctions from disk file /scratch/users/j/a/jabreu/flow_simple_6atoms/flow/w206/t1/indata/in_WFK

 ==>  initialize data related to q vector <==

 The list of irreducible perturbations for this q vector is:
    1)    idir= 1    ipert=   7
    2)    idir= 2    ipert=   7
    3)    idir= 3    ipert=   7

 Perturbation wavevector (in red.coord.)   0.000000  0.000000  0.000000
 Perturbation : derivative vs k along direction   1

 dfpt_looppert : COMMENT -
  In a d/dk calculation, iscf is set to -3 automatically.
 The set of symmetries contains only one element for this perturbation.
 symkpt : not enough symmetry to change the number of k points.

[...]

 Initialisation of the first-order wave-functions :
  ireadwf=   0

--- !BeginCycle
iteration_state: {dtset: 1, }
solver: {iscf: 7, nstep: 1000, nline: 4, wfoptalg: 0, }
tolerances: {tolwfr: 1.00E-20, }
...

     iter   2DEtotal(Ha)        deltaE(Ha) residm    vres2
-ETOT  1  -80.247160235165     -8.025E+01 5.418E-02 0.000E+00
 ETOT  2  -80.284761358494     -3.760E-02 2.526E-04 0.000E+00
 ETOT  3  -80.284775903178     -1.454E-05 5.537E-06 0.000E+00
 ETOT  4  -80.284775919631     -1.645E-08 4.605E-08 0.000E+00
 ETOT  5  -80.284775919662     -3.158E-11 4.457E-09 0.000E+00
 ETOT  6  -80.284775919662     -1.421E-14 3.997E-11 0.000E+00
 ETOT  7  -80.284775919662     -1.421E-14 4.087E-12 0.000E+00
 ETOT  8  -80.284775919662      2.842E-14 3.868E-14 0.000E+00
 ETOT  9  -80.284775919662      7.105E-14 4.155E-15 0.000E+00
 ETOT 10  -80.284775919662     -1.421E-14 3.914E-17 0.000E+00
 ETOT 11  -80.284775919662      1.421E-14 4.325E-18 0.000E+00
 ETOT 12  -80.284775919662      0.000E+00 4.032E-20 0.000E+00
 ETOT 13  -80.284775919662     -1.421E-14 9.996E-21 0.000E+00

 At SCF step   13   max residual=  1.00E-20 < tolwfr=  1.00E-20 =>converged.

 ----iterations are completed or convergence reached----

 dfpt_looppert: DFPT cycle converged with prtwf=-1. Will skip output of the 1st-order WFK file.
 dfpt_looppert : ek2=    7.5909486669E+01
          f-sum rule ratio=    1.2646773499E+00
 prteigrs : about to open file /scratch/users/j/a/jabreu/flow_simple_6atoms/flow/w206/t1/tmpdata/tmp_1WF1_EIG
 Expectation of eigenvalue derivatives (hartree) for nkpt=   2  k points:
  (in case of degenerate eigenvalues, averaged derivative)
 kpt#   1, nband= 31, wtk=  0.50000, kpt=  0.0000  0.0000  0.0000 (reduced coord)
   0.00000   -0.00000   -0.00000   -0.00000   -0.00000   -0.00000    0.00000    0.00000
   0.00000    0.00000    0.00000    0.00000    0.00000    0.00000    0.00000    0.00000
   0.00000    0.00000    0.00000    0.00000    0.00000   -0.00000    0.00000    0.00000
   0.00000   -0.00000    0.00000   -0.00000   -0.00000   -0.00000    0.15640
 prteigrs : prtvol=0 or 1, do not print more k-points.

 Eight components of 2nd-order total energy (hartree) are
 1,2,3: 0th-order hamiltonian combined with 1st-order wavefunctions
     kin0=   7.73467278E+01 eigvalue=   1.18250535E+01  local=  -4.20160965E+01
 4,5,6: 1st-order hamiltonian combined with 1st and 0th-order wfs
     kin1=  -9.60010084E+01  Hartree=   0.00000000E+00     xc=   0.00000000E+00
 7,8,9: eventually, occupation + non-local contributions
    edocc=   2.28387028E+01     enl0=   1.02903883E+01   enl1=  -6.45685434E+01
 1-9 gives the relaxation energy (to be shifted if some occ is /=2.0)
   erelax=  -8.02847759E+01
  No Ewald or frozen-wf contrib.: the relaxation energy is the total one
 2DEtotal=   -0.8028477592E+02 Ha. Also 2DEtotal=   -0.218465985566E+04 eV
    (  non-var. 2DEtotal :   -8.0284775920E+01 Ha)

 Perturbation wavevector (in red.coord.)   0.000000  0.000000  0.000000
 Perturbation : derivative vs k along direction   2
 The set of symmetries contains only one element for this perturbation.
 symkpt : not enough symmetry to change the number of k points.

[...]

 Perturbation wavevector (in red.coord.)   0.000000  0.000000  0.000000
 Perturbation : derivative vs k along direction   3
 The set of symmetries contains only one element for this perturbation.
 symkpt : not enough symmetry to change the number of k points.

-inwffil : will read wavefunctions from disk file /scratch/users/j/a/jabreu/flow_simple_6atoms/flow/w206/t1/indata/in_WFK

 Initialisation of the first-order wave-functions :
  ireadwf=   0

--- !BeginCycle
iteration_state: {dtset: 1, }
solver: {iscf: 7, nstep: 1000, nline: 4, wfoptalg: 0, }
tolerances: {tolwfr: 1.00E-20, }
...

     iter   2DEtotal(Ha)        deltaE(Ha) residm    vres2
-ETOT  1  -22.145807487828     -2.215E+01 2.945E-02 0.000E+00
 ETOT  2  -22.156464664793     -1.066E-02 1.093E-04 0.000E+00
 ETOT  3  -22.156468387926     -3.723E-06 5.347E-06 0.000E+00
 ETOT  4  -22.156468392292     -4.365E-09 4.504E-08 0.000E+00
 ETOT  5  -22.156468392303     -1.124E-11 2.637E-09 0.000E+00
 ETOT  6  -22.156468392303     -6.395E-14 4.960E-11 0.000E+00
 ETOT  7  -22.156468392303      1.066E-14 3.514E-12 0.000E+00
 ETOT  8  -22.156468392303      2.132E-14 6.753E-14 0.000E+00
 ETOT  9  -22.156468392303     -2.842E-14 4.697E-15 0.000E+00
 ETOT 10  -22.156468392303      1.421E-14 9.280E-17 0.000E+00
 ETOT 11  -22.156468392303      3.553E-15 6.392E-18 0.000E+00
 ETOT 12  -22.156468392303      0.000E+00 1.284E-19 0.000E+00
 ETOT 13  -22.156468392303     -3.553E-15 9.958E-21 0.000E+00

 At SCF step   13   max residual=  9.96E-21 < tolwfr=  1.00E-20 =>converged.

 ----iterations are completed or convergence reached----

 dfpt_looppert: DFPT cycle converged with prtwf=-1. Will skip output of the 1st-order WFK file.
 dfpt_looppert : ek2=    2.1714535956E+01
          f-sum rule ratio=    1.1946726479E+00
 prteigrs : about to open file /scratch/users/j/a/jabreu/flow_simple_6atoms/flow/w206/t1/tmpdata/tmp_1WF1_EIG
 Expectation of eigenvalue derivatives (hartree) for nkpt=   2  k points:
  (in case of degenerate eigenvalues, averaged derivative)
 kpt#   1, nband= 31, wtk=  0.50000, kpt=  0.0000  0.0000  0.0000 (reduced coord)
   0.00000   -0.00000    0.00000    0.00000    0.00000    0.00000    0.00000    0.00000
  -0.00000   -0.00000    0.00000    0.00000    0.00000    0.00000   -0.00000    0.00000
   0.00000    0.00000    0.00000    0.00000    0.00000   -0.00000    0.00000    0.00000
   0.00000   -0.00000    0.00000    0.00000    0.00000    0.00000    0.00008
 prteigrs : prtvol=0 or 1, do not print more k-points.

 Eight components of 2nd-order total energy (hartree) are
 1,2,3: 0th-order hamiltonian combined with 1st-order wavefunctions
     kin0=   2.31075195E+01 eigvalue=   3.10295236E+00  local=  -1.23956118E+01
 4,5,6: 1st-order hamiltonian combined with 1st and 0th-order wfs
     kin1=  -2.59417622E+01  Hartree=   0.00000000E+00     xc=   0.00000000E+00
 7,8,9: eventually, occupation + non-local contributions
    edocc=   5.40719248E+00     enl0=   2.93441580E+00   enl1=  -1.83711746E+01
 1-9 gives the relaxation energy (to be shifted if some occ is /=2.0)
   erelax=  -2.21564684E+01
  No Ewald or frozen-wf contrib.: the relaxation energy is the total one
 2DEtotal=   -0.2215646839E+02 Ha. Also 2DEtotal=   -0.602908166405E+03 eV
    (  non-var. 2DEtotal :   -2.2156468392E+01 Ha)

 CALCULATION OF EFFECTIVE MASSES
 NOTE : Additional infos (eff. mass eigenvalues, eigenvectors and, if degenerate, average mass) are available in stdout.

 K-point ( 0.000, 0.000, 0.000) | band =    22
 Effective mass tensor:
             -0.8781818294              0.0000000252             -0.0000000005
              0.0000000252             -0.8781818669             -0.0000000003
             -0.0000000005             -0.0000000003             -0.0818146505
 Effective mass tensor eigenvalues:
             -0.8781818795             -0.8781818167             -0.0818146505
 Angular average effective mass 1/(<1/m>)=  -0.2068939492
 Angular average effective mass for Frohlich model (<m**0.5>)**2=  -0.3106819385
 Effective masses along directions: (cart. coord. / red. coord. -> eff. mass)
    1:   1.000000  0.000000  0.000000 /   0.894427 -0.447214  0.000000 ->  -0.8781818294
    2:   0.000000  1.000000  0.000000 /   0.000000  1.000000  0.000000 ->  -0.8781818669
    3:   0.000000  0.000000  1.000000 /   0.000000  0.000000  1.000000 ->  -0.0818146505
    4:   0.577350  0.577350  0.577350 /   0.515998  0.188868  0.835509 ->  -0.2068939486
    5:   0.000000  0.707107  0.707107 /   0.000000  0.471625  0.881799 ->  -0.1496841733
    6:   0.707107  0.000000  0.707107 /   0.508208 -0.254104  0.822895 ->  -0.1496841729
    7:   0.707107  0.707107  0.000000 /   0.939071  0.343724  0.000000 ->  -0.8781818229

 K-point ( 0.500, 0.000, 0.000) | band =    23
 Effective mass tensor:
              1.2420586587              0.6341482055              0.0000002325
              0.6341482055              0.5098619244             -0.0000027858
              0.0000002325             -0.0000027858              1.5724868174
 Effective mass tensor eigenvalues:
              0.1437226519              1.5724868174              1.6081979313
 Angular average effective mass 1/(<1/m>)=   0.3651591952
 Angular average effective mass for Frohlich model (<m**0.5>)**2=   0.5534719057
 Effective masses along directions: (cart. coord. / red. coord. -> eff. mass)
    1:   1.000000  0.000000  0.000000 /   0.894427 -0.447214  0.000000 ->   0.4533275783
    2:   0.000000  1.000000  0.000000 /   0.000000  1.000000  0.000000 ->   0.1860898193
    3:   0.000000  0.000000  1.000000 /   0.000000  0.000000  1.000000 ->   1.5724868174
    4:   0.577350  0.577350  0.577350 /   0.515998  0.188868  0.835509 ->   1.0995705269
    5:   0.000000  0.707107  0.707107 /   0.000000  0.471625  0.881799 ->   0.3327950742
    6:   0.707107  0.000000  0.707107 /   0.508208 -0.254104  0.822895 ->   0.7037705374
    7:   0.707107  0.707107  0.000000 /   0.939071  0.343724  0.000000 ->   0.9558433376

 END OF EFFECTIVE MASSES SECTION

 ---- first-order wavefunction calculations are completed ----

 Total localisation tensor (bohr^2) in cartesian coordinates
  WARNING : still subject to testing - especially symmetries.
      direction              matrix element
   alpha     beta       real part   imaginary part
     1        1       5.2588024445    0.0000000000
     1        2      -2.3230178933    0.0000000000
     1        3       0.0000000000    0.0000000000
     2        1      -2.3230178933    0.0000000000
     2        2       4.0235850180    0.0000000000
     2        3       0.0000000000    0.0000000000
     3        1       0.0000000000    0.0000000000
     3        2       0.0000000000    0.0000000000
     3        3       2.8857644997    0.0000000000

 respfn : d/dk was computed, but no 2DTE, so no DDB output.

== END DATASET(S) ==============================================================

 -outvars: echo values of variables after computation  --------
            acell      1.0000000000E+00  1.0000000000E+00  1.0000000000E+00 Bohr
              amu      6.94100000E+00  9.01218200E+00  1.21753000E+02
             ecut      4.40000000E+01 Hartree
           etotal     -2.2156468392E+01
            fcart      0.0000000000E+00  0.0000000000E+00  0.0000000000E+00
                       0.0000000000E+00  0.0000000000E+00  0.0000000000E+00
                       0.0000000000E+00  0.0000000000E+00  0.0000000000E+00
                       0.0000000000E+00  0.0000000000E+00  0.0000000000E+00
                       0.0000000000E+00  0.0000000000E+00  0.0000000000E+00
                       0.0000000000E+00  0.0000000000E+00  0.0000000000E+00
-          fftalg         512
           irdden           1
           irdwfk           1
           istwfk        1    1
              ixc     -116133
              kpt      0.00000000E+00  0.00000000E+00  0.00000000E+00
                       5.00000000E-01  0.00000000E+00  0.00000000E+00
           kptopt           0
P           mkmem           2
P          mkqmem           2
P          mk1mem           2
            natom           6
            nband          31
           nbdbuf           4
            ngfft          48      48      80
             nkpt           2
            nstep        1000
             nsym          12
           ntypat           3
              occ      2.000000  2.000000  2.000000  2.000000  2.000000  2.000000
                       2.000000  2.000000  2.000000  2.000000  2.000000  2.000000
                       2.000000  2.000000  2.000000  2.000000  2.000000  2.000000
                       2.000000  2.000000  2.000000  2.000000  0.000000  0.000000
                       0.000000  0.000000  0.000000  0.000000  0.000000  0.000000
                       0.000000
        optdriver           1
            prtwf          -1
            rfdir           1       1       1
           rfelfd           2
            rprim      7.8116458435E+00  0.0000000000E+00  0.0000000000E+00
                      -3.9058229217E+00  6.7650837458E+00  0.0000000000E+00
                       0.0000000000E+00  0.0000000000E+00  1.2648701044E+01
          spgroup         186
           strten      0.0000000000E+00  0.0000000000E+00  0.0000000000E+00
                       0.0000000000E+00  0.0000000000E+00  0.0000000000E+00
           symrel      1  0  0   0  1  0   0  0  1       0  1  0   1  0  0   0  0  1
                       1  1  0  -1  0  0   0  0  1      -1  0  0   1  1  0   0  0  1
                       0  1  0  -1 -1  0   0  0  1      -1 -1  0   0  1  0   0  0  1
                      -1  0  0   0 -1  0   0  0  1       0 -1  0  -1  0  0   0  0  1
                      -1 -1  0   1  0  0   0  0  1       1  0  0  -1 -1  0   0  0  1
                       0 -1  0   1  1  0   0  0  1       1  1  0   0 -1  0   0  0  1
            tnons      0.0000000  0.0000000  0.0000000     0.0000000  0.0000000  0.5000000
                       0.0000000  0.0000000  0.5000000     0.0000000  0.0000000  0.0000000
                       0.0000000  0.0000000  0.0000000     0.0000000  0.0000000  0.5000000
                       0.0000000  0.0000000  0.5000000     0.0000000  0.0000000  0.0000000
                       0.0000000  0.0000000  0.0000000     0.0000000  0.0000000  0.5000000
                       0.0000000  0.0000000  0.5000000     0.0000000  0.0000000  0.0000000
           tolwfr      1.00000000E-20
            typat      1  1  2  2  3  3
           useylm           1
              wtk        0.50000    0.50000
           xangst      0.0000000000E+00  0.0000000000E+00  5.6580082913E+00
                       0.0000000000E+00  0.0000000000E+00  2.3113061360E+00
                       2.0668724710E+00  1.1933093775E+00  6.6552719864E+00
                       1.7639241746E-11  2.3866187550E+00  3.3085698310E+00
                       2.0668724710E+00  1.1933093775E+00  4.0855602836E+00
                       1.7639241746E-11  2.3866187550E+00  7.3885812825E-01
            xcart      0.0000000000E+00  0.0000000000E+00  1.0692086128E+01
                       0.0000000000E+00  0.0000000000E+00  4.3677356062E+00
                       3.9058229218E+00  2.2550279153E+00  1.2576641394E+01
                       3.3333336091E-11  4.5100558305E+00  6.2522908722E+00
                       3.9058229218E+00  2.2550279153E+00  7.7205900354E+00
                       3.3333336091E-11  4.5100558305E+00  1.3962395134E+00
             xred      0.0000000000E+00  0.0000000000E+00  8.4531100000E-01
                       0.0000000000E+00  0.0000000000E+00  3.4531100000E-01
                       6.6666666667E-01  3.3333333333E-01  9.9430300000E-01
                       3.3333333333E-01  6.6666666667E-01  4.9430300000E-01
                       6.6666666667E-01  3.3333333333E-01  6.1038600000E-01
                       3.3333333333E-01  6.6666666667E-01  1.1038600000E-01
            znucl        3.00000    4.00000   51.00000

- Timing analysis has been suppressed with timopt=0

 Suggested references for the acknowledgment of ABINIT usage.

 Calculation completed.
.Delivered  14 WARNINGs and   9 COMMENTs to log file.