.Version 9.5.1 of ABINIT

 ABINIT is a project of the Universite Catholique de Louvain,
 Corning Inc. and other collaborators, see ~abinit/doc/developers/contributors.txt .
 acknowledgments of the ABINIT effort.

.Starting date : Tue 11 May 2021.
- ( at 21h28 )

- input  file    -> /scratch/users/j/a/jabreu/flow_simple_8atoms/flow/w310/t1/run.abi
- output file    -> /scratch/users/j/a/jabreu/flow_simple_8atoms/flow/w310/t1/run.abo
- root for input  files -> /scratch/users/j/a/jabreu/flow_simple_8atoms/flow/w310/t1/indata/in
- root for output files -> /scratch/users/j/a/jabreu/flow_simple_8atoms/flow/w310/t1/outdata/out

 Symmetries : space group Cm c m (# 63); Bravais oC (1-face-center ortho.)
     intxc =       0      iscf =       7    lmnmax =      18     lnmax =       6
     mgfft =      72  mpssoang =       3    mqgrid =    3354     natom =       8
  nloc_mem =       1    nspden =       1   nspinor =       1    nsppol =       1
      nsym =       8    n1xccc =    2501    ntypat =       3    occopt =       1
   xclevel =       2
-    mband =          51        mffmem =           1         mkmem =           2
-   mkqmem =           2        mk1mem =           2           mpw =       19894
      nfft =      373248          nkpt =           2
  Rough estimation (10% accuracy) of disk space for files :

------------- Echo of variables that govern the present computation ------------
-
- outvars: echo of selected default values
-   iomode0 =  0 , fftalg0 =512 , wfoptalg0 =  0
-
- outvars: echo of global parameters not present in the input file
-  max_nthreads =    0
-
 -outvars: echo values of preprocessed input variables --------
            acell      1.0000000000E+00  1.0000000000E+00  1.0000000000E+00 Bohr
              amu      3.90983000E+01  1.07868200E+02  3.09737620E+01
             ecut      4.30000000E+01 Hartree
-          fftalg         512
           irdden           1
           irdwfk           1
           istwfk        0    1
              ixc     -116133
              kpt     -5.00000000E-01  5.00000000E-01  0.00000000E+00
                       0.00000000E+00  0.00000000E+00  0.00000000E+00
           kptopt           0
P           mkmem           2
P          mkqmem           2
P          mk1mem           2
            natom           8
            nband          51
           nbdbuf           4
            ngfft          72      72      72
             nkpt           2
            nstep        2000
             nsym           8
           ntypat           3
              occ      2.000000  2.000000  2.000000  2.000000  2.000000  2.000000
                       2.000000  2.000000  2.000000  2.000000  2.000000  2.000000
                       2.000000  2.000000  2.000000  2.000000  2.000000  2.000000
                       2.000000  2.000000  2.000000  2.000000  2.000000  2.000000
                       2.000000  2.000000  2.000000  2.000000  2.000000  2.000000
                       2.000000  2.000000  2.000000  2.000000  2.000000  2.000000
                       2.000000  2.000000  2.000000  2.000000  2.000000  2.000000
                       0.000000  0.000000  0.000000  0.000000  0.000000  0.000000
                       0.000000  0.000000  0.000000
        optdriver           1
            prtwf          -1
            rfdir           1       1       1
           rfelfd           2
            rprim      1.1706257549E+01  0.0000000000E+00  0.0000000000E+00
                      -2.8276578727E+00  1.1359613407E+01  0.0000000000E+00
                       0.0000000000E+00  0.0000000000E+00  1.1088683543E+01
          spgroup          63
           symrel      1  0  0   0  1  0   0  0  1      -1  0  0   0 -1  0   0  0 -1
                       0 -1  0  -1  0  0   0  0 -1       0  1  0   1  0  0   0  0  1
                      -1  0  0   0 -1  0   0  0  1       1  0  0   0  1  0   0  0 -1
                       0  1  0   1  0  0   0  0 -1       0 -1  0  -1  0  0   0  0  1
            tnons      0.0000000  0.0000000  0.0000000     0.0000000  0.0000000  0.0000000
                       0.0000000  0.0000000  0.0000000     0.0000000  0.0000000  0.0000000
                       0.0000000  0.0000000  0.5000000     0.0000000  0.0000000  0.5000000
                       0.0000000  0.0000000  0.5000000     0.0000000  0.0000000  0.5000000
           tolwfr      1.00000000E-20
            typat      1  1  1  1  2  2  3  3
           useylm           1
              wtk        0.50000    0.50000
           xangst      4.7941677871E-01  5.8258075081E+00  1.4669696511E+00
                       5.5374908827E+00  1.8724498107E+00  1.4669696511E+00
                       4.2189358143E+00  1.8544100539E-01  4.4009089532E+00
                      -8.3913828969E-01  4.1387987028E+00  4.4009089532E+00
                       2.3491762965E+00  3.0056242568E+00  0.0000000000E+00
                       2.3491762965E+00  3.0056242568E+00  2.9339393022E+00
                       3.5375729030E+00  4.5261034445E+00  1.4669696511E+00
                       1.1607796900E+00  1.4851450690E+00  4.4009089532E+00
            xcart      9.0596641527E-01  1.1009180693E+01  2.7721708858E+00
                       1.0464341232E+01  3.5384173399E+00  2.7721708858E+00
                       7.9726332612E+00  3.5043271400E-01  8.3165126574E+00
                      -1.5857415551E+00  7.8211960674E+00  8.3165126574E+00
                       4.4392998383E+00  5.6798067036E+00  0.0000000000E+00
                       4.4392998383E+00  5.6798067036E+00  5.5443417716E+00
                       6.6850439618E+00  8.5530959593E+00  2.7721708858E+00
                       2.1935557147E+00  2.8065174480E+00  8.3165126574E+00
             xred      3.1149100000E-01  9.6915100000E-01  2.5000000000E-01
                       9.6915100000E-01  3.1149100000E-01  2.5000000000E-01
                       6.8850900000E-01  3.0849000000E-02  7.5000000000E-01
                       3.0849000000E-02  6.8850900000E-01  7.5000000000E-01
                       5.0000000000E-01  5.0000000000E-01  0.0000000000E+00
                       5.0000000000E-01  5.0000000000E-01  5.0000000000E-01
                       7.5293900000E-01  7.5293900000E-01  2.5000000000E-01
                       2.4706100000E-01  2.4706100000E-01  7.5000000000E-01
            znucl       19.00000   47.00000   15.00000

 chkinp: Checking input parameters for consistency.

== DATASET  1 ==================================================================
-   mpi_nproc: 1, omp_nthreads: -1 (-1 if OMP is not activated)

--- !DatasetInfo
iteration_state: {dtset: 1, }
dimensions: {natom: 8, nkpt: 2, mband: 51, nsppol: 1, nspinor: 1, nspden: 1, mpw: 19894, }
cutoff_energies: {ecut:  43.0, pawecutdg:  -1.0, }
electrons: {nelect:   8.40000000E+01, charge:   0.00000000E+00, occopt:   1.00000000E+00, tsmear:   1.00000000E-02, }
meta: {optdriver: 1, rfelfd: 2, }
...

 Real(R)+Recip(G) space primitive vectors, cartesian coordinates (Bohr,Bohr^-1):
 R(1)= 11.7062575  0.0000000  0.0000000  G(1)=  0.0854244  0.0212640  0.0000000
 R(2)= -2.8276579 11.3596134  0.0000000  G(2)=  0.0000000  0.0880312  0.0000000
 R(3)=  0.0000000  0.0000000 11.0886835  G(3)=  0.0000000  0.0000000  0.0901820
 Unit cell volume ucvol=  1.4745572E+03 bohr^3
 Angles (23,13,12)=  9.00000000E+01  9.00000000E+01  1.03978098E+02 degrees

 getcut: wavevector=  0.0000  0.0000  0.0000  ngfft=  72  72  72
         ecut(hartree)=     43.000   => boxcut(ratio)=   2.08368

--- Pseudopotential description ------------------------------------------------
- pspini: atom type   1  psp file is /scratch/users/j/a/jabreu/pseudos/PBEsol/K.psp8
- pspatm: opening atomic psp file    /scratch/users/j/a/jabreu/pseudos/PBEsol/K.psp8
- K     ONCVPSP-3.3.0  r_core=   1.36296   1.46408   1.61068
- 19.00000   9.00000    180112                znucl, zion, pspdat
    8 -116133    2    4       400   0.00000   pspcod,pspxc,lmax,lloc,mmax,r2well
    3.99000000000000    5.00000000000000    0.00000000000000   rchrg,fchrg,qchrg
     nproj     2     2     2
     extension_switch     1
  pspatm : epsatm=    8.32487830
         --- l  ekb(1:nproj) -->
             0   10.921326    0.816676
             1    4.431000    0.560368
             2   -3.384038   -1.043186
 pspatm: atomic psp has been read  and splines computed

- pspini: atom type   2  psp file is /scratch/users/j/a/jabreu/pseudos/PBEsol/Ag.psp8
- pspatm: opening atomic psp file    /scratch/users/j/a/jabreu/pseudos/PBEsol/Ag.psp8
- Ag    ONCVPSP-3.3.0  r_core=   1.41384   1.46535   1.61207
- 47.00000  19.00000    180112                znucl, zion, pspdat
    8 -116133    2    4       600   0.00000   pspcod,pspxc,lmax,lloc,mmax,r2well
    5.99000000000000    7.00000000000000    0.00000000000000   rchrg,fchrg,qchrg
     nproj     2     2     2
     extension_switch     1
  pspatm : epsatm=   27.64581383
         --- l  ekb(1:nproj) -->
             0    9.559407   -0.398585
             1    3.418858   -0.136622
             2   -1.644397   -0.401551
 pspatm: atomic psp has been read  and splines computed

- pspini: atom type   3  psp file is /scratch/users/j/a/jabreu/pseudos/PBEsol/P.psp8
- pspatm: opening atomic psp file    /scratch/users/j/a/jabreu/pseudos/PBEsol/P.psp8
- P     ONCVPSP-3.3.0  r_core=   1.46089   1.55067   1.70594
- 15.00000   5.00000    180112                znucl, zion, pspdat
    8 -116133    2    4       600   0.00000   pspcod,pspxc,lmax,lloc,mmax,r2well
    5.99000000000000    5.00000000000000    0.00000000000000   rchrg,fchrg,qchrg
     nproj     2     2     2
     extension_switch     1
  pspatm : epsatm=    7.31221086
         --- l  ekb(1:nproj) -->
             0    6.742364    1.063650
             1    3.449117    0.910422
             2   -3.077645   -0.799176
 pspatm: atomic psp has been read  and splines computed

   8.67010726E+03                                ecore*ucvol(ha*bohr**3)

-inwffil : will read wavefunctions from disk file /scratch/users/j/a/jabreu/flow_simple_8atoms/flow/w310/t1/indata/in_WFK

 ==>  initialize data related to q vector <==

 The list of irreducible perturbations for this q vector is:
    1)    idir= 1    ipert=   9
    2)    idir= 2    ipert=   9
    3)    idir= 3    ipert=   9

 Perturbation wavevector (in red.coord.)   0.000000  0.000000  0.000000
 Perturbation : derivative vs k along direction   1

 dfpt_looppert : COMMENT -
  In a d/dk calculation, iscf is set to -3 automatically.
 The set of symmetries contains only one element for this perturbation.
 symkpt : not enough symmetry to change the number of k points.

[...]

 Initialisation of the first-order wave-functions :
  ireadwf=   0

--- !BeginCycle
iteration_state: {dtset: 1, }
solver: {iscf: 7, nstep: 2000, nline: 4, wfoptalg: 0, }
tolerances: {tolwfr: 1.00E-20, }
...

     iter   2DEtotal(Ha)        deltaE(Ha) residm    vres2
-ETOT  1  -26.047811069540     -2.605E+01 6.274E-02 0.000E+00
 ETOT  2  -26.123016210296     -7.521E-02 2.921E-03 0.000E+00
 ETOT  3  -26.124280886044     -1.265E-03 1.262E-04 0.000E+00
 ETOT  4  -26.124318047443     -3.716E-05 1.289E-05 0.000E+00
 ETOT  5  -26.124319415599     -1.368E-06 1.432E-06 0.000E+00
 ETOT  6  -26.124319471530     -5.593E-08 1.551E-07 0.000E+00
 ETOT  7  -26.124319473947     -2.416E-09 2.503E-08 0.000E+00
 ETOT  8  -26.124319474055     -1.082E-10 3.234E-09 0.000E+00
 ETOT  9  -26.124319474060     -4.995E-12 5.338E-10 0.000E+00
 ETOT 10  -26.124319474060     -2.167E-13 7.498E-11 0.000E+00
 ETOT 11  -26.124319474060     -6.750E-14 1.236E-11 0.000E+00
 ETOT 12  -26.124319474060      1.776E-14 1.762E-12 0.000E+00
 ETOT 13  -26.124319474060     -3.553E-15 2.903E-13 0.000E+00
 ETOT 14  -26.124319474060      1.776E-14 4.144E-14 0.000E+00
 ETOT 15  -26.124319474060      3.553E-15 6.838E-15 0.000E+00
 ETOT 16  -26.124319474060     -3.553E-15 9.760E-16 0.000E+00
 ETOT 17  -26.124319474060      3.553E-15 1.614E-16 0.000E+00
 ETOT 18  -26.124319474060     -7.105E-15 2.303E-17 0.000E+00
 ETOT 19  -26.124319474060     -3.553E-15 3.815E-18 0.000E+00
 ETOT 20  -26.124319474060      3.553E-15 5.444E-19 0.000E+00
 ETOT 21  -26.124319474060     -3.553E-15 9.032E-20 0.000E+00
 ETOT 22  -26.124319474060      7.105E-15 1.289E-20 0.000E+00
 ETOT 23  -26.124319474060     -1.066E-14 9.892E-21 0.000E+00

 At SCF step   23   max residual=  9.89E-21 < tolwfr=  1.00E-20 =>converged.

 ----iterations are completed or convergence reached----

 dfpt_looppert: DFPT cycle converged with prtwf=-1. Will skip output of the 1st-order WFK file.
 dfpt_looppert : ek2=    5.1397490530E+01
          f-sum rule ratio=    1.0497084922E+00
 prteigrs : about to open file /scratch/users/j/a/jabreu/flow_simple_8atoms/flow/w310/t1/tmpdata/tmp_1WF1_EIG
 Expectation of eigenvalue derivatives (hartree) for nkpt=   2  k points:
  (in case of degenerate eigenvalues, averaged derivative)
 kpt#   1, nband= 51, wtk=  0.50000, kpt= -0.5000  0.5000  0.0000 (reduced coord)
  -0.00000    0.00000   -0.00000   -0.00000    0.00000    0.00000   -0.00000    0.00000
   0.00000    0.00000    0.00000    0.00000   -0.00000    0.00000   -0.00000   -0.00000
   0.00000    0.00000    0.00000    0.00000    0.00000    0.00000    0.00000    0.00000
  -0.00000   -0.00000    0.00000   -0.00000    0.00000    0.00000   -0.00000   -0.00000
  -0.00000   -0.00000   -0.00000   -0.00000   -0.00000    0.00000   -0.00000   -0.00000
   0.00000   -0.00000    0.00000    0.00000   -0.00000   -0.00000    0.00000   -0.00000
  -0.00000   -0.00000    0.00000
 prteigrs : prtvol=0 or 1, do not print more k-points.

 Eight components of 2nd-order total energy (hartree) are
 1,2,3: 0th-order hamiltonian combined with 1st-order wavefunctions
     kin0=   3.97141494E+01 eigvalue=   1.89207775E+00  local=  -2.27862459E+01
 4,5,6: 1st-order hamiltonian combined with 1st and 0th-order wfs
     kin1=  -5.39523823E+01  Hartree=   0.00000000E+00     xc=   0.00000000E+00
 7,8,9: eventually, occupation + non-local contributions
    edocc=   5.84406412E+00     enl0=   1.46027404E+00   enl1=   1.70374334E+00
 1-9 gives the relaxation energy (to be shifted if some occ is /=2.0)
   erelax=  -2.61243195E+01
  No Ewald or frozen-wf contrib.: the relaxation energy is the total one
 2DEtotal=   -0.2612431947E+02 Ha. Also 2DEtotal=   -0.710878885290E+03 eV
    (  non-var. 2DEtotal :   -2.6124319474E+01 Ha)

 Perturbation wavevector (in red.coord.)   0.000000  0.000000  0.000000
 Perturbation : derivative vs k along direction   2
 The set of symmetries contains only one element for this perturbation.
 symkpt : not enough symmetry to change the number of k points.

[...]

 Perturbation wavevector (in red.coord.)   0.000000  0.000000  0.000000
 Perturbation : derivative vs k along direction   3
 The set of symmetries contains only one element for this perturbation.
 symkpt : not enough symmetry to change the number of k points.

-inwffil : will read wavefunctions from disk file /scratch/users/j/a/jabreu/flow_simple_8atoms/flow/w310/t1/indata/in_WFK

 Initialisation of the first-order wave-functions :
  ireadwf=   0

--- !BeginCycle
iteration_state: {dtset: 1, }
solver: {iscf: 7, nstep: 2000, nline: 4, wfoptalg: 0, }
tolerances: {tolwfr: 1.00E-20, }
...

     iter   2DEtotal(Ha)        deltaE(Ha) residm    vres2
-ETOT  1  -29.749405729144     -2.975E+01 5.483E-02 0.000E+00
 ETOT  2  -29.819291435887     -6.989E-02 1.271E-02 0.000E+00
 ETOT  3  -29.820309074005     -1.018E-03 1.947E-04 0.000E+00
 ETOT  4  -29.820337624365     -2.855E-05 4.847E-05 0.000E+00
 ETOT  5  -29.820338664594     -1.040E-06 9.760E-07 0.000E+00
 ETOT  6  -29.820338706979     -4.239E-08 3.152E-07 0.000E+00
 ETOT  7  -29.820338708818     -1.839E-09 6.829E-09 0.000E+00
 ETOT  8  -29.820338708901     -8.297E-11 2.223E-09 0.000E+00
 ETOT  9  -29.820338708905     -3.830E-12 1.129E-10 0.000E+00
 ETOT 10  -29.820338708905     -2.593E-13 1.639E-11 0.000E+00
 ETOT 11  -29.820338708906     -2.132E-14 1.922E-12 0.000E+00
 ETOT 12  -29.820338708905      2.132E-14 1.806E-13 0.000E+00
 ETOT 13  -29.820338708906     -2.487E-14 3.330E-14 0.000E+00
 ETOT 14  -29.820338708906      0.000E+00 3.118E-15 0.000E+00
 ETOT 15  -29.820338708906     -5.684E-14 5.831E-16 0.000E+00
 ETOT 16  -29.820338708906      0.000E+00 5.447E-17 0.000E+00
 ETOT 17  -29.820338708906     -7.105E-15 1.027E-17 0.000E+00
 ETOT 18  -29.820338708906     -7.105E-15 9.590E-19 0.000E+00
 ETOT 19  -29.820338708906      1.066E-14 1.816E-19 0.000E+00
 ETOT 20  -29.820338708906      0.000E+00 1.697E-20 0.000E+00
 ETOT 21  -29.820338708906      0.000E+00 9.942E-21 0.000E+00

 At SCF step   21   max residual=  9.94E-21 < tolwfr=  1.00E-20 =>converged.

 ----iterations are completed or convergence reached----

 dfpt_looppert: DFPT cycle converged with prtwf=-1. Will skip output of the 1st-order WFK file.
 dfpt_looppert : ek2=    5.3939763699E+01
          f-sum rule ratio=    1.1420319023E+00
 prteigrs : about to open file /scratch/users/j/a/jabreu/flow_simple_8atoms/flow/w310/t1/tmpdata/tmp_1WF1_EIG
 Expectation of eigenvalue derivatives (hartree) for nkpt=   2  k points:
  (in case of degenerate eigenvalues, averaged derivative)
 kpt#   1, nband= 51, wtk=  0.50000, kpt= -0.5000  0.5000  0.0000 (reduced coord)
  -0.00000   -0.00000    0.00000   -0.00000   -0.00000    0.00000   -0.00000    0.00000
  -0.00000   -0.00000   -0.00000   -0.00000    0.00000    0.00000   -0.00000   -0.00000
  -0.00000   -0.00000    0.00000    0.00000   -0.00000   -0.00000   -0.00000    0.00000
   0.00000    0.00000   -0.00000   -0.00000   -0.00000   -0.00000   -0.00000    0.00000
  -0.00000   -0.00000    0.00000   -0.00000   -0.00000   -0.00000   -0.00000    0.00000
  -0.00000   -0.00000    0.00000    0.00000   -0.00000    0.00000    0.00000    0.00000
   0.00000   -0.00000    0.00000
 prteigrs : prtvol=0 or 1, do not print more k-points.

 Eight components of 2nd-order total energy (hartree) are
 1,2,3: 0th-order hamiltonian combined with 1st-order wavefunctions
     kin0=   4.06766004E+01 eigvalue=   2.12803516E+00  local=  -2.31002301E+01
 4,5,6: 1st-order hamiltonian combined with 1st and 0th-order wfs
     kin1=  -6.16009309E+01  Hartree=   0.00000000E+00     xc=   0.00000000E+00
 7,8,9: eventually, occupation + non-local contributions
    edocc=   8.75454507E+00     enl0=   1.36138824E+00   enl1=   1.96025353E+00
 1-9 gives the relaxation energy (to be shifted if some occ is /=2.0)
   erelax=  -2.98203387E+01
  No Ewald or frozen-wf contrib.: the relaxation energy is the total one
 2DEtotal=   -0.2982033871E+02 Ha. Also 2DEtotal=   -0.811452683443E+03 eV
    (  non-var. 2DEtotal :   -2.9820338709E+01 Ha)

 CALCULATION OF EFFECTIVE MASSES
 NOTE : Additional infos (eff. mass eigenvalues, eigenvectors and, if degenerate, average mass) are available in stdout.

 K-point (-0.500, 0.500, 0.000) | band =    42
 Effective mass tensor:
             -1.7861407074             -0.3900343505             -0.0000000009
             -0.3900343505             -1.9803169833             -0.0000000036
             -0.0000000009             -0.0000000036             -1.8407962110
 Effective mass tensor eigenvalues:
             -2.2851652845             -1.8407962110             -1.4812924062
 Angular average effective mass 1/(<1/m>)=  -1.8116659116
 Angular average effective mass for Frohlich model (<m**0.5>)**2=  -1.8286779505
 Effective masses along directions: (cart. coord. / red. coord. -> eff. mass)
    1:   1.000000  0.000000  0.000000 /   0.972044 -0.234798  0.000000 ->  -1.7093212912
    2:   0.000000  1.000000  0.000000 /   0.000000  1.000000  0.000000 ->  -1.8951463167
    3:   0.000000  0.000000  1.000000 /   0.000000  0.000000  1.000000 ->  -1.8407962110
    4:   0.577350  0.577350  0.577350 /   0.641702  0.467696  0.607848 ->  -2.1045459032
    5:   0.000000  0.707107  0.707107 /   0.000000  0.715589  0.698522 ->  -1.8675759274
    6:   0.707107  0.000000  0.707107 /   0.715085 -0.172730  0.677361 ->  -1.7726242326
    7:   0.707107  0.707107  0.000000 /   0.808134  0.588998  0.000000 ->  -2.2669504841

 K-point ( 0.000, 0.000, 0.000) | band =    43
 Effective mass tensor:
              0.7188541619              0.1358320105             -0.0000029295
              0.1358320105              0.7864811840              0.0000023021
             -0.0000029295              0.0000023021              0.1597248741
 Effective mass tensor eigenvalues:
              0.1597248740              0.6126902155              0.8926451304
 Angular average effective mass 1/(<1/m>)=   0.3328459795
 Angular average effective mass for Frohlich model (<m**0.5>)**2=   0.3978850901
 Effective masses along directions: (cart. coord. / red. coord. -> eff. mass)
    1:   1.000000  0.000000  0.000000 /   0.972044 -0.234798  0.000000 ->   0.6953948147
    2:   0.000000  1.000000  0.000000 /   0.000000  1.000000  0.000000 ->   0.7608148721
    3:   0.000000  0.000000  1.000000 /   0.000000  0.000000  1.000000 ->   0.1597248741
    4:   0.577350  0.577350  0.577350 /   0.641702  0.467696  0.607848 ->   0.3522586262
    5:   0.000000  0.707107  0.707107 /   0.000000  0.715589  0.698522 ->   0.2640229585
    6:   0.707107  0.000000  0.707107 /   0.715085 -0.172730  0.677361 ->   0.2597788037
    7:   0.707107  0.707107  0.000000 /   0.808134  0.588998  0.000000 ->   0.8866461046

 END OF EFFECTIVE MASSES SECTION

 ---- first-order wavefunction calculations are completed ----

 Total localisation tensor (bohr^2) in cartesian coordinates
  WARNING : still subject to testing - especially symmetries.
      direction              matrix element
   alpha     beta       real part   imaginary part
     1        1       1.3348964248    0.0000000000
     1        2      -0.2956471858    0.0000000000
     1        3       0.0000000000    0.0000000000
     2        1      -0.2956471858    0.0000000000
     2        2       1.1877100719    0.0000000000
     2        3       0.0000000000    0.0000000000
     3        1       0.0000000000    0.0000000000
     3        2       0.0000000000    0.0000000000
     3        3       2.0015680574    0.0000000000

 respfn : d/dk was computed, but no 2DTE, so no DDB output.

== END DATASET(S) ==============================================================

 -outvars: echo values of variables after computation  --------
            acell      1.0000000000E+00  1.0000000000E+00  1.0000000000E+00 Bohr
              amu      3.90983000E+01  1.07868200E+02  3.09737620E+01
             ecut      4.30000000E+01 Hartree
           etotal     -2.9820338709E+01
            fcart      0.0000000000E+00  0.0000000000E+00  0.0000000000E+00
                       0.0000000000E+00  0.0000000000E+00  0.0000000000E+00
                       0.0000000000E+00  0.0000000000E+00  0.0000000000E+00
                       0.0000000000E+00  0.0000000000E+00  0.0000000000E+00
                       0.0000000000E+00  0.0000000000E+00  0.0000000000E+00
                       0.0000000000E+00  0.0000000000E+00  0.0000000000E+00
                       0.0000000000E+00  0.0000000000E+00  0.0000000000E+00
                       0.0000000000E+00  0.0000000000E+00  0.0000000000E+00
-          fftalg         512
           irdden           1
           irdwfk           1
           istwfk        0    1
              ixc     -116133
              kpt     -5.00000000E-01  5.00000000E-01  0.00000000E+00
                       0.00000000E+00  0.00000000E+00  0.00000000E+00
           kptopt           0
P           mkmem           2
P          mkqmem           2
P          mk1mem           2
            natom           8
            nband          51
           nbdbuf           4
            ngfft          72      72      72
             nkpt           2
            nstep        2000
             nsym           8
           ntypat           3
              occ      2.000000  2.000000  2.000000  2.000000  2.000000  2.000000
                       2.000000  2.000000  2.000000  2.000000  2.000000  2.000000
                       2.000000  2.000000  2.000000  2.000000  2.000000  2.000000
                       2.000000  2.000000  2.000000  2.000000  2.000000  2.000000
                       2.000000  2.000000  2.000000  2.000000  2.000000  2.000000
                       2.000000  2.000000  2.000000  2.000000  2.000000  2.000000
                       2.000000  2.000000  2.000000  2.000000  2.000000  2.000000
                       0.000000  0.000000  0.000000  0.000000  0.000000  0.000000
                       0.000000  0.000000  0.000000
        optdriver           1
            prtwf          -1
            rfdir           1       1       1
           rfelfd           2
            rprim      1.1706257549E+01  0.0000000000E+00  0.0000000000E+00
                      -2.8276578727E+00  1.1359613407E+01  0.0000000000E+00
                       0.0000000000E+00  0.0000000000E+00  1.1088683543E+01
          spgroup          63
           strten      0.0000000000E+00  0.0000000000E+00  0.0000000000E+00
                       0.0000000000E+00  0.0000000000E+00  0.0000000000E+00
           symrel      1  0  0   0  1  0   0  0  1      -1  0  0   0 -1  0   0  0 -1
                       0 -1  0  -1  0  0   0  0 -1       0  1  0   1  0  0   0  0  1
                      -1  0  0   0 -1  0   0  0  1       1  0  0   0  1  0   0  0 -1
                       0  1  0   1  0  0   0  0 -1       0 -1  0  -1  0  0   0  0  1
            tnons      0.0000000  0.0000000  0.0000000     0.0000000  0.0000000  0.0000000
                       0.0000000  0.0000000  0.0000000     0.0000000  0.0000000  0.0000000
                       0.0000000  0.0000000  0.5000000     0.0000000  0.0000000  0.5000000
                       0.0000000  0.0000000  0.5000000     0.0000000  0.0000000  0.5000000
           tolwfr      1.00000000E-20
            typat      1  1  1  1  2  2  3  3
           useylm           1
              wtk        0.50000    0.50000
           xangst      4.7941677871E-01  5.8258075081E+00  1.4669696511E+00
                       5.5374908827E+00  1.8724498107E+00  1.4669696511E+00
                       4.2189358143E+00  1.8544100539E-01  4.4009089532E+00
                      -8.3913828969E-01  4.1387987028E+00  4.4009089532E+00
                       2.3491762965E+00  3.0056242568E+00  0.0000000000E+00
                       2.3491762965E+00  3.0056242568E+00  2.9339393022E+00
                       3.5375729030E+00  4.5261034445E+00  1.4669696511E+00
                       1.1607796900E+00  1.4851450690E+00  4.4009089532E+00
            xcart      9.0596641527E-01  1.1009180693E+01  2.7721708858E+00
                       1.0464341232E+01  3.5384173399E+00  2.7721708858E+00
                       7.9726332612E+00  3.5043271400E-01  8.3165126574E+00
                      -1.5857415551E+00  7.8211960674E+00  8.3165126574E+00
                       4.4392998383E+00  5.6798067036E+00  0.0000000000E+00
                       4.4392998383E+00  5.6798067036E+00  5.5443417716E+00
                       6.6850439618E+00  8.5530959593E+00  2.7721708858E+00
                       2.1935557147E+00  2.8065174480E+00  8.3165126574E+00
             xred      3.1149100000E-01  9.6915100000E-01  2.5000000000E-01
                       9.6915100000E-01  3.1149100000E-01  2.5000000000E-01
                       6.8850900000E-01  3.0849000000E-02  7.5000000000E-01
                       3.0849000000E-02  6.8850900000E-01  7.5000000000E-01
                       5.0000000000E-01  5.0000000000E-01  0.0000000000E+00
                       5.0000000000E-01  5.0000000000E-01  5.0000000000E-01
                       7.5293900000E-01  7.5293900000E-01  2.5000000000E-01
                       2.4706100000E-01  2.4706100000E-01  7.5000000000E-01
            znucl       19.00000   47.00000   15.00000

- Timing analysis has been suppressed with timopt=0

 Suggested references for the acknowledgment of ABINIT usage.

 Calculation completed.
.Delivered  14 WARNINGs and   9 COMMENTs to log file.