.Version 9.5.1 of ABINIT

 ABINIT is a project of the Universite Catholique de Louvain,
 Corning Inc. and other collaborators, see ~abinit/doc/developers/contributors.txt .
 acknowledgments of the ABINIT effort.

.Starting date : Tue  4 May 2021.
- ( at 19h48 )

- input  file    -> /scratch/users/j/a/jabreu/flow_simple_6atoms/flow/w225/t1/run.abi
- output file    -> /scratch/users/j/a/jabreu/flow_simple_6atoms/flow/w225/t1/run.abo
- root for input  files -> /scratch/users/j/a/jabreu/flow_simple_6atoms/flow/w225/t1/indata/in
- root for output files -> /scratch/users/j/a/jabreu/flow_simple_6atoms/flow/w225/t1/outdata/out

 Symmetries : space group P6_3 m c (#186); Bravais hP (primitive hexag.)
     intxc =       0      iscf =       7    lmnmax =      18     lnmax =       6
     mgfft =      80  mpssoang =       3    mqgrid =    3914     natom =       6
  nloc_mem =       1    nspden =       1   nspinor =       1    nsppol =       1
      nsym =      12    n1xccc =    2501    ntypat =       3    occopt =       1
   xclevel =       2
-    mband =          47        mffmem =           1         mkmem =           2
-   mkqmem =           2        mk1mem =           2           mpw =       10363
      nfft =      200000          nkpt =           2
  Rough estimation (10% accuracy) of disk space for files :

------------- Echo of variables that govern the present computation ------------
-
- outvars: echo of selected default values
-   iomode0 =  0 , fftalg0 =512 , wfoptalg0 =  0
-
- outvars: echo of global parameters not present in the input file
-  max_nthreads =    0
-
 -outvars: echo values of preprocessed input variables --------
            acell      1.0000000000E+00  1.0000000000E+00  1.0000000000E+00 Bohr
              amu      6.94100000E+00  6.53900000E+01  1.21753000E+02
             ecut      4.20000000E+01 Hartree
-          fftalg         512
           irdden           1
           irdwfk           1
           istwfk        0    1
              ixc     -116133
              kpt      1.14942529E-02  1.14942529E-02  0.00000000E+00
                       0.00000000E+00  0.00000000E+00  0.00000000E+00
           kptopt           0
P           mkmem           2
P          mkqmem           2
P          mk1mem           2
            natom           6
            nband          47
           nbdbuf           4
            ngfft          50      50      80
             nkpt           2
            nstep        1000
             nsym          12
           ntypat           3
              occ      2.000000  2.000000  2.000000  2.000000  2.000000  2.000000
                       2.000000  2.000000  2.000000  2.000000  2.000000  2.000000
                       2.000000  2.000000  2.000000  2.000000  2.000000  2.000000
                       2.000000  2.000000  2.000000  2.000000  2.000000  2.000000
                       2.000000  2.000000  2.000000  2.000000  2.000000  2.000000
                       2.000000  2.000000  2.000000  2.000000  2.000000  2.000000
                       2.000000  2.000000  0.000000  0.000000  0.000000  0.000000
                       0.000000  0.000000  0.000000  0.000000  0.000000
        optdriver           1
            prtwf          -1
            rfdir           1       1       1
           rfelfd           2
            rprim      8.2999635840E+00  0.0000000000E+00  0.0000000000E+00
                      -4.1499817920E+00  7.1879793143E+00  0.0000000000E+00
                       0.0000000000E+00  0.0000000000E+00  1.3414197614E+01
          spgroup         186
           symrel      1  0  0   0  1  0   0  0  1       0  1  0   1  0  0   0  0  1
                       1  1  0  -1  0  0   0  0  1      -1  0  0   1  1  0   0  0  1
                       0  1  0  -1 -1  0   0  0  1      -1 -1  0   0  1  0   0  0  1
                      -1  0  0   0 -1  0   0  0  1       0 -1  0  -1  0  0   0  0  1
                      -1 -1  0   1  0  0   0  0  1       1  0  0  -1 -1  0   0  0  1
                       0 -1  0   1  1  0   0  0  1       1  1  0   0 -1  0   0  0  1
            tnons      0.0000000  0.0000000  0.0000000     0.0000000  0.0000000  0.5000000
                       0.0000000  0.0000000  0.5000000     0.0000000  0.0000000  0.0000000
                       0.0000000  0.0000000  0.0000000     0.0000000  0.0000000  0.5000000
                       0.0000000  0.0000000  0.5000000     0.0000000  0.0000000  0.0000000
                       0.0000000  0.0000000  0.0000000     0.0000000  0.0000000  0.5000000
                       0.0000000  0.0000000  0.5000000     0.0000000  0.0000000  0.0000000
           tolwfr      1.00000000E-20
            typat      1  1  2  2  3  3
           useylm           1
              wtk        0.50000    0.50000
           xangst      0.0000000000E+00  0.0000000000E+00  4.7915430494E+00
                       0.0000000000E+00  0.0000000000E+00  1.2422992250E+00
                       0.0000000000E+00  2.5358098860E+00  8.0802084908E-02
                       2.1960757804E+00  1.2679049430E+00  3.6300459094E+00
                       2.1960757804E+00  1.2679049430E+00  6.3503638387E+00
                       0.0000000000E+00  2.5358098860E+00  2.8011200142E+00
            xcart      0.0000000000E+00  0.0000000000E+00  9.0547041174E+00
                       0.0000000000E+00  0.0000000000E+00  2.3476053103E+00
                       0.0000000000E+00  4.7919862095E+00  1.5269381144E-01
                       4.1499817920E+00  2.3959931048E+00  6.8597926185E+00
                       4.1499817920E+00  2.3959931048E+00  1.2000448499E+01
                       0.0000000000E+00  4.7919862095E+00  5.2933496921E+00
             xred      0.0000000000E+00  0.0000000000E+00  6.7500900000E-01
                       0.0000000000E+00  0.0000000000E+00  1.7500900000E-01
                       3.3333333333E-01  6.6666666667E-01  1.1383000000E-02
                       6.6666666667E-01  3.3333333333E-01  5.1138300000E-01
                       6.6666666667E-01  3.3333333333E-01  8.9460800000E-01
                       3.3333333333E-01  6.6666666667E-01  3.9460800000E-01
            znucl        3.00000   30.00000   51.00000

 chkinp: Checking input parameters for consistency.

== DATASET  1 ==================================================================
-   mpi_nproc: 1, omp_nthreads: -1 (-1 if OMP is not activated)

--- !DatasetInfo
iteration_state: {dtset: 1, }
dimensions: {natom: 6, nkpt: 2, mband: 47, nsppol: 1, nspinor: 1, nspden: 1, mpw: 10363, }
cutoff_energies: {ecut:  42.0, pawecutdg:  -1.0, }
electrons: {nelect:   7.60000000E+01, charge:   0.00000000E+00, occopt:   1.00000000E+00, tsmear:   1.00000000E-02, }
meta: {optdriver: 1, rfelfd: 2, }
...

 Real(R)+Recip(G) space primitive vectors, cartesian coordinates (Bohr,Bohr^-1):
 R(1)=  8.2999636  0.0000000  0.0000000  G(1)=  0.1204825  0.0695606  0.0000000
 R(2)= -4.1499818  7.1879793  0.0000000  G(2)=  0.0000000  0.1391212  0.0000000
 R(3)=  0.0000000  0.0000000 13.4141976  G(3)=  0.0000000  0.0000000  0.0745479
 Unit cell volume ucvol=  8.0029058E+02 bohr^3
 Angles (23,13,12)=  9.00000000E+01  9.00000000E+01  1.20000000E+02 degrees

 getcut: wavevector=  0.0000  0.0000  0.0000  ngfft=  50  50  80
         ecut(hartree)=     42.000   => boxcut(ratio)=   2.04426

--- Pseudopotential description ------------------------------------------------
- pspini: atom type   1  psp file is /scratch/users/j/a/jabreu/pseudos/PBEsol/Li.psp8
- pspatm: opening atomic psp file    /scratch/users/j/a/jabreu/pseudos/PBEsol/Li.psp8
- Li    ONCVPSP-3.3.0  r_core=   1.40824   1.10935
-  3.00000   3.00000    180112                znucl, zion, pspdat
    8 -116133    1    4       400   0.00000   pspcod,pspxc,lmax,lloc,mmax,r2well
    3.99000000000000    0.00000000000000    0.00000000000000   rchrg,fchrg,qchrg
     nproj     2     2
     extension_switch     1
  pspatm : epsatm=    2.60859637
         --- l  ekb(1:nproj) -->
             0   -4.855856   -1.482423
             1   -2.171544   -0.427615
 pspatm: atomic psp has been read  and splines computed

- pspini: atom type   2  psp file is /scratch/users/j/a/jabreu/pseudos/PBEsol/Zn.psp8
- pspatm: opening atomic psp file    /scratch/users/j/a/jabreu/pseudos/PBEsol/Zn.psp8
- Zn    ONCVPSP-3.3.0  r_core=   1.35823   1.66358   1.85211
- 30.00000  20.00000    180112                znucl, zion, pspdat
    8 -116133    2    4       600   0.00000   pspcod,pspxc,lmax,lloc,mmax,r2well
    5.99000000000000    2.50000000000000    0.00000000000000   rchrg,fchrg,qchrg
     nproj     2     2     2
     extension_switch     1
  pspatm : epsatm=   26.57343589
         --- l  ekb(1:nproj) -->
             0    2.830835   -1.519107
             1   -4.626739   -1.324150
             2   -6.948510   -2.555500
 pspatm: atomic psp has been read  and splines computed

- pspini: atom type   3  psp file is /scratch/users/j/a/jabreu/pseudos/PBEsol/Sb.psp8
- pspatm: opening atomic psp file    /scratch/users/j/a/jabreu/pseudos/PBEsol/Sb.psp8
- Sb    ONCVPSP-3.3.0  r_core=   1.81962   2.12485   1.81962
- 51.00000  15.00000    180112                znucl, zion, pspdat
    8 -116133    2    4       600   0.00000   pspcod,pspxc,lmax,lloc,mmax,r2well
    5.99000000000000    5.00000000000000    0.00000000000000   rchrg,fchrg,qchrg
     nproj     2     2     2
     extension_switch     1
  pspatm : epsatm=   26.35641246
         --- l  ekb(1:nproj) -->
             0    9.727814    1.485032
             1    5.505335    0.704623
             2   -4.710637   -1.436443
 pspatm: atomic psp has been read  and splines computed

   8.44184360E+03                                ecore*ucvol(ha*bohr**3)

-inwffil : will read wavefunctions from disk file /scratch/users/j/a/jabreu/flow_simple_6atoms/flow/w225/t1/indata/in_WFK

 ==>  initialize data related to q vector <==

 The list of irreducible perturbations for this q vector is:
    1)    idir= 1    ipert=   7
    2)    idir= 2    ipert=   7
    3)    idir= 3    ipert=   7

 Perturbation wavevector (in red.coord.)   0.000000  0.000000  0.000000
 Perturbation : derivative vs k along direction   1

 dfpt_looppert : COMMENT -
  In a d/dk calculation, iscf is set to -3 automatically.
 The set of symmetries contains only one element for this perturbation.
 symkpt : not enough symmetry to change the number of k points.

[...]

 Initialisation of the first-order wave-functions :
  ireadwf=   0

--- !BeginCycle
iteration_state: {dtset: 1, }
solver: {iscf: 7, nstep: 1000, nline: 4, wfoptalg: 0, }
tolerances: {tolwfr: 1.00E-20, }
...

     iter   2DEtotal(Ha)        deltaE(Ha) residm    vres2
-ETOT  1  -134.40916289916     -1.344E+02 1.746E-01 0.000E+00
 ETOT  2  -134.51792466485     -1.088E-01 6.364E-04 0.000E+00
 ETOT  3  -134.51910055798     -1.176E-03 1.561E-05 0.000E+00
 ETOT  4  -134.51913201630     -3.146E-05 4.720E-07 0.000E+00
 ETOT  5  -134.51913308265     -1.066E-06 2.238E-08 0.000E+00
 ETOT  6  -134.51913312152     -3.887E-08 7.238E-10 0.000E+00
 ETOT  7  -134.51913312301     -1.490E-09 6.252E-11 0.000E+00
 ETOT  8  -134.51913312307     -5.869E-11 1.239E-12 0.000E+00
 ETOT  9  -134.51913312308     -2.331E-12 1.833E-13 0.000E+00
 ETOT 10  -134.51913312308     -2.842E-14 3.383E-15 0.000E+00
 ETOT 11  -134.51913312308     -1.137E-13 5.413E-16 0.000E+00
 ETOT 12  -134.51913312308      0.000E+00 1.018E-17 0.000E+00
 ETOT 13  -134.51913312308      0.000E+00 1.608E-18 0.000E+00
 ETOT 14  -134.51913312308      0.000E+00 3.072E-20 0.000E+00
 ETOT 15  -134.51913312308      2.842E-14 9.116E-21 0.000E+00

 At SCF step   15   max residual=  9.12E-21 < tolwfr=  1.00E-20 =>converged.

 ----iterations are completed or convergence reached----

 dfpt_looppert: DFPT cycle converged with prtwf=-1. Will skip output of the 1st-order WFK file.
 dfpt_looppert : ek2=    1.1614210349E+02
          f-sum rule ratio=    1.6866681453E+00
 prteigrs : about to open file /scratch/users/j/a/jabreu/flow_simple_6atoms/flow/w225/t1/tmpdata/tmp_1WF1_EIG
 Expectation of eigenvalue derivatives (hartree) for nkpt=   2  k points:
  (in case of degenerate eigenvalues, averaged derivative)
 kpt#   1, nband= 47, wtk=  0.50000, kpt=  0.0115  0.0115  0.0000 (reduced coord)
   0.00000    0.00000   -0.00000   -0.00000   -0.00000   -0.00000    0.00000   -0.00000
   0.00000    0.00000   -0.00001    0.00003   -0.00002    0.00003    0.00003    0.00003
  -0.00001    0.00001   -0.00001    0.00002    0.00946    0.00710    0.00016    0.00097
   0.00037    0.00109    0.00078   -0.00060   -0.00034   -0.00092    0.00020    0.00151
   0.00743   -0.17372   -0.04889   -0.17400   -0.00474    0.00827    0.14770    0.07721
   0.02730    0.04036    0.03973   -0.15654    0.05022   -0.12412   -0.07067
 prteigrs : prtvol=0 or 1, do not print more k-points.

 Eight components of 2nd-order total energy (hartree) are
 1,2,3: 0th-order hamiltonian combined with 1st-order wavefunctions
     kin0=   1.27876532E+02 eigvalue=   8.35286897E+00  local=  -5.83323480E+01
 4,5,6: 1st-order hamiltonian combined with 1st and 0th-order wfs
     kin1=  -1.95893186E+02  Hartree=   0.00000000E+00     xc=   0.00000000E+00
 7,8,9: eventually, occupation + non-local contributions
    edocc=   5.14543573E+01     enl0=   5.16772338E+00   enl1=  -7.31450800E+01
 1-9 gives the relaxation energy (to be shifted if some occ is /=2.0)
   erelax=  -1.34519133E+02
  No Ewald or frozen-wf contrib.: the relaxation energy is the total one
 2DEtotal=   -0.1345191331E+03 Ha. Also 2DEtotal=   -0.366045176793E+04 eV
    (  non-var. 2DEtotal :   -1.3451913312E+02 Ha)

 Perturbation wavevector (in red.coord.)   0.000000  0.000000  0.000000
 Perturbation : derivative vs k along direction   2
 The set of symmetries contains only one element for this perturbation.
 symkpt : not enough symmetry to change the number of k points.

[...]

 Perturbation wavevector (in red.coord.)   0.000000  0.000000  0.000000
 Perturbation : derivative vs k along direction   3
 The set of symmetries contains only one element for this perturbation.
 symkpt : not enough symmetry to change the number of k points.

-inwffil : will read wavefunctions from disk file /scratch/users/j/a/jabreu/flow_simple_6atoms/flow/w225/t1/indata/in_WFK

 Initialisation of the first-order wave-functions :
  ireadwf=   0

--- !BeginCycle
iteration_state: {dtset: 1, }
solver: {iscf: 7, nstep: 1000, nline: 4, wfoptalg: 0, }
tolerances: {tolwfr: 1.00E-20, }
...

     iter   2DEtotal(Ha)        deltaE(Ha) residm    vres2
-ETOT  1  -36.318294542185     -3.632E+01 9.205E-02 0.000E+00
 ETOT  2  -36.347065849079     -2.877E-02 3.397E-03 0.000E+00
 ETOT  3  -36.347308330442     -2.425E-04 4.522E-05 0.000E+00
 ETOT  4  -36.347313130421     -4.800E-06 2.747E-06 0.000E+00
 ETOT  5  -36.347313267061     -1.366E-07 7.157E-08 0.000E+00
 ETOT  6  -36.347313271669     -4.608E-09 7.456E-09 0.000E+00
 ETOT  7  -36.347313271839     -1.697E-10 2.452E-10 0.000E+00
 ETOT  8  -36.347313271846     -6.587E-12 2.629E-11 0.000E+00
 ETOT  9  -36.347313271846     -2.274E-13 8.592E-13 0.000E+00
 ETOT 10  -36.347313271846     -7.105E-15 9.332E-14 0.000E+00
 ETOT 11  -36.347313271846     -2.132E-14 3.038E-15 0.000E+00
 ETOT 12  -36.347313271846      7.105E-15 3.337E-16 0.000E+00
 ETOT 13  -36.347313271846      0.000E+00 1.089E-17 0.000E+00
 ETOT 14  -36.347313271846      1.421E-14 1.201E-18 0.000E+00
 ETOT 15  -36.347313271846     -7.105E-15 3.933E-20 0.000E+00
 ETOT 16  -36.347313271846      0.000E+00 9.854E-21 0.000E+00

 At SCF step   16   max residual=  9.85E-21 < tolwfr=  1.00E-20 =>converged.

 ----iterations are completed or convergence reached----

 dfpt_looppert: DFPT cycle converged with prtwf=-1. Will skip output of the 1st-order WFK file.
 dfpt_looppert : ek2=    3.3348317278E+01
          f-sum rule ratio=    1.5515495240E+00
 prteigrs : about to open file /scratch/users/j/a/jabreu/flow_simple_6atoms/flow/w225/t1/tmpdata/tmp_1WF1_EIG
 Expectation of eigenvalue derivatives (hartree) for nkpt=   2  k points:
  (in case of degenerate eigenvalues, averaged derivative)
 kpt#   1, nband= 47, wtk=  0.50000, kpt=  0.0115  0.0115  0.0000 (reduced coord)
   0.00000    0.00000   -0.00000   -0.00000    0.00000    0.00000    0.00000    0.00000
  -0.00000   -0.00000    0.00000   -0.00000   -0.00000    0.00000   -0.00000   -0.00000
   0.00000   -0.00000   -0.00000    0.00000   -0.00000    0.00000    0.00000   -0.00000
  -0.00000    0.00000   -0.00000    0.00000    0.00000    0.00000   -0.00000   -0.00000
   0.00000    0.00000    0.00000    0.00000    0.00000    0.00000   -0.00000   -0.00000
  -0.00000    0.00000   -0.00000    0.00000    0.00000    0.00049   -0.00002
 prteigrs : prtvol=0 or 1, do not print more k-points.

 Eight components of 2nd-order total energy (hartree) are
 1,2,3: 0th-order hamiltonian combined with 1st-order wavefunctions
     kin0=   3.87053924E+01 eigvalue=   2.02242358E+00  local=  -1.75808206E+01
 4,5,6: 1st-order hamiltonian combined with 1st and 0th-order wfs
     kin1=  -5.17415658E+01  Hartree=   0.00000000E+00     xc=   0.00000000E+00
 7,8,9: eventually, occupation + non-local contributions
    edocc=   1.19685351E+01     enl0=   1.23178277E+00   enl1=  -2.09530607E+01
 1-9 gives the relaxation energy (to be shifted if some occ is /=2.0)
   erelax=  -3.63473133E+01
  No Ewald or frozen-wf contrib.: the relaxation energy is the total one
 2DEtotal=   -0.3634731327E+02 Ha. Also 2DEtotal=   -0.989060693720E+03 eV
    (  non-var. 2DEtotal :   -3.6347313272E+01 Ha)

 CALCULATION OF EFFECTIVE MASSES
 NOTE : Additional infos (eff. mass eigenvalues, eigenvectors and, if degenerate, average mass) are available in stdout.

--- !WARNING
src_file: m_efmas.F90
src_line: 0
message: |

    Band(s)    38,
    are not band extrema, but saddle points;
    the transport equivalent formalism breaks down in these conditions.
    The associated tensor(s) will therefore not be printed.
...

 K-point ( 0.011, 0.011, 0.000) | band =    38
 Effective mass tensor:
     *** SADDLE POINT: TRANSPORT EQV. EFF. MASS NOT DEFINED (see WARNING above) ***
 Angular average effective mass 1/(<1/m>)=  -0.1451851727
 Angular average effective mass for Frohlich model (<m**0.5>)**2=  -0.4173521026
 Effective masses along directions: (cart. coord. / red. coord. -> eff. mass)
    1:   1.000000  0.000000  0.000000 /   0.894427 -0.447214  0.000000 ->  -6.1781142149
    2:   0.000000  1.000000  0.000000 /   0.000000  1.000000  0.000000 ->  -0.6312827216
    3:   0.000000  0.000000  1.000000 /   0.000000  0.000000  1.000000 ->  -0.0528615850
    4:   0.577350  0.577350  0.577350 /   0.516674  0.189116  0.835035 ->  -0.1297211174
    5:   0.000000  0.707107  0.707107 /   0.000000  0.472313  0.881431 ->  -0.0975543312
    6:   0.707107  0.000000  0.707107 /   0.508853 -0.254427  0.822396 ->  -0.1048266390
    7:   0.707107  0.707107  0.000000 /   0.939071  0.343724  0.000000 ->  -0.4751399245

 K-point ( 0.000, 0.000, 0.000) | band =    39
 Effective mass tensor:
              0.0838815404              0.0000001138             -0.0000014018
              0.0000001138              0.0838812666              0.0000010953
             -0.0000014018              0.0000010953              1.0854299839
 Effective mass tensor eigenvalues:
              0.0838812255              0.0838815815              1.0854299839
 Angular average effective mass 1/(<1/m>)=   0.1211412426
 Angular average effective mass for Frohlich model (<m**0.5>)**2=   0.1510651592
 Effective masses along directions: (cart. coord. / red. coord. -> eff. mass)
    1:   1.000000  0.000000  0.000000 /   0.894427 -0.447214  0.000000 ->   0.0838815404
    2:   0.000000  1.000000  0.000000 /   0.000000  1.000000  0.000000 ->   0.0838812666
    3:   0.000000  0.000000  1.000000 /   0.000000  0.000000  1.000000 ->   1.0854299838
    4:   0.577350  0.577350  0.577350 /   0.516674  0.189116  0.835035 ->   0.1211413678
    5:   0.000000  0.707107  0.707107 /   0.000000  0.472313  0.881431 ->   0.1557282758
    6:   0.707107  0.000000  0.707107 /   0.508853 -0.254427  0.822396 ->   0.1557280825
    7:   0.707107  0.707107  0.000000 /   0.939071  0.343724  0.000000 ->   0.0838815173

 END OF EFFECTIVE MASSES SECTION

 ---- first-order wavefunction calculations are completed ----

 Total localisation tensor (bohr^2) in cartesian coordinates
  WARNING : still subject to testing - especially symmetries.
      direction              matrix element
   alpha     beta       real part   imaginary part
     1        1      12.1820609151    0.0000000000
     1        2      -4.2199855588    0.0000000000
     1        3       0.0000000000    0.0000000000
     2        1      -4.2199855588    0.0000000000
     2        2       7.3092293951    0.0000000000
     2        3       0.0000000000    0.0000000000
     3        1       0.0000000000    0.0000000000
     3        2       0.0000000000    0.0000000000
     3        3       9.5283235953    0.0000000000

 respfn : d/dk was computed, but no 2DTE, so no DDB output.

== END DATASET(S) ==============================================================

 -outvars: echo values of variables after computation  --------
            acell      1.0000000000E+00  1.0000000000E+00  1.0000000000E+00 Bohr
              amu      6.94100000E+00  6.53900000E+01  1.21753000E+02
             ecut      4.20000000E+01 Hartree
           etotal     -3.6347313272E+01
            fcart      0.0000000000E+00  0.0000000000E+00  0.0000000000E+00
                       0.0000000000E+00  0.0000000000E+00  0.0000000000E+00
                       0.0000000000E+00  0.0000000000E+00  0.0000000000E+00
                       0.0000000000E+00  0.0000000000E+00  0.0000000000E+00
                       0.0000000000E+00  0.0000000000E+00  0.0000000000E+00
                       0.0000000000E+00  0.0000000000E+00  0.0000000000E+00
-          fftalg         512
           irdden           1
           irdwfk           1
           istwfk        0    1
              ixc     -116133
              kpt      1.14942529E-02  1.14942529E-02  0.00000000E+00
                       0.00000000E+00  0.00000000E+00  0.00000000E+00
           kptopt           0
P           mkmem           2
P          mkqmem           2
P          mk1mem           2
            natom           6
            nband          47
           nbdbuf           4
            ngfft          50      50      80
             nkpt           2
            nstep        1000
             nsym          12
           ntypat           3
              occ      2.000000  2.000000  2.000000  2.000000  2.000000  2.000000
                       2.000000  2.000000  2.000000  2.000000  2.000000  2.000000
                       2.000000  2.000000  2.000000  2.000000  2.000000  2.000000
                       2.000000  2.000000  2.000000  2.000000  2.000000  2.000000
                       2.000000  2.000000  2.000000  2.000000  2.000000  2.000000
                       2.000000  2.000000  2.000000  2.000000  2.000000  2.000000
                       2.000000  2.000000  0.000000  0.000000  0.000000  0.000000
                       0.000000  0.000000  0.000000  0.000000  0.000000
        optdriver           1
            prtwf          -1
            rfdir           1       1       1
           rfelfd           2
            rprim      8.2999635840E+00  0.0000000000E+00  0.0000000000E+00
                      -4.1499817920E+00  7.1879793143E+00  0.0000000000E+00
                       0.0000000000E+00  0.0000000000E+00  1.3414197614E+01
          spgroup         186
           strten      0.0000000000E+00  0.0000000000E+00  0.0000000000E+00
                       0.0000000000E+00  0.0000000000E+00  0.0000000000E+00
           symrel      1  0  0   0  1  0   0  0  1       0  1  0   1  0  0   0  0  1
                       1  1  0  -1  0  0   0  0  1      -1  0  0   1  1  0   0  0  1
                       0  1  0  -1 -1  0   0  0  1      -1 -1  0   0  1  0   0  0  1
                      -1  0  0   0 -1  0   0  0  1       0 -1  0  -1  0  0   0  0  1
                      -1 -1  0   1  0  0   0  0  1       1  0  0  -1 -1  0   0  0  1
                       0 -1  0   1  1  0   0  0  1       1  1  0   0 -1  0   0  0  1
            tnons      0.0000000  0.0000000  0.0000000     0.0000000  0.0000000  0.5000000
                       0.0000000  0.0000000  0.5000000     0.0000000  0.0000000  0.0000000
                       0.0000000  0.0000000  0.0000000     0.0000000  0.0000000  0.5000000
                       0.0000000  0.0000000  0.5000000     0.0000000  0.0000000  0.0000000
                       0.0000000  0.0000000  0.0000000     0.0000000  0.0000000  0.5000000
                       0.0000000  0.0000000  0.5000000     0.0000000  0.0000000  0.0000000
           tolwfr      1.00000000E-20
            typat      1  1  2  2  3  3
           useylm           1
              wtk        0.50000    0.50000
           xangst      0.0000000000E+00  0.0000000000E+00  4.7915430494E+00
                       0.0000000000E+00  0.0000000000E+00  1.2422992250E+00
                       0.0000000000E+00  2.5358098860E+00  8.0802084908E-02
                       2.1960757804E+00  1.2679049430E+00  3.6300459094E+00
                       2.1960757804E+00  1.2679049430E+00  6.3503638387E+00
                       0.0000000000E+00  2.5358098860E+00  2.8011200142E+00
            xcart      0.0000000000E+00  0.0000000000E+00  9.0547041174E+00
                       0.0000000000E+00  0.0000000000E+00  2.3476053103E+00
                       0.0000000000E+00  4.7919862095E+00  1.5269381144E-01
                       4.1499817920E+00  2.3959931048E+00  6.8597926185E+00
                       4.1499817920E+00  2.3959931048E+00  1.2000448499E+01
                       0.0000000000E+00  4.7919862095E+00  5.2933496921E+00
             xred      0.0000000000E+00  0.0000000000E+00  6.7500900000E-01
                       0.0000000000E+00  0.0000000000E+00  1.7500900000E-01
                       3.3333333333E-01  6.6666666667E-01  1.1383000000E-02
                       6.6666666667E-01  3.3333333333E-01  5.1138300000E-01
                       6.6666666667E-01  3.3333333333E-01  8.9460800000E-01
                       3.3333333333E-01  6.6666666667E-01  3.9460800000E-01
            znucl        3.00000   30.00000   51.00000

- Timing analysis has been suppressed with timopt=0

 Suggested references for the acknowledgment of ABINIT usage.

 Calculation completed.
.Delivered  15 WARNINGs and   9 COMMENTs to log file.