.Version 9.5.1 of ABINIT

 ABINIT is a project of the Universite Catholique de Louvain,
 Corning Inc. and other collaborators, see ~abinit/doc/developers/contributors.txt .
 acknowledgments of the ABINIT effort.

.Starting date : Wed 19 May 2021.
- ( at 03h14 )

- input  file    -> /scratch/users/j/a/jabreu/flow_simple_8atoms/flow/w477/t1/run.abi
- output file    -> /scratch/users/j/a/jabreu/flow_simple_8atoms/flow/w477/t1/run.abo
- root for input  files -> /scratch/users/j/a/jabreu/flow_simple_8atoms/flow/w477/t1/indata/in
- root for output files -> /scratch/users/j/a/jabreu/flow_simple_8atoms/flow/w477/t1/outdata/out

 Symmetries : space group P-4 3 m (#215); Bravais cP (primitive cubic)
     intxc =       0      iscf =       7    lmnmax =      32     lnmax =       8
     mgfft =      72  mpssoang =       4    mqgrid =    3382     natom =       8
  nloc_mem =       1    nspden =       1   nspinor =       1    nsppol =       1
      nsym =      24    n1xccc =    2501    ntypat =       3    occopt =       1
   xclevel =       2
-    mband =          76        mffmem =           1         mkmem =           2
-   mkqmem =           2        mk1mem =           2           mpw =       20336
      nfft =      373248          nkpt =           2
  Rough estimation (10% accuracy) of disk space for files :

------------- Echo of variables that govern the present computation ------------
-
- outvars: echo of selected default values
-   iomode0 =  0 , fftalg0 =512 , wfoptalg0 =  0
-
- outvars: echo of global parameters not present in the input file
-  max_nthreads =    0
-
 -outvars: echo values of preprocessed input variables --------
            acell      1.0000000000E+00  1.0000000000E+00  1.0000000000E+00 Bohr
              amu      1.80947900E+02  6.35460000E+01  1.27600000E+02
             ecut      4.60000000E+01 Hartree
-          fftalg         512
           irdden           1
           irdwfk           1
           istwfk        1    1
              ixc     -116133
              kpt      5.00000000E-01  5.00000000E-01  5.00000000E-01
                       0.00000000E+00  5.00000000E-01  0.00000000E+00
           kptopt           0
P           mkmem           2
P          mkqmem           2
P          mk1mem           2
            natom           8
            nband          76
           nbdbuf           4
            ngfft          72      72      72
             nkpt           2
            nstep        2000
             nsym          24
           ntypat           3
              occ      2.000000  2.000000  2.000000  2.000000  2.000000  2.000000
                       2.000000  2.000000  2.000000  2.000000  2.000000  2.000000
                       2.000000  2.000000  2.000000  2.000000  2.000000  2.000000
                       2.000000  2.000000  2.000000  2.000000  2.000000  2.000000
                       2.000000  2.000000  2.000000  2.000000  2.000000  2.000000
                       2.000000  2.000000  2.000000  2.000000  2.000000  2.000000
                       2.000000  2.000000  2.000000  2.000000  2.000000  2.000000
                       2.000000  2.000000  2.000000  2.000000  2.000000  2.000000
                       2.000000  2.000000  2.000000  2.000000  2.000000  2.000000
                       2.000000  2.000000  2.000000  2.000000  2.000000  2.000000
                       2.000000  2.000000  2.000000  2.000000  2.000000  2.000000
                       2.000000  0.000000  0.000000  0.000000  0.000000  0.000000
                       0.000000  0.000000  0.000000  0.000000
        optdriver           1
            prtwf          -1
            rfdir           1       1       1
           rfelfd           2
            rprim      1.1074469364E+01  0.0000000000E+00  0.0000000000E+00
                       0.0000000000E+00  1.1074469364E+01  0.0000000000E+00
                       0.0000000000E+00  0.0000000000E+00  1.1074469364E+01
          spgroup         215
           symrel      1  0  0   0  1  0   0  0  1      -1  0  0   0  1  0   0  0 -1
                      -1  0  0   0 -1  0   0  0  1       1  0  0   0 -1  0   0  0 -1
                       0  1  0   1  0  0   0  0  1       0 -1  0   1  0  0   0  0 -1
                       0 -1  0  -1  0  0   0  0  1       0  1  0  -1  0  0   0  0 -1
                       0  0  1   1  0  0   0  1  0       0  0 -1   1  0  0   0 -1  0
                       0  0 -1  -1  0  0   0  1  0       0  0  1  -1  0  0   0 -1  0
                       1  0  0   0  0  1   0  1  0      -1  0  0   0  0  1   0 -1  0
                      -1  0  0   0  0 -1   0  1  0       1  0  0   0  0 -1   0 -1  0
                       0  1  0   0  0  1   1  0  0       0 -1  0   0  0  1  -1  0  0
                       0 -1  0   0  0 -1   1  0  0       0  1  0   0  0 -1  -1  0  0
                       0  0  1   0  1  0   1  0  0       0  0 -1   0  1  0  -1  0  0
                       0  0 -1   0 -1  0   1  0  0       0  0  1   0 -1  0  -1  0  0
           tolwfr      1.00000000E-20
            typat      1  2  2  2  3  3  3  3
           useylm           1
              wtk        0.50000    0.50000
           xangst      0.0000000000E+00  0.0000000000E+00  0.0000000000E+00
                       0.0000000000E+00  2.9301783922E+00  0.0000000000E+00
                       2.9301783922E+00  0.0000000000E+00  0.0000000000E+00
                       0.0000000000E+00  0.0000000000E+00  2.9301783922E+00
                       1.5311002549E+00  4.3292565295E+00  4.3292565295E+00
                       1.5311002549E+00  1.5311002549E+00  1.5311002549E+00
                       4.3292565295E+00  1.5311002549E+00  4.3292565295E+00
                       4.3292565295E+00  4.3292565295E+00  1.5311002549E+00
            xcart      0.0000000000E+00  0.0000000000E+00  0.0000000000E+00
                       0.0000000000E+00  5.5372346817E+00  0.0000000000E+00
                       5.5372346817E+00  0.0000000000E+00  0.0000000000E+00
                       0.0000000000E+00  0.0000000000E+00  5.5372346817E+00
                       2.8933601638E+00  8.1811091997E+00  8.1811091997E+00
                       2.8933601638E+00  2.8933601638E+00  2.8933601638E+00
                       8.1811091997E+00  2.8933601638E+00  8.1811091997E+00
                       8.1811091997E+00  8.1811091997E+00  2.8933601638E+00
             xred      0.0000000000E+00  0.0000000000E+00  0.0000000000E+00
                       0.0000000000E+00  5.0000000000E-01  0.0000000000E+00
                       5.0000000000E-01  0.0000000000E+00  0.0000000000E+00
                       0.0000000000E+00  0.0000000000E+00  5.0000000000E-01
                       2.6126400000E-01  7.3873600000E-01  7.3873600000E-01
                       2.6126400000E-01  2.6126400000E-01  2.6126400000E-01
                       7.3873600000E-01  2.6126400000E-01  7.3873600000E-01
                       7.3873600000E-01  7.3873600000E-01  2.6126400000E-01
            znucl       73.00000   29.00000   52.00000

 chkinp: Checking input parameters for consistency.

== DATASET  1 ==================================================================
-   mpi_nproc: 1, omp_nthreads: -1 (-1 if OMP is not activated)

--- !DatasetInfo
iteration_state: {dtset: 1, }
dimensions: {natom: 8, nkpt: 2, mband: 76, nsppol: 1, nspinor: 1, nspden: 1, mpw: 20336, }
cutoff_energies: {ecut:  46.0, pawecutdg:  -1.0, }
electrons: {nelect:   1.34000000E+02, charge:   0.00000000E+00, occopt:   1.00000000E+00, tsmear:   1.00000000E-02, }
meta: {optdriver: 1, rfelfd: 2, }
...

 Real(R)+Recip(G) space primitive vectors, cartesian coordinates (Bohr,Bohr^-1):
 R(1)= 11.0744694  0.0000000  0.0000000  G(1)=  0.0902978  0.0000000  0.0000000
 R(2)=  0.0000000 11.0744694  0.0000000  G(2)=  0.0000000  0.0902978  0.0000000
 R(3)=  0.0000000  0.0000000 11.0744694  G(3)=  0.0000000  0.0000000  0.0902978
 Unit cell volume ucvol=  1.3582158E+03 bohr^3
 Angles (23,13,12)=  9.00000000E+01  9.00000000E+01  9.00000000E+01 degrees

 getcut: wavevector=  0.0000  0.0000  0.0000  ngfft=  72  72  72
         ecut(hartree)=     46.000   => boxcut(ratio)=   2.12944

--- Pseudopotential description ------------------------------------------------
- pspini: atom type   1  psp file is /scratch/users/j/a/jabreu/pseudos/PBEsol/Ta.psp8
- pspatm: opening atomic psp file    /scratch/users/j/a/jabreu/pseudos/PBEsol/Ta.psp8
- Ta    ONCVPSP-3.3.0  r_core=   1.71294   1.71294   1.71294   2.25368
- 73.00000  13.00000    180112                znucl, zion, pspdat
    8 -116133    3    4       600   0.00000   pspcod,pspxc,lmax,lloc,mmax,r2well
    5.99000000000000    5.00000000000000    0.00000000000000   rchrg,fchrg,qchrg
     nproj     2     2     2     2
     extension_switch     1
  pspatm : epsatm=   21.70781236
         --- l  ekb(1:nproj) -->
             0   11.480337    1.447149
             1    5.630373    0.817168
             2    1.844704    0.232364
             3    4.923559    0.251242
 pspatm: atomic psp has been read  and splines computed

- pspini: atom type   2  psp file is /scratch/users/j/a/jabreu/pseudos/PBEsol/Cu.psp8
- pspatm: opening atomic psp file    /scratch/users/j/a/jabreu/pseudos/PBEsol/Cu.psp8
- Cu    ONCVPSP-3.3.0  r_core=   1.26204   1.45626   1.76249
- 29.00000  19.00000    180112                znucl, zion, pspdat
    8 -116133    2    4       600   0.00000   pspcod,pspxc,lmax,lloc,mmax,r2well
    5.99000000000000    3.50000000000000    0.00000000000000   rchrg,fchrg,qchrg
     nproj     2     2     2
     extension_switch     1
  pspatm : epsatm=   21.63488701
         --- l  ekb(1:nproj) -->
             0    5.008230   -0.401634
             1   -3.496700   -0.765945
             2   -6.895851   -2.521180
 pspatm: atomic psp has been read  and splines computed

- pspini: atom type   3  psp file is /scratch/users/j/a/jabreu/pseudos/PBEsol/Te.psp8
- pspatm: opening atomic psp file    /scratch/users/j/a/jabreu/pseudos/PBEsol/Te.psp8
- Te    ONCVPSP-3.3.0  r_core=   2.26547   1.91704   1.80604
- 52.00000  16.00000    180112                znucl, zion, pspdat
    8 -116133    2    4       600   0.00000   pspcod,pspxc,lmax,lloc,mmax,r2well
    5.99000000000000    5.00000000000000    0.00000000000000   rchrg,fchrg,qchrg
     nproj     2     2     2
     extension_switch     1
  pspatm : epsatm=   36.82679836
         --- l  ekb(1:nproj) -->
             0    6.345999    0.785432
             1    5.709019    1.070069
             2   -6.035173   -1.870937
 pspatm: atomic psp has been read  and splines computed

   3.13452354E+04                                ecore*ucvol(ha*bohr**3)

-inwffil : will read wavefunctions from disk file /scratch/users/j/a/jabreu/flow_simple_8atoms/flow/w477/t1/indata/in_WFK

 ==>  initialize data related to q vector <==

 The list of irreducible perturbations for this q vector is:
    1)    idir= 1    ipert=   9
    2)    idir= 2    ipert=   9
    3)    idir= 3    ipert=   9

 Perturbation wavevector (in red.coord.)   0.000000  0.000000  0.000000
 Perturbation : derivative vs k along direction   1

 dfpt_looppert : COMMENT -
  In a d/dk calculation, iscf is set to -3 automatically.
[...]
 1-9 gives the relaxation energy (to be shifted if some occ is /=2.0)
   erelax=  -7.68431610E+01
  No Ewald or frozen-wf contrib.: the relaxation energy is the total one
 2DEtotal=   -0.7684316096E+02 Ha. Also 2DEtotal=   -0.209100874992E+04 eV
    (  non-var. 2DEtotal :   -7.6843160960E+01 Ha)

 Perturbation wavevector (in red.coord.)   0.000000  0.000000  0.000000
 Perturbation : derivative vs k along direction   2
 The set of symmetries contains only one element for this perturbation.
 symkpt : not enough symmetry to change the number of k points.

[...]

 Perturbation wavevector (in red.coord.)   0.000000  0.000000  0.000000
 Perturbation : derivative vs k along direction   3
 The set of symmetries contains only one element for this perturbation.
 symkpt : not enough symmetry to change the number of k points.

-inwffil : will read wavefunctions from disk file /scratch/users/j/a/jabreu/flow_simple_8atoms/flow/w477/t1/indata/in_WFK

 Initialisation of the first-order wave-functions :
  ireadwf=   0

--- !BeginCycle
iteration_state: {dtset: 1, }
solver: {iscf: 7, nstep: 2000, nline: 4, wfoptalg: 0, }
tolerances: {tolwfr: 1.00E-20, }
...

     iter   2DEtotal(Ha)        deltaE(Ha) residm    vres2
-ETOT  1  -76.645852044469     -7.665E+01 1.258E-01 0.000E+00
 ETOT  2  -76.839195331701     -1.933E-01 2.858E-03 0.000E+00
 ETOT  3  -76.843023449499     -3.828E-03 1.734E-04 0.000E+00
 ETOT  4  -76.843154923525     -1.315E-04 9.825E-06 0.000E+00
 ETOT  5  -76.843160594518     -5.671E-06 1.073E-06 0.000E+00
 ETOT  6  -76.843160896266     -3.017E-07 7.647E-08 0.000E+00
 ETOT  7  -76.843160915506     -1.924E-08 9.806E-09 0.000E+00
 ETOT  8  -76.843160916895     -1.389E-09 7.370E-10 0.000E+00
 ETOT  9  -76.843160917004     -1.096E-10 9.854E-11 0.000E+00
 ETOT 10  -76.843160917013     -9.067E-12 7.513E-12 0.000E+00
 ETOT 11  -76.843160917014     -7.674E-13 1.023E-12 0.000E+00
 ETOT 12  -76.843160917014     -5.684E-14 7.877E-14 0.000E+00
 ETOT 13  -76.843160917014      2.842E-14 1.083E-14 0.000E+00
 ETOT 14  -76.843160917014      1.421E-14 8.403E-16 0.000E+00
 ETOT 15  -76.843160917014     -5.684E-14 1.161E-16 0.000E+00
 ETOT 16  -76.843160917014      0.000E+00 9.063E-18 0.000E+00
 ETOT 17  -76.843160917014      1.421E-14 1.255E-18 0.000E+00
 ETOT 18  -76.843160917014      1.421E-14 9.848E-20 0.000E+00
 ETOT 19  -76.843160917014      0.000E+00 1.366E-20 0.000E+00
 ETOT 20  -76.843160917014     -1.421E-14 9.932E-21 0.000E+00

 At SCF step   20   max residual=  9.93E-21 < tolwfr=  1.00E-20 =>converged.

 ----iterations are completed or convergence reached----

 dfpt_looppert: DFPT cycle converged with prtwf=-1. Will skip output of the 1st-order WFK file.
 dfpt_looppert : ek2=    8.6267791230E+01
          f-sum rule ratio=    1.0600003190E+00
 prteigrs : about to open file /scratch/users/j/a/jabreu/flow_simple_8atoms/flow/w477/t1/tmpdata/tmp_1WF1_EIG
 Expectation of eigenvalue derivatives (hartree) for nkpt=   2  k points:
  (in case of degenerate eigenvalues, averaged derivative)
 kpt#   1, nband= 76, wtk=  0.50000, kpt=  0.5000  0.5000  0.5000 (reduced coord)
  -0.00000   -0.00000   -0.00000    0.00000    0.00000    0.00000    0.00000    0.00000
   0.00000    0.00000    0.00000    0.00000    0.00000   -0.00000   -0.00000   -0.00000
  -0.00000   -0.00000   -0.00000   -0.00000   -0.00000   -0.00000    0.00000    0.00000
   0.00000   -0.00000   -0.00000    0.00000    0.00000    0.00000    0.00000    0.00000
   0.00000    0.00000    0.00000    0.00000    0.00000    0.00000    0.00000    0.00000
  -0.00000   -0.00000   -0.00000    0.00000    0.00000    0.00000    0.00000    0.00000
   0.00000   -0.00000   -0.00000   -0.00000   -0.00000   -0.00000   -0.00000   -0.00000
  -0.00000   -0.00000    0.00000   -0.00000   -0.00000   -0.00000   -0.00000   -0.00000
  -0.00000   -0.00000   -0.00000   -0.00000   -0.00000    0.00000    0.00000    0.00000
  -0.00000   -0.00000   -0.00000   -0.00000
 prteigrs : prtvol=0 or 1, do not print more k-points.

 Eight components of 2nd-order total energy (hartree) are
 1,2,3: 0th-order hamiltonian combined with 1st-order wavefunctions
     kin0=   9.88666043E+01 eigvalue=   8.19392292E+00  local=  -4.61613773E+01
 4,5,6: 1st-order hamiltonian combined with 1st and 0th-order wfs
     kin1=  -9.14438862E+01  Hartree=   0.00000000E+00     xc=   0.00000000E+00
 7,8,9: eventually, occupation + non-local contributions
    edocc=   1.12179410E+01     enl0=   4.72607001E+00   enl1=  -6.22424356E+01
 1-9 gives the relaxation energy (to be shifted if some occ is /=2.0)
   erelax=  -7.68431609E+01
  No Ewald or frozen-wf contrib.: the relaxation energy is the total one
 2DEtotal=   -0.7684316092E+02 Ha. Also 2DEtotal=   -0.209100874873E+04 eV
    (  non-var. 2DEtotal :   -7.6843160917E+01 Ha)

 CALCULATION OF EFFECTIVE MASSES
 NOTE : Additional infos (eff. mass eigenvalues, eigenvectors and, if degenerate, average mass) are available in stdout.

 COMMENTS:
 - At k-point ( 0.500, 0.500, 0.500), bands    65 through    67
   are DEGENERATE (effective mass tensor is therefore not defined).
   See Section IIIB Eqs. (67)-(70) and Appendix E of PRB 93 205147 (2016).
 - Angular average effective mass for Frohlich model is to be averaged over degenerate bands. See later.
 - Associated theta integrals calculated with ntheta=   1000 points.

 K-point ( 0.500, 0.500, 0.500) | band =    65
 Transport equivalent effective mass tensor:
             -0.2886886328              0.0000000002             -0.0000000001
              0.0000000002             -0.2886886982              0.0000000001
             -0.0000000001              0.0000000001             -0.2886883805
 Transport equivalent effective mass tensor eigenvalues:
             -0.2886886982             -0.2886886328             -0.2886883805
 Angular average effective mass 1/(<1/m>)=  -0.2850958975
 Angular average effective mass for Frohlich model (<m**0.5>)**2=  -0.2852438277
 Effective masses along directions: (cart. coord. / red. coord. -> eff. mass)
    1:   1.000000  0.000000  0.000000 /   1.000000  0.000000  0.000000 ->  -0.2781709450
    2:   0.000000  1.000000  0.000000 /   0.000000  1.000000  0.000000 ->  -0.2781709442
    3:   0.000000  0.000000  1.000000 /   0.000000  0.000000  1.000000 ->  -0.2781709447
    4:   0.577350  0.577350  0.577350 /   0.577350  0.577350  0.577350 ->  -0.3112950214
    5:   0.000000  0.707107  0.707107 /   0.000000  0.707107  0.707107 ->  -0.2781709446
    6:   0.707107  0.000000  0.707107 /   0.707107  0.000000  0.707107 ->  -0.2781709455
    7:   0.707107  0.707107  0.000000 /   0.707107  0.707107  0.000000 ->  -0.2781709448

[...]

 K-point ( 0.500, 0.500, 0.500) | band =    67
 Transport equivalent effective mass tensor:
             -1.1497734334              0.0000000000             -0.0000000001
              0.0000000000             -1.1497734335             -0.0000000000
             -0.0000000001             -0.0000000000             -1.1497734334
 Transport equivalent effective mass tensor eigenvalues:
             -1.1497734335             -1.1497734334             -1.1497734333
 Angular average effective mass 1/(<1/m>)=  -0.8235802449
 Angular average effective mass for Frohlich model (<m**0.5>)**2=  -0.8433907063
 Effective masses along directions: (cart. coord. / red. coord. -> eff. mass)
    1:   1.000000  0.000000  0.000000 /   1.000000  0.000000  0.000000 ->  -1.2838762695
    2:   0.000000  1.000000  0.000000 /   0.000000  1.000000  0.000000 ->  -1.2838762693
    3:   0.000000  0.000000  1.000000 /   0.000000  0.000000  1.000000 ->  -1.2838762694
    4:   0.577350  0.577350  0.577350 /   0.577350  0.577350  0.577350 ->  -0.6476930250
    5:   0.000000  0.707107  0.707107 /   0.000000  0.707107  0.707107 ->  -0.7392738154
    6:   0.707107  0.000000  0.707107 /   0.707107  0.000000  0.707107 ->  -0.7392738154
    7:   0.707107  0.707107  0.000000 /   0.707107  0.707107  0.000000 ->  -0.7392738156

 Angular average effective mass for Frohlich model, averaged over degenerate bands.
 Value of     (<<m**0.5>>)**2 =     4.479555E-01
 Absolute Value of <<m**0.5>> =     6.692948E-01

 K-point ( 0.000, 0.500, 0.000) | band =    68
 Effective mass tensor:
              0.6882058539             -0.0000000514             -0.0000000000
             -0.0000000514              4.0859729428             -0.0000000703
             -0.0000000000             -0.0000000703              0.6882058536
 Effective mass tensor eigenvalues:
              0.6882058536              0.6882058539              4.0859729428
 Angular average effective mass 1/(<1/m>)=   0.9521249455
 Angular average effective mass for Frohlich model (<m**0.5>)**2=   1.0905056630
 Effective masses along directions: (cart. coord. / red. coord. -> eff. mass)
    1:   1.000000  0.000000  0.000000 /   1.000000  0.000000  0.000000 ->   0.6882058539
    2:   0.000000  1.000000  0.000000 /   0.000000  1.000000  0.000000 ->   4.0859729428
    3:   0.000000  0.000000  1.000000 /   0.000000  0.000000  1.000000 ->   0.6882058536
    4:   0.577350  0.577350  0.577350 /   0.577350  0.577350  0.577350 ->   0.9521249194
    5:   0.000000  0.707107  0.707107 /   0.000000  0.707107  0.707107 ->   1.1779996243
    6:   0.707107  0.000000  0.707107 /   0.707107  0.000000  0.707107 ->   0.6882058537
    7:   0.707107  0.707107  0.000000 /   0.707107  0.707107  0.000000 ->   1.1779996339

 END OF EFFECTIVE MASSES SECTION

 ---- first-order wavefunction calculations are completed ----

 Total localisation tensor (bohr^2) in cartesian coordinates
  WARNING : still subject to testing - especially symmetries.
      direction              matrix element
   alpha     beta       real part   imaginary part
     1        1       1.1413657318    0.0000000000
     1        2       0.0000000000    0.0000000000
     1        3       0.0000000000    0.0000000000
     2        1       0.0000000000    0.0000000000
     2        2       1.0035288588    0.0000000000
     2        3       0.0000000000    0.0000000000
     3        1       0.0000000000    0.0000000000
     3        2       0.0000000000    0.0000000000
     3        3       1.1413657287    0.0000000000

 respfn : d/dk was computed, but no 2DTE, so no DDB output.

== END DATASET(S) ==============================================================

 -outvars: echo values of variables after computation  --------
            acell      1.0000000000E+00  1.0000000000E+00  1.0000000000E+00 Bohr
              amu      1.80947900E+02  6.35460000E+01  1.27600000E+02
             ecut      4.60000000E+01 Hartree
           etotal     -7.6843160917E+01
            fcart      0.0000000000E+00  0.0000000000E+00  0.0000000000E+00
                       0.0000000000E+00  0.0000000000E+00  0.0000000000E+00
                       0.0000000000E+00  0.0000000000E+00  0.0000000000E+00
                       0.0000000000E+00  0.0000000000E+00  0.0000000000E+00
                       0.0000000000E+00  0.0000000000E+00  0.0000000000E+00
                       0.0000000000E+00  0.0000000000E+00  0.0000000000E+00
                       0.0000000000E+00  0.0000000000E+00  0.0000000000E+00
                       0.0000000000E+00  0.0000000000E+00  0.0000000000E+00
-          fftalg         512
           irdden           1
           irdwfk           1
           istwfk        1    1
              ixc     -116133
              kpt      5.00000000E-01  5.00000000E-01  5.00000000E-01
                       0.00000000E+00  5.00000000E-01  0.00000000E+00
           kptopt           0
P           mkmem           2
P          mkqmem           2
P          mk1mem           2
            natom           8
            nband          76
           nbdbuf           4
            ngfft          72      72      72
             nkpt           2
            nstep        2000
             nsym          24
           ntypat           3
              occ      2.000000  2.000000  2.000000  2.000000  2.000000  2.000000
                       2.000000  2.000000  2.000000  2.000000  2.000000  2.000000
                       2.000000  2.000000  2.000000  2.000000  2.000000  2.000000
                       2.000000  2.000000  2.000000  2.000000  2.000000  2.000000
                       2.000000  2.000000  2.000000  2.000000  2.000000  2.000000
                       2.000000  2.000000  2.000000  2.000000  2.000000  2.000000
                       2.000000  2.000000  2.000000  2.000000  2.000000  2.000000
                       2.000000  2.000000  2.000000  2.000000  2.000000  2.000000
                       2.000000  2.000000  2.000000  2.000000  2.000000  2.000000
                       2.000000  2.000000  2.000000  2.000000  2.000000  2.000000
                       2.000000  2.000000  2.000000  2.000000  2.000000  2.000000
                       2.000000  0.000000  0.000000  0.000000  0.000000  0.000000
                       0.000000  0.000000  0.000000  0.000000
        optdriver           1
            prtwf          -1
            rfdir           1       1       1
           rfelfd           2
            rprim      1.1074469364E+01  0.0000000000E+00  0.0000000000E+00
                       0.0000000000E+00  1.1074469364E+01  0.0000000000E+00
                       0.0000000000E+00  0.0000000000E+00  1.1074469364E+01
          spgroup         215
           strten      0.0000000000E+00  0.0000000000E+00  0.0000000000E+00
                       0.0000000000E+00  0.0000000000E+00  0.0000000000E+00
           symrel      1  0  0   0  1  0   0  0  1      -1  0  0   0  1  0   0  0 -1
                      -1  0  0   0 -1  0   0  0  1       1  0  0   0 -1  0   0  0 -1
                       0  1  0   1  0  0   0  0  1       0 -1  0   1  0  0   0  0 -1
                       0 -1  0  -1  0  0   0  0  1       0  1  0  -1  0  0   0  0 -1
                       0  0  1   1  0  0   0  1  0       0  0 -1   1  0  0   0 -1  0
                       0  0 -1  -1  0  0   0  1  0       0  0  1  -1  0  0   0 -1  0
                       1  0  0   0  0  1   0  1  0      -1  0  0   0  0  1   0 -1  0
                      -1  0  0   0  0 -1   0  1  0       1  0  0   0  0 -1   0 -1  0
                       0  1  0   0  0  1   1  0  0       0 -1  0   0  0  1  -1  0  0
                       0 -1  0   0  0 -1   1  0  0       0  1  0   0  0 -1  -1  0  0
                       0  0  1   0  1  0   1  0  0       0  0 -1   0  1  0  -1  0  0
                       0  0 -1   0 -1  0   1  0  0       0  0  1   0 -1  0  -1  0  0
           tolwfr      1.00000000E-20
            typat      1  2  2  2  3  3  3  3
           useylm           1
              wtk        0.50000    0.50000
           xangst      0.0000000000E+00  0.0000000000E+00  0.0000000000E+00
                       0.0000000000E+00  2.9301783922E+00  0.0000000000E+00
                       2.9301783922E+00  0.0000000000E+00  0.0000000000E+00
                       0.0000000000E+00  0.0000000000E+00  2.9301783922E+00
                       1.5311002549E+00  4.3292565295E+00  4.3292565295E+00
                       1.5311002549E+00  1.5311002549E+00  1.5311002549E+00
                       4.3292565295E+00  1.5311002549E+00  4.3292565295E+00
                       4.3292565295E+00  4.3292565295E+00  1.5311002549E+00
            xcart      0.0000000000E+00  0.0000000000E+00  0.0000000000E+00
                       0.0000000000E+00  5.5372346817E+00  0.0000000000E+00
                       5.5372346817E+00  0.0000000000E+00  0.0000000000E+00
                       0.0000000000E+00  0.0000000000E+00  5.5372346817E+00
                       2.8933601638E+00  8.1811091997E+00  8.1811091997E+00
                       2.8933601638E+00  2.8933601638E+00  2.8933601638E+00
                       8.1811091997E+00  2.8933601638E+00  8.1811091997E+00
                       8.1811091997E+00  8.1811091997E+00  2.8933601638E+00
             xred      0.0000000000E+00  0.0000000000E+00  0.0000000000E+00
                       0.0000000000E+00  5.0000000000E-01  0.0000000000E+00
                       5.0000000000E-01  0.0000000000E+00  0.0000000000E+00
                       0.0000000000E+00  0.0000000000E+00  5.0000000000E-01
                       2.6126400000E-01  7.3873600000E-01  7.3873600000E-01
                       2.6126400000E-01  2.6126400000E-01  2.6126400000E-01
                       7.3873600000E-01  2.6126400000E-01  7.3873600000E-01
                       7.3873600000E-01  7.3873600000E-01  2.6126400000E-01
            znucl       73.00000   29.00000   52.00000

- Timing analysis has been suppressed with timopt=0

 Suggested references for the acknowledgment of ABINIT usage.

 Calculation completed.
.Delivered  14 WARNINGs and  11 COMMENTs to log file.