.Version 9.5.1 of ABINIT

 ABINIT is a project of the Universite Catholique de Louvain,
 Corning Inc. and other collaborators, see ~abinit/doc/developers/contributors.txt .
 acknowledgments of the ABINIT effort.

.Starting date : Tue 27 Apr 2021.
- ( at 15h30 )

- input  file    -> /scratch/users/j/a/jabreu/flow_simple/flow/w132/t1/run.abi
- output file    -> /scratch/users/j/a/jabreu/flow_simple/flow/w132/t1/run.abo
- root for input  files -> /scratch/users/j/a/jabreu/flow_simple/flow/w132/t1/indata/in
- root for output files -> /scratch/users/j/a/jabreu/flow_simple/flow/w132/t1/outdata/out

 Symmetries : space group F-4 3 m (#216); Bravais cF (face-center cubic)
     intxc =       0      iscf =       7    lmnmax =      18     lnmax =       6
     mgfft =      48  mpssoang =       3    mqgrid =    3001     natom =       3
  nloc_mem =       1    nspden =       1   nspinor =       1    nsppol =       1
      nsym =      24    n1xccc =    2501    ntypat =       3    occopt =       1
   xclevel =       2
-    mband =          28        mffmem =           1         mkmem =           1
-   mkqmem =           1        mk1mem =           1           mpw =        4477
      nfft =      110592          nkpt =           1
  Rough estimation (10% accuracy) of disk space for files :

------------- Echo of variables that govern the present computation ------------
-
- outvars: echo of selected default values
-   iomode0 =  0 , fftalg0 =512 , wfoptalg0 =  0
-
- outvars: echo of global parameters not present in the input file
-  max_nthreads =    0
-
 -outvars: echo values of preprocessed input variables --------
            acell      1.0000000000E+00  1.0000000000E+00  1.0000000000E+00 Bohr
              amu      6.94100000E+00  6.53900000E+01  7.49215900E+01
             ecut      4.20000000E+01 Hartree
-          fftalg         512
           irdden           1
           irdwfk           1
           istwfk        1
              ixc     -116133
           kptopt           0
P           mkmem           1
P          mkqmem           1
P          mk1mem           1
            natom           3
            nband          28
           nbdbuf           4
            ngfft          48      48      48
             nkpt           1
            nstep         100
             nsym          24
           ntypat           3
              occ      2.000000  2.000000  2.000000  2.000000  2.000000  2.000000
                       2.000000  2.000000  2.000000  2.000000  2.000000  2.000000
                       2.000000  2.000000  2.000000  2.000000  2.000000  2.000000
                       2.000000  0.000000  0.000000  0.000000  0.000000  0.000000
                       0.000000  0.000000  0.000000  0.000000
        optdriver           1
            prtwf          -1
            rfdir           1       1       1
           rfelfd           2
            rprim      6.7967314967E+00  0.0000000000E+00  3.9240947592E+00
                       2.2655771656E+00  6.4080199083E+00  3.9240947592E+00
                       0.0000000000E+00  0.0000000000E+00  7.8481895184E+00
          spgroup         216
           symrel      1  0  0   0  1  0   0  0  1       0 -1  1   0 -1  0   1 -1  0
                      -1  0  0  -1  0  1  -1  1  0       0  1 -1   1  0 -1   0  0 -1
                      -1  0  0  -1  1  0  -1  0  1       0 -1  1   1 -1  0   0 -1  0
                       1  0  0   0  0  1   0  1  0       0  1 -1   0  0 -1   1  0 -1
                      -1  0  1  -1  1  0  -1  0  0       0 -1  0   1 -1  0   0 -1  1
                       1  0 -1   0  0 -1   0  1 -1       0  1  0   0  0  1   1  0  0
                       1  0 -1   0  1 -1   0  0 -1       0 -1  0   0 -1  1   1 -1  0
                      -1  0  1  -1  0  0  -1  1  0       0  1  0   1  0  0   0  0  1
                       0  0 -1   0  1 -1   1  0 -1       1 -1  0   0 -1  1   0 -1  0
                       0  0  1   1  0  0   0  1  0      -1  1  0  -1  0  0  -1  0  1
                       0  0  1   0  1  0   1  0  0       1 -1  0   0 -1  0   0 -1  1
                       0  0 -1   1  0 -1   0  1 -1      -1  1  0  -1  0  1  -1  0  0
           tolwfr      1.00000000E-20
            typat      1  2  3
           useylm           1
           xangst      3.5966754010E+00  2.5432335657E+00  6.2296245327E+00
                       1.1988918003E+00  8.4774452192E-01  2.0765415109E+00
                       0.0000000000E+00  0.0000000000E+00  0.0000000000E+00
            xcart      6.7967314967E+00  4.8060149312E+00  1.1772284278E+01
                       2.2655771656E+00  1.6020049771E+00  3.9240947592E+00
                       0.0000000000E+00  0.0000000000E+00  0.0000000000E+00
             xred      7.5000000000E-01  7.5000000000E-01  7.5000000000E-01
                       2.5000000000E-01  2.5000000000E-01  2.5000000000E-01
                       0.0000000000E+00  0.0000000000E+00  0.0000000000E+00
            znucl        3.00000   30.00000   33.00000

 chkinp: Checking input parameters for consistency.

== DATASET  1 ==================================================================
-   mpi_nproc: 1, omp_nthreads: -1 (-1 if OMP is not activated)

--- !DatasetInfo
iteration_state: {dtset: 1, }
dimensions: {natom: 3, nkpt: 1, mband: 28, nsppol: 1, nspinor: 1, nspden: 1, mpw: 4477, }
cutoff_energies: {ecut:  42.0, pawecutdg:  -1.0, }
electrons: {nelect:   3.80000000E+01, charge:   0.00000000E+00, occopt:   1.00000000E+00, tsmear:   1.00000000E-02, }
meta: {optdriver: 1, rfelfd: 2, }
...

 Real(R)+Recip(G) space primitive vectors, cartesian coordinates (Bohr,Bohr^-1):
 R(1)=  6.7967315  0.0000000  3.9240948  G(1)=  0.1471295 -0.0520181  0.0000000
 R(2)=  2.2655772  6.4080199  3.9240948  G(2)=  0.0000000  0.1560544  0.0000000
 R(3)=  0.0000000  0.0000000  7.8481895  G(3)= -0.0735648 -0.0520181  0.1274179
 Unit cell volume ucvol=  3.4181683E+02 bohr^3
 Angles (23,13,12)=  6.00000000E+01  6.00000000E+01  6.00000000E+01 degrees

 getcut: wavevector=  0.0000  0.0000  0.0000  ngfft=  48  48  48
         ecut(hartree)=     42.000   => boxcut(ratio)=   2.09644

--- Pseudopotential description ------------------------------------------------
- pspini: atom type   1  psp file is /scratch/users/j/a/jabreu/pseudos/PBEsol/Li.psp8
- pspatm: opening atomic psp file    /scratch/users/j/a/jabreu/pseudos/PBEsol/Li.psp8
- Li    ONCVPSP-3.3.0  r_core=   1.40824   1.10935
-  3.00000   3.00000    180112                znucl, zion, pspdat
    8 -116133    1    4       400   0.00000   pspcod,pspxc,lmax,lloc,mmax,r2well
    3.99000000000000    0.00000000000000    0.00000000000000   rchrg,fchrg,qchrg
     nproj     2     2
     extension_switch     1
  pspatm : epsatm=    2.60859637
         --- l  ekb(1:nproj) -->
             0   -4.855856   -1.482423
             1   -2.171544   -0.427615
 pspatm: atomic psp has been read  and splines computed

- pspini: atom type   2  psp file is /scratch/users/j/a/jabreu/pseudos/PBEsol/Zn.psp8
- pspatm: opening atomic psp file    /scratch/users/j/a/jabreu/pseudos/PBEsol/Zn.psp8
- Zn    ONCVPSP-3.3.0  r_core=   1.35823   1.66358   1.85211
- 30.00000  20.00000    180112                znucl, zion, pspdat
    8 -116133    2    4       600   0.00000   pspcod,pspxc,lmax,lloc,mmax,r2well
    5.99000000000000    2.50000000000000    0.00000000000000   rchrg,fchrg,qchrg
     nproj     2     2     2
     extension_switch     1
  pspatm : epsatm=   26.57343589
         --- l  ekb(1:nproj) -->
             0    2.830835   -1.519107
             1   -4.626739   -1.324150
             2   -6.948510   -2.555500
 pspatm: atomic psp has been read  and splines computed

- pspini: atom type   3  psp file is /scratch/users/j/a/jabreu/pseudos/PBEsol/As.psp8
- pspatm: opening atomic psp file    /scratch/users/j/a/jabreu/pseudos/PBEsol/As.psp8
- As    ONCVPSP-3.3.0  r_core=   1.76603   1.70395   1.80867
- 33.00000  15.00000    180112                znucl, zion, pspdat
    8 -116133    2    4       600   0.00000   pspcod,pspxc,lmax,lloc,mmax,r2well
    5.99000000000000    5.00000000000000    0.00000000000000   rchrg,fchrg,qchrg
     nproj     2     2     2
     extension_switch     1
  pspatm : epsatm=   28.79155382
         --- l  ekb(1:nproj) -->
             0    8.270760    0.868950
             1    4.919053    0.756587
             2  -10.048665   -4.076802
 pspatm: atomic psp has been read  and splines computed

   2.20299627E+03                                ecore*ucvol(ha*bohr**3)

-inwffil : will read wavefunctions from disk file /scratch/users/j/a/jabreu/flow_simple/flow/w132/t1/indata/in_WFK

 ==>  initialize data related to q vector <==

 The list of irreducible perturbations for this q vector is:
    1)    idir= 1    ipert=   4
    2)    idir= 2    ipert=   4
    3)    idir= 3    ipert=   4

 Perturbation wavevector (in red.coord.)   0.000000  0.000000  0.000000
 Perturbation : derivative vs k along direction   1

 dfpt_looppert : COMMENT -
  In a d/dk calculation, iscf is set to -3 automatically.
 The set of symmetries contains only one element for this perturbation.
 symkpt : not enough symmetry to change the number of k points.

[...]

 Initialisation of the first-order wave-functions :
  ireadwf=   0

--- !BeginCycle
iteration_state: {dtset: 1, }
solver: {iscf: 7, nstep: 100, nline: 4, wfoptalg: 0, }
tolerances: {tolwfr: 1.00E-20, }
...

     iter   2DEtotal(Ha)        deltaE(Ha) residm    vres2
-ETOT  1  -112.34677276552     -1.123E+02 7.888E-02 0.000E+00
 ETOT  2  -112.40042217710     -5.365E-02 2.056E-04 0.000E+00
 ETOT  3  -112.40066543863     -2.433E-04 2.304E-06 0.000E+00
 ETOT  4  -112.40066952293     -4.084E-06 4.987E-08 0.000E+00
 ETOT  5  -112.40066960264     -7.971E-08 8.804E-10 0.000E+00
 ETOT  6  -112.40066960426     -1.618E-09 2.066E-11 0.000E+00
 ETOT  7  -112.40066960429     -3.362E-11 3.796E-13 0.000E+00
 ETOT  8  -112.40066960429     -3.411E-13 9.104E-15 0.000E+00
 ETOT  9  -112.40066960429     -2.842E-14 1.691E-16 0.000E+00
 ETOT 10  -112.40066960429      2.842E-14 4.105E-18 0.000E+00
 ETOT 11  -112.40066960429     -2.842E-14 7.676E-20 0.000E+00
 ETOT 12  -112.40066960429      8.527E-14 9.956E-21 0.000E+00

 At SCF step   12   max residual=  9.96E-21 < tolwfr=  1.00E-20 =>converged.

 ----iterations are completed or convergence reached----

 dfpt_looppert: DFPT cycle converged with prtwf=-1. Will skip output of the 1st-order WFK file.
 dfpt_looppert : ek2=    7.3067731519E+01
          f-sum rule ratio=    2.3220598020E+00
 prteigrs : about to open file /scratch/users/j/a/jabreu/flow_simple/flow/w132/t1/tmpdata/tmp_1WF1_EIG
 Expectation of eigenvalue derivatives (hartree) for nkpt=   1  k points:
  (in case of degenerate eigenvalues, averaged derivative)
 kpt#   1, nband= 28, wtk=  1.00000, kpt=  0.0000  0.0000  0.0000 (reduced coord)
   0.00000    0.00000    0.00000    0.00000    0.00000   -0.00000   -0.00000   -0.00000
  -0.00000   -0.00000    0.00000   -0.00000   -0.00000   -0.00000   -0.00000   -0.00000
   0.00000    0.00000    0.00000   -0.00000   -0.00000   -0.00000   -0.00000   -0.00000
   0.00000    0.00000    0.00000   -0.00000

 Eight components of 2nd-order total energy (hartree) are
 1,2,3: 0th-order hamiltonian combined with 1st-order wavefunctions
     kin0=   7.64757660E+01 eigvalue=   6.01678518E+00  local=  -2.67658674E+01
 4,5,6: 1st-order hamiltonian combined with 1st and 0th-order wfs
     kin1=  -1.69667642E+02  Hartree=   0.00000000E+00     xc=   0.00000000E+00
 7,8,9: eventually, occupation + non-local contributions
    edocc=   5.53905195E+01     enl0=   1.28346631E+00   enl1=  -5.51336970E+01
 1-9 gives the relaxation energy (to be shifted if some occ is /=2.0)
   erelax=  -1.12400670E+02
  No Ewald or frozen-wf contrib.: the relaxation energy is the total one
 2DEtotal=   -0.1124006696E+03 Ha. Also 2DEtotal=   -0.305857776672E+04 eV
    (  non-var. 2DEtotal :   -1.1240066960E+02 Ha)

 Perturbation wavevector (in red.coord.)   0.000000  0.000000  0.000000
 Perturbation : derivative vs k along direction   2
 The set of symmetries contains only one element for this perturbation.
 symkpt : not enough symmetry to change the number of k points.

[...]

 Perturbation wavevector (in red.coord.)   0.000000  0.000000  0.000000
 Perturbation : derivative vs k along direction   3
 The set of symmetries contains only one element for this perturbation.
 symkpt : not enough symmetry to change the number of k points.

-inwffil : will read wavefunctions from disk file /scratch/users/j/a/jabreu/flow_simple/flow/w132/t1/indata/in_WFK

 Initialisation of the first-order wave-functions :
  ireadwf=   0

--- !BeginCycle
iteration_state: {dtset: 1, }
solver: {iscf: 7, nstep: 100, nline: 4, wfoptalg: 0, }
tolerances: {tolwfr: 1.00E-20, }
...

     iter   2DEtotal(Ha)        deltaE(Ha) residm    vres2
-ETOT  1  -112.34796916374     -1.123E+02 7.933E-02 0.000E+00
 ETOT  2  -112.40042975329     -5.246E-02 2.262E-04 0.000E+00
 ETOT  3  -112.40066539219     -2.356E-04 2.655E-06 0.000E+00
 ETOT  4  -112.40066950229     -4.110E-06 7.416E-08 0.000E+00
 ETOT  5  -112.40066958666     -8.437E-08 1.333E-09 0.000E+00
 ETOT  6  -112.40066958849     -1.822E-09 3.935E-11 0.000E+00
 ETOT  7  -112.40066958853     -4.053E-11 7.265E-13 0.000E+00
 ETOT  8  -112.40066958853     -9.521E-13 2.192E-14 0.000E+00
 ETOT  9  -112.40066958853     -1.279E-13 4.072E-16 0.000E+00
 ETOT 10  -112.40066958853      2.842E-14 1.250E-17 0.000E+00
 ETOT 11  -112.40066958853     -2.842E-14 2.325E-19 0.000E+00
 ETOT 12  -112.40066958853      2.842E-14 9.915E-21 0.000E+00

 At SCF step   12   max residual=  9.92E-21 < tolwfr=  1.00E-20 =>converged.

 ----iterations are completed or convergence reached----

 dfpt_looppert: DFPT cycle converged with prtwf=-1. Will skip output of the 1st-order WFK file.
 dfpt_looppert : ek2=    7.3067731520E+01
          f-sum rule ratio=    2.3220598016E+00
 prteigrs : about to open file /scratch/users/j/a/jabreu/flow_simple/flow/w132/t1/tmpdata/tmp_1WF1_EIG
 Expectation of eigenvalue derivatives (hartree) for nkpt=   1  k points:
  (in case of degenerate eigenvalues, averaged derivative)
 kpt#   1, nband= 28, wtk=  1.00000, kpt=  0.0000  0.0000  0.0000 (reduced coord)
  -0.00000   -0.00000   -0.00000   -0.00000   -0.00000    0.00000    0.00000    0.00000
   0.00000    0.00000   -0.00000    0.00000    0.00000    0.00000    0.00000    0.00000
   0.00000    0.00000    0.00000    0.00000   -0.00000   -0.00000   -0.00000    0.00000
   0.00000    0.00000    0.00000    0.00000

 Eight components of 2nd-order total energy (hartree) are
 1,2,3: 0th-order hamiltonian combined with 1st-order wavefunctions
     kin0=   7.64757660E+01 eigvalue=   6.01678518E+00  local=  -2.67658674E+01
 4,5,6: 1st-order hamiltonian combined with 1st and 0th-order wfs
     kin1=  -1.69667642E+02  Hartree=   0.00000000E+00     xc=   0.00000000E+00
 7,8,9: eventually, occupation + non-local contributions
    edocc=   5.53905195E+01     enl0=   1.28346631E+00   enl1=  -5.51336970E+01
 1-9 gives the relaxation energy (to be shifted if some occ is /=2.0)
   erelax=  -1.12400670E+02
  No Ewald or frozen-wf contrib.: the relaxation energy is the total one
 2DEtotal=   -0.1124006696E+03 Ha. Also 2DEtotal=   -0.305857776629E+04 eV
    (  non-var. 2DEtotal :   -1.1240066959E+02 Ha)

 CALCULATION OF EFFECTIVE MASSES
 NOTE : Additional infos (eff. mass eigenvalues, eigenvectors and, if degenerate, average mass) are available in stdout.

 COMMENTS:
 - At k-point ( 0.000, 0.000, 0.000), bands    17 through    19
   are DEGENERATE (effective mass tensor is therefore not defined).
   See Section IIIB Eqs. (67)-(70) and Appendix E of PRB 93 205147 (2016).
 - Angular average effective mass for Frohlich model is to be averaged over degenerate bands. See later.
 - Associated theta integrals calculated with ntheta=   1000 points.

 K-point ( 0.000, 0.000, 0.000) | band =    17
 Transport equivalent effective mass tensor:
             -0.0475761343             -0.0000000000              0.0000000000
             -0.0000000000             -0.0475761343              0.0000000000
              0.0000000000              0.0000000000             -0.0475761343
 Transport equivalent effective mass tensor eigenvalues:
             -0.0475761343             -0.0475761343             -0.0475761343
 Angular average effective mass 1/(<1/m>)=  -0.0463809023
 Angular average effective mass for Frohlich model (<m**0.5>)**2=  -0.0464619042
 Effective masses along directions: (cart. coord. / red. coord. -> eff. mass)
    1:   1.000000  0.000000  0.000000 /   0.948683  0.316228  0.000000 ->  -0.0450722629
    2:   0.000000  1.000000  0.000000 /   0.000000  1.000000  0.000000 ->  -0.0433063917
    3:   0.000000  0.000000  1.000000 /   0.408248  0.408248  0.816497 ->  -0.0452689888
    4:   0.577350  0.577350  0.577350 /   0.585539  0.688047  0.428644 ->  -0.0450385495
    5:   0.000000  0.707107  0.707107 /   0.289489  0.762222  0.578977 ->  -0.0477108412
    6:   0.707107  0.000000  0.707107 /   0.731423  0.422287  0.535439 ->  -0.0451699422
    7:   0.707107  0.707107  0.000000 /   0.616798  0.787122  0.000000 ->  -0.0513366824

[...]

 K-point ( 0.000, 0.000, 0.000) | band =    19
 Transport equivalent effective mass tensor:
            -10.0112791972              0.0000101583              0.0000000007
              0.0000101583            -10.0112759834             -0.0000000004
              0.0000000007             -0.0000000004            -10.0112633289
 Transport equivalent effective mass tensor eigenvalues:
            -10.0112878749            -10.0112673057            -10.0112633289
 Angular average effective mass 1/(<1/m>)=  -0.7131441844
 Angular average effective mass for Frohlich model (<m**0.5>)**2=  -0.8858549861
 Effective masses along directions: (cart. coord. / red. coord. -> eff. mass)
    1:   1.000000  0.000000  0.000000 /   0.948683  0.316228  0.000000 ->  -0.7685838147
    2:   0.000000  1.000000  0.000000 /   0.000000  1.000000  0.000000 ->  -0.7155579908
    3:   0.000000  0.000000  1.000000 /   0.408248  0.408248  0.816497 ->  -2.5226488240
    4:   0.577350  0.577350  0.577350 /   0.585539  0.688047  0.428644 ->  -0.9459986279
    5:   0.000000  0.707107  0.707107 /   0.289489  0.762222  0.578977 ->  -0.6229451824
    6:   0.707107  0.000000  0.707107 /   0.731423  0.422287  0.535439 ->  -1.3429557733
    7:   0.707107  0.707107  0.000000 /   0.616798  0.787122  0.000000 ->  -0.3232878487

 Angular average effective mass for Frohlich model, averaged over degenerate bands.
 Value of     (<<m**0.5>>)**2 =     3.398842E-01
 Absolute Value of <<m**0.5>> =     5.829959E-01

 K-point ( 0.000, 0.000, 0.000) | band =    20
 Effective mass tensor:
              0.0529162992              0.0000000000             -0.0000000000
              0.0000000000              0.0529162992             -0.0000000000
             -0.0000000000             -0.0000000000              0.0529162992
 Effective mass tensor eigenvalues:
              0.0529162992              0.0529162992              0.0529162993
 Angular average effective mass 1/(<1/m>)=   0.0529162992
 Angular average effective mass for Frohlich model (<m**0.5>)**2=   0.0529162992
 Effective masses along directions: (cart. coord. / red. coord. -> eff. mass)
    1:   1.000000  0.000000  0.000000 /   0.948683  0.316228  0.000000 ->   0.0529162992
    2:   0.000000  1.000000  0.000000 /   0.000000  1.000000  0.000000 ->   0.0529162992
    3:   0.000000  0.000000  1.000000 /   0.408248  0.408248  0.816497 ->   0.0529162992
    4:   0.577350  0.577350  0.577350 /   0.585539  0.688047  0.428644 ->   0.0529162992
    5:   0.000000  0.707107  0.707107 /   0.289489  0.762222  0.578977 ->   0.0529162992
    6:   0.707107  0.000000  0.707107 /   0.731423  0.422287  0.535439 ->   0.0529162992
    7:   0.707107  0.707107  0.000000 /   0.616798  0.787122  0.000000 ->   0.0529162992

 END OF EFFECTIVE MASSES SECTION

 ---- first-order wavefunction calculations are completed ----

 Total localisation tensor (bohr^2) in cartesian coordinates
  WARNING : still subject to testing - especially symmetries.
      direction              matrix element
   alpha     beta       real part   imaginary part
     1        1      27.0092837925    0.0000000000
     1        2       7.6393790882    0.0000000000
     1        3      18.7125807210    0.0000000000
     2        1       7.6393790882    0.0000000000
     2        2      21.6074270290    0.0000000000
     2        3      13.2317927187    0.0000000000
     3        1      18.7125807210    0.0000000000
     3        2      13.2317927187    0.0000000000
     3        3      48.6167107968    0.0000000000

 respfn : d/dk was computed, but no 2DTE, so no DDB output.

== END DATASET(S) ==============================================================

 -outvars: echo values of variables after computation  --------
            acell      1.0000000000E+00  1.0000000000E+00  1.0000000000E+00 Bohr
              amu      6.94100000E+00  6.53900000E+01  7.49215900E+01
             ecut      4.20000000E+01 Hartree
           etotal     -1.1240066959E+02
            fcart      0.0000000000E+00  0.0000000000E+00  0.0000000000E+00
                       0.0000000000E+00  0.0000000000E+00  0.0000000000E+00
                       0.0000000000E+00  0.0000000000E+00  0.0000000000E+00
-          fftalg         512
           irdden           1
           irdwfk           1
           istwfk        1
              ixc     -116133
           kptopt           0
P           mkmem           1
P          mkqmem           1
P          mk1mem           1
            natom           3
            nband          28
           nbdbuf           4
            ngfft          48      48      48
             nkpt           1
            nstep         100
             nsym          24
           ntypat           3
              occ      2.000000  2.000000  2.000000  2.000000  2.000000  2.000000
                       2.000000  2.000000  2.000000  2.000000  2.000000  2.000000
                       2.000000  2.000000  2.000000  2.000000  2.000000  2.000000
                       2.000000  0.000000  0.000000  0.000000  0.000000  0.000000
                       0.000000  0.000000  0.000000  0.000000
        optdriver           1
            prtwf          -1
            rfdir           1       1       1
           rfelfd           2
            rprim      6.7967314967E+00  0.0000000000E+00  3.9240947592E+00
                       2.2655771656E+00  6.4080199083E+00  3.9240947592E+00
                       0.0000000000E+00  0.0000000000E+00  7.8481895184E+00
          spgroup         216
           strten      0.0000000000E+00  0.0000000000E+00  0.0000000000E+00
                       0.0000000000E+00  0.0000000000E+00  0.0000000000E+00
           symrel      1  0  0   0  1  0   0  0  1       0 -1  1   0 -1  0   1 -1  0
                      -1  0  0  -1  0  1  -1  1  0       0  1 -1   1  0 -1   0  0 -1
                      -1  0  0  -1  1  0  -1  0  1       0 -1  1   1 -1  0   0 -1  0
                       1  0  0   0  0  1   0  1  0       0  1 -1   0  0 -1   1  0 -1
                      -1  0  1  -1  1  0  -1  0  0       0 -1  0   1 -1  0   0 -1  1
                       1  0 -1   0  0 -1   0  1 -1       0  1  0   0  0  1   1  0  0
                       1  0 -1   0  1 -1   0  0 -1       0 -1  0   0 -1  1   1 -1  0
                      -1  0  1  -1  0  0  -1  1  0       0  1  0   1  0  0   0  0  1
                       0  0 -1   0  1 -1   1  0 -1       1 -1  0   0 -1  1   0 -1  0
                       0  0  1   1  0  0   0  1  0      -1  1  0  -1  0  0  -1  0  1
                       0  0  1   0  1  0   1  0  0       1 -1  0   0 -1  0   0 -1  1
                       0  0 -1   1  0 -1   0  1 -1      -1  1  0  -1  0  1  -1  0  0
           tolwfr      1.00000000E-20
            typat      1  2  3
           useylm           1
           xangst      3.5966754010E+00  2.5432335657E+00  6.2296245327E+00
                       1.1988918003E+00  8.4774452192E-01  2.0765415109E+00
                       0.0000000000E+00  0.0000000000E+00  0.0000000000E+00
            xcart      6.7967314967E+00  4.8060149312E+00  1.1772284278E+01
                       2.2655771656E+00  1.6020049771E+00  3.9240947592E+00
                       0.0000000000E+00  0.0000000000E+00  0.0000000000E+00
             xred      7.5000000000E-01  7.5000000000E-01  7.5000000000E-01
                       2.5000000000E-01  2.5000000000E-01  2.5000000000E-01
                       0.0000000000E+00  0.0000000000E+00  0.0000000000E+00
            znucl        3.00000   30.00000   33.00000

- Timing analysis has been suppressed with timopt=0

 Suggested references for the acknowledgment of ABINIT usage.

 Calculation completed.
.Delivered   6 WARNINGs and   5 COMMENTs to log file.