.Version 9.5.2 of ABINIT

 ABINIT is a project of the Universite Catholique de Louvain,
 Corning Inc. and other collaborators, see ~abinit/doc/developers/contributors.txt .
 acknowledgments of the ABINIT effort.

.Starting date : Mon 24 May 2021.
- ( at 10h57 )

- input  file    -> /scratch/users/j/a/jabreu/flow_simple_10atoms/flow/w273/t1/run.abi
- output file    -> /scratch/users/j/a/jabreu/flow_simple_10atoms/flow/w273/t1/run.abo
- root for input  files -> /scratch/users/j/a/jabreu/flow_simple_10atoms/flow/w273/t1/indata/in
- root for output files -> /scratch/users/j/a/jabreu/flow_simple_10atoms/flow/w273/t1/outdata/out

 Symmetries : space group Fm -3 m (#225); Bravais cF (face-center cubic)
     intxc =       0      iscf =       7    lmnmax =      32     lnmax =       8
     mgfft =      72  mpssoang =       4    mqgrid =    3001     natom =      10
  nloc_mem =       1    nspden =       1   nspinor =       1    nsppol =       1
      nsym =      48    n1xccc =    2501    ntypat =       4    occopt =       1
   xclevel =       2
-    mband =          50        mffmem =           1         mkmem =           1
-   mkqmem =           1        mk1mem =           1           mpw =       16529
      nfft =      373248          nkpt =           1
  Rough estimation (10% accuracy) of disk space for files :

------------- Echo of variables that govern the present computation ------------
-
- outvars: echo of selected default values
-   iomode0 =  0 , fftalg0 =512 , wfoptalg0 =  0
-
- outvars: echo of global parameters not present in the input file
-  max_nthreads =    0
-
 -outvars: echo values of preprocessed input variables --------
            acell      1.0000000000E+00  1.0000000000E+00  1.0000000000E+00 Bohr
              amu      1.32905430E+02  8.54678000E+01  6.97230000E+01
                       1.89984032E+01
             ecut      4.20000000E+01 Hartree
-          fftalg         512
           irdden           1
           irdwfk           1
           istwfk        1
              ixc     -116133
           kptopt           0
P           mkmem           1
P          mkqmem           1
P          mk1mem           1
            natom          10
            nband          50
           nbdbuf           4
            ngfft          72      72      72
             nkpt           1
            nstep        2000
             nsym          48
           ntypat           4
              occ      2.000000  2.000000  2.000000  2.000000  2.000000  2.000000
                       2.000000  2.000000  2.000000  2.000000  2.000000  2.000000
                       2.000000  2.000000  2.000000  2.000000  2.000000  2.000000
                       2.000000  2.000000  2.000000  2.000000  2.000000  2.000000
                       2.000000  2.000000  2.000000  2.000000  2.000000  2.000000
                       2.000000  2.000000  2.000000  2.000000  2.000000  2.000000
                       2.000000  2.000000  2.000000  2.000000  2.000000  0.000000
                       0.000000  0.000000  0.000000  0.000000  0.000000  0.000000
                       0.000000  0.000000
        optdriver           1
            prtwf          -1
            rfdir           1       1       1
           rfelfd           2
            rprim      1.0552866519E+01  0.0000000000E+00  6.0927003253E+00
                       3.5176221729E+00  9.9493379684E+00  6.0927003253E+00
                       0.0000000000E+00  0.0000000000E+00  1.2185400651E+01
          spgroup         225
           symrel      1  0  0   0  1  0   0  0  1      -1  0  0   0 -1  0   0  0 -1
                       0 -1  1   0 -1  0   1 -1  0       0  1 -1   0  1  0  -1  1  0
                      -1  0  0  -1  0  1  -1  1  0       1  0  0   1  0 -1   1 -1  0
                       0  1 -1   1  0 -1   0  0 -1       0 -1  1  -1  0  1   0  0  1
                      -1  0  0  -1  1  0  -1  0  1       1  0  0   1 -1  0   1  0 -1
                       0 -1  1   1 -1  0   0 -1  0       0  1 -1  -1  1  0   0  1  0
                       1  0  0   0  0  1   0  1  0      -1  0  0   0  0 -1   0 -1  0
                       0  1 -1   0  0 -1   1  0 -1       0 -1  1   0  0  1  -1  0  1
                      -1  0  1  -1  1  0  -1  0  0       1  0 -1   1 -1  0   1  0  0
                       0 -1  0   1 -1  0   0 -1  1       0  1  0  -1  1  0   0  1 -1
                       1  0 -1   0  0 -1   0  1 -1      -1  0  1   0  0  1   0 -1  1
                       0  1  0   0  0  1   1  0  0       0 -1  0   0  0 -1  -1  0  0
                       1  0 -1   0  1 -1   0  0 -1      -1  0  1   0 -1  1   0  0  1
                       0 -1  0   0 -1  1   1 -1  0       0  1  0   0  1 -1  -1  1  0
                      -1  0  1  -1  0  0  -1  1  0       1  0 -1   1  0  0   1 -1  0
                       0  1  0   1  0  0   0  0  1       0 -1  0  -1  0  0   0  0 -1
                       0  0 -1   0  1 -1   1  0 -1       0  0  1   0 -1  1  -1  0  1
                       1 -1  0   0 -1  1   0 -1  0      -1  1  0   0  1 -1   0  1  0
                       0  0  1   1  0  0   0  1  0       0  0 -1  -1  0  0   0 -1  0
                      -1  1  0  -1  0  0  -1  0  1       1 -1  0   1  0  0   1  0 -1
                       0  0  1   0  1  0   1  0  0       0  0 -1   0 -1  0  -1  0  0
                       1 -1  0   0 -1  0   0 -1  1      -1  1  0   0  1  0   0  1 -1
                       0  0 -1   1  0 -1   0  1 -1       0  0  1  -1  0  1   0 -1  1
                      -1  1  0  -1  0  1  -1  0  0       1 -1  0   1  0 -1   1  0  0
           tolwfr      1.00000000E-20
            typat      1  1  2  3  4  4  4  4  4  4
           useylm           1
           xangst      1.8614454823E+00  1.3162407234E+00  3.2241181509E+00
                       5.5843364470E+00  3.9487221701E+00  9.6723544528E+00
                       3.7228909647E+00  2.6324814467E+00  6.4482363018E+00
                       0.0000000000E+00  0.0000000000E+00  0.0000000000E+00
                       2.6409704527E+00  4.1625481081E+00  8.3221775982E+00
                       4.8048114766E+00  1.1024147854E+00  8.3221775982E+00
                       2.6409704527E+00  4.1625481081E+00  4.5742950055E+00
                       1.5590499408E+00  1.1024147854E+00  6.4482363018E+00
                       5.8867319885E+00  4.1625481081E+00  6.4482363018E+00
                       4.8048114766E+00  1.1024147854E+00  4.5742950055E+00
            xcart      3.5176221729E+00  2.4873344921E+00  6.0927003253E+00
                       1.0552866519E+01  7.4620034763E+00  1.8278100976E+01
                       7.0352443458E+00  4.9746689842E+00  1.2185400651E+01
                       0.0000000000E+00  0.0000000000E+00  0.0000000000E+00
                       4.9907108807E+00  7.8660759392E+00  1.5726636490E+01
                       9.0797778109E+00  2.0832620292E+00  1.5726636490E+01
                       4.9907108807E+00  7.8660759392E+00  8.6441648113E+00
                       2.9461774157E+00  2.0832620292E+00  1.2185400651E+01
                       1.1124311276E+01  7.8660759392E+00  1.2185400651E+01
                       9.0797778109E+00  2.0832620292E+00  8.6441648113E+00
             xred      2.5000000000E-01  2.5000000000E-01  2.5000000000E-01
                       7.5000000000E-01  7.5000000000E-01  7.5000000000E-01
                       5.0000000000E-01  5.0000000000E-01  5.0000000000E-01
                       0.0000000000E+00  0.0000000000E+00  0.0000000000E+00
                       2.0938700000E-01  7.9061300000E-01  7.9061300000E-01
                       7.9061300000E-01  2.0938700000E-01  7.9061300000E-01
                       2.0938700000E-01  7.9061300000E-01  2.0938700000E-01
                       2.0938700000E-01  2.0938700000E-01  7.9061300000E-01
                       7.9061300000E-01  7.9061300000E-01  2.0938700000E-01
                       7.9061300000E-01  2.0938700000E-01  2.0938700000E-01
            znucl       55.00000   37.00000   31.00000    9.00000

 chkinp: Checking input parameters for consistency.

== DATASET  1 ==================================================================
-   mpi_nproc: 1, omp_nthreads: -1 (-1 if OMP is not activated)

--- !DatasetInfo
iteration_state: {dtset: 1, }
dimensions: {natom: 10, nkpt: 1, mband: 50, nsppol: 1, nspinor: 1, nspden: 1, mpw: 16529, }
cutoff_energies: {ecut:  42.0, pawecutdg:  -1.0, }
electrons: {nelect:   8.20000000E+01, charge:   0.00000000E+00, occopt:   1.00000000E+00, tsmear:   1.00000000E-02, }
meta: {optdriver: 1, rfelfd: 2, }
...

 Real(R)+Recip(G) space primitive vectors, cartesian coordinates (Bohr,Bohr^-1):
 R(1)= 10.5528665  0.0000000  6.0927003  G(1)=  0.0947610 -0.0335031  0.0000000
 R(2)=  3.5176222  9.9493380  6.0927003  G(2)=  0.0000000  0.1005092  0.0000000
 R(3)=  0.0000000  0.0000000 12.1854007  G(3)= -0.0473805 -0.0335031  0.0820654
 Unit cell volume ucvol=  1.2793944E+03 bohr^3
 Angles (23,13,12)=  6.00000000E+01  6.00000000E+01  6.00000000E+01 degrees

 getcut: wavevector=  0.0000  0.0000  0.0000  ngfft=  72  72  72
         ecut(hartree)=     42.000   => boxcut(ratio)=   2.02536

--- Pseudopotential description ------------------------------------------------
- pspini: atom type   1  psp file is /scratch/users/j/a/jabreu/pseudos/PBEsol/Cs.psp8
- pspatm: opening atomic psp file    /scratch/users/j/a/jabreu/pseudos/PBEsol/Cs.psp8
- Cs    ONCVPSP-3.3.0  r_core=   2.27353   1.85623   2.01788   1.90105
- 55.00000   9.00000    180112                znucl, zion, pspdat
    8 -116133    3    4       600   0.00000   pspcod,pspxc,lmax,lloc,mmax,r2well
    5.99000000000000    5.00000000000000    0.00000000000000   rchrg,fchrg,qchrg
     nproj     2     2     2     2
     extension_switch     1
  pspatm : epsatm=   22.12462445
         --- l  ekb(1:nproj) -->
             0    6.214110    0.767882
             1    6.311966    0.793598
             2    3.769790    0.913105
             3   -9.247129   -2.432478
 pspatm: atomic psp has been read  and splines computed

- pspini: atom type   2  psp file is /scratch/users/j/a/jabreu/pseudos/PBEsol/Rb.psp8
- pspatm: opening atomic psp file    /scratch/users/j/a/jabreu/pseudos/PBEsol/Rb.psp8
- Rb    ONCVPSP-3.3.0  r_core=   1.71227   1.75361   1.90633
- 37.00000   9.00000    180112                znucl, zion, pspdat
    8 -116133    2    4       600   0.00000   pspcod,pspxc,lmax,lloc,mmax,r2well
    5.99000000000000    7.00000000000000    0.00000000000000   rchrg,fchrg,qchrg
     nproj     2     2     2
     extension_switch     1
  pspatm : epsatm=   34.48400912
         --- l  ekb(1:nproj) -->
             0    8.196957   -0.477221
             1    3.231347   -0.378736
             2   -1.047201    0.996637
 pspatm: atomic psp has been read  and splines computed

[...]

- pspini: atom type   4  psp file is /scratch/users/j/a/jabreu/pseudos/PBEsol/F.psp8
- pspatm: opening atomic psp file    /scratch/users/j/a/jabreu/pseudos/PBEsol/F.psp8
- F     ONCVPSP-3.3.0  r_core=   1.30942   1.45782   1.60379
-  9.00000   7.00000    180112                znucl, zion, pspdat
    8 -116133    2    4       600   0.00000   pspcod,pspxc,lmax,lloc,mmax,r2well
[...]
 ETOT 15  -44.286830256172      3.553E-14 2.104E-09 0.000E+00
 ETOT 16  -44.286830256172     -3.553E-14 2.748E-09 0.000E+00
 ETOT 17  -44.286830256172      5.684E-14 2.686E-10 0.000E+00
 ETOT 18  -44.286830256172     -1.421E-14 3.005E-10 0.000E+00
 ETOT 19  -44.286830256172     -7.105E-15 3.440E-11 0.000E+00
 ETOT 20  -44.286830256172      0.000E+00 3.266E-11 0.000E+00
 ETOT 21  -44.286830256172      2.132E-14 4.412E-12 0.000E+00
 ETOT 22  -44.286830256172     -7.105E-15 4.073E-12 0.000E+00
 ETOT 23  -44.286830256172     -1.421E-14 5.664E-13 0.000E+00
 ETOT 24  -44.286830256172      0.000E+00 5.271E-13 0.000E+00
 ETOT 25  -44.286830256172      2.132E-14 7.274E-14 0.000E+00
 ETOT 26  -44.286830256172     -7.105E-15 6.812E-14 0.000E+00
 ETOT 27  -44.286830256172     -1.421E-14 9.343E-15 0.000E+00
 ETOT 28  -44.286830256172      1.421E-14 8.795E-15 0.000E+00
 ETOT 29  -44.286830256172      1.421E-14 1.200E-15 0.000E+00
 ETOT 30  -44.286830256172     -2.132E-14 1.135E-15 0.000E+00
 ETOT 31  -44.286830256172      0.000E+00 1.542E-16 0.000E+00
 ETOT 32  -44.286830256172     -7.105E-15 1.463E-16 0.000E+00
 ETOT 33  -44.286830256172      1.421E-14 1.982E-17 0.000E+00
 ETOT 34  -44.286830256172      0.000E+00 1.885E-17 0.000E+00
 ETOT 35  -44.286830256172     -7.105E-15 2.548E-18 0.000E+00
 ETOT 36  -44.286830256172      0.000E+00 2.429E-18 0.000E+00
 ETOT 37  -44.286830256172      0.000E+00 3.275E-19 0.000E+00
 ETOT 38  -44.286830256172      0.000E+00 3.129E-19 0.000E+00
 ETOT 39  -44.286830256172      7.105E-15 4.210E-20 0.000E+00
 ETOT 40  -44.286830256172     -7.105E-15 4.030E-20 0.000E+00
 ETOT 41  -44.286830256172     -7.105E-15 9.836E-21 0.000E+00

 At SCF step   41   max residual=  9.84E-21 < tolwfr=  1.00E-20 =>converged.

 ----iterations are completed or convergence reached----

 dfpt_looppert: DFPT cycle converged with prtwf=-1. Will skip output of the 1st-order WFK file.
 dfpt_looppert : ek2=    6.5405642690E+01
          f-sum rule ratio=    1.0497658696E+00
 prteigrs : about to open file /scratch/users/j/a/jabreu/flow_simple_10atoms/flow/w273/t1/tmpdata/tmp_1WF1_EIG
 Expectation of eigenvalue derivatives (hartree) for nkpt=   1  k points:
  (in case of degenerate eigenvalues, averaged derivative)
 kpt#   1, nband= 50, wtk=  1.00000, kpt=  0.0000  0.0000  0.0000 (reduced coord)
   0.00000    0.00000   -0.00000   -0.00000   -0.00000   -0.00000   -0.00000   -0.00000
  -0.00000    0.00000    0.00000    0.00000    0.00000    0.00000   -0.00000   -0.00000
  -0.00000    0.00000    0.00000    0.00000    0.00000   -0.00000   -0.00000   -0.00000
   0.00000    0.00000    0.00000    0.00000    0.00000    0.00000   -0.00000   -0.00000
  -0.00000   -0.00000   -0.00000   -0.00000   -0.00000   -0.00000   -0.00000   -0.00000
  -0.00000   -0.00000   -0.00000   -0.00000    0.00000    0.00000    0.00000   -0.00000
  -0.00000    0.00018

 Eight components of 2nd-order total energy (hartree) are
 1,2,3: 0th-order hamiltonian combined with 1st-order wavefunctions
     kin0=   5.46733775E+01 eigvalue=   3.22706506E+00  local=  -2.45327588E+01
 4,5,6: 1st-order hamiltonian combined with 1st and 0th-order wfs
     kin1=  -6.86606114E+01  Hartree=   0.00000000E+00     xc=   0.00000000E+00
 7,8,9: eventually, occupation + non-local contributions
    edocc=   7.17014778E+00     enl0=   3.74899872E+00   enl1=  -1.99130491E+01
 1-9 gives the relaxation energy (to be shifted if some occ is /=2.0)
   erelax=  -4.42868303E+01
  No Ewald or frozen-wf contrib.: the relaxation energy is the total one
 2DEtotal=   -0.4428683026E+02 Ha. Also 2DEtotal=   -0.120510593804E+04 eV
    (  non-var. 2DEtotal :   -4.4286830256E+01 Ha)

 CALCULATION OF EFFECTIVE MASSES
 NOTE : Additional infos (eff. mass eigenvalues, eigenvectors and, if degenerate, average mass) are available in stdout.

 COMMENTS:
 - At k-point ( 0.000, 0.000, 0.000), bands    39 through    41
   are DEGENERATE (effective mass tensor is therefore not defined).
   See Section IIIB Eqs. (67)-(70) and Appendix E of PRB 93 205147 (2016).
 - Angular average effective mass for Frohlich model is to be averaged over degenerate bands. See later.
 - Associated theta integrals calculated with ntheta=   1000 points.

 K-point ( 0.000, 0.000, 0.000) | band =    39
 Transport equivalent effective mass tensor:
             -8.4347322532             -0.0000001021             -0.0000003441
             -0.0000001021             -8.4347330049              0.0000003393
             -0.0000003441              0.0000003393             -8.4347323333
 Transport equivalent effective mass tensor eigenvalues:
             -8.4347331484             -8.4347325792             -8.4347318638
 Angular average effective mass 1/(<1/m>)=  -8.0245997840
 Angular average effective mass for Frohlich model (<m**0.5>)**2=  -8.0410671178
 Effective masses along directions: (cart. coord. / red. coord. -> eff. mass)
    1:   1.000000  0.000000  0.000000 /   0.948683  0.316228  0.000000 ->  -8.5584457894
    2:   0.000000  1.000000  0.000000 /   0.000000  1.000000  0.000000 ->  -9.3426248591
    3:   0.000000  0.000000  1.000000 /   0.408248  0.408248  0.816497 ->  -7.6483601105
    4:   0.577350  0.577350  0.577350 /   0.585539  0.688047  0.428644 ->  -8.2709476747
    5:   0.000000  0.707107  0.707107 /   0.289489  0.762222  0.578977 ->  -7.7012356959
    6:   0.707107  0.000000  0.707107 /   0.731423  0.422287  0.535439 ->  -7.9342390489
    7:   0.707107  0.707107  0.000000 /   0.616798  0.787122  0.000000 ->  -7.7204374504

[...]

 K-point ( 0.000, 0.000, 0.000) | band =    41
 Transport equivalent effective mass tensor:
           -136.9321964834              0.0000754125             -0.0000179978
              0.0000754125           -136.9322070392              0.0000329789
             -0.0000179978              0.0000329789           -136.9322376181
 Transport equivalent effective mass tensor eigenvalues:
           -136.9322990848           -136.9322167316           -136.9321253244
 Angular average effective mass 1/(<1/m>)= -22.5695732925
 Angular average effective mass for Frohlich model (<m**0.5>)**2= -26.4162620730
 Effective masses along directions: (cart. coord. / red. coord. -> eff. mass)
    1:   1.000000  0.000000  0.000000 /   0.948683  0.316228  0.000000 -> -20.2771357394
    2:   0.000000  1.000000  0.000000 /   0.000000  1.000000  0.000000 -> -12.0484401608
    3:   0.000000  0.000000  1.000000 /   0.408248  0.408248  0.816497 -> -16.9136138880
    4:   0.577350  0.577350  0.577350 /   0.585539  0.688047  0.428644 -> -19.5359250295
    5:   0.000000  0.707107  0.707107 /   0.289489  0.762222  0.578977 -> -31.8730090250
    6:   0.707107  0.000000  0.707107 /   0.731423  0.422287  0.535439 -> -18.7671760241
    7:   0.707107  0.707107  0.000000 /   0.616798  0.787122  0.000000 -> -67.5324100977

 Angular average effective mass for Frohlich model, averaged over degenerate bands.
 Value of     (<<m**0.5>>)**2 =     1.367772E+01
 Absolute Value of <<m**0.5>> =     3.698340E+00

 K-point ( 0.000, 0.000, 0.000) | band =    42
 Effective mass tensor:
              0.4480352250             -0.0000000003             -0.0000000005
             -0.0000000003              0.4480352251              0.0000000003
             -0.0000000005              0.0000000003              0.4480352255
 Effective mass tensor eigenvalues:
              0.4480352247              0.4480352249              0.4480352260
 Angular average effective mass 1/(<1/m>)=   0.4480352252
 Angular average effective mass for Frohlich model (<m**0.5>)**2=   0.4480352252
 Effective masses along directions: (cart. coord. / red. coord. -> eff. mass)
    1:   1.000000  0.000000  0.000000 /   0.948683  0.316228  0.000000 ->   0.4480352250
    2:   0.000000  1.000000  0.000000 /   0.000000  1.000000  0.000000 ->   0.4480352251
    3:   0.000000  0.000000  1.000000 /   0.408248  0.408248  0.816497 ->   0.4480352255
    4:   0.577350  0.577350  0.577350 /   0.585539  0.688047  0.428644 ->   0.4480352249
    5:   0.000000  0.707107  0.707107 /   0.289489  0.762222  0.578977 ->   0.4480352256
    6:   0.707107  0.000000  0.707107 /   0.731423  0.422287  0.535439 ->   0.4480352248
    7:   0.707107  0.707107  0.000000 /   0.616798  0.787122  0.000000 ->   0.4480352248

 END OF EFFECTIVE MASSES SECTION

 ---- first-order wavefunction calculations are completed ----

 Total localisation tensor (bohr^2) in cartesian coordinates
  WARNING : still subject to testing - especially symmetries.
      direction              matrix element
   alpha     beta       real part   imaginary part
     1        1       0.8247717441    0.0000000000
     1        2       0.2332886737    0.0000000000
     1        3       0.5714218907    0.0000000000
     2        1       0.2332886737    0.0000000000
     2        2       0.6598400126    0.0000000000
     2        3       0.4040678357    0.0000000000
     3        1       0.5714218907    0.0000000000
     3        2       0.4040678357    0.0000000000
     3        3       1.4844634601    0.0000000000

 respfn : d/dk was computed, but no 2DTE, so no DDB output.

== END DATASET(S) ==============================================================

 -outvars: echo values of variables after computation  --------
            acell      1.0000000000E+00  1.0000000000E+00  1.0000000000E+00 Bohr
              amu      1.32905430E+02  8.54678000E+01  6.97230000E+01
                       1.89984032E+01
             ecut      4.20000000E+01 Hartree
           etotal     -4.4286830256E+01
            fcart      0.0000000000E+00  0.0000000000E+00  0.0000000000E+00
                       0.0000000000E+00  0.0000000000E+00  0.0000000000E+00
                       0.0000000000E+00  0.0000000000E+00  0.0000000000E+00
                       0.0000000000E+00  0.0000000000E+00  0.0000000000E+00
                       0.0000000000E+00  0.0000000000E+00  0.0000000000E+00
                       0.0000000000E+00  0.0000000000E+00  0.0000000000E+00
                       0.0000000000E+00  0.0000000000E+00  0.0000000000E+00
                       0.0000000000E+00  0.0000000000E+00  0.0000000000E+00
                       0.0000000000E+00  0.0000000000E+00  0.0000000000E+00
                       0.0000000000E+00  0.0000000000E+00  0.0000000000E+00
-          fftalg         512
           irdden           1
           irdwfk           1
           istwfk        1
              ixc     -116133
           kptopt           0
P           mkmem           1
P          mkqmem           1
P          mk1mem           1
            natom          10
            nband          50
           nbdbuf           4
            ngfft          72      72      72
             nkpt           1
            nstep        2000
             nsym          48
           ntypat           4
              occ      2.000000  2.000000  2.000000  2.000000  2.000000  2.000000
                       2.000000  2.000000  2.000000  2.000000  2.000000  2.000000
                       2.000000  2.000000  2.000000  2.000000  2.000000  2.000000
                       2.000000  2.000000  2.000000  2.000000  2.000000  2.000000
                       2.000000  2.000000  2.000000  2.000000  2.000000  2.000000
                       2.000000  2.000000  2.000000  2.000000  2.000000  2.000000
                       2.000000  2.000000  2.000000  2.000000  2.000000  0.000000
                       0.000000  0.000000  0.000000  0.000000  0.000000  0.000000
                       0.000000  0.000000
        optdriver           1
            prtwf          -1
            rfdir           1       1       1
           rfelfd           2
            rprim      1.0552866519E+01  0.0000000000E+00  6.0927003253E+00
                       3.5176221729E+00  9.9493379684E+00  6.0927003253E+00
                       0.0000000000E+00  0.0000000000E+00  1.2185400651E+01
          spgroup         225
           strten      0.0000000000E+00  0.0000000000E+00  0.0000000000E+00
                       0.0000000000E+00  0.0000000000E+00  0.0000000000E+00
           symrel      1  0  0   0  1  0   0  0  1      -1  0  0   0 -1  0   0  0 -1
                       0 -1  1   0 -1  0   1 -1  0       0  1 -1   0  1  0  -1  1  0
                      -1  0  0  -1  0  1  -1  1  0       1  0  0   1  0 -1   1 -1  0
                       0  1 -1   1  0 -1   0  0 -1       0 -1  1  -1  0  1   0  0  1
                      -1  0  0  -1  1  0  -1  0  1       1  0  0   1 -1  0   1  0 -1
                       0 -1  1   1 -1  0   0 -1  0       0  1 -1  -1  1  0   0  1  0
                       1  0  0   0  0  1   0  1  0      -1  0  0   0  0 -1   0 -1  0
                       0  1 -1   0  0 -1   1  0 -1       0 -1  1   0  0  1  -1  0  1
                      -1  0  1  -1  1  0  -1  0  0       1  0 -1   1 -1  0   1  0  0
                       0 -1  0   1 -1  0   0 -1  1       0  1  0  -1  1  0   0  1 -1
                       1  0 -1   0  0 -1   0  1 -1      -1  0  1   0  0  1   0 -1  1
                       0  1  0   0  0  1   1  0  0       0 -1  0   0  0 -1  -1  0  0
                       1  0 -1   0  1 -1   0  0 -1      -1  0  1   0 -1  1   0  0  1
                       0 -1  0   0 -1  1   1 -1  0       0  1  0   0  1 -1  -1  1  0
                      -1  0  1  -1  0  0  -1  1  0       1  0 -1   1  0  0   1 -1  0
                       0  1  0   1  0  0   0  0  1       0 -1  0  -1  0  0   0  0 -1
                       0  0 -1   0  1 -1   1  0 -1       0  0  1   0 -1  1  -1  0  1
                       1 -1  0   0 -1  1   0 -1  0      -1  1  0   0  1 -1   0  1  0
                       0  0  1   1  0  0   0  1  0       0  0 -1  -1  0  0   0 -1  0
                      -1  1  0  -1  0  0  -1  0  1       1 -1  0   1  0  0   1  0 -1
                       0  0  1   0  1  0   1  0  0       0  0 -1   0 -1  0  -1  0  0
                       1 -1  0   0 -1  0   0 -1  1      -1  1  0   0  1  0   0  1 -1
                       0  0 -1   1  0 -1   0  1 -1       0  0  1  -1  0  1   0 -1  1
                      -1  1  0  -1  0  1  -1  0  0       1 -1  0   1  0 -1   1  0  0
           tolwfr      1.00000000E-20
            typat      1  1  2  3  4  4  4  4  4  4
           useylm           1
           xangst      1.8614454823E+00  1.3162407234E+00  3.2241181509E+00
                       5.5843364470E+00  3.9487221701E+00  9.6723544528E+00
                       3.7228909647E+00  2.6324814467E+00  6.4482363018E+00
                       0.0000000000E+00  0.0000000000E+00  0.0000000000E+00
                       2.6409704527E+00  4.1625481081E+00  8.3221775982E+00
                       4.8048114766E+00  1.1024147854E+00  8.3221775982E+00
                       2.6409704527E+00  4.1625481081E+00  4.5742950055E+00
                       1.5590499408E+00  1.1024147854E+00  6.4482363018E+00
                       5.8867319885E+00  4.1625481081E+00  6.4482363018E+00
                       4.8048114766E+00  1.1024147854E+00  4.5742950055E+00
            xcart      3.5176221729E+00  2.4873344921E+00  6.0927003253E+00
                       1.0552866519E+01  7.4620034763E+00  1.8278100976E+01
                       7.0352443458E+00  4.9746689842E+00  1.2185400651E+01
                       0.0000000000E+00  0.0000000000E+00  0.0000000000E+00
                       4.9907108807E+00  7.8660759392E+00  1.5726636490E+01
                       9.0797778109E+00  2.0832620292E+00  1.5726636490E+01
                       4.9907108807E+00  7.8660759392E+00  8.6441648113E+00
                       2.9461774157E+00  2.0832620292E+00  1.2185400651E+01
                       1.1124311276E+01  7.8660759392E+00  1.2185400651E+01
                       9.0797778109E+00  2.0832620292E+00  8.6441648113E+00
             xred      2.5000000000E-01  2.5000000000E-01  2.5000000000E-01
                       7.5000000000E-01  7.5000000000E-01  7.5000000000E-01
                       5.0000000000E-01  5.0000000000E-01  5.0000000000E-01
                       0.0000000000E+00  0.0000000000E+00  0.0000000000E+00
                       2.0938700000E-01  7.9061300000E-01  7.9061300000E-01
                       7.9061300000E-01  2.0938700000E-01  7.9061300000E-01
                       2.0938700000E-01  7.9061300000E-01  2.0938700000E-01
                       2.0938700000E-01  2.0938700000E-01  7.9061300000E-01
                       7.9061300000E-01  7.9061300000E-01  2.0938700000E-01
                       7.9061300000E-01  2.0938700000E-01  2.0938700000E-01
            znucl       55.00000   37.00000   31.00000    9.00000

- Timing analysis has been suppressed with timopt=0

 Suggested references for the acknowledgment of ABINIT usage.

 Calculation completed.
.Delivered   2 WARNINGs and   5 COMMENTs to log file.