.Version 9.5.1 of ABINIT

 ABINIT is a project of the Universite Catholique de Louvain,
 Corning Inc. and other collaborators, see ~abinit/doc/developers/contributors.txt .
 acknowledgments of the ABINIT effort.

.Starting date : Wed 19 May 2021.
- ( at 03h11 )

- input  file    -> /scratch/users/j/a/jabreu/flow_simple_8atoms/flow/w430/t1/run.abi
- output file    -> /scratch/users/j/a/jabreu/flow_simple_8atoms/flow/w430/t1/run.abo
- root for input  files -> /scratch/users/j/a/jabreu/flow_simple_8atoms/flow/w430/t1/indata/in
- root for output files -> /scratch/users/j/a/jabreu/flow_simple_8atoms/flow/w430/t1/outdata/out

 Symmetries : space group P2_1/c (# 14); Bravais mP (primitive monocl.)
     intxc =       0      iscf =       7    lmnmax =      25     lnmax =       7
     mgfft =      64  mpssoang =       4    mqgrid =    3039     natom =       8
  nloc_mem =       1    nspden =       1   nspinor =       1    nsppol =       1
      nsym =       4    n1xccc =    2501    ntypat =       3    occopt =       1
   xclevel =       2
-    mband =          59        mffmem =           1         mkmem =           2
-   mkqmem =           2        mk1mem =           2           mpw =       10698
      nfft =      184320          nkpt =           2
  Rough estimation (10% accuracy) of disk space for files :

------------- Echo of variables that govern the present computation ------------
-
- outvars: echo of selected default values
-   iomode0 =  0 , fftalg0 =512 , wfoptalg0 =  0
-
- outvars: echo of global parameters not present in the input file
-  max_nthreads =    0
-
 -outvars: echo values of preprocessed input variables --------
            acell      1.0000000000E+00  1.0000000000E+00  1.0000000000E+00 Bohr
              amu      1.07868200E+02  1.96966540E+02  1.59994000E+01
             ecut      4.40000000E+01 Hartree
-          fftalg         512
           irdden           1
           irdwfk           1
           istwfk        1    0
              ixc     -116133
              kpt      0.00000000E+00  0.00000000E+00  0.00000000E+00
                       0.00000000E+00  2.27264928E-01  5.63098177E-01
           kptopt           0
P           mkmem           2
P          mkqmem           2
P          mk1mem           2
            natom           8
            nband          59
           nbdbuf           4
            ngfft          45      64      64
             nkpt           2
            nstep        2000
             nsym           4
           ntypat           3
              occ      2.000000  2.000000  2.000000  2.000000  2.000000  2.000000
                       2.000000  2.000000  2.000000  2.000000  2.000000  2.000000
                       2.000000  2.000000  2.000000  2.000000  2.000000  2.000000
                       2.000000  2.000000  2.000000  2.000000  2.000000  2.000000
                       2.000000  2.000000  2.000000  2.000000  2.000000  2.000000
                       2.000000  2.000000  2.000000  2.000000  2.000000  2.000000
                       2.000000  2.000000  2.000000  2.000000  2.000000  2.000000
                       2.000000  2.000000  2.000000  2.000000  2.000000  2.000000
                       2.000000  2.000000  0.000000  0.000000  0.000000  0.000000
                       0.000000  0.000000  0.000000  0.000000  0.000000
        optdriver           1
            prtwf          -1
            rfdir           1       1       1
           rfelfd           2
            rprim      7.3416264721E+00  0.0000000000E+00  0.0000000000E+00
                       0.0000000000E+00  9.8956213089E+00  2.7748068835E+00
                       0.0000000000E+00  0.0000000000E+00  1.0568408965E+01
          spgroup          14
           symrel      1  0  0   0  1  0   0  0  1      -1  0  0   0 -1  0   0  0 -1
                       1  0  0   0 -1  0   0  0 -1      -1  0  0   0  1  0   0  0  1
            tnons      0.0000000  0.0000000  0.0000000     0.0000000  0.0000000  0.0000000
                       0.5000000  0.5000000  0.0000000     0.5000000  0.5000000  0.0000000
           tolwfr      1.00000000E-20
            typat      1  1  2  2  3  3  3  3
           useylm           1
              wtk        0.50000    0.50000
           xangst      1.9425107015E+00  0.0000000000E+00  2.7962805778E+00
                       0.0000000000E+00  2.6182686308E+00  3.5304628583E+00
                       1.9425107015E+00  2.6182686308E+00  7.3418228049E-01
                       0.0000000000E+00  0.0000000000E+00  0.0000000000E+00
                       3.0935842679E+00  4.0924795468E+00  5.6220864373E+00
                       1.1510735664E+00  3.7623263455E+00  2.1730215597E+00
                       7.9143713512E-01  1.1440577147E+00  1.4388392792E+00
                       2.7339478366E+00  1.4742109160E+00  4.8879041568E+00
            xcart      3.6708132360E+00  0.0000000000E+00  5.2842044827E+00
                       0.0000000000E+00  4.9478106544E+00  6.6716079244E+00
                       3.6708132360E+00  4.9478106544E+00  1.3874034417E+00
                       0.0000000000E+00  0.0000000000E+00  0.0000000000E+00
                       5.8460270353E+00  7.7336655478E+00  1.0624203662E+01
                       2.1752137993E+00  7.1097664155E+00  4.1064156287E+00
                       1.4955994368E+00  2.1619557611E+00  2.7190121870E+00
                       5.1664126728E+00  2.7858548934E+00  9.2368002202E+00
             xred      5.0000000000E-01  0.0000000000E+00  5.0000000000E-01
                       0.0000000000E+00  5.0000000000E-01  5.0000000000E-01
                       5.0000000000E-01  5.0000000000E-01  0.0000000000E+00
                       0.0000000000E+00  0.0000000000E+00  0.0000000000E+00
                       7.9628500000E-01  7.8152400000E-01  8.0008500000E-01
                       2.9628500000E-01  7.1847600000E-01  1.9991500000E-01
                       2.0371500000E-01  2.1847600000E-01  1.9991500000E-01
                       7.0371500000E-01  2.8152400000E-01  8.0008500000E-01
            znucl       47.00000   79.00000    8.00000

 chkinp: Checking input parameters for consistency.

== DATASET  1 ==================================================================
-   mpi_nproc: 1, omp_nthreads: -1 (-1 if OMP is not activated)

--- !DatasetInfo
iteration_state: {dtset: 1, }
dimensions: {natom: 8, nkpt: 2, mband: 59, nsppol: 1, nspinor: 1, nspden: 1, mpw: 10698, }
cutoff_energies: {ecut:  44.0, pawecutdg:  -1.0, }
electrons: {nelect:   1.00000000E+02, charge:   0.00000000E+00, occopt:   1.00000000E+00, tsmear:   1.00000000E-02, }
meta: {optdriver: 1, rfelfd: 2, }
...

 Real(R)+Recip(G) space primitive vectors, cartesian coordinates (Bohr,Bohr^-1):
 R(1)=  7.3416265  0.0000000  0.0000000  G(1)=  0.1362096  0.0000000  0.0000000
 R(2)=  0.0000000  9.8956213  2.7748069  G(2)=  0.0000000  0.1010548  0.0000000
 R(3)=  0.0000000  0.0000000 10.5684090  G(3)=  0.0000000 -0.0265326  0.0946216
 Unit cell volume ucvol=  7.6779444E+02 bohr^3
 Angles (23,13,12)=  7.43361028E+01  9.00000000E+01  9.00000000E+01 degrees

 getcut: wavevector=  0.0000  0.0000  0.0000  ngfft=  45  64  64
         ecut(hartree)=     44.000   => boxcut(ratio)=   2.00710

--- Pseudopotential description ------------------------------------------------
- pspini: atom type   1  psp file is /scratch/users/j/a/jabreu/pseudos/PBEsol/Ag.psp8
- pspatm: opening atomic psp file    /scratch/users/j/a/jabreu/pseudos/PBEsol/Ag.psp8
- Ag    ONCVPSP-3.3.0  r_core=   1.41384   1.46535   1.61207
- 47.00000  19.00000    180112                znucl, zion, pspdat
    8 -116133    2    4       600   0.00000   pspcod,pspxc,lmax,lloc,mmax,r2well
    5.99000000000000    7.00000000000000    0.00000000000000   rchrg,fchrg,qchrg
     nproj     2     2     2
     extension_switch     1
  pspatm : epsatm=   27.64581383
         --- l  ekb(1:nproj) -->
             0    9.559407   -0.398585
             1    3.418858   -0.136622
             2   -1.644397   -0.401551
 pspatm: atomic psp has been read  and splines computed

- pspini: atom type   2  psp file is /scratch/users/j/a/jabreu/pseudos/PBEsol/Au.psp8
- pspatm: opening atomic psp file    /scratch/users/j/a/jabreu/pseudos/PBEsol/Au.psp8
- Au    ONCVPSP-3.3.0  r_core=   1.45604   1.56407   1.56407   1.60183
- 79.00000  19.00000    180112                znucl, zion, pspdat
    8 -116133    3    4       500   0.00000   pspcod,pspxc,lmax,lloc,mmax,r2well
    4.99000000000000    5.00000000000000    0.00000000000000   rchrg,fchrg,qchrg
     nproj     2     2     2     1
     extension_switch     1
  pspatm : epsatm=   32.21965837
         --- l  ekb(1:nproj) -->
             0    9.413866   -0.196587
             1    2.474292   -1.517497
             2    1.503483    0.298081
             3    1.177996
 pspatm: atomic psp has been read  and splines computed

- pspini: atom type   3  psp file is /scratch/users/j/a/jabreu/pseudos/PBEsol/O.psp8
- pspatm: opening atomic psp file    /scratch/users/j/a/jabreu/pseudos/PBEsol/O.psp8
- O     ONCVPSP-3.3.0  r_core=   1.35509   1.45563   1.26150
-  8.00000   6.00000    180112                znucl, zion, pspdat
    8 -116133    2    4       600   0.00000   pspcod,pspxc,lmax,lloc,mmax,r2well
    5.99000000000000    4.00000000000000    0.00000000000000   rchrg,fchrg,qchrg
     nproj     2     2     1
     extension_switch     1
  pspatm : epsatm=    6.22910522
         --- l  ekb(1:nproj) -->
             0    6.050032    0.820363
             1   -4.739617   -1.153841
             2   -1.335834
 pspatm: atomic psp has been read  and splines computed

   1.44647365E+04                                ecore*ucvol(ha*bohr**3)

-inwffil : will read wavefunctions from disk file /scratch/users/j/a/jabreu/flow_simple_8atoms/flow/w430/t1/indata/in_WFK

 ==>  initialize data related to q vector <==

 The list of irreducible perturbations for this q vector is:
    1)    idir= 1    ipert=   9
    2)    idir= 2    ipert=   9
    3)    idir= 3    ipert=   9

 Perturbation wavevector (in red.coord.)   0.000000  0.000000  0.000000
 Perturbation : derivative vs k along direction   1

 dfpt_looppert : COMMENT -
  In a d/dk calculation, iscf is set to -3 automatically.
 The set of symmetries contains only one element for this perturbation.
 symkpt : not enough symmetry to change the number of k points.

[...]

 Initialisation of the first-order wave-functions :
  ireadwf=   0

--- !BeginCycle
iteration_state: {dtset: 1, }
solver: {iscf: 7, nstep: 2000, nline: 4, wfoptalg: 0, }
tolerances: {tolwfr: 1.00E-20, }
...

     iter   2DEtotal(Ha)        deltaE(Ha) residm    vres2
-ETOT  1  -76.369929470074     -7.637E+01 2.609E-02 0.000E+00
 ETOT  2  -76.421714026828     -5.178E-02 1.822E-04 0.000E+00
 ETOT  3  -76.421829886975     -1.159E-04 1.838E-06 0.000E+00
 ETOT  4  -76.421830413503     -5.265E-07 1.631E-08 0.000E+00
 ETOT  5  -76.421830416679     -3.177E-09 3.993E-10 0.000E+00
 ETOT  6  -76.421830416701     -2.207E-11 4.432E-12 0.000E+00
 ETOT  7  -76.421830416702     -1.279E-13 1.185E-13 0.000E+00
 ETOT  8  -76.421830416702     -2.842E-14 1.485E-15 0.000E+00
 ETOT  9  -76.421830416702     -5.684E-14 3.764E-17 0.000E+00
 ETOT 10  -76.421830416702      2.842E-14 5.830E-19 0.000E+00
 ETOT 11  -76.421830416702      1.421E-14 1.464E-20 0.000E+00
 ETOT 12  -76.421830416702      2.842E-14 9.924E-21 0.000E+00

 At SCF step   12   max residual=  9.92E-21 < tolwfr=  1.00E-20 =>converged.

 ----iterations are completed or convergence reached----

 dfpt_looppert: DFPT cycle converged with prtwf=-1. Will skip output of the 1st-order WFK file.
 dfpt_looppert : ek2=    1.4648905017E+02
          f-sum rule ratio=    1.0096565631E+00
 prteigrs : about to open file /scratch/users/j/a/jabreu/flow_simple_8atoms/flow/w430/t1/tmpdata/tmp_1WF1_EIG
 Expectation of eigenvalue derivatives (hartree) for nkpt=   2  k points:
  (in case of degenerate eigenvalues, averaged derivative)
 kpt#   1, nband= 59, wtk=  0.50000, kpt=  0.0000  0.0000  0.0000 (reduced coord)
   0.00000   -0.00000   -0.00000   -0.00000    0.00000   -0.00000   -0.00000    0.00000
   0.00000    0.00000   -0.00000    0.00000   -0.00000    0.00000    0.00000    0.00000
  -0.00000    0.00000   -0.00000   -0.00000   -0.00000   -0.00000    0.00000   -0.00000
   0.00000   -0.00000    0.00000   -0.00000   -0.00000    0.00000   -0.00000    0.00000
  -0.00000    0.00000   -0.00000   -0.00000   -0.00000   -0.00000   -0.00000   -0.00000
   0.00000   -0.00000   -0.00000    0.00000    0.00000    0.00000   -0.00000   -0.00000
   0.00000    0.00000   -0.00000   -0.00000    0.00000    0.00000   -0.00000   -0.00000
   0.00000    0.00000    0.00000
 prteigrs : prtvol=0 or 1, do not print more k-points.

 Eight components of 2nd-order total energy (hartree) are
 1,2,3: 0th-order hamiltonian combined with 1st-order wavefunctions
     kin0=   1.20897412E+02 eigvalue=  -3.01051701E+00  local=  -5.50029342E+01
 4,5,6: 1st-order hamiltonian combined with 1st and 0th-order wfs
     kin1=  -1.47903631E+02  Hartree=   0.00000000E+00     xc=   0.00000000E+00
 7,8,9: eventually, occupation + non-local contributions
    edocc=   1.24915381E+01     enl0=   1.04633202E+00   enl1=  -4.94002991E+00
 1-9 gives the relaxation energy (to be shifted if some occ is /=2.0)
   erelax=  -7.64218304E+01
  No Ewald or frozen-wf contrib.: the relaxation energy is the total one
 2DEtotal=   -0.7642183042E+02 Ha. Also 2DEtotal=   -0.207954376275E+04 eV
    (  non-var. 2DEtotal :   -7.6421830416E+01 Ha)

 Perturbation wavevector (in red.coord.)   0.000000  0.000000  0.000000
 Perturbation : derivative vs k along direction   2
 The set of symmetries contains only one element for this perturbation.
 symkpt : not enough symmetry to change the number of k points.

[...]

 Perturbation wavevector (in red.coord.)   0.000000  0.000000  0.000000
 Perturbation : derivative vs k along direction   3
 The set of symmetries contains only one element for this perturbation.
 symkpt : not enough symmetry to change the number of k points.

-inwffil : will read wavefunctions from disk file /scratch/users/j/a/jabreu/flow_simple_8atoms/flow/w430/t1/indata/in_WFK

 Initialisation of the first-order wave-functions :
  ireadwf=   0

--- !BeginCycle
iteration_state: {dtset: 1, }
solver: {iscf: 7, nstep: 2000, nline: 4, wfoptalg: 0, }
tolerances: {tolwfr: 1.00E-20, }
...

     iter   2DEtotal(Ha)        deltaE(Ha) residm    vres2
-ETOT  1  -39.659396270039     -3.966E+01 4.925E-02 0.000E+00
 ETOT  2  -39.682980026278     -2.358E-02 9.066E-04 0.000E+00
 ETOT  3  -39.683020233578     -4.021E-05 9.763E-06 0.000E+00
 ETOT  4  -39.683020386985     -1.534E-07 3.445E-07 0.000E+00
 ETOT  5  -39.683020387737     -7.520E-10 6.249E-09 0.000E+00
 ETOT  6  -39.683020387741     -4.150E-12 2.546E-10 0.000E+00
 ETOT  7  -39.683020387741     -6.395E-14 5.255E-12 0.000E+00
 ETOT  8  -39.683020387741     -1.421E-14 2.200E-13 0.000E+00
 ETOT  9  -39.683020387741      2.132E-14 4.605E-15 0.000E+00
 ETOT 10  -39.683020387741      0.000E+00 1.955E-16 0.000E+00
 ETOT 11  -39.683020387741      0.000E+00 4.104E-18 0.000E+00
 ETOT 12  -39.683020387741      0.000E+00 1.757E-19 0.000E+00
 ETOT 13  -39.683020387741      0.000E+00 9.759E-21 0.000E+00

 At SCF step   13   max residual=  9.76E-21 < tolwfr=  1.00E-20 =>converged.

 ----iterations are completed or convergence reached----

 dfpt_looppert: DFPT cycle converged with prtwf=-1. Will skip output of the 1st-order WFK file.
 dfpt_looppert : ek2=    7.6250440745E+01
          f-sum rule ratio=    9.9931719276E-01
 prteigrs : about to open file /scratch/users/j/a/jabreu/flow_simple_8atoms/flow/w430/t1/tmpdata/tmp_1WF1_EIG
 Expectation of eigenvalue derivatives (hartree) for nkpt=   2  k points:
  (in case of degenerate eigenvalues, averaged derivative)
 kpt#   1, nband= 59, wtk=  0.50000, kpt=  0.0000  0.0000  0.0000 (reduced coord)
  -0.00000    0.00000    0.00000   -0.00000   -0.00000    0.00000   -0.00000    0.00000
   0.00000    0.00000   -0.00000   -0.00000   -0.00000    0.00000   -0.00000    0.00000
  -0.00000   -0.00000    0.00000   -0.00000    0.00000   -0.00000   -0.00000    0.00000
  -0.00000   -0.00000   -0.00000   -0.00000    0.00000    0.00000   -0.00000    0.00000
  -0.00000   -0.00000   -0.00000   -0.00000   -0.00000    0.00000    0.00000    0.00000
   0.00000   -0.00000    0.00000    0.00000    0.00000    0.00000   -0.00000   -0.00000
  -0.00000   -0.00000    0.00000    0.00000   -0.00000    0.00000    0.00000    0.00000
   0.00000    0.00000   -0.00000
 prteigrs : prtvol=0 or 1, do not print more k-points.

 Eight components of 2nd-order total energy (hartree) are
 1,2,3: 0th-order hamiltonian combined with 1st-order wavefunctions
     kin0=   6.23233986E+01 eigvalue=  -1.93545165E+00  local=  -2.82974715E+01
 4,5,6: 1st-order hamiltonian combined with 1st and 0th-order wfs
     kin1=  -7.61983764E+01  Hartree=   0.00000000E+00     xc=   0.00000000E+00
 7,8,9: eventually, occupation + non-local contributions
    edocc=   7.08465551E+00     enl0=   5.07889467E-01   enl1=  -3.16766438E+00
 1-9 gives the relaxation energy (to be shifted if some occ is /=2.0)
   erelax=  -3.96830204E+01
  No Ewald or frozen-wf contrib.: the relaxation energy is the total one
 2DEtotal=   -0.3968302039E+02 Ha. Also 2DEtotal=   -0.107982990050E+04 eV
    (  non-var. 2DEtotal :   -3.9683020388E+01 Ha)

 CALCULATION OF EFFECTIVE MASSES
 NOTE : Additional infos (eff. mass eigenvalues, eigenvectors and, if degenerate, average mass) are available in stdout.

 K-point ( 0.000, 0.000, 0.000) | band =    50
 Effective mass tensor:
             -0.5427007281              0.0000014093              0.0000012947
              0.0000014093             -1.2114388892             -0.8292687345
              0.0000012947             -0.8292687345             -2.9040271134
 Effective mass tensor eigenvalues:
             -3.2425960138             -0.8728699888             -0.5427007281
 Angular average effective mass 1/(<1/m>)=  -0.9100072448
 Angular average effective mass for Frohlich model (<m**0.5>)**2=  -1.0338035218
 Effective masses along directions: (cart. coord. / red. coord. -> eff. mass)
    1:   1.000000  0.000000  0.000000 /   1.000000  0.000000  0.000000 ->  -0.5427007281
    2:   0.000000  1.000000  0.000000 /   0.000000  1.000000  0.000000 ->  -0.9746344079
    3:   0.000000  0.000000  1.000000 /   0.000000  0.253949  0.967217 ->  -2.3363660946
    4:   0.577350  0.577350  0.577350 /   0.406534  0.701610  0.585213 ->  -1.1067246350
    5:   0.000000  0.707107  0.707107 /   0.000000  0.767932  0.640532 ->  -2.3039862232
    6:   0.707107  0.000000  0.707107 /   0.557706  0.210788  0.802828 ->  -0.8808043495
    7:   0.707107  0.707107  0.000000 /   0.595832  0.803109  0.000000 ->  -0.6971882024

 K-point ( 0.000, 0.227, 0.563) | band =    51
 Effective mass tensor:
              1.4615366142              0.0000224099              0.0000008923
              0.0000224099              8.4139384201             -3.5068591553
              0.0000008923             -3.5068591553              3.1611980811
 Effective mass tensor eigenvalues:
              1.4062577822              1.4615366163             10.1688787170
 Angular average effective mass 1/(<1/m>)=   2.0084921388
 Angular average effective mass for Frohlich model (<m**0.5>)**2=   2.3469232455
 Effective masses along directions: (cart. coord. / red. coord. -> eff. mass)
    1:   1.000000  0.000000  0.000000 /   1.000000  0.000000  0.000000 ->   1.4615366141
    2:   0.000000  1.000000  0.000000 /   0.000000  1.000000  0.000000 ->   4.5236218943
    3:   0.000000  0.000000  1.000000 /   0.000000  0.253949  0.967217 ->   1.6995685182
    4:   0.577350  0.577350  0.577350 /   0.406534  0.701610  0.585213 ->   1.5120128701
    5:   0.000000  0.707107  0.707107 /   0.000000  0.767932  0.640532 ->   1.5385632947
    6:   0.707107  0.000000  0.707107 /   0.557706  0.210788  0.802828 ->   1.5716008136
    7:   0.707107  0.707107  0.000000 /   0.595832  0.803109  0.000000 ->   2.2092951137

 END OF EFFECTIVE MASSES SECTION

 ---- first-order wavefunction calculations are completed ----

 Total localisation tensor (bohr^2) in cartesian coordinates
  WARNING : still subject to testing - especially symmetries.
      direction              matrix element
   alpha     beta       real part   imaginary part
     1        1       0.6999684509    0.0000000000
     1        2       0.0000000000    0.0000000000
     1        3       0.0000000000    0.0000000000
     2        1       0.0000000000    0.0000000000
     2        2       0.7004993463    0.0000000000
     2        3       0.1964253024    0.0000000000
     3        1       0.0000000000    0.0000000000
     3        2       0.1964253024    0.0000000000
     3        3       0.7945084531    0.0000000000

 respfn : d/dk was computed, but no 2DTE, so no DDB output.

== END DATASET(S) ==============================================================

 -outvars: echo values of variables after computation  --------
            acell      1.0000000000E+00  1.0000000000E+00  1.0000000000E+00 Bohr
              amu      1.07868200E+02  1.96966540E+02  1.59994000E+01
             ecut      4.40000000E+01 Hartree
           etotal     -3.9683020388E+01
            fcart      0.0000000000E+00  0.0000000000E+00  0.0000000000E+00
                       0.0000000000E+00  0.0000000000E+00  0.0000000000E+00
                       0.0000000000E+00  0.0000000000E+00  0.0000000000E+00
                       0.0000000000E+00  0.0000000000E+00  0.0000000000E+00
                       0.0000000000E+00  0.0000000000E+00  0.0000000000E+00
                       0.0000000000E+00  0.0000000000E+00  0.0000000000E+00
                       0.0000000000E+00  0.0000000000E+00  0.0000000000E+00
                       0.0000000000E+00  0.0000000000E+00  0.0000000000E+00
-          fftalg         512
           irdden           1
           irdwfk           1
           istwfk        1    0
              ixc     -116133
              kpt      0.00000000E+00  0.00000000E+00  0.00000000E+00
                       0.00000000E+00  2.27264928E-01  5.63098177E-01
           kptopt           0
P           mkmem           2
P          mkqmem           2
P          mk1mem           2
            natom           8
            nband          59
           nbdbuf           4
            ngfft          45      64      64
             nkpt           2
            nstep        2000
             nsym           4
           ntypat           3
              occ      2.000000  2.000000  2.000000  2.000000  2.000000  2.000000
                       2.000000  2.000000  2.000000  2.000000  2.000000  2.000000
                       2.000000  2.000000  2.000000  2.000000  2.000000  2.000000
                       2.000000  2.000000  2.000000  2.000000  2.000000  2.000000
                       2.000000  2.000000  2.000000  2.000000  2.000000  2.000000
                       2.000000  2.000000  2.000000  2.000000  2.000000  2.000000
                       2.000000  2.000000  2.000000  2.000000  2.000000  2.000000
                       2.000000  2.000000  2.000000  2.000000  2.000000  2.000000
                       2.000000  2.000000  0.000000  0.000000  0.000000  0.000000
                       0.000000  0.000000  0.000000  0.000000  0.000000
        optdriver           1
            prtwf          -1
            rfdir           1       1       1
           rfelfd           2
            rprim      7.3416264721E+00  0.0000000000E+00  0.0000000000E+00
                       0.0000000000E+00  9.8956213089E+00  2.7748068835E+00
                       0.0000000000E+00  0.0000000000E+00  1.0568408965E+01
          spgroup          14
           strten      0.0000000000E+00  0.0000000000E+00  0.0000000000E+00
                       0.0000000000E+00  0.0000000000E+00  0.0000000000E+00
           symrel      1  0  0   0  1  0   0  0  1      -1  0  0   0 -1  0   0  0 -1
                       1  0  0   0 -1  0   0  0 -1      -1  0  0   0  1  0   0  0  1
            tnons      0.0000000  0.0000000  0.0000000     0.0000000  0.0000000  0.0000000
                       0.5000000  0.5000000  0.0000000     0.5000000  0.5000000  0.0000000
           tolwfr      1.00000000E-20
            typat      1  1  2  2  3  3  3  3
           useylm           1
              wtk        0.50000    0.50000
           xangst      1.9425107015E+00  0.0000000000E+00  2.7962805778E+00
                       0.0000000000E+00  2.6182686308E+00  3.5304628583E+00
                       1.9425107015E+00  2.6182686308E+00  7.3418228049E-01
                       0.0000000000E+00  0.0000000000E+00  0.0000000000E+00
                       3.0935842679E+00  4.0924795468E+00  5.6220864373E+00
                       1.1510735664E+00  3.7623263455E+00  2.1730215597E+00
                       7.9143713512E-01  1.1440577147E+00  1.4388392792E+00
                       2.7339478366E+00  1.4742109160E+00  4.8879041568E+00
            xcart      3.6708132360E+00  0.0000000000E+00  5.2842044827E+00
                       0.0000000000E+00  4.9478106544E+00  6.6716079244E+00
                       3.6708132360E+00  4.9478106544E+00  1.3874034417E+00
                       0.0000000000E+00  0.0000000000E+00  0.0000000000E+00
                       5.8460270353E+00  7.7336655478E+00  1.0624203662E+01
                       2.1752137993E+00  7.1097664155E+00  4.1064156287E+00
                       1.4955994368E+00  2.1619557611E+00  2.7190121870E+00
                       5.1664126728E+00  2.7858548934E+00  9.2368002202E+00
             xred      5.0000000000E-01  0.0000000000E+00  5.0000000000E-01
                       0.0000000000E+00  5.0000000000E-01  5.0000000000E-01
                       5.0000000000E-01  5.0000000000E-01  0.0000000000E+00
                       0.0000000000E+00  0.0000000000E+00  0.0000000000E+00
                       7.9628500000E-01  7.8152400000E-01  8.0008500000E-01
                       2.9628500000E-01  7.1847600000E-01  1.9991500000E-01
                       2.0371500000E-01  2.1847600000E-01  1.9991500000E-01
                       7.0371500000E-01  2.8152400000E-01  8.0008500000E-01
            znucl       47.00000   79.00000    8.00000

- Timing analysis has been suppressed with timopt=0

 Suggested references for the acknowledgment of ABINIT usage.

 Calculation completed.
.Delivered  14 WARNINGs and  11 COMMENTs to log file.