.Version 9.5.2 of ABINIT

 ABINIT is a project of the Universite Catholique de Louvain,
 Corning Inc. and other collaborators, see ~abinit/doc/developers/contributors.txt .
 acknowledgments of the ABINIT effort.

.Starting date : Wed 26 May 2021.
- ( at 02h16 )

- input  file    -> /scratch/users/j/a/jabreu/flow_simple_11atoms/flow/w220/t1/run.abi
- output file    -> /scratch/users/j/a/jabreu/flow_simple_11atoms/flow/w220/t1/run.abo
- root for input  files -> /scratch/users/j/a/jabreu/flow_simple_11atoms/flow/w220/t1/indata/in
- root for output files -> /scratch/users/j/a/jabreu/flow_simple_11atoms/flow/w220/t1/outdata/out

 Symmetries : space group Cm c m (# 63); Bravais oC (1-face-center ortho.)
     intxc =       0      iscf =       7    lmnmax =      18     lnmax =       6
     mgfft =     120  mpssoang =       3    mqgrid =    5583     natom =      12
  nloc_mem =       1    nspden =       1   nspinor =       1    nsppol =       1
      nsym =       8    n1xccc =    2501    ntypat =       4    occopt =       1
   xclevel =       2
-    mband =          67        mffmem =           1         mkmem =           1
-   mkqmem =           1        mk1mem =           1           mpw =       25257
      nfft =      972000          nkpt =           1
  Rough estimation (10% accuracy) of disk space for files :

------------- Echo of variables that govern the present computation ------------
-
- outvars: echo of selected default values
-   iomode0 =  0 , fftalg0 =512 , wfoptalg0 =  0
-
- outvars: echo of global parameters not present in the input file
-  max_nthreads =    0
-
 -outvars: echo values of preprocessed input variables --------
            acell      1.0000000000E+00  1.0000000000E+00  1.0000000000E+00 Bohr
              amu      3.90983000E+01  9.12240000E+01  6.35460000E+01
                       3.20660000E+01
             ecut      4.60000000E+01 Hartree
-          fftalg         512
           irdden           1
           irdwfk           1
           istwfk        1
              ixc     -116133
           kptopt           0
P           mkmem           1
P          mkqmem           1
P          mk1mem           1
            natom          12
            nband          67
           nbdbuf           4
            ngfft          90      90     120
             nkpt           1
            nstep        2000
             nsym           8
           ntypat           4
              occ      2.000000  2.000000  2.000000  2.000000  2.000000  2.000000
                       2.000000  2.000000  2.000000  2.000000  2.000000  2.000000
                       2.000000  2.000000  2.000000  2.000000  2.000000  2.000000
                       2.000000  2.000000  2.000000  2.000000  2.000000  2.000000
                       2.000000  2.000000  2.000000  2.000000  2.000000  2.000000
                       2.000000  2.000000  2.000000  2.000000  2.000000  2.000000
                       2.000000  2.000000  2.000000  2.000000  2.000000  2.000000
                       2.000000  2.000000  2.000000  2.000000  2.000000  2.000000
                       2.000000  2.000000  2.000000  2.000000  2.000000  2.000000
                       2.000000  2.000000  2.000000  2.000000  0.000000  0.000000
                       0.000000  0.000000  0.000000  0.000000  0.000000  0.000000
                       0.000000
        optdriver           1
            prtwf          -1
            rfdir           1       1       1
           rfelfd           2
            rprim      1.3673976431E+01  0.0000000000E+00  0.0000000000E+00
                      -1.1878264973E+01  6.7738063661E+00  0.0000000000E+00
                       0.0000000000E+00  0.0000000000E+00  1.8283515825E+01
          spgroup          63
           symrel      1  0  0   0  1  0   0  0  1      -1  0  0   0 -1  0   0  0 -1
                       0  1  0   1  0  0   0  0 -1       0 -1  0  -1  0  0   0  0  1
                      -1  0  0   0 -1  0   0  0  1       1  0  0   0  1  0   0  0 -1
                       0 -1  0  -1  0  0   0  0 -1       0  1  0   1  0  0   0  0  1
            tnons      0.0000000  0.0000000  0.0000000     0.0000000  0.0000000  0.0000000
                      -0.0000000  0.0000000  0.0000000     0.0000000  0.0000000  0.0000000
                       0.0000000  0.0000000  0.5000000     0.0000000  0.0000000  0.5000000
                       0.0000000  0.0000000  0.5000000    -0.0000000  0.0000000  0.5000000
           tolwfr      1.00000000E-20
            typat      1  1  2  2  3  3  4  4  4  4  4  4
           useylm           1
           xangst     -2.9631368340E+00  2.7037426373E+00  7.2564149008E+00
                       3.9133864111E+00  8.8080130709E-01  2.4188049669E+00
                       4.7512478855E-01  1.7922719722E+00  0.0000000000E+00
                       4.7512478855E-01  1.7922719722E+00  4.8376099338E+00
                       6.8001804981E+00  1.1552268224E-01  7.2564149008E+00
                      -5.8499309210E+00  3.4690212621E+00  2.4188049669E+00
                       1.3600906396E+00  1.5576707401E+00  7.2564149008E+00
                      -4.0984106250E-01  2.0268732042E+00  2.4188049669E+00
                      -4.6391741028E+00  3.1480540282E+00  4.3040699342E+00
                      -4.6391741028E+00  3.1480540282E+00  5.3353999960E-01
                       5.5894236799E+00  4.3648991610E-01  9.1416798681E+00
                       5.5894236799E+00  4.3648991610E-01  5.3711499335E+00
            xcart     -5.5995171105E+00  5.1093331182E+00  1.3712636869E+01
                       7.3952285691E+00  1.6644732479E+00  4.5708789563E+00
                       8.9785572930E-01  3.3869031831E+00  0.0000000000E+00
                       8.9785572930E-01  3.3869031831E+00  9.1417579127E+00
                       1.2850478796E+01  2.1830623157E-01  1.3712636869E+01
                      -1.1054767337E+01  6.5555001345E+00  4.5708789563E+00
                       2.5701988247E+00  2.9435711040E+00  1.3712636869E+01
                      -7.7448736614E-01  3.8302352621E+00  4.5708789563E+00
                      -8.7667685371E+00  5.9489599649E+00  8.1335134325E+00
                      -8.7667685371E+00  5.9489599649E+00  1.0082444802E+00
                       1.0562479996E+01  8.2484640120E-01  1.7275271345E+01
                       1.0562479996E+01  8.2484640120E-01  1.0150002393E+01
             xred      2.4572200000E-01  7.5427800000E-01  7.5000000000E-01
                       7.5427800000E-01  2.4572200000E-01  2.5000000000E-01
                       5.0000000000E-01  5.0000000000E-01  0.0000000000E+00
                       5.0000000000E-01  5.0000000000E-01  5.0000000000E-01
                       9.6777200000E-01  3.2228000000E-02  7.5000000000E-01
                       3.2228000000E-02  9.6777200000E-01  2.5000000000E-01
                       5.6544800000E-01  4.3455200000E-01  7.5000000000E-01
                       4.3455200000E-01  5.6544800000E-01  2.5000000000E-01
                       1.2177000000E-01  8.7823000000E-01  4.4485500000E-01
                       1.2177000000E-01  8.7823000000E-01  5.5145000000E-02
                       8.7823000000E-01  1.2177000000E-01  9.4485500000E-01
                       8.7823000000E-01  1.2177000000E-01  5.5514500000E-01
            znucl       19.00000   40.00000   29.00000   16.00000

 chkinp: Checking input parameters for consistency.

== DATASET  1 ==================================================================
-   mpi_nproc: 1, omp_nthreads: -1 (-1 if OMP is not activated)

--- !DatasetInfo
iteration_state: {dtset: 1, }
dimensions: {natom: 12, nkpt: 1, mband: 67, nsppol: 1, nspinor: 1, nspden: 1, mpw: 25257, }
cutoff_energies: {ecut:  46.0, pawecutdg:  -1.0, }
electrons: {nelect:   1.16000000E+02, charge:   0.00000000E+00, occopt:   1.00000000E+00, tsmear:   1.00000000E-02, }
meta: {optdriver: 1, rfelfd: 2, }
...

 Real(R)+Recip(G) space primitive vectors, cartesian coordinates (Bohr,Bohr^-1):
 R(1)= 13.6739764  0.0000000  0.0000000  G(1)=  0.0731316  0.1282406  0.0000000
 R(2)=-11.8782650  6.7738064  0.0000000  G(2)=  0.0000000  0.1476275  0.0000000
 R(3)=  0.0000000  0.0000000 18.2835158  G(3)=  0.0000000  0.0000000  0.0546941
 Unit cell volume ucvol=  1.6935083E+03 bohr^3
 Angles (23,13,12)=  9.00000000E+01  9.00000000E+01  1.50305228E+02 degrees

 getcut: wavevector=  0.0000  0.0000  0.0000  ngfft=  90  90 120
         ecut(hartree)=     46.000   => boxcut(ratio)=   2.14970

--- Pseudopotential description ------------------------------------------------
- pspini: atom type   1  psp file is /scratch/users/j/a/jabreu/pseudos/PBEsol/K.psp8
- pspatm: opening atomic psp file    /scratch/users/j/a/jabreu/pseudos/PBEsol/K.psp8
- K     ONCVPSP-3.3.0  r_core=   1.36296   1.46408   1.61068
- 19.00000   9.00000    180112                znucl, zion, pspdat
    8 -116133    2    4       400   0.00000   pspcod,pspxc,lmax,lloc,mmax,r2well
    3.99000000000000    5.00000000000000    0.00000000000000   rchrg,fchrg,qchrg
     nproj     2     2     2
     extension_switch     1
  pspatm : epsatm=    8.32487830
         --- l  ekb(1:nproj) -->
             0   10.921326    0.816676
             1    4.431000    0.560368
             2   -3.384038   -1.043186
 pspatm: atomic psp has been read  and splines computed

- pspini: atom type   2  psp file is /scratch/users/j/a/jabreu/pseudos/PBEsol/Zr.psp8
- pspatm: opening atomic psp file    /scratch/users/j/a/jabreu/pseudos/PBEsol/Zr.psp8
- Zr    ONCVPSP-3.3.0  r_core=   1.56507   1.56507   1.51006
- 40.00000  12.00000    180112                znucl, zion, pspdat
    8 -116133    2    4       600   0.00000   pspcod,pspxc,lmax,lloc,mmax,r2well
    5.99000000000000    5.00000000000000    0.00000000000000   rchrg,fchrg,qchrg
     nproj     2     2     2
     extension_switch     1
  pspatm : epsatm=   18.88750170
         --- l  ekb(1:nproj) -->
             0   10.584966    0.890424
             1    5.814585    0.741293
             2    1.525459    0.487901
 pspatm: atomic psp has been read  and splines computed

[...]

- pspini: atom type   4  psp file is /scratch/users/j/a/jabreu/pseudos/PBEsol/S.psp8
- pspatm: opening atomic psp file    /scratch/users/j/a/jabreu/pseudos/PBEsol/S.psp8
- S     ONCVPSP-3.3.0  r_core=   1.45376   1.45376   1.61851
- 16.00000   6.00000    180112                znucl, zion, pspdat
    8 -116133    2    4       600   0.00000   pspcod,pspxc,lmax,lloc,mmax,r2well
    5.99000000000000    6.00000000000000    0.00000000000000   rchrg,fchrg,qchrg
     nproj     2     2     2
     extension_switch     1
  pspatm : epsatm=    8.71840985
         --- l  ekb(1:nproj) -->
             0    6.834532    0.579453
             1    3.282851    0.896984
             2   -3.496974   -0.974265
 pspatm: atomic psp has been read  and splines computed

   1.74005792E+04                                ecore*ucvol(ha*bohr**3)

 ==>  initialize data related to q vector <==

 The list of irreducible perturbations for this q vector is:
    1)    idir= 1    ipert=  13
    2)    idir= 2    ipert=  13
    3)    idir= 3    ipert=  13

[...]
  -0.00000   -0.00000    0.00000   -0.00000   -0.00000   -0.00000   -0.00000    0.00000
   0.00000    0.00000   -0.00000    0.00000   -0.00000    0.00000   -0.00000   -0.00000
  -0.00000    0.00000    0.00000    0.00000    0.00000   -0.00000   -0.00000    0.00000
   0.00000   -0.00000    0.00000    0.00000    0.00000   -0.00000   -0.00000    0.00000
  -0.00000   -0.00000   -0.00000   -0.00000    0.00000    0.00000   -0.00000    0.00000
   0.00000    0.00000    0.00000   -0.00000    0.00000    0.00000   -0.00000    0.00000
  -0.00000   -0.00000    0.00000   -0.00000    0.00000   -0.00000   -0.00000   -0.00000
   0.00000    0.00000    0.00000    0.00000   -0.00000   -0.00000    0.00000    0.00000
   0.00000   -0.00001   -0.00004

 Eight components of 2nd-order total energy (hartree) are
 1,2,3: 0th-order hamiltonian combined with 1st-order wavefunctions
     kin0=   2.35624664E+02 eigvalue=  -1.16502396E+01  local=  -1.38737378E+02
 4,5,6: 1st-order hamiltonian combined with 1st and 0th-order wfs
     kin1=  -2.51419135E+02  Hartree=   0.00000000E+00     xc=   0.00000000E+00
 7,8,9: eventually, occupation + non-local contributions
    edocc=   3.12800914E+01     enl0=   8.59266232E+00   enl1=   1.19953366E+00
 1-9 gives the relaxation energy (to be shifted if some occ is /=2.0)
   erelax=  -1.25109801E+02
  No Ewald or frozen-wf contrib.: the relaxation energy is the total one
 2DEtotal=   -0.1251098007E+03 Ha. Also 2DEtotal=   -0.340441081239E+04 eV
    (  non-var. 2DEtotal :   -1.2510980073E+02 Ha)

 Perturbation wavevector (in red.coord.)   0.000000  0.000000  0.000000
 Perturbation : derivative vs k along direction   2
 The set of symmetries contains only one element for this perturbation.
 symkpt : not enough symmetry to change the number of k points.

[...]

 Perturbation wavevector (in red.coord.)   0.000000  0.000000  0.000000
 Perturbation : derivative vs k along direction   3
 The set of symmetries contains only one element for this perturbation.
 symkpt : not enough symmetry to change the number of k points.

 Initialisation of the first-order wave-functions :
  ireadwf=   0

--- !BeginCycle
iteration_state: {dtset: 1, }
solver: {iscf: 7, nstep: 2000, nline: 4, wfoptalg: 0, }
tolerances: {tolwfr: 1.00E-20, }
...

     iter   2DEtotal(Ha)        deltaE(Ha) residm    vres2
-ETOT  1  -14.541574563813     -1.454E+01 2.456E-02 0.000E+00
 ETOT  2  -14.604196978005     -6.262E-02 9.987E-04 0.000E+00
 ETOT  3  -14.606311375019     -2.114E-03 5.123E-05 0.000E+00
 ETOT  4  -14.606424325710     -1.130E-04 5.890E-06 0.000E+00
 ETOT  5  -14.606431896442     -7.571E-06 6.066E-07 0.000E+00
 ETOT  6  -14.606432451568     -5.551E-07 7.745E-08 0.000E+00
 ETOT  7  -14.606432494920     -4.335E-08 1.039E-08 0.000E+00
 ETOT  8  -14.606432498446     -3.526E-09 1.917E-09 0.000E+00
 ETOT  9  -14.606432498745     -2.993E-10 3.708E-10 0.000E+00
 ETOT 10  -14.606432498772     -2.627E-11 8.670E-11 0.000E+00
 ETOT 11  -14.606432498774     -2.412E-12 1.914E-11 0.000E+00
 ETOT 12  -14.606432498774     -2.274E-13 4.638E-12 0.000E+00
 ETOT 13  -14.606432498774     -2.132E-14 1.037E-12 0.000E+00
 ETOT 14  -14.606432498774      3.553E-15 2.523E-13 0.000E+00
 ETOT 15  -14.606432498774     -2.132E-14 5.628E-14 0.000E+00
 ETOT 16  -14.606432498774      5.329E-15 1.373E-14 0.000E+00
 ETOT 17  -14.606432498774      8.882E-15 3.053E-15 0.000E+00
 ETOT 18  -14.606432498774     -1.776E-15 7.466E-16 0.000E+00
 ETOT 19  -14.606432498774     -1.776E-15 1.656E-16 0.000E+00
 ETOT 20  -14.606432498774     -1.776E-15 4.059E-17 0.000E+00
 ETOT 21  -14.606432498774      0.000E+00 8.990E-18 0.000E+00
 ETOT 22  -14.606432498774      3.553E-15 2.207E-18 0.000E+00
 ETOT 23  -14.606432498774      1.776E-15 4.884E-19 0.000E+00
 ETOT 24  -14.606432498774      1.776E-15 1.200E-19 0.000E+00
 ETOT 25  -14.606432498774     -5.329E-15 2.655E-20 0.000E+00
 ETOT 26  -14.606432498774     -3.553E-15 9.965E-21 0.000E+00

 At SCF step   26   max residual=  9.96E-21 < tolwfr=  1.00E-20 =>converged.

 ----iterations are completed or convergence reached----

 dfpt_looppert: DFPT cycle converged with prtwf=-1. Will skip output of the 1st-order WFK file.
 dfpt_looppert : ek2=    2.7398595304E+01
          f-sum rule ratio=    1.0560529157E+00
 prteigrs : about to open file /scratch/users/j/a/jabreu/flow_simple_11atoms/flow/w220/t1/tmpdata/tmp_1WF1_EIG
 Expectation of eigenvalue derivatives (hartree) for nkpt=   1  k points:
  (in case of degenerate eigenvalues, averaged derivative)
 kpt#   1, nband= 67, wtk=  1.00000, kpt=  0.0000  0.0000  0.0000 (reduced coord)
   0.00000    0.00000    0.00000   -0.00000   -0.00000   -0.00000   -0.00000    0.00000
  -0.00000   -0.00000   -0.00000   -0.00000    0.00000   -0.00000   -0.00000   -0.00000
   0.00000   -0.00000   -0.00000   -0.00000    0.00000    0.00000    0.00000   -0.00000
   0.00000   -0.00000   -0.00000    0.00000   -0.00000    0.00000    0.00000   -0.00000
  -0.00000    0.00000   -0.00000    0.00000    0.00000    0.00000    0.00000    0.00000
  -0.00000    0.00000    0.00000   -0.00000   -0.00000    0.00000   -0.00000   -0.00000
  -0.00000   -0.00000    0.00000   -0.00000   -0.00000    0.00000   -0.00000   -0.00000
  -0.00000    0.00000   -0.00000   -0.00000    0.00000   -0.00000   -0.00000    0.00000
  -0.00000   -0.00000    0.00000

 Eight components of 2nd-order total energy (hartree) are
 1,2,3: 0th-order hamiltonian combined with 1st-order wavefunctions
     kin0=   2.21726154E+01 eigvalue=  -4.17660617E-01  local=  -1.14617210E+01
 4,5,6: 1st-order hamiltonian combined with 1st and 0th-order wfs
     kin1=  -2.89343665E+01  Hartree=   0.00000000E+00     xc=   0.00000000E+00
 7,8,9: eventually, occupation + non-local contributions
    edocc=   3.86617106E+00     enl0=   4.47027586E-01   enl1=  -2.78498540E-01
 1-9 gives the relaxation energy (to be shifted if some occ is /=2.0)
   erelax=  -1.46064325E+01
  No Ewald or frozen-wf contrib.: the relaxation energy is the total one
 2DEtotal=   -0.1460643250E+02 Ha. Also 2DEtotal=   -0.397461241549E+03 eV
    (  non-var. 2DEtotal :   -1.4606432498E+01 Ha)

 CALCULATION OF EFFECTIVE MASSES
 NOTE : Additional infos (eff. mass eigenvalues, eigenvectors and, if degenerate, average mass) are available in stdout.

 K-point ( 0.000, 0.000, 0.000) | band =    58
 Effective mass tensor:
             -4.7597676934              1.2042286810              0.0000158103
              1.2042286810             -0.5364497233             -0.0000152741
              0.0000158103             -0.0000152741             -0.7222057550
 Effective mass tensor eigenvalues:
             -5.0790077983             -0.7222057551             -0.2172096182
 Angular average effective mass 1/(<1/m>)=  -0.4850143893
 Angular average effective mass for Frohlich model (<m**0.5>)**2=  -0.6784277402
 Effective masses along directions: (cart. coord. / red. coord. -> eff. mass)
    1:   1.000000  0.000000  0.000000 /   0.754938 -0.655797  0.000000 ->  -2.0565009129
    2:   0.000000  1.000000  0.000000 /   0.000000  1.000000  0.000000 ->  -0.2317779808
    3:   0.000000  0.000000  1.000000 /   0.000000  0.000000  1.000000 ->  -0.7222057544
    4:   0.577350  0.577350  0.577350 /   0.584486 -0.218187  0.781518 ->  -0.3584931337
    5:   0.000000  0.707107  0.707107 /   0.000000  0.347411  0.937713 ->  -0.3509396268
    6:   0.707107  0.000000  0.707107 /   0.531311 -0.461537  0.710417 ->  -1.0690128347
    7:   0.707107  0.707107  0.000000 /   0.936853 -0.349725  0.000000 ->  -0.2863740202

 K-point ( 0.000, 0.000, 0.000) | band =    59
 Effective mass tensor:
              1.1769156414             -0.2348718719              0.0001556317
             -0.2348718719              0.3531795192             -0.0000412536
              0.0001556317             -0.0000412536              3.1973019869
 Effective mass tensor eigenvalues:
              0.2909166954              1.2391784519              3.1973020001
 Angular average effective mass 1/(<1/m>)=   0.6583047169
 Angular average effective mass for Frohlich model (<m**0.5>)**2=   0.8673895062
 Effective masses along directions: (cart. coord. / red. coord. -> eff. mass)
    1:   1.000000  0.000000  0.000000 /   0.754938 -0.655797  0.000000 ->   1.0207208593
    2:   0.000000  1.000000  0.000000 /   0.000000  1.000000  0.000000 ->   0.3063071739
    3:   0.000000  0.000000  1.000000 /   0.000000  0.000000  1.000000 ->   3.1973019660
    4:   0.577350  0.577350  0.577350 /   0.584486 -0.218187  0.781518 ->   0.5119327574
    5:   0.000000  0.707107  0.707107 /   0.000000  0.347411  0.937713 ->   0.5590525603
    6:   0.707107  0.000000  0.707107 /   0.531311 -0.461537  0.710417 ->   1.5475265706
    7:   0.707107  0.707107  0.000000 /   0.936853 -0.349725  0.000000 ->   0.3605267436

 END OF EFFECTIVE MASSES SECTION

 ---- first-order wavefunction calculations are completed ----

 Total localisation tensor (bohr^2) in cartesian coordinates
  WARNING : still subject to testing - especially symmetries.
      direction              matrix element
   alpha     beta       real part   imaginary part
     1        1      17.0585559709    0.0000000000
     1        2      -4.1836956378    0.0000000000
     1        3       0.0000000000    0.0000000000
     2        1      -4.1836956378    0.0000000000
     2        2       2.3858319553    0.0000000000
     2        3       0.0000000000    0.0000000000
     3        1       0.0000000000    0.0000000000
     3        2       0.0000000000    0.0000000000
     3        3       1.3722676891    0.0000000000

 respfn : d/dk was computed, but no 2DTE, so no DDB output.

== END DATASET(S) ==============================================================

 -outvars: echo values of variables after computation  --------
            acell      1.0000000000E+00  1.0000000000E+00  1.0000000000E+00 Bohr
              amu      3.90983000E+01  9.12240000E+01  6.35460000E+01
                       3.20660000E+01
             ecut      4.60000000E+01 Hartree
           etotal     -1.4606432499E+01
            fcart      0.0000000000E+00  0.0000000000E+00  0.0000000000E+00
                       0.0000000000E+00  0.0000000000E+00  0.0000000000E+00
                       0.0000000000E+00  0.0000000000E+00  0.0000000000E+00
                       0.0000000000E+00  0.0000000000E+00  0.0000000000E+00
                       0.0000000000E+00  0.0000000000E+00  0.0000000000E+00
                       0.0000000000E+00  0.0000000000E+00  0.0000000000E+00
                       0.0000000000E+00  0.0000000000E+00  0.0000000000E+00
                       0.0000000000E+00  0.0000000000E+00  0.0000000000E+00
                       0.0000000000E+00  0.0000000000E+00  0.0000000000E+00
                       0.0000000000E+00  0.0000000000E+00  0.0000000000E+00
                       0.0000000000E+00  0.0000000000E+00  0.0000000000E+00
                       0.0000000000E+00  0.0000000000E+00  0.0000000000E+00
-          fftalg         512
           irdden           1
           irdwfk           1
           istwfk        1
              ixc     -116133
           kptopt           0
P           mkmem           1
P          mkqmem           1
P          mk1mem           1
            natom          12
            nband          67
           nbdbuf           4
            ngfft          90      90     120
             nkpt           1
            nstep        2000
             nsym           8
           ntypat           4
              occ      2.000000  2.000000  2.000000  2.000000  2.000000  2.000000
                       2.000000  2.000000  2.000000  2.000000  2.000000  2.000000
                       2.000000  2.000000  2.000000  2.000000  2.000000  2.000000
                       2.000000  2.000000  2.000000  2.000000  2.000000  2.000000
                       2.000000  2.000000  2.000000  2.000000  2.000000  2.000000
                       2.000000  2.000000  2.000000  2.000000  2.000000  2.000000
                       2.000000  2.000000  2.000000  2.000000  2.000000  2.000000
                       2.000000  2.000000  2.000000  2.000000  2.000000  2.000000
                       2.000000  2.000000  2.000000  2.000000  2.000000  2.000000
                       2.000000  2.000000  2.000000  2.000000  0.000000  0.000000
                       0.000000  0.000000  0.000000  0.000000  0.000000  0.000000
                       0.000000
        optdriver           1
            prtwf          -1
            rfdir           1       1       1
           rfelfd           2
            rprim      1.3673976431E+01  0.0000000000E+00  0.0000000000E+00
                      -1.1878264973E+01  6.7738063661E+00  0.0000000000E+00
                       0.0000000000E+00  0.0000000000E+00  1.8283515825E+01
          spgroup          63
           strten      0.0000000000E+00  0.0000000000E+00  0.0000000000E+00
                       0.0000000000E+00  0.0000000000E+00  0.0000000000E+00
           symrel      1  0  0   0  1  0   0  0  1      -1  0  0   0 -1  0   0  0 -1
                       0  1  0   1  0  0   0  0 -1       0 -1  0  -1  0  0   0  0  1
                      -1  0  0   0 -1  0   0  0  1       1  0  0   0  1  0   0  0 -1
                       0 -1  0  -1  0  0   0  0 -1       0  1  0   1  0  0   0  0  1
            tnons      0.0000000  0.0000000  0.0000000     0.0000000  0.0000000  0.0000000
                      -0.0000000  0.0000000  0.0000000     0.0000000  0.0000000  0.0000000
                       0.0000000  0.0000000  0.5000000     0.0000000  0.0000000  0.5000000
                       0.0000000  0.0000000  0.5000000    -0.0000000  0.0000000  0.5000000
           tolwfr      1.00000000E-20
            typat      1  1  2  2  3  3  4  4  4  4  4  4
           useylm           1
           xangst     -2.9631368340E+00  2.7037426373E+00  7.2564149008E+00
                       3.9133864111E+00  8.8080130709E-01  2.4188049669E+00
                       4.7512478855E-01  1.7922719722E+00  0.0000000000E+00
                       4.7512478855E-01  1.7922719722E+00  4.8376099338E+00
                       6.8001804981E+00  1.1552268224E-01  7.2564149008E+00
                      -5.8499309210E+00  3.4690212621E+00  2.4188049669E+00
                       1.3600906396E+00  1.5576707401E+00  7.2564149008E+00
                      -4.0984106250E-01  2.0268732042E+00  2.4188049669E+00
                      -4.6391741028E+00  3.1480540282E+00  4.3040699342E+00
                      -4.6391741028E+00  3.1480540282E+00  5.3353999960E-01
                       5.5894236799E+00  4.3648991610E-01  9.1416798681E+00
                       5.5894236799E+00  4.3648991610E-01  5.3711499335E+00
            xcart     -5.5995171105E+00  5.1093331182E+00  1.3712636869E+01
                       7.3952285691E+00  1.6644732479E+00  4.5708789563E+00
                       8.9785572930E-01  3.3869031831E+00  0.0000000000E+00
                       8.9785572930E-01  3.3869031831E+00  9.1417579127E+00
                       1.2850478796E+01  2.1830623157E-01  1.3712636869E+01
                      -1.1054767337E+01  6.5555001345E+00  4.5708789563E+00
                       2.5701988247E+00  2.9435711040E+00  1.3712636869E+01
                      -7.7448736614E-01  3.8302352621E+00  4.5708789563E+00
                      -8.7667685371E+00  5.9489599649E+00  8.1335134325E+00
                      -8.7667685371E+00  5.9489599649E+00  1.0082444802E+00
                       1.0562479996E+01  8.2484640120E-01  1.7275271345E+01
                       1.0562479996E+01  8.2484640120E-01  1.0150002393E+01
             xred      2.4572200000E-01  7.5427800000E-01  7.5000000000E-01
                       7.5427800000E-01  2.4572200000E-01  2.5000000000E-01
                       5.0000000000E-01  5.0000000000E-01  0.0000000000E+00
                       5.0000000000E-01  5.0000000000E-01  5.0000000000E-01
                       9.6777200000E-01  3.2228000000E-02  7.5000000000E-01
                       3.2228000000E-02  9.6777200000E-01  2.5000000000E-01
                       5.6544800000E-01  4.3455200000E-01  7.5000000000E-01
                       4.3455200000E-01  5.6544800000E-01  2.5000000000E-01
                       1.2177000000E-01  8.7823000000E-01  4.4485500000E-01
                       1.2177000000E-01  8.7823000000E-01  5.5145000000E-02
                       8.7823000000E-01  1.2177000000E-01  9.4485500000E-01
                       8.7823000000E-01  1.2177000000E-01  5.5514500000E-01
            znucl       19.00000   40.00000   29.00000   16.00000

- Timing analysis has been suppressed with timopt=0

 Suggested references for the acknowledgment of ABINIT usage.

 Calculation completed.
.Delivered   2 WARNINGs and   5 COMMENTs to log file.