.Version 9.5.2 of ABINIT

 ABINIT is a project of the Universite Catholique de Louvain,
 Corning Inc. and other collaborators, see ~abinit/doc/developers/contributors.txt .
 acknowledgments of the ABINIT effort.

.Starting date : Mon 24 May 2021.
- ( at 11h12 )

- input  file    -> /scratch/users/j/a/jabreu/flow_simple_10atoms/flow/w299/t1/run.abi
- output file    -> /scratch/users/j/a/jabreu/flow_simple_10atoms/flow/w299/t1/run.abo
- root for input  files -> /scratch/users/j/a/jabreu/flow_simple_10atoms/flow/w299/t1/indata/in
- root for output files -> /scratch/users/j/a/jabreu/flow_simple_10atoms/flow/w299/t1/outdata/out

 Symmetries : space group Fm -3 m (#225); Bravais cF (face-center cubic)
     intxc =       0      iscf =       7    lmnmax =      32     lnmax =       8
     mgfft =      75  mpssoang =       4    mqgrid =    3001     natom =      10
  nloc_mem =       1    nspden =       1   nspinor =       1    nsppol =       1
      nsym =      48    n1xccc =    2501    ntypat =       4    occopt =       1
   xclevel =       2
-    mband =          50        mffmem =           1         mkmem =           2
-   mkqmem =           2        mk1mem =           2           mpw =       18149
      nfft =      421875          nkpt =           2
  Rough estimation (10% accuracy) of disk space for files :

------------- Echo of variables that govern the present computation ------------
-
- outvars: echo of selected default values
-   iomode0 =  0 , fftalg0 =512 , wfoptalg0 =  0
-
- outvars: echo of global parameters not present in the input file
-  max_nthreads =    0
-
 -outvars: echo values of preprocessed input variables --------
            acell      1.0000000000E+00  1.0000000000E+00  1.0000000000E+00 Bohr
              amu      1.32905430E+02  3.90983000E+01  2.04383300E+02
                       1.89984032E+01
             ecut      4.20000000E+01 Hartree
-          fftalg         512
           irdden           1
           irdwfk           1
           istwfk        1    1
              ixc     -116133
              kpt      5.00000000E-01  5.00000000E-01  5.00000000E-01
                       0.00000000E+00  0.00000000E+00  0.00000000E+00
           kptopt           0
P           mkmem           2
P          mkqmem           2
P          mk1mem           2
            natom          10
            nband          50
           nbdbuf           4
            ngfft          75      75      75
             nkpt           2
            nstep        2000
             nsym          48
           ntypat           4
              occ      2.000000  2.000000  2.000000  2.000000  2.000000  2.000000
                       2.000000  2.000000  2.000000  2.000000  2.000000  2.000000
                       2.000000  2.000000  2.000000  2.000000  2.000000  2.000000
                       2.000000  2.000000  2.000000  2.000000  2.000000  2.000000
                       2.000000  2.000000  2.000000  2.000000  2.000000  2.000000
                       2.000000  2.000000  2.000000  2.000000  2.000000  2.000000
                       2.000000  2.000000  2.000000  2.000000  2.000000  0.000000
                       0.000000  0.000000  0.000000  0.000000  0.000000  0.000000
                       0.000000  0.000000
        optdriver           1
            prtwf          -1
            rfdir           1       1       1
           rfelfd           2
            rprim      1.0845523981E+01  0.0000000000E+00  6.2616661899E+00
                       3.6151746603E+00  1.0225258070E+01  6.2616661899E+00
                       0.0000000000E+00  0.0000000000E+00  1.2523332380E+01
          spgroup         225
           symrel      1  0  0   0  1  0   0  0  1      -1  0  0   0 -1  0   0  0 -1
                       0 -1  1   0 -1  0   1 -1  0       0  1 -1   0  1  0  -1  1  0
                      -1  0  0  -1  0  1  -1  1  0       1  0  0   1  0 -1   1 -1  0
                       0  1 -1   1  0 -1   0  0 -1       0 -1  1  -1  0  1   0  0  1
                      -1  0  0  -1  1  0  -1  0  1       1  0  0   1 -1  0   1  0 -1
                       0 -1  1   1 -1  0   0 -1  0       0  1 -1  -1  1  0   0  1  0
                       1  0  0   0  0  1   0  1  0      -1  0  0   0  0 -1   0 -1  0
                       0  1 -1   0  0 -1   1  0 -1       0 -1  1   0  0  1  -1  0  1
                      -1  0  1  -1  1  0  -1  0  0       1  0 -1   1 -1  0   1  0  0
                       0 -1  0   1 -1  0   0 -1  1       0  1  0  -1  1  0   0  1 -1
                       1  0 -1   0  0 -1   0  1 -1      -1  0  1   0  0  1   0 -1  1
                       0  1  0   0  0  1   1  0  0       0 -1  0   0  0 -1  -1  0  0
                       1  0 -1   0  1 -1   0  0 -1      -1  0  1   0 -1  1   0  0  1
                       0 -1  0   0 -1  1   1 -1  0       0  1  0   0  1 -1  -1  1  0
                      -1  0  1  -1  0  0  -1  1  0       1  0 -1   1  0  0   1 -1  0
                       0  1  0   1  0  0   0  0  1       0 -1  0  -1  0  0   0  0 -1
                       0  0 -1   0  1 -1   1  0 -1       0  0  1   0 -1  1  -1  0  1
                       1 -1  0   0 -1  1   0 -1  0      -1  1  0   0  1 -1   0  1  0
                       0  0  1   1  0  0   0  1  0       0  0 -1  -1  0  0   0 -1  0
                      -1  1  0  -1  0  0  -1  0  1       1 -1  0   1  0  0   1  0 -1
                       0  0  1   0  1  0   1  0  0       0  0 -1   0 -1  0  -1  0  0
                       1 -1  0   0 -1  0   0 -1  1      -1  1  0   0  1  0   0  1 -1
                       0  0 -1   1  0 -1   0  1 -1       0  0  1  -1  0  1   0 -1  1
                      -1  1  0  -1  0  1  -1  0  0       1 -1  0   1  0 -1   1  0  0
           tolwfr      1.00000000E-20
            typat      1  1  2  3  4  4  4  4  4  4
           useylm           1
              wtk        0.50000    0.50000
           xangst      5.7392041059E+00  4.0582301419E+00  9.9405931065E+00
                       1.9130680353E+00  1.3527433806E+00  3.3135310355E+00
                       0.0000000000E+00  0.0000000000E+00  0.0000000000E+00
                       3.8261360706E+00  2.7054867613E+00  6.6270620710E+00
                       4.7130803254E+00  1.4511581671E+00  5.0908295582E+00
                       2.9391918158E+00  3.9598153555E+00  5.0908295582E+00
                       4.7130803254E+00  1.4511581671E+00  8.1632945838E+00
                       5.6000245802E+00  3.9598153555E+00  6.6270620710E+00
                       2.0522475610E+00  1.4511581671E+00  6.6270620710E+00
                       2.9391918158E+00  3.9598153555E+00  8.1632945838E+00
            xcart      1.0845523981E+01  7.6689435525E+00  1.8784998570E+01
                       3.6151746603E+00  2.5563145175E+00  6.2616661899E+00
                       0.0000000000E+00  0.0000000000E+00  0.0000000000E+00
                       7.2303493206E+00  5.1126290350E+00  1.2523332380E+01
                       8.9064310574E+00  2.7422915113E+00  9.6202736542E+00
                       5.5542675839E+00  7.4829665587E+00  9.6202736542E+00
                       8.9064310574E+00  2.7422915113E+00  1.5426391105E+01
                       1.0582512794E+01  7.4829665587E+00  1.2523332380E+01
                       3.8781858472E+00  2.7422915113E+00  1.2523332380E+01
                       5.5542675839E+00  7.4829665587E+00  1.5426391105E+01
             xred      7.5000000000E-01  7.5000000000E-01  7.5000000000E-01
                       2.5000000000E-01  2.5000000000E-01  2.5000000000E-01
                       0.0000000000E+00  0.0000000000E+00  0.0000000000E+00
                       5.0000000000E-01  5.0000000000E-01  5.0000000000E-01
                       7.3181200000E-01  2.6818800000E-01  2.6818800000E-01
                       2.6818800000E-01  7.3181200000E-01  2.6818800000E-01
                       7.3181200000E-01  2.6818800000E-01  7.3181200000E-01
                       7.3181200000E-01  7.3181200000E-01  2.6818800000E-01
                       2.6818800000E-01  2.6818800000E-01  7.3181200000E-01
                       2.6818800000E-01  7.3181200000E-01  7.3181200000E-01
            znucl       55.00000   19.00000   81.00000    9.00000

 chkinp: Checking input parameters for consistency.

== DATASET  1 ==================================================================
-   mpi_nproc: 1, omp_nthreads: -1 (-1 if OMP is not activated)

--- !DatasetInfo
iteration_state: {dtset: 1, }
dimensions: {natom: 10, nkpt: 2, mband: 50, nsppol: 1, nspinor: 1, nspden: 1, mpw: 18149, }
cutoff_energies: {ecut:  42.0, pawecutdg:  -1.0, }
electrons: {nelect:   8.20000000E+01, charge:   0.00000000E+00, occopt:   1.00000000E+00, tsmear:   1.00000000E-02, }
meta: {optdriver: 1, rfelfd: 2, }
...

 Real(R)+Recip(G) space primitive vectors, cartesian coordinates (Bohr,Bohr^-1):
 R(1)= 10.8455240  0.0000000  6.2616662  G(1)=  0.0922039 -0.0325990  0.0000000
 R(2)=  3.6151747 10.2252581  6.2616662  G(2)=  0.0000000  0.0977970  0.0000000
 R(3)=  0.0000000  0.0000000 12.5233324  G(3)= -0.0461020 -0.0325990  0.0798510
 Unit cell volume ucvol=  1.3888160E+03 bohr^3
 Angles (23,13,12)=  6.00000000E+01  6.00000000E+01  6.00000000E+01 degrees

 getcut: wavevector=  0.0000  0.0000  0.0000  ngfft=  75  75  75
         ecut(hartree)=     42.000   => boxcut(ratio)=   2.02582

--- Pseudopotential description ------------------------------------------------
- pspini: atom type   1  psp file is /scratch/users/j/a/jabreu/pseudos/PBEsol/Cs.psp8
- pspatm: opening atomic psp file    /scratch/users/j/a/jabreu/pseudos/PBEsol/Cs.psp8
- Cs    ONCVPSP-3.3.0  r_core=   2.27353   1.85623   2.01788   1.90105
- 55.00000   9.00000    180112                znucl, zion, pspdat
    8 -116133    3    4       600   0.00000   pspcod,pspxc,lmax,lloc,mmax,r2well
    5.99000000000000    5.00000000000000    0.00000000000000   rchrg,fchrg,qchrg
     nproj     2     2     2     2
     extension_switch     1
  pspatm : epsatm=   22.12462445
         --- l  ekb(1:nproj) -->
             0    6.214110    0.767882
             1    6.311966    0.793598
             2    3.769790    0.913105
             3   -9.247129   -2.432478
 pspatm: atomic psp has been read  and splines computed

- pspini: atom type   2  psp file is /scratch/users/j/a/jabreu/pseudos/PBEsol/K.psp8
- pspatm: opening atomic psp file    /scratch/users/j/a/jabreu/pseudos/PBEsol/K.psp8
- K     ONCVPSP-3.3.0  r_core=   1.36296   1.46408   1.61068
- 19.00000   9.00000    180112                znucl, zion, pspdat
    8 -116133    2    4       400   0.00000   pspcod,pspxc,lmax,lloc,mmax,r2well
    3.99000000000000    5.00000000000000    0.00000000000000   rchrg,fchrg,qchrg
     nproj     2     2     2
     extension_switch     1
  pspatm : epsatm=    8.32487830
         --- l  ekb(1:nproj) -->
             0   10.921326    0.816676
             1    4.431000    0.560368
             2   -3.384038   -1.043186
 pspatm: atomic psp has been read  and splines computed

[...]

- pspini: atom type   4  psp file is /scratch/users/j/a/jabreu/pseudos/PBEsol/F.psp8
- pspatm: opening atomic psp file    /scratch/users/j/a/jabreu/pseudos/PBEsol/F.psp8
[...]
 ETOT 26  -39.651962775490      0.000E+00 1.758E-12 0.000E+00
 ETOT 27  -39.651962775490      1.421E-14 3.558E-13 0.000E+00
 ETOT 28  -39.651962775490     -7.105E-15 3.137E-13 0.000E+00
 ETOT 29  -39.651962775490      0.000E+00 6.351E-14 0.000E+00
 ETOT 30  -39.651962775490      0.000E+00 5.597E-14 0.000E+00
 ETOT 31  -39.651962775490      0.000E+00 1.134E-14 0.000E+00
 ETOT 32  -39.651962775490      0.000E+00 9.986E-15 0.000E+00
 ETOT 33  -39.651962775490     -7.105E-15 2.024E-15 0.000E+00
 ETOT 34  -39.651962775490      7.105E-15 1.782E-15 0.000E+00
 ETOT 35  -39.651962775490     -1.421E-14 3.613E-16 0.000E+00
 ETOT 36  -39.651962775490      7.105E-15 3.179E-16 0.000E+00
 ETOT 37  -39.651962775490     -7.105E-15 6.450E-17 0.000E+00
 ETOT 38  -39.651962775490     -7.105E-15 5.673E-17 0.000E+00
 ETOT 39  -39.651962775490      1.421E-14 1.151E-17 0.000E+00
 ETOT 40  -39.651962775490     -1.421E-14 1.012E-17 0.000E+00
 ETOT 41  -39.651962775490      7.105E-15 2.056E-18 0.000E+00
 ETOT 42  -39.651962775490      0.000E+00 1.806E-18 0.000E+00
 ETOT 43  -39.651962775490      0.000E+00 3.670E-19 0.000E+00
 ETOT 44  -39.651962775490      7.105E-15 3.224E-19 0.000E+00
 ETOT 45  -39.651962775490     -7.105E-15 6.551E-20 0.000E+00
 ETOT 46  -39.651962775490      7.105E-15 5.753E-20 0.000E+00
 ETOT 47  -39.651962775490     -7.105E-15 1.169E-20 0.000E+00
 ETOT 48  -39.651962775490     -7.105E-15 9.974E-21 0.000E+00

 At SCF step   48   max residual=  9.97E-21 < tolwfr=  1.00E-20 =>converged.

 ----iterations are completed or convergence reached----

 dfpt_looppert: DFPT cycle converged with prtwf=-1. Will skip output of the 1st-order WFK file.
 dfpt_looppert : ek2=    6.1923433553E+01
          f-sum rule ratio=    1.0351058823E+00
 prteigrs : about to open file /scratch/users/j/a/jabreu/flow_simple_10atoms/flow/w299/t1/tmpdata/tmp_1WF1_EIG
 Expectation of eigenvalue derivatives (hartree) for nkpt=   2  k points:
  (in case of degenerate eigenvalues, averaged derivative)
 kpt#   1, nband= 50, wtk=  0.50000, kpt=  0.5000  0.5000  0.5000 (reduced coord)
   0.00000    0.00000   -0.00000   -0.00000   -0.00000   -0.00000   -0.00000    0.00000
  -0.00000   -0.00000   -0.00000   -0.00000    0.00000    0.00000    0.00000   -0.00000
  -0.00000    0.00000    0.00000    0.00000    0.00000   -0.00000   -0.00000    0.00000
  -0.00000   -0.00000   -0.00000    0.00000   -0.00000   -0.00000   -0.00000    0.00000
   0.00000   -0.00000    0.00000    0.00000    0.00000    0.00000    0.00000    0.00000
   0.00000   -0.00000   -0.00000   -0.00000   -0.00000    0.00000    0.00000   -0.00000
  -0.00000   -0.00000
 prteigrs : prtvol=0 or 1, do not print more k-points.

 Eight components of 2nd-order total energy (hartree) are
 1,2,3: 0th-order hamiltonian combined with 1st-order wavefunctions
     kin0=   5.06837485E+01 eigvalue=   3.48029277E+00  local=  -2.55298803E+01
 4,5,6: 1st-order hamiltonian combined with 1st and 0th-order wfs
     kin1=  -6.40973103E+01  Hartree=   0.00000000E+00     xc=   0.00000000E+00
 7,8,9: eventually, occupation + non-local contributions
    edocc=   6.46712748E+00     enl0=   4.55067441E+00   enl1=  -1.52066152E+01
 1-9 gives the relaxation energy (to be shifted if some occ is /=2.0)
   erelax=  -3.96519628E+01
  No Ewald or frozen-wf contrib.: the relaxation energy is the total one
 2DEtotal=   -0.3965196278E+02 Ha. Also 2DEtotal=   -0.107898477989E+04 eV
    (  non-var. 2DEtotal :   -3.9651962775E+01 Ha)

 CALCULATION OF EFFECTIVE MASSES
 NOTE : Additional infos (eff. mass eigenvalues, eigenvectors and, if degenerate, average mass) are available in stdout.

 COMMENTS:
 - At k-point ( 0.500, 0.500, 0.500), bands    40 through    41
   are DEGENERATE (effective mass tensor is therefore not defined).
   See Section IIIB Eqs. (67)-(70) and Appendix E of PRB 93 205147 (2016).
 - Angular average effective mass for Frohlich model is to be averaged over degenerate bands. See later.
 - Associated theta integrals calculated with ntheta=   1000 points.

 K-point ( 0.500, 0.500, 0.500) | band =    40
 Transport equivalent effective mass tensor:
             -1.7090490820             -0.1541269118             -0.3775266000
             -0.1541269118             -1.6000669162             -0.2669543550
             -0.3775266000             -0.2669543550             -2.1449666350
 Transport equivalent effective mass tensor eigenvalues:
             -2.4719207275             -1.4910821719             -1.4910797338
 Angular average effective mass 1/(<1/m>)=  -1.3492746187
 Angular average effective mass for Frohlich model (<m**0.5>)**2=  -1.3849237675
 Effective masses along directions: (cart. coord. / red. coord. -> eff. mass)
    1:   1.000000  0.000000  0.000000 /   0.948683  0.316228  0.000000 ->  -1.4269627326
    2:   0.000000  1.000000  0.000000 /   0.000000  1.000000  0.000000 ->  -1.6463514839
    3:   0.000000  0.000000  1.000000 /   0.408248  0.408248  0.816497 ->  -1.7905380795
    4:   0.577350  0.577350  0.577350 /   0.585539  0.688047  0.428644 ->  -1.7327649900
    5:   0.000000  0.707107  0.707107 /   0.289489  0.762222  0.578977 ->  -1.3850077287
    6:   0.707107  0.000000  0.707107 /   0.731423  0.422287  0.535439 ->  -1.7435830509
    7:   0.707107  0.707107  0.000000 /   0.616798  0.787122  0.000000 ->  -1.1107152644

 K-point ( 0.500, 0.500, 0.500) | band =    41
 Transport equivalent effective mass tensor:
           -761.3211381192            -34.4338626881            -84.3453900751
            -34.4338626881           -736.9728141517            -59.6410771732
            -84.3453900751            -59.6410771732           -858.7146734207
 Transport equivalent effective mass tensor eigenvalues:
           -931.7599132997           -712.6244493592           -712.6242630327
 Angular average effective mass 1/(<1/m>)=  -5.4776335635
 Angular average effective mass for Frohlich model (<m**0.5>)**2=  -8.5156691936
 Effective masses along directions: (cart. coord. / red. coord. -> eff. mass)
    1:   1.000000  0.000000  0.000000 /   0.948683  0.316228  0.000000 ->  -3.9412938256
    2:   0.000000  1.000000  0.000000 /   0.000000  1.000000  0.000000 ->  -2.6460445621
    3:   0.000000  0.000000  1.000000 /   0.408248  0.408248  0.816497 ->  -3.6661178155
    4:   0.577350  0.577350  0.577350 /   0.585539  0.688047  0.428644 ->  -5.1005402373
    5:   0.000000  0.707107  0.707107 /   0.289489  0.762222  0.578977 ->  -9.0254171225
    6:   0.707107  0.000000  0.707107 /   0.731423  0.422287  0.535439 ->  -4.7033607952
    7:   0.707107  0.707107  0.000000 /   0.616798  0.787122  0.000000 -> -38.4287767052

 Angular average effective mass for Frohlich model, averaged over degenerate bands.
 Value of     (<<m**0.5>>)**2 =     4.192235E+00
 Absolute Value of <<m**0.5>> =     2.047495E+00

 K-point ( 0.000, 0.000, 0.000) | band =    42
 Effective mass tensor:
              0.7580518399             -0.0000000000             -0.0000000000
             -0.0000000000              0.7580518399              0.0000000000
             -0.0000000000              0.0000000000              0.7580518400
 Effective mass tensor eigenvalues:
              0.7580518399              0.7580518399              0.7580518400
 Angular average effective mass 1/(<1/m>)=   0.7580518399
 Angular average effective mass for Frohlich model (<m**0.5>)**2=   0.7580518399
 Effective masses along directions: (cart. coord. / red. coord. -> eff. mass)
    1:   1.000000  0.000000  0.000000 /   0.948683  0.316228  0.000000 ->   0.7580518399
    2:   0.000000  1.000000  0.000000 /   0.000000  1.000000  0.000000 ->   0.7580518399
    3:   0.000000  0.000000  1.000000 /   0.408248  0.408248  0.816497 ->   0.7580518400
    4:   0.577350  0.577350  0.577350 /   0.585539  0.688047  0.428644 ->   0.7580518400
    5:   0.000000  0.707107  0.707107 /   0.289489  0.762222  0.578977 ->   0.7580518400
    6:   0.707107  0.000000  0.707107 /   0.731423  0.422287  0.535439 ->   0.7580518399
    7:   0.707107  0.707107  0.000000 /   0.616798  0.787122  0.000000 ->   0.7580518399

 END OF EFFECTIVE MASSES SECTION

 ---- first-order wavefunction calculations are completed ----

 Total localisation tensor (bohr^2) in cartesian coordinates
  WARNING : still subject to testing - especially symmetries.
      direction              matrix element
   alpha     beta       real part   imaginary part
     1        1       0.8662964778    0.0000000000
     1        2       0.2450256494    0.0000000000
     1        3       0.6001878072    0.0000000000
     2        1       0.2450256494    0.0000000000
     2        2       0.6930371931    0.0000000000
     2        3       0.4243968740    0.0000000000
     3        1       0.6001878072    0.0000000000
     3        2       0.4243968740    0.0000000000
     3        3       1.5593336423    0.0000000000

 respfn : d/dk was computed, but no 2DTE, so no DDB output.

== END DATASET(S) ==============================================================

 -outvars: echo values of variables after computation  --------
            acell      1.0000000000E+00  1.0000000000E+00  1.0000000000E+00 Bohr
              amu      1.32905430E+02  3.90983000E+01  2.04383300E+02
                       1.89984032E+01
             ecut      4.20000000E+01 Hartree
           etotal     -3.9651962775E+01
            fcart      0.0000000000E+00  0.0000000000E+00  0.0000000000E+00
                       0.0000000000E+00  0.0000000000E+00  0.0000000000E+00
                       0.0000000000E+00  0.0000000000E+00  0.0000000000E+00
                       0.0000000000E+00  0.0000000000E+00  0.0000000000E+00
                       0.0000000000E+00  0.0000000000E+00  0.0000000000E+00
                       0.0000000000E+00  0.0000000000E+00  0.0000000000E+00
                       0.0000000000E+00  0.0000000000E+00  0.0000000000E+00
                       0.0000000000E+00  0.0000000000E+00  0.0000000000E+00
                       0.0000000000E+00  0.0000000000E+00  0.0000000000E+00
                       0.0000000000E+00  0.0000000000E+00  0.0000000000E+00
-          fftalg         512
           irdden           1
           irdwfk           1
           istwfk        1    1
              ixc     -116133
              kpt      5.00000000E-01  5.00000000E-01  5.00000000E-01
                       0.00000000E+00  0.00000000E+00  0.00000000E+00
           kptopt           0
P           mkmem           2
P          mkqmem           2
P          mk1mem           2
            natom          10
            nband          50
           nbdbuf           4
            ngfft          75      75      75
             nkpt           2
            nstep        2000
             nsym          48
           ntypat           4
              occ      2.000000  2.000000  2.000000  2.000000  2.000000  2.000000
                       2.000000  2.000000  2.000000  2.000000  2.000000  2.000000
                       2.000000  2.000000  2.000000  2.000000  2.000000  2.000000
                       2.000000  2.000000  2.000000  2.000000  2.000000  2.000000
                       2.000000  2.000000  2.000000  2.000000  2.000000  2.000000
                       2.000000  2.000000  2.000000  2.000000  2.000000  2.000000
                       2.000000  2.000000  2.000000  2.000000  2.000000  0.000000
                       0.000000  0.000000  0.000000  0.000000  0.000000  0.000000
                       0.000000  0.000000
        optdriver           1
            prtwf          -1
            rfdir           1       1       1
           rfelfd           2
            rprim      1.0845523981E+01  0.0000000000E+00  6.2616661899E+00
                       3.6151746603E+00  1.0225258070E+01  6.2616661899E+00
                       0.0000000000E+00  0.0000000000E+00  1.2523332380E+01
          spgroup         225
           strten      0.0000000000E+00  0.0000000000E+00  0.0000000000E+00
                       0.0000000000E+00  0.0000000000E+00  0.0000000000E+00
           symrel      1  0  0   0  1  0   0  0  1      -1  0  0   0 -1  0   0  0 -1
                       0 -1  1   0 -1  0   1 -1  0       0  1 -1   0  1  0  -1  1  0
                      -1  0  0  -1  0  1  -1  1  0       1  0  0   1  0 -1   1 -1  0
                       0  1 -1   1  0 -1   0  0 -1       0 -1  1  -1  0  1   0  0  1
                      -1  0  0  -1  1  0  -1  0  1       1  0  0   1 -1  0   1  0 -1
                       0 -1  1   1 -1  0   0 -1  0       0  1 -1  -1  1  0   0  1  0
                       1  0  0   0  0  1   0  1  0      -1  0  0   0  0 -1   0 -1  0
                       0  1 -1   0  0 -1   1  0 -1       0 -1  1   0  0  1  -1  0  1
                      -1  0  1  -1  1  0  -1  0  0       1  0 -1   1 -1  0   1  0  0
                       0 -1  0   1 -1  0   0 -1  1       0  1  0  -1  1  0   0  1 -1
                       1  0 -1   0  0 -1   0  1 -1      -1  0  1   0  0  1   0 -1  1
                       0  1  0   0  0  1   1  0  0       0 -1  0   0  0 -1  -1  0  0
                       1  0 -1   0  1 -1   0  0 -1      -1  0  1   0 -1  1   0  0  1
                       0 -1  0   0 -1  1   1 -1  0       0  1  0   0  1 -1  -1  1  0
                      -1  0  1  -1  0  0  -1  1  0       1  0 -1   1  0  0   1 -1  0
                       0  1  0   1  0  0   0  0  1       0 -1  0  -1  0  0   0  0 -1
                       0  0 -1   0  1 -1   1  0 -1       0  0  1   0 -1  1  -1  0  1
                       1 -1  0   0 -1  1   0 -1  0      -1  1  0   0  1 -1   0  1  0
                       0  0  1   1  0  0   0  1  0       0  0 -1  -1  0  0   0 -1  0
                      -1  1  0  -1  0  0  -1  0  1       1 -1  0   1  0  0   1  0 -1
                       0  0  1   0  1  0   1  0  0       0  0 -1   0 -1  0  -1  0  0
                       1 -1  0   0 -1  0   0 -1  1      -1  1  0   0  1  0   0  1 -1
                       0  0 -1   1  0 -1   0  1 -1       0  0  1  -1  0  1   0 -1  1
                      -1  1  0  -1  0  1  -1  0  0       1 -1  0   1  0 -1   1  0  0
           tolwfr      1.00000000E-20
            typat      1  1  2  3  4  4  4  4  4  4
           useylm           1
              wtk        0.50000    0.50000
           xangst      5.7392041059E+00  4.0582301419E+00  9.9405931065E+00
                       1.9130680353E+00  1.3527433806E+00  3.3135310355E+00
                       0.0000000000E+00  0.0000000000E+00  0.0000000000E+00
                       3.8261360706E+00  2.7054867613E+00  6.6270620710E+00
                       4.7130803254E+00  1.4511581671E+00  5.0908295582E+00
                       2.9391918158E+00  3.9598153555E+00  5.0908295582E+00
                       4.7130803254E+00  1.4511581671E+00  8.1632945838E+00
                       5.6000245802E+00  3.9598153555E+00  6.6270620710E+00
                       2.0522475610E+00  1.4511581671E+00  6.6270620710E+00
                       2.9391918158E+00  3.9598153555E+00  8.1632945838E+00
            xcart      1.0845523981E+01  7.6689435525E+00  1.8784998570E+01
                       3.6151746603E+00  2.5563145175E+00  6.2616661899E+00
                       0.0000000000E+00  0.0000000000E+00  0.0000000000E+00
                       7.2303493206E+00  5.1126290350E+00  1.2523332380E+01
                       8.9064310574E+00  2.7422915113E+00  9.6202736542E+00
                       5.5542675839E+00  7.4829665587E+00  9.6202736542E+00
                       8.9064310574E+00  2.7422915113E+00  1.5426391105E+01
                       1.0582512794E+01  7.4829665587E+00  1.2523332380E+01
                       3.8781858472E+00  2.7422915113E+00  1.2523332380E+01
                       5.5542675839E+00  7.4829665587E+00  1.5426391105E+01
             xred      7.5000000000E-01  7.5000000000E-01  7.5000000000E-01
                       2.5000000000E-01  2.5000000000E-01  2.5000000000E-01
                       0.0000000000E+00  0.0000000000E+00  0.0000000000E+00
                       5.0000000000E-01  5.0000000000E-01  5.0000000000E-01
                       7.3181200000E-01  2.6818800000E-01  2.6818800000E-01
                       2.6818800000E-01  7.3181200000E-01  2.6818800000E-01
                       7.3181200000E-01  2.6818800000E-01  7.3181200000E-01
                       7.3181200000E-01  7.3181200000E-01  2.6818800000E-01
                       2.6818800000E-01  2.6818800000E-01  7.3181200000E-01
                       2.6818800000E-01  7.3181200000E-01  7.3181200000E-01
            znucl       55.00000   19.00000   81.00000    9.00000

- Timing analysis has been suppressed with timopt=0

 Suggested references for the acknowledgment of ABINIT usage.

 Calculation completed.
.Delivered   2 WARNINGs and   5 COMMENTs to log file.