.Version 9.7.2 of ABINIT

 ABINIT is a project of the Universite Catholique de Louvain,
 Corning Inc. and other collaborators, see ~abinit/doc/developers/contributors.txt .
 acknowledgments of the ABINIT effort.

.Starting date : Wed  1 Dec 2021.
- ( at 21h44 )

- input  file    -> /scratch/users/j/a/jabreu/flow_simple_remain_atoms/flow/w242/t1/run.abi
- output file    -> /scratch/users/j/a/jabreu/flow_simple_remain_atoms/flow/w242/t1/run.abo
- root for input  files -> /scratch/users/j/a/jabreu/flow_simple_remain_atoms/flow/w242/t1/indata/in
- root for output files -> /scratch/users/j/a/jabreu/flow_simple_remain_atoms/flow/w242/t1/outdata/out

 Symmetries : space group Pm -3 m (#221); Bravais cP (primitive cubic)
     intxc =       0      iscf =       7    lmnmax =      25     lnmax =       7
     mgfft =      60  mpssoang =       4    mqgrid =    3001     natom =       5
  nloc_mem =       1    nspden =       1   nspinor =       1    nsppol =       1
      nsym =      48    n1xccc =    2501    ntypat =       3    occopt =       1
   xclevel =       2
-    mband =          35        mffmem =           1         mkmem =           2
-   mkqmem =           2        mk1mem =           2           mpw =       13205
      nfft =      216000          nkpt =           2
  Rough estimation (10% accuracy) of disk space for files :

------------- Echo of variables that govern the present computation ------------
-
- outvars: echo of selected default values
-   iomode0 =  0 , fftalg0 =512 , wfoptalg0 =  0
-
- outvars: echo of global parameters not present in the input file
-  max_nthreads =    0
-
 -outvars: echo values of preprocessed input variables --------
            acell      1.0000000000E+00  1.0000000000E+00  1.0000000000E+00 Bohr
              amu      3.90983000E+01  1.96966540E+02  1.59994000E+01
             ecut      4.40000000E+01 Hartree
-          fftalg         512
           irdden           1
           irdwfk           1
           istwfk        1    1
              ixc     -116133
              kpt      0.00000000E+00  0.00000000E+00  0.00000000E+00
                       0.00000000E+00  5.00000000E-01  0.00000000E+00
           kptopt           0
P           mkmem           2
P          mkqmem           2
P          mk1mem           2
            natom           5
            nband          35
           nbdbuf           4
            ngfft          60      60      60
             nkpt           2
            nstep        2000
             nsym          48
           ntypat           3
              occ      2.000000  2.000000  2.000000  2.000000  2.000000  2.000000
                       2.000000  2.000000  2.000000  2.000000  2.000000  2.000000
                       2.000000  2.000000  2.000000  2.000000  2.000000  2.000000
                       2.000000  2.000000  2.000000  2.000000  2.000000  2.000000
                       2.000000  2.000000  0.000000  0.000000  0.000000  0.000000
                       0.000000  0.000000  0.000000  0.000000  0.000000
        optdriver           1
            prtwf          -1
            rfdir           1       1       1
           rfelfd           2
            rprim      9.8177308149E+00  0.0000000000E+00  0.0000000000E+00
                       0.0000000000E+00  9.8177308149E+00  0.0000000000E+00
                       0.0000000000E+00  0.0000000000E+00  9.8177308149E+00
          spgroup         221
           symrel      1  0  0   0  1  0   0  0  1      -1  0  0   0 -1  0   0  0 -1
                      -1  0  0   0  1  0   0  0 -1       1  0  0   0 -1  0   0  0  1
                      -1  0  0   0 -1  0   0  0  1       1  0  0   0  1  0   0  0 -1
                       1  0  0   0 -1  0   0  0 -1      -1  0  0   0  1  0   0  0  1
                       0  1  0   1  0  0   0  0  1       0 -1  0  -1  0  0   0  0 -1
                       0 -1  0   1  0  0   0  0 -1       0  1  0  -1  0  0   0  0  1
                       0 -1  0  -1  0  0   0  0  1       0  1  0   1  0  0   0  0 -1
                       0  1  0  -1  0  0   0  0 -1       0 -1  0   1  0  0   0  0  1
                       0  0  1   1  0  0   0  1  0       0  0 -1  -1  0  0   0 -1  0
                       0  0 -1   1  0  0   0 -1  0       0  0  1  -1  0  0   0  1  0
                       0  0 -1  -1  0  0   0  1  0       0  0  1   1  0  0   0 -1  0
                       0  0  1  -1  0  0   0 -1  0       0  0 -1   1  0  0   0  1  0
                       1  0  0   0  0  1   0  1  0      -1  0  0   0  0 -1   0 -1  0
                      -1  0  0   0  0  1   0 -1  0       1  0  0   0  0 -1   0  1  0
                      -1  0  0   0  0 -1   0  1  0       1  0  0   0  0  1   0 -1  0
                       1  0  0   0  0 -1   0 -1  0      -1  0  0   0  0  1   0  1  0
                       0  1  0   0  0  1   1  0  0       0 -1  0   0  0 -1  -1  0  0
                       0 -1  0   0  0  1  -1  0  0       0  1  0   0  0 -1   1  0  0
                       0 -1  0   0  0 -1   1  0  0       0  1  0   0  0  1  -1  0  0
                       0  1  0   0  0 -1  -1  0  0       0 -1  0   0  0  1   1  0  0
                       0  0  1   0  1  0   1  0  0       0  0 -1   0 -1  0  -1  0  0
                       0  0 -1   0  1  0  -1  0  0       0  0  1   0 -1  0   1  0  0
                       0  0 -1   0 -1  0   1  0  0       0  0  1   0  1  0  -1  0  0
                       0  0  1   0 -1  0  -1  0  0       0  0 -1   0  1  0   1  0  0
           tolwfr      1.00000000E-20
            typat      1  1  1  2  3
           useylm           1
              wtk        0.50000    0.50000
           xangst      0.0000000000E+00  2.5976596937E+00  2.5976596937E+00
                       2.5976596937E+00  2.5976596937E+00  0.0000000000E+00
                       2.5976596937E+00  0.0000000000E+00  2.5976596937E+00
                       0.0000000000E+00  0.0000000000E+00  0.0000000000E+00
                       2.5976596937E+00  2.5976596937E+00  2.5976596937E+00
            xcart      0.0000000000E+00  4.9088654074E+00  4.9088654074E+00
                       4.9088654074E+00  4.9088654074E+00  0.0000000000E+00
                       4.9088654074E+00  0.0000000000E+00  4.9088654074E+00
                       0.0000000000E+00  0.0000000000E+00  0.0000000000E+00
                       4.9088654074E+00  4.9088654074E+00  4.9088654074E+00
             xred      0.0000000000E+00  5.0000000000E-01  5.0000000000E-01
                       5.0000000000E-01  5.0000000000E-01  0.0000000000E+00
                       5.0000000000E-01  0.0000000000E+00  5.0000000000E-01
                       0.0000000000E+00  0.0000000000E+00  0.0000000000E+00
                       5.0000000000E-01  5.0000000000E-01  5.0000000000E-01
            znucl       19.00000   79.00000    8.00000

 chkinp: Checking input parameters for consistency.

== DATASET  1 ==================================================================
-   mpi_nproc: 1, omp_nthreads: -1 (-1 if OMP is not activated)

--- !DatasetInfo
iteration_state: {dtset: 1, }
dimensions: {natom: 5, nkpt: 2, mband: 35, nsppol: 1, nspinor: 1, nspden: 1, mpw: 13205, }
cutoff_energies: {ecut:  44.0, pawecutdg:  -1.0, }
electrons: {nelect:   5.20000000E+01, charge:   0.00000000E+00, occopt:   1.00000000E+00, tsmear:   1.00000000E-02, }
meta: {optdriver: 1, rfelfd: 2, }
...

 Real(R)+Recip(G) space primitive vectors, cartesian coordinates (Bohr,Bohr^-1):
 R(1)=  9.8177308  0.0000000  0.0000000  G(1)=  0.1018565  0.0000000  0.0000000
 R(2)=  0.0000000  9.8177308  0.0000000  G(2)=  0.0000000  0.1018565  0.0000000
 R(3)=  0.0000000  0.0000000  9.8177308  G(3)=  0.0000000  0.0000000  0.1018565
 Unit cell volume ucvol=  9.4630985E+02 bohr^3
 Angles (23,13,12)=  9.00000000E+01  9.00000000E+01  9.00000000E+01 degrees

 getcut: wavevector=  0.0000  0.0000  0.0000  ngfft=  60  60  60
         ecut(hartree)=     44.000   => boxcut(ratio)=   2.04667

--- Pseudopotential description ------------------------------------------------
- pspini: atom type   1  psp file is /scratch/users/j/a/jabreu/pseudos/PBEsol/K.psp8
- pspatm: opening atomic psp file    /scratch/users/j/a/jabreu/pseudos/PBEsol/K.psp8
- K     ONCVPSP-3.3.0  r_core=   1.36296   1.46408   1.61068
- 19.00000   9.00000    180112                znucl, zion, pspdat
    8 -116133    2    4       400   0.00000   pspcod,pspxc,lmax,lloc,mmax,r2well
    3.99000000000000    5.00000000000000    0.00000000000000   rchrg,fchrg,qchrg
     nproj     2     2     2
     extension_switch     1
  pspatm : epsatm=    8.32487830
         --- l  ekb(1:nproj) -->
             0   10.921326    0.816676
             1    4.431000    0.560368
             2   -3.384038   -1.043186
 pspatm: atomic psp has been read  and splines computed

- pspini: atom type   2  psp file is /scratch/users/j/a/jabreu/pseudos/PBEsol/Au.psp8
- pspatm: opening atomic psp file    /scratch/users/j/a/jabreu/pseudos/PBEsol/Au.psp8
- Au    ONCVPSP-3.3.0  r_core=   1.45604   1.56407   1.56407   1.60183
- 79.00000  19.00000    180112                znucl, zion, pspdat
    8 -116133    3    4       500   0.00000   pspcod,pspxc,lmax,lloc,mmax,r2well
    4.99000000000000    5.00000000000000    0.00000000000000   rchrg,fchrg,qchrg
     nproj     2     2     2     1
     extension_switch     1
  pspatm : epsatm=   32.21965837
         --- l  ekb(1:nproj) -->
             0    9.413866   -0.196587
             1    2.474292   -1.517497
             2    1.503483    0.298081
             3    1.177996
 pspatm: atomic psp has been read  and splines computed

- pspini: atom type   3  psp file is /scratch/users/j/a/jabreu/pseudos/PBEsol/O.psp8
- pspatm: opening atomic psp file    /scratch/users/j/a/jabreu/pseudos/PBEsol/O.psp8
- O     ONCVPSP-3.3.0  r_core=   1.35509   1.45563   1.26150
-  8.00000   6.00000    180112                znucl, zion, pspdat
    8 -116133    2    4       600   0.00000   pspcod,pspxc,lmax,lloc,mmax,r2well
    5.99000000000000    4.00000000000000    0.00000000000000   rchrg,fchrg,qchrg
     nproj     2     2     1
     extension_switch     1
  pspatm : epsatm=    6.22910522
         --- l  ekb(1:nproj) -->
             0    6.050032    0.820363
             1   -4.739617   -1.153841
             2   -1.335834
 pspatm: atomic psp has been read  and splines computed

   3.29801672E+03                                ecore*ucvol(ha*bohr**3)

 ==>  initialize data related to q vector <==

 The list of irreducible perturbations for this q vector is:
    1)    idir= 1    ipert=   6
    2)    idir= 2    ipert=   6
    3)    idir= 3    ipert=   6

 Perturbation wavevector (in red.coord.)   0.000000  0.000000  0.000000
 Perturbation : derivative vs k along direction   1

 dfpt_looppert : COMMENT -
  In a d/dk calculation, iscf is set to -3 automatically.
 The set of symmetries contains only one element for this perturbation.
 symkpt : not enough symmetry to change the number of k points.

 Initialisation of the first-order wave-functions :
  ireadwf=   0

--- !BeginCycle
iteration_state: {dtset: 1, }
solver: {iscf: 7, nstep: 2000, nline: 4, wfoptalg: 0, }
tolerances: {tolwfr: 1.00E-20, }
...

     iter   2DEtotal(Ha)        deltaE(Ha) residm    vres2
[...]
  (in case of degenerate eigenvalues, averaged derivative)
 kpt#   1, nband= 35, wtk=  0.50000, kpt=  0.0000  0.0000  0.0000 (reduced coord)
  -0.00000   -0.00000   -0.00000   -0.00000    0.00000   -0.00000   -0.00000   -0.00000
   0.00000    0.00000    0.00000    0.00000    0.00000    0.00000   -0.00000   -0.00000
  -0.00000   -0.00000    0.00000    0.00000   -0.00000   -0.00000   -0.00000   -0.00000
  -0.00000   -0.00000   -0.00000   -0.00000   -0.00000    0.00000    0.00000    0.00000
   0.00000    0.00000   -0.00000
 prteigrs : prtvol=0 or 1, do not print more k-points.

 Eight components of 2nd-order total energy (hartree) are
 1,2,3: 0th-order hamiltonian combined with 1st-order wavefunctions
     kin0=   3.40009929E+01 eigvalue=   1.54474202E+00  local=  -1.93050843E+01
 4,5,6: 1st-order hamiltonian combined with 1st and 0th-order wfs
     kin1=  -4.49923099E+01  Hartree=   0.00000000E+00     xc=   0.00000000E+00
 7,8,9: eventually, occupation + non-local contributions
    edocc=   4.31024184E+00     enl0=   1.02225931E+00   enl1=   1.84600638E+00
 1-9 gives the relaxation energy (to be shifted if some occ is /=2.0)
   erelax=  -2.15731518E+01
  No Ewald or frozen-wf contrib.: the relaxation energy is the total one
 2DEtotal=   -0.2157315176E+02 Ha. Also 2DEtotal=   -0.587035313740E+03 eV
    (  non-var. 2DEtotal :   -2.1573151764E+01 Ha)

 Perturbation wavevector (in red.coord.)   0.000000  0.000000  0.000000
 Perturbation : derivative vs k along direction   2
 The set of symmetries contains only one element for this perturbation.
 symkpt : not enough symmetry to change the number of k points.

[...]

 Perturbation wavevector (in red.coord.)   0.000000  0.000000  0.000000
 Perturbation : derivative vs k along direction   3
 The set of symmetries contains only one element for this perturbation.
 symkpt : not enough symmetry to change the number of k points.

 Initialisation of the first-order wave-functions :
  ireadwf=   0

--- !BeginCycle
iteration_state: {dtset: 1, }
solver: {iscf: 7, nstep: 2000, nline: 4, wfoptalg: 0, }
tolerances: {tolwfr: 1.00E-20, }
...

     iter   2DEtotal(Ha)        deltaE(Ha) residm    vres2
-ETOT  1  -21.512369281045     -2.151E+01 9.878E-02 0.000E+00
 ETOT  2  -21.572239809616     -5.987E-02 3.203E-03 0.000E+00
 ETOT  3  -21.572993823005     -7.540E-04 9.773E-05 0.000E+00
 ETOT  4  -21.573008354169     -1.453E-05 6.173E-06 0.000E+00
 ETOT  5  -21.573008683507     -3.293E-07 8.198E-07 0.000E+00
 ETOT  6  -21.573008691364     -7.856E-09 5.901E-08 0.000E+00
 ETOT  7  -21.573008691556     -1.923E-10 8.465E-09 0.000E+00
 ETOT  8  -21.573008691561     -4.714E-12 6.137E-10 0.000E+00
 ETOT  9  -21.573008691561     -1.457E-13 9.926E-11 0.000E+00
 ETOT 10  -21.573008691561     -7.105E-15 6.524E-12 0.000E+00
 ETOT 11  -21.573008691561     -1.066E-14 1.543E-12 0.000E+00
 ETOT 12  -21.573008691561     -7.105E-15 7.534E-14 0.000E+00
 ETOT 13  -21.573008691561     -2.842E-14 2.439E-14 0.000E+00
 ETOT 14  -21.573008691561     -3.553E-15 1.233E-15 0.000E+00
 ETOT 15  -21.573008691561     -3.553E-15 3.919E-16 0.000E+00
 ETOT 16  -21.573008691561      0.000E+00 2.088E-17 0.000E+00
 ETOT 17  -21.573008691561      3.553E-15 6.413E-18 0.000E+00
 ETOT 18  -21.573008691561      2.132E-14 3.652E-19 0.000E+00
 ETOT 19  -21.573008691561     -1.421E-14 1.069E-19 0.000E+00
 ETOT 20  -21.573008691561      1.066E-14 9.989E-21 0.000E+00

 At SCF step   20   max residual=  9.99E-21 < tolwfr=  1.00E-20 =>converged.

 ----iterations are completed or convergence reached----

 dfpt_looppert: DFPT cycle converged with prtwf=-1. Will skip output of the 1st-order WFK file.
 dfpt_looppert : ek2=    4.2596197829E+01
          f-sum rule ratio=    1.0562477123E+00
 prteigrs : about to open file /scratch/users/j/a/jabreu/flow_simple_remain_atoms/flow/w242/t1/tmpdata/tmp_1WF1_EIG
 Expectation of eigenvalue derivatives (hartree) for nkpt=   2  k points:
  (in case of degenerate eigenvalues, averaged derivative)
 kpt#   1, nband= 35, wtk=  0.50000, kpt=  0.0000  0.0000  0.0000 (reduced coord)
  -0.00000    0.00000    0.00000    0.00000    0.00000   -0.00000   -0.00000   -0.00000
  -0.00000   -0.00000   -0.00000   -0.00000   -0.00000   -0.00000    0.00000    0.00000
   0.00000   -0.00000    0.00000    0.00000   -0.00000   -0.00000   -0.00000    0.00000
   0.00000    0.00000    0.00000    0.00000    0.00000   -0.00000   -0.00000   -0.00000
  -0.00000   -0.00000    0.00000
 prteigrs : prtvol=0 or 1, do not print more k-points.

 Eight components of 2nd-order total energy (hartree) are
 1,2,3: 0th-order hamiltonian combined with 1st-order wavefunctions
     kin0=   3.39674066E+01 eigvalue=   1.53577144E+00  local=  -1.92828801E+01
 4,5,6: 1st-order hamiltonian combined with 1st and 0th-order wfs
     kin1=  -4.49921365E+01  Hartree=   0.00000000E+00     xc=   0.00000000E+00
 7,8,9: eventually, occupation + non-local contributions
    edocc=   4.32813073E+00     enl0=   1.02457998E+00   enl1=   1.84611913E+00
 1-9 gives the relaxation energy (to be shifted if some occ is /=2.0)
   erelax=  -2.15730087E+01
  No Ewald or frozen-wf contrib.: the relaxation energy is the total one
 2DEtotal=   -0.2157300869E+02 Ha. Also 2DEtotal=   -0.587031420521E+03 eV
    (  non-var. 2DEtotal :   -2.1573008691E+01 Ha)

 CALCULATION OF EFFECTIVE MASSES
 NOTE : Additional infos (eff. mass eigenvalues, eigenvectors and, if degenerate, average mass) are available in stdout.

 COMMENTS:
 - At k-point ( 0.000, 0.000, 0.000), bands    24 through    26
   are DEGENERATE (effective mass tensor is therefore not defined).
   See Section IIIB Eqs. (67)-(70) and Appendix E of PRB 93 205147 (2016).
 - Angular average effective mass for Frohlich model is to be averaged over degenerate bands. See later.
 - Associated theta integrals calculated with ntheta=   1000 points.

 K-point ( 0.000, 0.000, 0.000) | band =    24
 Transport equivalent effective mass tensor:
             -1.5515015757             -0.0000000001              0.0000000000
             -0.0000000001             -1.5515028693              0.0000000000
              0.0000000000              0.0000000000             -1.5514922224
 Transport equivalent effective mass tensor eigenvalues:
             -1.5515028693             -1.5515015757             -1.5514922224
 Angular average effective mass 1/(<1/m>)=  -1.0221739956
 Angular average effective mass for Frohlich model (<m**0.5>)**2=  -1.0480505030
 Effective masses along directions: (cart. coord. / red. coord. -> eff. mass)
    1:   1.000000  0.000000  0.000000 /   1.000000  0.000000  0.000000 ->  -0.7643914323
    2:   0.000000  1.000000  0.000000 /   0.000000  1.000000  0.000000 ->  -0.7643914324
    3:   0.000000  0.000000  1.000000 /   0.000000  0.000000  1.000000 ->  -0.7643914325
    4:   0.577350  0.577350  0.577350 /   0.577350  0.577350  0.577350 ->  -1.6967559478
    5:   0.000000  0.707107  0.707107 /   0.000000  0.707107  0.707107 ->  -1.2086490790
    6:   0.707107  0.000000  0.707107 /   0.707107  0.000000  0.707107 ->  -1.2086490790
    7:   0.707107  0.707107  0.000000 /   0.707107  0.707107  0.000000 ->  -1.2086490789

[...]

 K-point ( 0.000, 0.000, 0.000) | band =    26
 Transport equivalent effective mass tensor:
            -23.6276177378             -0.0000000062              0.0000000012
             -0.0000000062            -23.6276176268              0.0000000019
              0.0000000012              0.0000000019            -23.6276174772
 Transport equivalent effective mass tensor eigenvalues:
            -23.6276177382            -23.6276176265            -23.6276174772
 Angular average effective mass 1/(<1/m>)=  -5.6924415372
 Angular average effective mass for Frohlich model (<m**0.5>)**2=  -6.2117911096
 Effective masses along directions: (cart. coord. / red. coord. -> eff. mass)
    1:   1.000000  0.000000  0.000000 /   1.000000  0.000000  0.000000 ->  -8.8230236606
    2:   0.000000  1.000000  0.000000 /   0.000000  1.000000  0.000000 ->  -8.8230236659
    3:   0.000000  0.000000  1.000000 /   0.000000  0.000000  1.000000 ->  -8.8230236721
    4:   0.577350  0.577350  0.577350 /   0.577350  0.577350  0.577350 ->  -2.8074902480
    5:   0.000000  0.707107  0.707107 /   0.000000  0.707107  0.707107 ->  -8.8230236569
    6:   0.707107  0.000000  0.707107 /   0.707107  0.000000  0.707107 ->  -8.8230236643
    7:   0.707107  0.707107  0.000000 /   0.707107  0.707107  0.000000 ->  -8.8230236519

 Angular average effective mass for Frohlich model, averaged over degenerate bands.
 Value of     (<<m**0.5>>)**2 =     3.061062E+00
 Absolute Value of <<m**0.5>> =     1.749589E+00

 K-point ( 0.000, 0.500, 0.000) | band =    27
 Effective mass tensor:
              0.4237070002             -0.0000092768             -0.0000006013
             -0.0000092768              0.2382939230              0.0000043756
             -0.0000006013              0.0000043756              0.4238018583
 Effective mass tensor eigenvalues:
              0.2382939224              0.4237069968              0.4238018622
 Angular average effective mass 1/(<1/m>)=   0.3364657221
 Angular average effective mass for Frohlich model (<m**0.5>)**2=   0.3446232068
 Effective masses along directions: (cart. coord. / red. coord. -> eff. mass)
    1:   1.000000  0.000000  0.000000 /   1.000000  0.000000  0.000000 ->   0.4237069998
    2:   0.000000  1.000000  0.000000 /   0.000000  1.000000  0.000000 ->   0.2382939227
    3:   0.000000  0.000000  1.000000 /   0.000000  0.000000  1.000000 ->   0.4238018582
    4:   0.577350  0.577350  0.577350 /   0.577350  0.577350  0.577350 ->   0.3364618050
    5:   0.000000  0.707107  0.707107 /   0.000000  0.707107  0.707107 ->   0.3050638442
    6:   0.707107  0.000000  0.707107 /   0.707107  0.000000  0.707107 ->   0.4237538225
    7:   0.707107  0.707107  0.000000 /   0.707107  0.707107  0.000000 ->   0.3050266848

 END OF EFFECTIVE MASSES SECTION

 ---- first-order wavefunction calculations are completed ----

 Total localisation tensor (bohr^2) in cartesian coordinates
  WARNING : still subject to testing - especially symmetries.
      direction              matrix element
   alpha     beta       real part   imaginary part
     1        1       1.2844718223    0.0000000000
     1        2       0.0000000000    0.0000000000
     1        3       0.0000000000    0.0000000000
     2        1       0.0000000000    0.0000000000
     2        2       0.9083844806    0.0000000000
     2        3       0.0000000000    0.0000000000
     3        1       0.0000000000    0.0000000000
     3        2       0.0000000000    0.0000000000
     3        3       1.2844526024    0.0000000000

 respfn : d/dk was computed, but no 2DTE, so no DDB output.

== END DATASET(S) ==============================================================

 -outvars: echo values of variables after computation  --------
            acell      1.0000000000E+00  1.0000000000E+00  1.0000000000E+00 Bohr
              amu      3.90983000E+01  1.96966540E+02  1.59994000E+01
             ecut      4.40000000E+01 Hartree
           etotal     -2.1573008692E+01
            fcart      0.0000000000E+00  0.0000000000E+00  0.0000000000E+00
                       0.0000000000E+00  0.0000000000E+00  0.0000000000E+00
                       0.0000000000E+00  0.0000000000E+00  0.0000000000E+00
                       0.0000000000E+00  0.0000000000E+00  0.0000000000E+00
                       0.0000000000E+00  0.0000000000E+00  0.0000000000E+00
-          fftalg         512
           irdden           1
           irdwfk           1
           istwfk        1    1
              ixc     -116133
              kpt      0.00000000E+00  0.00000000E+00  0.00000000E+00
                       0.00000000E+00  5.00000000E-01  0.00000000E+00
           kptopt           0
P           mkmem           2
P          mkqmem           2
P          mk1mem           2
            natom           5
            nband          35
           nbdbuf           4
            ngfft          60      60      60
             nkpt           2
            nstep        2000
             nsym          48
           ntypat           3
              occ      2.000000  2.000000  2.000000  2.000000  2.000000  2.000000
                       2.000000  2.000000  2.000000  2.000000  2.000000  2.000000
                       2.000000  2.000000  2.000000  2.000000  2.000000  2.000000
                       2.000000  2.000000  2.000000  2.000000  2.000000  2.000000
                       2.000000  2.000000  0.000000  0.000000  0.000000  0.000000
                       0.000000  0.000000  0.000000  0.000000  0.000000
        optdriver           1
            prtwf          -1
            rfdir           1       1       1
           rfelfd           2
            rprim      9.8177308149E+00  0.0000000000E+00  0.0000000000E+00
                       0.0000000000E+00  9.8177308149E+00  0.0000000000E+00
                       0.0000000000E+00  0.0000000000E+00  9.8177308149E+00
          spgroup         221
           strten      0.0000000000E+00  0.0000000000E+00  0.0000000000E+00
                       0.0000000000E+00  0.0000000000E+00  0.0000000000E+00
           symrel      1  0  0   0  1  0   0  0  1      -1  0  0   0 -1  0   0  0 -1
                      -1  0  0   0  1  0   0  0 -1       1  0  0   0 -1  0   0  0  1
                      -1  0  0   0 -1  0   0  0  1       1  0  0   0  1  0   0  0 -1
                       1  0  0   0 -1  0   0  0 -1      -1  0  0   0  1  0   0  0  1
                       0  1  0   1  0  0   0  0  1       0 -1  0  -1  0  0   0  0 -1
                       0 -1  0   1  0  0   0  0 -1       0  1  0  -1  0  0   0  0  1
                       0 -1  0  -1  0  0   0  0  1       0  1  0   1  0  0   0  0 -1
                       0  1  0  -1  0  0   0  0 -1       0 -1  0   1  0  0   0  0  1
                       0  0  1   1  0  0   0  1  0       0  0 -1  -1  0  0   0 -1  0
                       0  0 -1   1  0  0   0 -1  0       0  0  1  -1  0  0   0  1  0
                       0  0 -1  -1  0  0   0  1  0       0  0  1   1  0  0   0 -1  0
                       0  0  1  -1  0  0   0 -1  0       0  0 -1   1  0  0   0  1  0
                       1  0  0   0  0  1   0  1  0      -1  0  0   0  0 -1   0 -1  0
                      -1  0  0   0  0  1   0 -1  0       1  0  0   0  0 -1   0  1  0
                      -1  0  0   0  0 -1   0  1  0       1  0  0   0  0  1   0 -1  0
                       1  0  0   0  0 -1   0 -1  0      -1  0  0   0  0  1   0  1  0
                       0  1  0   0  0  1   1  0  0       0 -1  0   0  0 -1  -1  0  0
                       0 -1  0   0  0  1  -1  0  0       0  1  0   0  0 -1   1  0  0
                       0 -1  0   0  0 -1   1  0  0       0  1  0   0  0  1  -1  0  0
                       0  1  0   0  0 -1  -1  0  0       0 -1  0   0  0  1   1  0  0
                       0  0  1   0  1  0   1  0  0       0  0 -1   0 -1  0  -1  0  0
                       0  0 -1   0  1  0  -1  0  0       0  0  1   0 -1  0   1  0  0
                       0  0 -1   0 -1  0   1  0  0       0  0  1   0  1  0  -1  0  0
                       0  0  1   0 -1  0  -1  0  0       0  0 -1   0  1  0   1  0  0
           tolwfr      1.00000000E-20
            typat      1  1  1  2  3
           useylm           1
              wtk        0.50000    0.50000
           xangst      0.0000000000E+00  2.5976596937E+00  2.5976596937E+00
                       2.5976596937E+00  2.5976596937E+00  0.0000000000E+00
                       2.5976596937E+00  0.0000000000E+00  2.5976596937E+00
                       0.0000000000E+00  0.0000000000E+00  0.0000000000E+00
                       2.5976596937E+00  2.5976596937E+00  2.5976596937E+00
            xcart      0.0000000000E+00  4.9088654074E+00  4.9088654074E+00
                       4.9088654074E+00  4.9088654074E+00  0.0000000000E+00
                       4.9088654074E+00  0.0000000000E+00  4.9088654074E+00
                       0.0000000000E+00  0.0000000000E+00  0.0000000000E+00
                       4.9088654074E+00  4.9088654074E+00  4.9088654074E+00
             xred      0.0000000000E+00  5.0000000000E-01  5.0000000000E-01
                       5.0000000000E-01  5.0000000000E-01  0.0000000000E+00
                       5.0000000000E-01  0.0000000000E+00  5.0000000000E-01
                       0.0000000000E+00  0.0000000000E+00  0.0000000000E+00
                       5.0000000000E-01  5.0000000000E-01  5.0000000000E-01
            znucl       19.00000   79.00000    8.00000

- Timing analysis has been suppressed with timopt=0

 Suggested references for the acknowledgment of ABINIT usage.

 Calculation completed.
.Delivered   2 WARNINGs and   5 COMMENTs to log file.