.Version 9.5.2 of ABINIT

 ABINIT is a project of the Universite Catholique de Louvain,
 Corning Inc. and other collaborators, see ~abinit/doc/developers/contributors.txt .
 acknowledgments of the ABINIT effort.

.Starting date : Tue  1 Jun 2021.
- ( at 12h10 )

- input  file    -> /scratch/users/j/a/jabreu/flow_simple_11atoms/flow/w352/t1/run.abi
- output file    -> /scratch/users/j/a/jabreu/flow_simple_11atoms/flow/w352/t1/run.abo
- root for input  files -> /scratch/users/j/a/jabreu/flow_simple_11atoms/flow/w352/t1/indata/in
- root for output files -> /scratch/users/j/a/jabreu/flow_simple_11atoms/flow/w352/t1/outdata/out

 Symmetries : space group C2/m (# 12); Bravais mC (1-face-center monocl.)
     intxc =       0      iscf =       7    lmnmax =      18     lnmax =       6
     mgfft =     120  mpssoang =       3    mqgrid =    4597     natom =      12
  nloc_mem =       1    nspden =       1   nspinor =       1    nsppol =       1
      nsym =       4    n1xccc =    2501    ntypat =       3    occopt =       1
   xclevel =       2
-    mband =          89        mffmem =           1         mkmem =           2
-   mkqmem =           2        mk1mem =           2           mpw =       36900
      nfft =      972000          nkpt =           2
  Rough estimation (10% accuracy) of disk space for files :

------------- Echo of variables that govern the present computation ------------
-
- outvars: echo of selected default values
-   iomode0 =  0 , fftalg0 =512 , wfoptalg0 =  0
-
- outvars: echo of global parameters not present in the input file
-  max_nthreads =    0
-
 -outvars: echo values of preprocessed input variables --------
            acell      1.0000000000E+00  1.0000000000E+00  1.0000000000E+00 Bohr
              amu      8.54678000E+01  7.26100000E+01  7.89600000E+01
             ecut      4.30000000E+01 Hartree
-          fftalg         512
           irdden           1
           irdwfk           1
           istwfk        1    1
              ixc     -116133
              kpt      0.00000000E+00  0.00000000E+00  0.00000000E+00
                       5.00000000E-01  5.00000000E-01  5.00000000E-01
           kptopt           0
P           mkmem           2
P          mkqmem           2
P          mk1mem           2
            natom          12
            nband          89
           nbdbuf           4
            ngfft          90      90     120
             nkpt           2
            nstep        2000
             nsym           4
           ntypat           3
              occ      2.000000  2.000000  2.000000  2.000000  2.000000  2.000000
                       2.000000  2.000000  2.000000  2.000000  2.000000  2.000000
                       2.000000  2.000000  2.000000  2.000000  2.000000  2.000000
                       2.000000  2.000000  2.000000  2.000000  2.000000  2.000000
                       2.000000  2.000000  2.000000  2.000000  2.000000  2.000000
                       2.000000  2.000000  2.000000  2.000000  2.000000  2.000000
                       2.000000  2.000000  2.000000  2.000000  2.000000  2.000000
                       2.000000  2.000000  2.000000  2.000000  2.000000  2.000000
                       2.000000  2.000000  2.000000  2.000000  2.000000  2.000000
                       2.000000  2.000000  2.000000  2.000000  2.000000  2.000000
                       2.000000  2.000000  2.000000  2.000000  2.000000  2.000000
                       2.000000  2.000000  2.000000  2.000000  2.000000  2.000000
                       2.000000  2.000000  2.000000  2.000000  2.000000  2.000000
                       2.000000  2.000000  0.000000  0.000000  0.000000  0.000000
                       0.000000  0.000000  0.000000  0.000000  0.000000
        optdriver           1
            prtwf          -1
            rfdir           1       1       1
           rfelfd           2
            rprim      1.2728144519E+01  0.0000000000E+00  7.4678256650E+00
                       5.6999436488E+00  1.1380523068E+01  7.4678256650E+00
                       0.0000000000E+00  0.0000000000E+00  1.8913041574E+01
          spgroup          12
           symrel      1  0  0   0  1  0   0  0  1      -1  0  0   0 -1  0   0  0 -1
                       0 -1  0  -1  0  0   0  0 -1       0  1  0   1  0  0   0  0  1
           tolwfr      1.00000000E-20
            typat      1  1  1  1  2  2  3  3  3  3  3  3
           useylm           1
              wtk        0.50000    0.50000
           xangst      1.8310032498E+00  1.1307616141E+00  8.3012149218E+00
                       7.9207210065E+00  4.8915518152E+00  9.6107419037E+00
                       4.0203531109E+00  2.4828251798E+00  1.1989662639E+01
                       5.7313711455E+00  3.5394882495E+00  5.9222941864E+00
                       1.1710455590E+00  7.2319553048E-01  4.0997011822E+00
                       8.5806786973E+00  5.2991178989E+00  1.3812255643E+01
                       6.8202389242E+00  4.2119337447E+00  1.2785112679E+01
                       2.9314853321E+00  1.8103796846E+00  5.1268441470E+00
                       5.7893184906E+00  1.5320283579E+00  8.9559784128E+00
                       3.9624057657E+00  4.4902850714E+00  8.9559784128E+00
                       1.1016522892E+00  6.8034074812E-01  1.7942124432E+00
                       8.6500719671E+00  5.3419726813E+00  1.6117744382E+01
            xcart      3.4600946906E+00  2.1368297723E+00  1.5687022772E+01
                       1.4967993477E+01  9.2436932956E+00  1.8161670132E+01
                       7.5973663371E+00  4.6918596257E+00  2.2657178814E+01
                       1.0830721831E+01  6.6886634422E+00  1.1191514091E+01
                       2.2129553957E+00  1.3666414931E+00  7.7473124610E+00
                       1.6215132772E+01  1.0013881575E+01  2.6101380443E+01
                       1.2888383728E+01  7.9594012674E+00  2.4160361540E+01
                       5.5397044403E+00  3.4211218005E+00  9.6883313639E+00
                       1.0940226443E+01  2.8951140243E+00  1.6924346452E+01
                       7.4878617246E+00  8.4854090436E+00  1.6924346452E+01
                       2.0818211203E+00  1.2856576910E+00  3.3905701419E+00
                       1.6346267048E+01  1.0094865377E+01  3.0458122762E+01
             xred      1.8776200000E-01  1.8776200000E-01  6.8115300000E-01
                       8.1223800000E-01  8.1223800000E-01  3.1884700000E-01
                       4.1227100000E-01  4.1227100000E-01  8.7239500000E-01
                       5.8772900000E-01  5.8772900000E-01  1.2760500000E-01
                       1.2008600000E-01  1.2008600000E-01  3.1479600000E-01
                       8.7991400000E-01  8.7991400000E-01  6.8520400000E-01
                       6.9938800000E-01  6.9938800000E-01  7.2513700000E-01
                       3.0061200000E-01  3.0061200000E-01  2.7486300000E-01
                       7.4560800000E-01  2.5439200000E-01  5.0000000000E-01
                       2.5439200000E-01  7.4560800000E-01  5.0000000000E-01
                       1.1297000000E-01  1.1297000000E-01  9.0059000000E-02
                       8.8703000000E-01  8.8703000000E-01  9.0994100000E-01
            znucl       37.00000   32.00000   34.00000

 chkinp: Checking input parameters for consistency.

== DATASET  1 ==================================================================
-   mpi_nproc: 1, omp_nthreads: -1 (-1 if OMP is not activated)

--- !DatasetInfo
iteration_state: {dtset: 1, }
dimensions: {natom: 12, nkpt: 2, mband: 89, nsppol: 1, nspinor: 1, nspden: 1, mpw: 36900, }
cutoff_energies: {ecut:  43.0, pawecutdg:  -1.0, }
electrons: {nelect:   1.60000000E+02, charge:   0.00000000E+00, occopt:   1.00000000E+00, tsmear:   1.00000000E-02, }
meta: {optdriver: 1, rfelfd: 2, }
...

 Real(R)+Recip(G) space primitive vectors, cartesian coordinates (Bohr,Bohr^-1):
 R(1)= 12.7281445  0.0000000  7.4678257  G(1)=  0.0785660 -0.0393499  0.0000000
 R(2)=  5.6999436 11.3805231  7.4678257  G(2)=  0.0000000  0.0878694  0.0000000
 R(3)=  0.0000000  0.0000000 18.9130416  G(3)= -0.0310219 -0.0191580  0.0528736
 Unit cell volume ucvol=  2.7396097E+03 bohr^3
 Angles (23,13,12)=  5.95991038E+01  5.95991038E+01  5.38979062E+01 degrees

 getcut: wavevector=  0.0000  0.0000  0.0000  ngfft=  90  90 120
         ecut(hartree)=     43.000   => boxcut(ratio)=   2.06625

--- Pseudopotential description ------------------------------------------------
- pspini: atom type   1  psp file is /scratch/users/j/a/jabreu/pseudos/PBEsol/Rb.psp8
- pspatm: opening atomic psp file    /scratch/users/j/a/jabreu/pseudos/PBEsol/Rb.psp8
- Rb    ONCVPSP-3.3.0  r_core=   1.71227   1.75361   1.90633
- 37.00000   9.00000    180112                znucl, zion, pspdat
    8 -116133    2    4       600   0.00000   pspcod,pspxc,lmax,lloc,mmax,r2well
    5.99000000000000    7.00000000000000    0.00000000000000   rchrg,fchrg,qchrg
     nproj     2     2     2
     extension_switch     1
  pspatm : epsatm=   34.48400912
         --- l  ekb(1:nproj) -->
             0    8.196957   -0.477221
             1    3.231347   -0.378736
             2   -1.047201    0.996637
 pspatm: atomic psp has been read  and splines computed

- pspini: atom type   2  psp file is /scratch/users/j/a/jabreu/pseudos/PBEsol/Ge.psp8
- pspatm: opening atomic psp file    /scratch/users/j/a/jabreu/pseudos/PBEsol/Ge.psp8
- Ge    ONCVPSP-3.3.0  r_core=   1.91022   1.82122   1.91022
- 32.00000  14.00000    180112                znucl, zion, pspdat
    8 -116133    2    4       600   0.00000   pspcod,pspxc,lmax,lloc,mmax,r2well
    5.99000000000000    5.00000000000000    0.00000000000000   rchrg,fchrg,qchrg
     nproj     2     2     2
     extension_switch     1
  pspatm : epsatm=   30.86751540
         --- l  ekb(1:nproj) -->
             0    6.339734    0.583066
             1    3.813259    0.738801
             2   -9.332373   -3.602819
 pspatm: atomic psp has been read  and splines computed

- pspini: atom type   3  psp file is /scratch/users/j/a/jabreu/pseudos/PBEsol/Se.psp8
- pspatm: opening atomic psp file    /scratch/users/j/a/jabreu/pseudos/PBEsol/Se.psp8
- Se    ONCVPSP-3.3.0  r_core=   1.81943   1.50330   1.90835
- 34.00000  16.00000    180112                znucl, zion, pspdat
    8 -116133    2    4       600   0.00000   pspcod,pspxc,lmax,lloc,mmax,r2well
    5.99000000000000    5.00000000000000    0.00000000000000   rchrg,fchrg,qchrg
     nproj     2     2     2
     extension_switch     1
  pspatm : epsatm=   29.17862020
         --- l  ekb(1:nproj) -->
             0    8.973804    1.019550
             1    6.849857    1.297308
             2   -9.203962   -3.731027
 pspatm: atomic psp has been read  and splines computed

   5.99588462E+04                                ecore*ucvol(ha*bohr**3)

 ==>  initialize data related to q vector <==

 The list of irreducible perturbations for this q vector is:
    1)    idir= 1    ipert=  13
    2)    idir= 2    ipert=  13
    3)    idir= 3    ipert=  13

 Perturbation wavevector (in red.coord.)   0.000000  0.000000  0.000000
 Perturbation : derivative vs k along direction   1

 dfpt_looppert : COMMENT -
[...]
   0.00000    0.00000   -0.00000   -0.00000   -0.00000   -0.00000   -0.00000   -0.00000
   0.00000   -0.00000    0.00000    0.00000   -0.00000   -0.00000   -0.00000   -0.00000
  -0.00000   -0.00000    0.00000   -0.00000    0.00000    0.00000   -0.00000   -0.00000
  -0.00000   -0.00000   -0.00000    0.00000    0.00000    0.00000   -0.00000    0.00000
   0.00000    0.00000    0.00000   -0.00000    0.00000    0.00000   -0.00000   -0.00000
  -0.00000    0.00000   -0.00000    0.00000    0.00000    0.00000   -0.00000   -0.00000
   0.00000    0.00000    0.00000   -0.00000    0.00000   -0.00000    0.00000    0.00056
  -0.00013
 prteigrs : prtvol=0 or 1, do not print more k-points.

 Eight components of 2nd-order total energy (hartree) are
 1,2,3: 0th-order hamiltonian combined with 1st-order wavefunctions
     kin0=   1.30561479E+02 eigvalue=   2.17780889E+01  local=  -5.74961236E+01
 4,5,6: 1st-order hamiltonian combined with 1st and 0th-order wfs
     kin1=  -1.04518403E+02  Hartree=   0.00000000E+00     xc=   0.00000000E+00
 7,8,9: eventually, occupation + non-local contributions
    edocc=   8.91878947E+00     enl0=   8.71782982E+00   enl1=  -1.20441724E+02
 1-9 gives the relaxation energy (to be shifted if some occ is /=2.0)
   erelax=  -1.12480063E+02
  No Ewald or frozen-wf contrib.: the relaxation energy is the total one
 2DEtotal=   -0.1124800632E+03 Ha. Also 2DEtotal=   -0.306073817544E+04 eV
    (  non-var. 2DEtotal :   -1.1248006317E+02 Ha)

 Perturbation wavevector (in red.coord.)   0.000000  0.000000  0.000000
 Perturbation : derivative vs k along direction   2
 The set of symmetries contains only one element for this perturbation.
 symkpt : not enough symmetry to change the number of k points.

[...]

 Perturbation wavevector (in red.coord.)   0.000000  0.000000  0.000000
 Perturbation : derivative vs k along direction   3
 The set of symmetries contains only one element for this perturbation.
 symkpt : not enough symmetry to change the number of k points.

 Initialisation of the first-order wave-functions :
  ireadwf=   0

--- !BeginCycle
iteration_state: {dtset: 1, }
solver: {iscf: 7, nstep: 2000, nline: 4, wfoptalg: 0, }
tolerances: {tolwfr: 1.00E-20, }
...

     iter   2DEtotal(Ha)        deltaE(Ha) residm    vres2
-ETOT  1  -58.402513104340     -5.840E+01 4.460E-02 0.000E+00
 ETOT  2  -58.455200034883     -5.269E-02 2.314E-03 0.000E+00
 ETOT  3  -58.455329042635     -1.290E-04 2.376E-04 0.000E+00
 ETOT  4  -58.455330120232     -1.078E-06 2.703E-05 0.000E+00
 ETOT  5  -58.455330131882     -1.165E-08 4.005E-06 0.000E+00
 ETOT  6  -58.455330132020     -1.380E-10 5.525E-07 0.000E+00
 ETOT  7  -58.455330132022     -1.748E-12 8.405E-08 0.000E+00
 ETOT  8  -58.455330132022     -3.553E-14 1.253E-08 0.000E+00
 ETOT  9  -58.455330132022      4.263E-14 1.891E-09 0.000E+00
 ETOT 10  -58.455330132022     -3.553E-14 2.928E-10 0.000E+00
 ETOT 11  -58.455330132022      0.000E+00 4.365E-11 0.000E+00
 ETOT 12  -58.455330132022     -1.421E-14 6.937E-12 0.000E+00
 ETOT 13  -58.455330132022      0.000E+00 1.021E-12 0.000E+00
 ETOT 14  -58.455330132022      0.000E+00 1.660E-13 0.000E+00
 ETOT 15  -58.455330132022      0.000E+00 2.417E-14 0.000E+00
 ETOT 16  -58.455330132022      2.132E-14 4.018E-15 0.000E+00
 ETOT 17  -58.455330132022     -1.421E-14 5.789E-16 0.000E+00
 ETOT 18  -58.455330132022      2.132E-14 9.850E-17 0.000E+00
 ETOT 19  -58.455330132022     -1.421E-14 1.409E-17 0.000E+00
 ETOT 20  -58.455330132022      7.105E-15 2.449E-18 0.000E+00
 ETOT 21  -58.455330132022      0.000E+00 3.487E-19 0.000E+00
 ETOT 22  -58.455330132022      1.421E-14 6.160E-20 0.000E+00
 ETOT 23  -58.455330132022     -1.421E-14 9.932E-21 0.000E+00

 At SCF step   23   max residual=  9.93E-21 < tolwfr=  1.00E-20 =>converged.

 ----iterations are completed or convergence reached----

 dfpt_looppert: DFPT cycle converged with prtwf=-1. Will skip output of the 1st-order WFK file.
 dfpt_looppert : ek2=    5.2111479710E+01
          f-sum rule ratio=    1.0104814225E+00
 prteigrs : about to open file /scratch/users/j/a/jabreu/flow_simple_11atoms/flow/w352/t1/tmpdata/tmp_1WF1_EIG
 Expectation of eigenvalue derivatives (hartree) for nkpt=   2  k points:
  (in case of degenerate eigenvalues, averaged derivative)
 kpt#   1, nband= 89, wtk=  0.50000, kpt=  0.0000  0.0000  0.0000 (reduced coord)
  -0.00000   -0.00000   -0.00000   -0.00000    0.00000   -0.00000    0.00000    0.00000
  -0.00000    0.00000   -0.00000   -0.00000    0.00000   -0.00000   -0.00000   -0.00000
   0.00000    0.00000    0.00000    0.00000   -0.00000    0.00000   -0.00000   -0.00000
  -0.00000    0.00000    0.00000   -0.00000    0.00000   -0.00000    0.00000   -0.00000
  -0.00000   -0.00000   -0.00000   -0.00000    0.00000    0.00000    0.00000    0.00000
  -0.00000    0.00000   -0.00000    0.00000    0.00000   -0.00000    0.00000   -0.00000
   0.00000    0.00000   -0.00000    0.00000    0.00000   -0.00000    0.00000    0.00000
   0.00000    0.00000    0.00000    0.00000   -0.00000   -0.00000   -0.00000    0.00000
   0.00000    0.00000   -0.00000   -0.00000   -0.00000    0.00000    0.00000    0.00000
   0.00000    0.00000   -0.00000   -0.00000    0.00000    0.00000    0.00000    0.00000
  -0.00000    0.00000   -0.00000    0.00000   -0.00000   -0.00000    0.00008    0.00007
  -0.00006
 prteigrs : prtvol=0 or 1, do not print more k-points.

 Eight components of 2nd-order total energy (hartree) are
 1,2,3: 0th-order hamiltonian combined with 1st-order wavefunctions
     kin0=   6.85135036E+01 eigvalue=   1.16814185E+01  local=  -3.02588779E+01
 4,5,6: 1st-order hamiltonian combined with 1st and 0th-order wfs
     kin1=  -5.26576821E+01  Hartree=   0.00000000E+00     xc=   0.00000000E+00
 7,8,9: eventually, occupation + non-local contributions
    edocc=   3.73079554E+00     enl0=   4.78849033E+00   enl1=  -6.42529781E+01
 1-9 gives the relaxation energy (to be shifted if some occ is /=2.0)
   erelax=  -5.84553301E+01
  No Ewald or frozen-wf contrib.: the relaxation energy is the total one
 2DEtotal=   -0.5845533013E+02 Ha. Also 2DEtotal=   -0.159065042689E+04 eV
    (  non-var. 2DEtotal :   -5.8455330132E+01 Ha)

 CALCULATION OF EFFECTIVE MASSES
 NOTE : Additional infos (eff. mass eigenvalues, eigenvectors and, if degenerate, average mass) are available in stdout.

 K-point ( 0.000, 0.000, 0.000) | band =    80
 Effective mass tensor:
             -2.0644202678             -0.6570612642             -0.6126290031
             -0.6570612642             -1.4061690310             -0.3783236986
             -0.6126290031             -0.3783236986             -2.0838772695
 Effective mass tensor eigenvalues:
             -3.0225140190             -1.5315410046             -1.0004115447
 Angular average effective mass 1/(<1/m>)=  -1.5125723717
 Angular average effective mass for Frohlich model (<m**0.5>)**2=  -1.6000459395
 Effective masses along directions: (cart. coord. / red. coord. -> eff. mass)
    1:   1.000000  0.000000  0.000000 /   0.912664  0.408711  0.000000 ->  -1.6615543351
    2:   0.000000  1.000000  0.000000 /   0.000000  1.000000  0.000000 ->  -1.1793689112
    3:   0.000000  0.000000  1.000000 /   0.344744  0.344744  0.873100 ->  -1.8739963751
    4:   0.577350  0.577350  0.577350 /   0.545997  0.663662  0.511313 ->  -2.8195552783
    5:   0.000000  0.707107  0.707107 /   0.269344  0.679807  0.682141 ->  -1.6419369736
    6:   0.707107  0.000000  0.707107 /   0.659081  0.429721  0.617213 ->  -2.2967897829
    7:   0.707107  0.707107  0.000000 /   0.597527  0.801849  0.000000 ->  -2.0865509759

 K-point ( 0.500, 0.500, 0.500) | band =    81
 Effective mass tensor:
              0.9651848337              0.1475371974              0.4422959731
              0.1475371974              0.8173965976              0.2731460517
              0.4422959731              0.2731460517              1.6957179399
 Effective mass tensor eigenvalues:
              0.7262829422              0.7657223782              1.9862940507
 Angular average effective mass 1/(<1/m>)=   0.9415367385
 Angular average effective mass for Frohlich model (<m**0.5>)**2=   0.9914687005
 Effective masses along directions: (cart. coord. / red. coord. -> eff. mass)
    1:   1.000000  0.000000  0.000000 /   0.912664  0.408711  0.000000 ->   0.8422944101
    2:   0.000000  1.000000  0.000000 /   0.000000  1.000000  0.000000 ->   0.7665491657
    3:   0.000000  0.000000  1.000000 /   0.344744  0.344744  0.873100 ->   1.4398863769
    4:   0.577350  0.577350  0.577350 /   0.545997  0.663662  0.511313 ->   1.4915972268
    5:   0.000000  0.707107  0.707107 /   0.269344  0.679807  0.682141 ->   1.2196098025
    6:   0.707107  0.000000  0.707107 /   0.659081  0.429721  0.617213 ->   1.5383105242
    7:   0.707107  0.707107  0.000000 /   0.597527  0.801849  0.000000 ->   0.8859158397

 END OF EFFECTIVE MASSES SECTION

 ---- first-order wavefunction calculations are completed ----

 Total localisation tensor (bohr^2) in cartesian coordinates
  WARNING : still subject to testing - especially symmetries.
      direction              matrix element
   alpha     beta       real part   imaginary part
     1        1       1.6522033715    0.0000000000
     1        2       0.5510485563    0.0000000000
     1        3       1.1690412142    0.0000000000
     2        1       0.5510485563    0.0000000000
     2        2       1.1002250536    0.0000000000
     2        3       0.7219605675    0.0000000000
     3        1       1.1690412142    0.0000000000
     3        2       0.7219605675    0.0000000000
     3        3       2.3206463642    0.0000000000

 respfn : d/dk was computed, but no 2DTE, so no DDB output.

== END DATASET(S) ==============================================================

 -outvars: echo values of variables after computation  --------
            acell      1.0000000000E+00  1.0000000000E+00  1.0000000000E+00 Bohr
              amu      8.54678000E+01  7.26100000E+01  7.89600000E+01
             ecut      4.30000000E+01 Hartree
           etotal     -5.8455330132E+01
            fcart      0.0000000000E+00  0.0000000000E+00  0.0000000000E+00
                       0.0000000000E+00  0.0000000000E+00  0.0000000000E+00
                       0.0000000000E+00  0.0000000000E+00  0.0000000000E+00
                       0.0000000000E+00  0.0000000000E+00  0.0000000000E+00
                       0.0000000000E+00  0.0000000000E+00  0.0000000000E+00
                       0.0000000000E+00  0.0000000000E+00  0.0000000000E+00
                       0.0000000000E+00  0.0000000000E+00  0.0000000000E+00
                       0.0000000000E+00  0.0000000000E+00  0.0000000000E+00
                       0.0000000000E+00  0.0000000000E+00  0.0000000000E+00
                       0.0000000000E+00  0.0000000000E+00  0.0000000000E+00
                       0.0000000000E+00  0.0000000000E+00  0.0000000000E+00
                       0.0000000000E+00  0.0000000000E+00  0.0000000000E+00
-          fftalg         512
           irdden           1
           irdwfk           1
           istwfk        1    1
              ixc     -116133
              kpt      0.00000000E+00  0.00000000E+00  0.00000000E+00
                       5.00000000E-01  5.00000000E-01  5.00000000E-01
           kptopt           0
P           mkmem           2
P          mkqmem           2
P          mk1mem           2
            natom          12
            nband          89
           nbdbuf           4
            ngfft          90      90     120
             nkpt           2
            nstep        2000
             nsym           4
           ntypat           3
              occ      2.000000  2.000000  2.000000  2.000000  2.000000  2.000000
                       2.000000  2.000000  2.000000  2.000000  2.000000  2.000000
                       2.000000  2.000000  2.000000  2.000000  2.000000  2.000000
                       2.000000  2.000000  2.000000  2.000000  2.000000  2.000000
                       2.000000  2.000000  2.000000  2.000000  2.000000  2.000000
                       2.000000  2.000000  2.000000  2.000000  2.000000  2.000000
                       2.000000  2.000000  2.000000  2.000000  2.000000  2.000000
                       2.000000  2.000000  2.000000  2.000000  2.000000  2.000000
                       2.000000  2.000000  2.000000  2.000000  2.000000  2.000000
                       2.000000  2.000000  2.000000  2.000000  2.000000  2.000000
                       2.000000  2.000000  2.000000  2.000000  2.000000  2.000000
                       2.000000  2.000000  2.000000  2.000000  2.000000  2.000000
                       2.000000  2.000000  2.000000  2.000000  2.000000  2.000000
                       2.000000  2.000000  0.000000  0.000000  0.000000  0.000000
                       0.000000  0.000000  0.000000  0.000000  0.000000
        optdriver           1
            prtwf          -1
            rfdir           1       1       1
           rfelfd           2
            rprim      1.2728144519E+01  0.0000000000E+00  7.4678256650E+00
                       5.6999436488E+00  1.1380523068E+01  7.4678256650E+00
                       0.0000000000E+00  0.0000000000E+00  1.8913041574E+01
          spgroup          12
           strten      0.0000000000E+00  0.0000000000E+00  0.0000000000E+00
                       0.0000000000E+00  0.0000000000E+00  0.0000000000E+00
           symrel      1  0  0   0  1  0   0  0  1      -1  0  0   0 -1  0   0  0 -1
                       0 -1  0  -1  0  0   0  0 -1       0  1  0   1  0  0   0  0  1
           tolwfr      1.00000000E-20
            typat      1  1  1  1  2  2  3  3  3  3  3  3
           useylm           1
              wtk        0.50000    0.50000
           xangst      1.8310032498E+00  1.1307616141E+00  8.3012149218E+00
                       7.9207210065E+00  4.8915518152E+00  9.6107419037E+00
                       4.0203531109E+00  2.4828251798E+00  1.1989662639E+01
                       5.7313711455E+00  3.5394882495E+00  5.9222941864E+00
                       1.1710455590E+00  7.2319553048E-01  4.0997011822E+00
                       8.5806786973E+00  5.2991178989E+00  1.3812255643E+01
                       6.8202389242E+00  4.2119337447E+00  1.2785112679E+01
                       2.9314853321E+00  1.8103796846E+00  5.1268441470E+00
                       5.7893184906E+00  1.5320283579E+00  8.9559784128E+00
                       3.9624057657E+00  4.4902850714E+00  8.9559784128E+00
                       1.1016522892E+00  6.8034074812E-01  1.7942124432E+00
                       8.6500719671E+00  5.3419726813E+00  1.6117744382E+01
            xcart      3.4600946906E+00  2.1368297723E+00  1.5687022772E+01
                       1.4967993477E+01  9.2436932956E+00  1.8161670132E+01
                       7.5973663371E+00  4.6918596257E+00  2.2657178814E+01
                       1.0830721831E+01  6.6886634422E+00  1.1191514091E+01
                       2.2129553957E+00  1.3666414931E+00  7.7473124610E+00
                       1.6215132772E+01  1.0013881575E+01  2.6101380443E+01
                       1.2888383728E+01  7.9594012674E+00  2.4160361540E+01
                       5.5397044403E+00  3.4211218005E+00  9.6883313639E+00
                       1.0940226443E+01  2.8951140243E+00  1.6924346452E+01
                       7.4878617246E+00  8.4854090436E+00  1.6924346452E+01
                       2.0818211203E+00  1.2856576910E+00  3.3905701419E+00
                       1.6346267048E+01  1.0094865377E+01  3.0458122762E+01
             xred      1.8776200000E-01  1.8776200000E-01  6.8115300000E-01
                       8.1223800000E-01  8.1223800000E-01  3.1884700000E-01
                       4.1227100000E-01  4.1227100000E-01  8.7239500000E-01
                       5.8772900000E-01  5.8772900000E-01  1.2760500000E-01
                       1.2008600000E-01  1.2008600000E-01  3.1479600000E-01
                       8.7991400000E-01  8.7991400000E-01  6.8520400000E-01
                       6.9938800000E-01  6.9938800000E-01  7.2513700000E-01
                       3.0061200000E-01  3.0061200000E-01  2.7486300000E-01
                       7.4560800000E-01  2.5439200000E-01  5.0000000000E-01
                       2.5439200000E-01  7.4560800000E-01  5.0000000000E-01
                       1.1297000000E-01  1.1297000000E-01  9.0059000000E-02
                       8.8703000000E-01  8.8703000000E-01  9.0994100000E-01
            znucl       37.00000   32.00000   34.00000

- Timing analysis has been suppressed with timopt=0

 Suggested references for the acknowledgment of ABINIT usage.

 Calculation completed.
.Delivered   2 WARNINGs and   7 COMMENTs to log file.