.Version 9.5.2 of ABINIT

 ABINIT is a project of the Universite Catholique de Louvain,
 Corning Inc. and other collaborators, see ~abinit/doc/developers/contributors.txt .
 acknowledgments of the ABINIT effort.

.Starting date : Mon 24 May 2021.
- ( at 11h41 )

- input  file    -> /scratch/users/j/a/jabreu/flow_simple_10atoms/flow/w354/t1/run.abi
- output file    -> /scratch/users/j/a/jabreu/flow_simple_10atoms/flow/w354/t1/run.abo
- root for input  files -> /scratch/users/j/a/jabreu/flow_simple_10atoms/flow/w354/t1/indata/in
- root for output files -> /scratch/users/j/a/jabreu/flow_simple_10atoms/flow/w354/t1/outdata/out

 Symmetries : space group Fm -3 m (#225); Bravais cF (face-center cubic)
     intxc =       0      iscf =       7    lmnmax =      18     lnmax =       6
     mgfft =      80  mpssoang =       3    mqgrid =    3051     natom =      10
  nloc_mem =       1    nspden =       1   nspinor =       1    nsppol =       1
      nsym =      48    n1xccc =    2501    ntypat =       4    occopt =       1
   xclevel =       2
-    mband =          47        mffmem =           1         mkmem =           1
-   mkqmem =           1        mk1mem =           1           mpw =       19339
      nfft =      512000          nkpt =           1
  Rough estimation (10% accuracy) of disk space for files :

------------- Echo of variables that govern the present computation ------------
-
- outvars: echo of selected default values
-   iomode0 =  0 , fftalg0 =512 , wfoptalg0 =  0
-
- outvars: echo of global parameters not present in the input file
-  max_nthreads =    0
-
 -outvars: echo values of preprocessed input variables --------
            acell      1.0000000000E+00  1.0000000000E+00  1.0000000000E+00 Bohr
              amu      8.54678000E+01  6.94100000E+00  2.04383300E+02
                       3.54527000E+01
             ecut      3.70000000E+01 Hartree
-          fftalg         512
           irdden           1
           irdwfk           1
           istwfk        1
              ixc     -116133
           kptopt           0
P           mkmem           1
P          mkqmem           1
P          mk1mem           1
            natom          10
            nband          47
           nbdbuf           4
            ngfft          80      80      80
             nkpt           1
            nstep        2000
             nsym          48
           ntypat           4
              occ      2.000000  2.000000  2.000000  2.000000  2.000000  2.000000
                       2.000000  2.000000  2.000000  2.000000  2.000000  2.000000
                       2.000000  2.000000  2.000000  2.000000  2.000000  2.000000
                       2.000000  2.000000  2.000000  2.000000  2.000000  2.000000
                       2.000000  2.000000  2.000000  2.000000  2.000000  2.000000
                       2.000000  2.000000  2.000000  2.000000  2.000000  2.000000
                       2.000000  2.000000  0.000000  0.000000  0.000000  0.000000
                       0.000000  0.000000  0.000000  0.000000  0.000000
        optdriver           1
            prtwf          -1
            rfdir           1       1       1
           rfelfd           2
            rprim      1.1815083693E+01  0.0000000000E+00  6.8214417508E+00
                       3.9383612311E+00  1.1139367733E+01  6.8214417508E+00
                       0.0000000000E+00  0.0000000000E+00  1.3642883502E+01
          spgroup         225
           symrel      1  0  0   0  1  0   0  0  1      -1  0  0   0 -1  0   0  0 -1
                       0 -1  1   0 -1  0   1 -1  0       0  1 -1   0  1  0  -1  1  0
                      -1  0  0  -1  0  1  -1  1  0       1  0  0   1  0 -1   1 -1  0
                       0  1 -1   1  0 -1   0  0 -1       0 -1  1  -1  0  1   0  0  1
                      -1  0  0  -1  1  0  -1  0  1       1  0  0   1 -1  0   1  0 -1
                       0 -1  1   1 -1  0   0 -1  0       0  1 -1  -1  1  0   0  1  0
                       1  0  0   0  0  1   0  1  0      -1  0  0   0  0 -1   0 -1  0
                       0  1 -1   0  0 -1   1  0 -1       0 -1  1   0  0  1  -1  0  1
                      -1  0  1  -1  1  0  -1  0  0       1  0 -1   1 -1  0   1  0  0
                       0 -1  0   1 -1  0   0 -1  1       0  1  0  -1  1  0   0  1 -1
                       1  0 -1   0  0 -1   0  1 -1      -1  0  1   0  0  1   0 -1  1
                       0  1  0   0  0  1   1  0  0       0 -1  0   0  0 -1  -1  0  0
                       1  0 -1   0  1 -1   0  0 -1      -1  0  1   0 -1  1   0  0  1
                       0 -1  0   0 -1  1   1 -1  0       0  1  0   0  1 -1  -1  1  0
                      -1  0  1  -1  0  0  -1  1  0       1  0 -1   1  0  0   1 -1  0
                       0  1  0   1  0  0   0  0  1       0 -1  0  -1  0  0   0  0 -1
                       0  0 -1   0  1 -1   1  0 -1       0  0  1   0 -1  1  -1  0  1
                       1 -1  0   0 -1  1   0 -1  0      -1  1  0   0  1 -1   0  1  0
                       0  0  1   1  0  0   0  1  0       0  0 -1  -1  0  0   0 -1  0
                      -1  1  0  -1  0  0  -1  0  1       1 -1  0   1  0  0   1  0 -1
                       0  0  1   0  1  0   1  0  0       0  0 -1   0 -1  0  -1  0  0
                       1 -1  0   0 -1  0   0 -1  1      -1  1  0   0  1  0   0  1 -1
                       0  0 -1   1  0 -1   0  1 -1       0  0  1  -1  0  1   0 -1  1
                      -1  1  0  -1  0  1  -1  0  0       1 -1  0   1  0 -1   1  0  0
           tolwfr      1.00000000E-20
            typat      1  1  2  3  4  4  4  4  4  4
           useylm           1
           xangst      2.0840910027E+00  1.4736748806E+00  3.6097515042E+00
                       6.2522730080E+00  4.4210246418E+00  1.0829254513E+01
                       0.0000000000E+00  0.0000000000E+00  0.0000000000E+00
                       4.1681820054E+00  2.9473497612E+00  7.2195030085E+00
                       3.1145197808E+00  4.4374531694E+00  9.0444995155E+00
                       5.2218442299E+00  1.4572463530E+00  9.0444995155E+00
                       3.1145197808E+00  4.4374531694E+00  5.3945065015E+00
                       2.0608575562E+00  1.4572463530E+00  7.2195030085E+00
                       6.2755064545E+00  4.4374531694E+00  7.2195030085E+00
                       5.2218442299E+00  1.4572463530E+00  5.3945065015E+00
            xcart      3.9383612311E+00  2.7848419333E+00  6.8214417508E+00
                       1.1815083693E+01  8.3545257998E+00  2.0464325252E+01
                       0.0000000000E+00  0.0000000000E+00  0.0000000000E+00
                       7.8767224622E+00  5.5696838665E+00  1.3642883502E+01
                       5.8855894211E+00  8.3855712176E+00  1.7091627093E+01
                       9.8678555032E+00  2.7537965154E+00  1.7091627093E+01
                       5.8855894211E+00  8.3855712176E+00  1.0194139910E+01
                       3.8944563801E+00  2.7537965154E+00  1.3642883502E+01
                       1.1858988544E+01  8.3855712176E+00  1.3642883502E+01
                       9.8678555032E+00  2.7537965154E+00  1.0194139910E+01
             xred      2.5000000000E-01  2.5000000000E-01  2.5000000000E-01
                       7.5000000000E-01  7.5000000000E-01  7.5000000000E-01
                       0.0000000000E+00  0.0000000000E+00  0.0000000000E+00
                       5.0000000000E-01  5.0000000000E-01  5.0000000000E-01
                       2.4721300000E-01  7.5278700000E-01  7.5278700000E-01
                       7.5278700000E-01  2.4721300000E-01  7.5278700000E-01
                       2.4721300000E-01  7.5278700000E-01  2.4721300000E-01
                       2.4721300000E-01  2.4721300000E-01  7.5278700000E-01
                       7.5278700000E-01  7.5278700000E-01  2.4721300000E-01
                       7.5278700000E-01  2.4721300000E-01  2.4721300000E-01
            znucl       37.00000    3.00000   81.00000   17.00000

 chkinp: Checking input parameters for consistency.

== DATASET  1 ==================================================================
-   mpi_nproc: 1, omp_nthreads: -1 (-1 if OMP is not activated)

--- !DatasetInfo
iteration_state: {dtset: 1, }
dimensions: {natom: 10, nkpt: 1, mband: 47, nsppol: 1, nspinor: 1, nspden: 1, mpw: 19339, }
cutoff_energies: {ecut:  37.0, pawecutdg:  -1.0, }
electrons: {nelect:   7.60000000E+01, charge:   0.00000000E+00, occopt:   1.00000000E+00, tsmear:   1.00000000E-02, }
meta: {optdriver: 1, rfelfd: 2, }
...

 Real(R)+Recip(G) space primitive vectors, cartesian coordinates (Bohr,Bohr^-1):
 R(1)= 11.8150837  0.0000000  6.8214418  G(1)=  0.0846376 -0.0299239  0.0000000
 R(2)=  3.9383612 11.1393677  6.8214418  G(2)=  0.0000000  0.0897717  0.0000000
 R(3)=  0.0000000  0.0000000 13.6428835  G(3)= -0.0423188 -0.0299239  0.0732983
 Unit cell volume ucvol=  1.7955749E+03 bohr^3
 Angles (23,13,12)=  6.00000000E+01  6.00000000E+01  6.00000000E+01 degrees

 getcut: wavevector=  0.0000  0.0000  0.0000  ngfft=  80  80  80
         ecut(hartree)=     37.000   => boxcut(ratio)=   2.14150

--- Pseudopotential description ------------------------------------------------
- pspini: atom type   1  psp file is /scratch/users/j/a/jabreu/pseudos/PBEsol/Rb.psp8
- pspatm: opening atomic psp file    /scratch/users/j/a/jabreu/pseudos/PBEsol/Rb.psp8
- Rb    ONCVPSP-3.3.0  r_core=   1.71227   1.75361   1.90633
- 37.00000   9.00000    180112                znucl, zion, pspdat
    8 -116133    2    4       600   0.00000   pspcod,pspxc,lmax,lloc,mmax,r2well
    5.99000000000000    7.00000000000000    0.00000000000000   rchrg,fchrg,qchrg
     nproj     2     2     2
     extension_switch     1
  pspatm : epsatm=   34.48400912
         --- l  ekb(1:nproj) -->
             0    8.196957   -0.477221
             1    3.231347   -0.378736
             2   -1.047201    0.996637
 pspatm: atomic psp has been read  and splines computed

- pspini: atom type   2  psp file is /scratch/users/j/a/jabreu/pseudos/PBEsol/Li.psp8
- pspatm: opening atomic psp file    /scratch/users/j/a/jabreu/pseudos/PBEsol/Li.psp8
- Li    ONCVPSP-3.3.0  r_core=   1.40824   1.10935
-  3.00000   3.00000    180112                znucl, zion, pspdat
    8 -116133    1    4       400   0.00000   pspcod,pspxc,lmax,lloc,mmax,r2well
    3.99000000000000    0.00000000000000    0.00000000000000   rchrg,fchrg,qchrg
     nproj     2     2
     extension_switch     1
  pspatm : epsatm=    2.60859637
         --- l  ekb(1:nproj) -->
             0   -4.855856   -1.482423
             1   -2.171544   -0.427615
 pspatm: atomic psp has been read  and splines computed

[...]

- pspini: atom type   4  psp file is /scratch/users/j/a/jabreu/pseudos/PBEsol/Cl.psp8
- pspatm: opening atomic psp file    /scratch/users/j/a/jabreu/pseudos/PBEsol/Cl.psp8
- Cl    ONCVPSP-3.3.0  r_core=   1.56009   1.35202   1.75774
- 17.00000   7.00000    180112                znucl, zion, pspdat
    8 -116133    2    4       600   0.00000   pspcod,pspxc,lmax,lloc,mmax,r2well
    5.99000000000000    8.00000000000000    0.00000000000000   rchrg,fchrg,qchrg
     nproj     2     2     2
     extension_switch     1
  pspatm : epsatm=    8.95520722
[...]
 The set of symmetries contains only one element for this perturbation.
 symkpt : not enough symmetry to change the number of k points.

 Initialisation of the first-order wave-functions :
  ireadwf=   0

--- !BeginCycle
iteration_state: {dtset: 1, }
solver: {iscf: 7, nstep: 2000, nline: 4, wfoptalg: 0, }
tolerances: {tolwfr: 1.00E-20, }
...

     iter   2DEtotal(Ha)        deltaE(Ha) residm    vres2
-ETOT  1  -32.134741987977     -3.213E+01 1.716E-02 0.000E+00
 ETOT  2  -32.178805702338     -4.406E-02 8.691E-04 0.000E+00
 ETOT  3  -32.179084487082     -2.788E-04 4.654E-05 0.000E+00
 ETOT  4  -32.179087050483     -2.563E-06 3.715E-06 0.000E+00
 ETOT  5  -32.179087080338     -2.985E-08 6.121E-07 0.000E+00
 ETOT  6  -32.179087080727     -3.894E-10 4.930E-08 0.000E+00
 ETOT  7  -32.179087080732     -5.485E-12 1.014E-08 0.000E+00
 ETOT  8  -32.179087080732     -4.263E-14 8.562E-10 0.000E+00
 ETOT  9  -32.179087080733     -6.395E-14 1.776E-10 0.000E+00
 ETOT 10  -32.179087080733      3.553E-14 1.620E-11 0.000E+00
 ETOT 11  -32.179087080733      0.000E+00 3.205E-12 0.000E+00
 ETOT 12  -32.179087080733     -1.421E-14 3.251E-13 0.000E+00
 ETOT 13  -32.179087080733      0.000E+00 6.052E-14 0.000E+00
 ETOT 14  -32.179087080733      0.000E+00 6.787E-15 0.000E+00
 ETOT 15  -32.179087080733     -7.105E-15 1.285E-15 0.000E+00
 ETOT 16  -32.179087080733      0.000E+00 1.441E-16 0.000E+00
 ETOT 17  -32.179087080733      7.105E-15 2.746E-17 0.000E+00
 ETOT 18  -32.179087080733     -7.105E-15 3.072E-18 0.000E+00
 ETOT 19  -32.179087080733      7.105E-15 5.867E-19 0.000E+00
 ETOT 20  -32.179087080733      0.000E+00 6.555E-20 0.000E+00
 ETOT 21  -32.179087080733      0.000E+00 1.252E-20 0.000E+00
 ETOT 22  -32.179087080733      0.000E+00 9.998E-21 0.000E+00

 At SCF step   22   max residual=  1.00E-20 < tolwfr=  1.00E-20 =>converged.

 ----iterations are completed or convergence reached----

 dfpt_looppert: DFPT cycle converged with prtwf=-1. Will skip output of the 1st-order WFK file.
 dfpt_looppert : ek2=    4.8359549049E+01
          f-sum rule ratio=    1.1633405456E+00
 prteigrs : about to open file /scratch/users/j/a/jabreu/flow_simple_10atoms/flow/w354/t1/tmpdata/tmp_1WF1_EIG
 Expectation of eigenvalue derivatives (hartree) for nkpt=   1  k points:
  (in case of degenerate eigenvalues, averaged derivative)
 kpt#   1, nband= 47, wtk=  1.00000, kpt=  0.0000  0.0000  0.0000 (reduced coord)
   0.00000   -0.00000   -0.00000   -0.00000   -0.00000   -0.00000    0.00000    0.00000
   0.00000    0.00000    0.00000    0.00000   -0.00000   -0.00000    0.00000    0.00000
   0.00000    0.00000    0.00000    0.00000    0.00000   -0.00000   -0.00000   -0.00000
  -0.00000   -0.00000   -0.00000    0.00000    0.00000    0.00000   -0.00000   -0.00000
  -0.00000    0.00000    0.00000    0.00000    0.00000    0.00000    0.00000   -0.00000
  -0.00000   -0.00000   -0.00000    0.00000    0.00000    0.00000    0.00000

 Eight components of 2nd-order total energy (hartree) are
 1,2,3: 0th-order hamiltonian combined with 1st-order wavefunctions
     kin0=   3.82149788E+01 eigvalue=   3.78571169E+00  local=  -2.08130884E+01
 4,5,6: 1st-order hamiltonian combined with 1st and 0th-order wfs
     kin1=  -5.62586242E+01  Hartree=   0.00000000E+00     xc=   0.00000000E+00
 7,8,9: eventually, occupation + non-local contributions
    edocc=   8.81342070E+00     enl0=   2.17806429E+00   enl1=  -8.09954998E+00
 1-9 gives the relaxation energy (to be shifted if some occ is /=2.0)
   erelax=  -3.21790871E+01
  No Ewald or frozen-wf contrib.: the relaxation energy is the total one
 2DEtotal=   -0.3217908708E+02 Ha. Also 2DEtotal=   -0.875637490818E+03 eV
    (  non-var. 2DEtotal :   -3.2179087080E+01 Ha)

 CALCULATION OF EFFECTIVE MASSES
 NOTE : Additional infos (eff. mass eigenvalues, eigenvectors and, if degenerate, average mass) are available in stdout.

 COMMENTS:
 - At k-point ( 0.000, 0.000, 0.000), bands    36 through    38
   are DEGENERATE (effective mass tensor is therefore not defined).
   See Section IIIB Eqs. (67)-(70) and Appendix E of PRB 93 205147 (2016).
 - Angular average effective mass for Frohlich model is to be averaged over degenerate bands. See later.
 - Associated theta integrals calculated with ntheta=   1000 points.

 K-point ( 0.000, 0.000, 0.000) | band =    36
 Transport equivalent effective mass tensor:
             -0.9901422694             -0.0000002708              0.0000000004
             -0.0000002708             -0.9901420143              0.0000000003
              0.0000000004              0.0000000003             -0.9901408517
 Transport equivalent effective mass tensor eigenvalues:
             -0.9901424412             -0.9901418426             -0.9901408517
 Angular average effective mass 1/(<1/m>)=  -0.9504432485
 Angular average effective mass for Frohlich model (<m**0.5>)**2=  -0.9520065845
 Effective masses along directions: (cart. coord. / red. coord. -> eff. mass)
    1:   1.000000  0.000000  0.000000 /   0.948683  0.316228  0.000000 ->  -1.0040592135
    2:   0.000000  1.000000  0.000000 /   0.000000  1.000000  0.000000 ->  -1.1183095049
    3:   0.000000  0.000000  1.000000 /   0.408248  0.408248  0.816497 ->  -0.9109894434
    4:   0.577350  0.577350  0.577350 /   0.585539  0.688047  0.428644 ->  -0.9751425822
    5:   0.000000  0.707107  0.707107 /   0.289489  0.762222  0.578977 ->  -0.9165337016
    6:   0.707107  0.000000  0.707107 /   0.731423  0.422287  0.535439 ->  -0.9407605653
    7:   0.707107  0.707107  0.000000 /   0.616798  0.787122  0.000000 ->  -0.9182915559

[...]

 K-point ( 0.000, 0.000, 0.000) | band =    38
 Transport equivalent effective mass tensor:
            -61.6436538047             -0.0000000062              0.0000000061
             -0.0000000062            -61.6436538144              0.0000000051
              0.0000000061              0.0000000051            -61.6436538214
 Transport equivalent effective mass tensor eigenvalues:
            -61.6436538271            -61.6436538123            -61.6436538011
 Angular average effective mass 1/(<1/m>)=  -3.9098830393
 Angular average effective mass for Frohlich model (<m**0.5>)**2=  -4.9542876430
 Effective masses along directions: (cart. coord. / red. coord. -> eff. mass)
    1:   1.000000  0.000000  0.000000 /   0.948683  0.316228  0.000000 ->  -3.3076088296
    2:   0.000000  1.000000  0.000000 /   0.000000  1.000000  0.000000 ->  -2.2775522782
    3:   0.000000  0.000000  1.000000 /   0.408248  0.408248  0.816497 ->  -2.9645660846
    4:   0.577350  0.577350  0.577350 /   0.585539  0.688047  0.428644 ->  -3.2076138608
    5:   0.000000  0.707107  0.707107 /   0.289489  0.762222  0.578977 ->  -5.6076282039
    6:   0.707107  0.000000  0.707107 /   0.731423  0.422287  0.535439 ->  -3.1364427590
    7:   0.707107  0.707107  0.000000 /   0.616798  0.787122  0.000000 -> -17.5770407700

 Angular average effective mass for Frohlich model, averaged over degenerate bands.
 Value of     (<<m**0.5>>)**2 =     2.004649E+00
 Absolute Value of <<m**0.5>> =     1.415856E+00

 K-point ( 0.000, 0.000, 0.000) | band =    39
 Effective mass tensor:
              0.4090752607             -0.0000000000             -0.0000000000
             -0.0000000000              0.4090752608              0.0000000000
             -0.0000000000              0.0000000000              0.4090752608
 Effective mass tensor eigenvalues:
              0.4090752607              0.4090752608              0.4090752608
 Angular average effective mass 1/(<1/m>)=   0.4090752608
 Angular average effective mass for Frohlich model (<m**0.5>)**2=   0.4090752608
 Effective masses along directions: (cart. coord. / red. coord. -> eff. mass)
    1:   1.000000  0.000000  0.000000 /   0.948683  0.316228  0.000000 ->   0.4090752607
    2:   0.000000  1.000000  0.000000 /   0.000000  1.000000  0.000000 ->   0.4090752608
    3:   0.000000  0.000000  1.000000 /   0.408248  0.408248  0.816497 ->   0.4090752608
    4:   0.577350  0.577350  0.577350 /   0.585539  0.688047  0.428644 ->   0.4090752608
    5:   0.000000  0.707107  0.707107 /   0.289489  0.762222  0.578977 ->   0.4090752608
    6:   0.707107  0.000000  0.707107 /   0.731423  0.422287  0.535439 ->   0.4090752607
    7:   0.707107  0.707107  0.000000 /   0.616798  0.787122  0.000000 ->   0.4090752608

 END OF EFFECTIVE MASSES SECTION

 ---- first-order wavefunction calculations are completed ----

 Total localisation tensor (bohr^2) in cartesian coordinates
  WARNING : still subject to testing - especially symmetries.
      direction              matrix element
   alpha     beta       real part   imaginary part
     1        1       1.8488601206    0.0000000000
     1        2       0.5229366117    0.0000000000
     1        3       1.2809278661    0.0000000000
     2        1       0.5229366117    0.0000000000
     2        2       1.4790880969    0.0000000000
     2        3       0.9057527805    0.0000000000
     3        1       1.2809278661    0.0000000000
     3        2       0.9057527805    0.0000000000
     3        3       3.3279482169    0.0000000000

 respfn : d/dk was computed, but no 2DTE, so no DDB output.

== END DATASET(S) ==============================================================

 -outvars: echo values of variables after computation  --------
            acell      1.0000000000E+00  1.0000000000E+00  1.0000000000E+00 Bohr
              amu      8.54678000E+01  6.94100000E+00  2.04383300E+02
                       3.54527000E+01
             ecut      3.70000000E+01 Hartree
           etotal     -3.2179087081E+01
            fcart      0.0000000000E+00  0.0000000000E+00  0.0000000000E+00
                       0.0000000000E+00  0.0000000000E+00  0.0000000000E+00
                       0.0000000000E+00  0.0000000000E+00  0.0000000000E+00
                       0.0000000000E+00  0.0000000000E+00  0.0000000000E+00
                       0.0000000000E+00  0.0000000000E+00  0.0000000000E+00
                       0.0000000000E+00  0.0000000000E+00  0.0000000000E+00
                       0.0000000000E+00  0.0000000000E+00  0.0000000000E+00
                       0.0000000000E+00  0.0000000000E+00  0.0000000000E+00
                       0.0000000000E+00  0.0000000000E+00  0.0000000000E+00
                       0.0000000000E+00  0.0000000000E+00  0.0000000000E+00
-          fftalg         512
           irdden           1
           irdwfk           1
           istwfk        1
              ixc     -116133
           kptopt           0
P           mkmem           1
P          mkqmem           1
P          mk1mem           1
            natom          10
            nband          47
           nbdbuf           4
            ngfft          80      80      80
             nkpt           1
            nstep        2000
             nsym          48
           ntypat           4
              occ      2.000000  2.000000  2.000000  2.000000  2.000000  2.000000
                       2.000000  2.000000  2.000000  2.000000  2.000000  2.000000
                       2.000000  2.000000  2.000000  2.000000  2.000000  2.000000
                       2.000000  2.000000  2.000000  2.000000  2.000000  2.000000
                       2.000000  2.000000  2.000000  2.000000  2.000000  2.000000
                       2.000000  2.000000  2.000000  2.000000  2.000000  2.000000
                       2.000000  2.000000  0.000000  0.000000  0.000000  0.000000
                       0.000000  0.000000  0.000000  0.000000  0.000000
        optdriver           1
            prtwf          -1
            rfdir           1       1       1
           rfelfd           2
            rprim      1.1815083693E+01  0.0000000000E+00  6.8214417508E+00
                       3.9383612311E+00  1.1139367733E+01  6.8214417508E+00
                       0.0000000000E+00  0.0000000000E+00  1.3642883502E+01
          spgroup         225
           strten      0.0000000000E+00  0.0000000000E+00  0.0000000000E+00
                       0.0000000000E+00  0.0000000000E+00  0.0000000000E+00
           symrel      1  0  0   0  1  0   0  0  1      -1  0  0   0 -1  0   0  0 -1
                       0 -1  1   0 -1  0   1 -1  0       0  1 -1   0  1  0  -1  1  0
                      -1  0  0  -1  0  1  -1  1  0       1  0  0   1  0 -1   1 -1  0
                       0  1 -1   1  0 -1   0  0 -1       0 -1  1  -1  0  1   0  0  1
                      -1  0  0  -1  1  0  -1  0  1       1  0  0   1 -1  0   1  0 -1
                       0 -1  1   1 -1  0   0 -1  0       0  1 -1  -1  1  0   0  1  0
                       1  0  0   0  0  1   0  1  0      -1  0  0   0  0 -1   0 -1  0
                       0  1 -1   0  0 -1   1  0 -1       0 -1  1   0  0  1  -1  0  1
                      -1  0  1  -1  1  0  -1  0  0       1  0 -1   1 -1  0   1  0  0
                       0 -1  0   1 -1  0   0 -1  1       0  1  0  -1  1  0   0  1 -1
                       1  0 -1   0  0 -1   0  1 -1      -1  0  1   0  0  1   0 -1  1
                       0  1  0   0  0  1   1  0  0       0 -1  0   0  0 -1  -1  0  0
                       1  0 -1   0  1 -1   0  0 -1      -1  0  1   0 -1  1   0  0  1
                       0 -1  0   0 -1  1   1 -1  0       0  1  0   0  1 -1  -1  1  0
                      -1  0  1  -1  0  0  -1  1  0       1  0 -1   1  0  0   1 -1  0
                       0  1  0   1  0  0   0  0  1       0 -1  0  -1  0  0   0  0 -1
                       0  0 -1   0  1 -1   1  0 -1       0  0  1   0 -1  1  -1  0  1
                       1 -1  0   0 -1  1   0 -1  0      -1  1  0   0  1 -1   0  1  0
                       0  0  1   1  0  0   0  1  0       0  0 -1  -1  0  0   0 -1  0
                      -1  1  0  -1  0  0  -1  0  1       1 -1  0   1  0  0   1  0 -1
                       0  0  1   0  1  0   1  0  0       0  0 -1   0 -1  0  -1  0  0
                       1 -1  0   0 -1  0   0 -1  1      -1  1  0   0  1  0   0  1 -1
                       0  0 -1   1  0 -1   0  1 -1       0  0  1  -1  0  1   0 -1  1
                      -1  1  0  -1  0  1  -1  0  0       1 -1  0   1  0 -1   1  0  0
           tolwfr      1.00000000E-20
            typat      1  1  2  3  4  4  4  4  4  4
           useylm           1
           xangst      2.0840910027E+00  1.4736748806E+00  3.6097515042E+00
                       6.2522730080E+00  4.4210246418E+00  1.0829254513E+01
                       0.0000000000E+00  0.0000000000E+00  0.0000000000E+00
                       4.1681820054E+00  2.9473497612E+00  7.2195030085E+00
                       3.1145197808E+00  4.4374531694E+00  9.0444995155E+00
                       5.2218442299E+00  1.4572463530E+00  9.0444995155E+00
                       3.1145197808E+00  4.4374531694E+00  5.3945065015E+00
                       2.0608575562E+00  1.4572463530E+00  7.2195030085E+00
                       6.2755064545E+00  4.4374531694E+00  7.2195030085E+00
                       5.2218442299E+00  1.4572463530E+00  5.3945065015E+00
            xcart      3.9383612311E+00  2.7848419333E+00  6.8214417508E+00
                       1.1815083693E+01  8.3545257998E+00  2.0464325252E+01
                       0.0000000000E+00  0.0000000000E+00  0.0000000000E+00
                       7.8767224622E+00  5.5696838665E+00  1.3642883502E+01
                       5.8855894211E+00  8.3855712176E+00  1.7091627093E+01
                       9.8678555032E+00  2.7537965154E+00  1.7091627093E+01
                       5.8855894211E+00  8.3855712176E+00  1.0194139910E+01
                       3.8944563801E+00  2.7537965154E+00  1.3642883502E+01
                       1.1858988544E+01  8.3855712176E+00  1.3642883502E+01
                       9.8678555032E+00  2.7537965154E+00  1.0194139910E+01
             xred      2.5000000000E-01  2.5000000000E-01  2.5000000000E-01
                       7.5000000000E-01  7.5000000000E-01  7.5000000000E-01
                       0.0000000000E+00  0.0000000000E+00  0.0000000000E+00
                       5.0000000000E-01  5.0000000000E-01  5.0000000000E-01
                       2.4721300000E-01  7.5278700000E-01  7.5278700000E-01
                       7.5278700000E-01  2.4721300000E-01  7.5278700000E-01
                       2.4721300000E-01  7.5278700000E-01  2.4721300000E-01
                       2.4721300000E-01  2.4721300000E-01  7.5278700000E-01
                       7.5278700000E-01  7.5278700000E-01  2.4721300000E-01
                       7.5278700000E-01  2.4721300000E-01  2.4721300000E-01
            znucl       37.00000    3.00000   81.00000   17.00000

- Timing analysis has been suppressed with timopt=0

 Suggested references for the acknowledgment of ABINIT usage.

 Calculation completed.
.Delivered   2 WARNINGs and   5 COMMENTs to log file.