.Version 9.5.1 of ABINIT

 ABINIT is a project of the Universite Catholique de Louvain,
 Corning Inc. and other collaborators, see ~abinit/doc/developers/contributors.txt .
 acknowledgments of the ABINIT effort.

.Starting date : Sun 25 Apr 2021.
- ( at 17h21 )

- input  file    -> /scratch/users/j/a/jabreu/flow_simple2/flow/w199/t1/run.abi
- output file    -> /scratch/users/j/a/jabreu/flow_simple2/flow/w199/t1/run.abo
- root for input  files -> /scratch/users/j/a/jabreu/flow_simple2/flow/w199/t1/indata/in
- root for output files -> /scratch/users/j/a/jabreu/flow_simple2/flow/w199/t1/outdata/out

 Symmetries : space group F-4 3 m (#216); Bravais cF (face-center cubic)
     intxc =       0      iscf =       7    lmnmax =      18     lnmax =       6
     mgfft =      45  mpssoang =       3    mqgrid =    3001     natom =       2
  nloc_mem =       1    nspden =       1   nspinor =       1    nsppol =       1
      nsym =      24    n1xccc =    2501    ntypat =       2    occopt =       1
   xclevel =       2
-    mband =          18        mffmem =           1         mkmem =           2
-   mkqmem =           2        mk1mem =           2           mpw =        3138
      nfft =       91125          nkpt =           2
  Rough estimation (10% accuracy) of disk space for files :

------------- Echo of variables that govern the present computation ------------
-
- outvars: echo of selected default values
-   iomode0 =  0 , fftalg0 =512 , wfoptalg0 =  0
-
- outvars: echo of global parameters not present in the input file
-  max_nthreads =    0
-
 -outvars: echo values of preprocessed input variables --------
            acell      1.0000000000E+00  1.0000000000E+00  1.0000000000E+00 Bohr
              amu      1.08110000E+01  1.21753000E+02
             ecut      4.20000000E+01 Hartree
-          fftalg         512
           irdden           1
           irdwfk           1
           istwfk        1    0
              ixc     -116133
              kpt      0.00000000E+00  0.00000000E+00  0.00000000E+00
                       4.40000000E-01  0.00000000E+00  4.40000000E-01
           kptopt           0
P           mkmem           2
P          mkqmem           2
P          mk1mem           2
            natom           2
            nband          18
           nbdbuf           4
            ngfft          45      45      45
             nkpt           2
            nstep         100
             nsym          24
           ntypat           2
              occ      2.000000  2.000000  2.000000  2.000000  2.000000  2.000000
                       2.000000  2.000000  2.000000  0.000000  0.000000  0.000000
                       0.000000  0.000000  0.000000  0.000000  0.000000  0.000000
        optdriver           1
            prtwf          -1
            rfdir           1       1       1
           rfelfd           2
            rprim      6.0473386370E+00  0.0000000000E+00  3.4914325899E+00
                       2.0157795457E+00  5.7014855445E+00  3.4914325899E+00
                       0.0000000000E+00  0.0000000000E+00  6.9828651799E+00
          spgroup         216
           symrel      1  0  0   0  1  0   0  0  1       0 -1  1   0 -1  0   1 -1  0
                      -1  0  0  -1  0  1  -1  1  0       0  1 -1   1  0 -1   0  0 -1
                      -1  0  0  -1  1  0  -1  0  1       0 -1  1   1 -1  0   0 -1  0
                       1  0  0   0  0  1   0  1  0       0  1 -1   0  0 -1   1  0 -1
                      -1  0  1  -1  1  0  -1  0  0       0 -1  0   1 -1  0   0 -1  1
                       1  0 -1   0  0 -1   0  1 -1       0  1  0   0  0  1   1  0  0
                       1  0 -1   0  1 -1   0  0 -1       0 -1  0   0 -1  1   1 -1  0
                      -1  0  1  -1  0  0  -1  1  0       0  1  0   1  0  0   0  0  1
                       0  0 -1   0  1 -1   1  0 -1       1 -1  0   0 -1  1   0 -1  0
                       0  0  1   1  0  0   0  1  0      -1  1  0  -1  0  0  -1  0  1
                       0  0  1   0  1  0   1  0  0       1 -1  0   0 -1  0   0 -1  1
                       0  0 -1   1  0 -1   0  1 -1      -1  1  0  -1  0  1  -1  0  0
           tolwfr      1.00000000E-20
            typat      1  2
           useylm           1
              wtk        0.50000    0.50000
           xangst      0.0000000000E+00  0.0000000000E+00  0.0000000000E+00
                       3.2001137793E+00  2.2628221539E+00  5.5427596557E+00
            xcart      0.0000000000E+00  0.0000000000E+00  0.0000000000E+00
                       6.0473386370E+00  4.2761141584E+00  1.0474297770E+01
             xred      0.0000000000E+00  0.0000000000E+00  0.0000000000E+00
                       7.5000000000E-01  7.5000000000E-01  7.5000000000E-01
            znucl        5.00000   51.00000

 chkinp: Checking input parameters for consistency.

== DATASET  1 ==================================================================
-   mpi_nproc: 1, omp_nthreads: -1 (-1 if OMP is not activated)

--- !DatasetInfo
iteration_state: {dtset: 1, }
dimensions: {natom: 2, nkpt: 2, mband: 18, nsppol: 1, nspinor: 1, nspden: 1, mpw: 3138, }
cutoff_energies: {ecut:  42.0, pawecutdg:  -1.0, }
electrons: {nelect:   1.80000000E+01, charge:   0.00000000E+00, occopt:   1.00000000E+00, tsmear:   1.00000000E-02, }
meta: {optdriver: 1, rfelfd: 2, }
...

 Real(R)+Recip(G) space primitive vectors, cartesian coordinates (Bohr,Bohr^-1):
 R(1)=  6.0473386  0.0000000  3.4914326  G(1)=  0.1653620 -0.0584643  0.0000000
 R(2)=  2.0157795  5.7014855  3.4914326  G(2)=  0.0000000  0.1753929  0.0000000
 R(3)=  0.0000000  0.0000000  6.9828652  G(3)= -0.0826810 -0.0584643  0.1432077
 Unit cell volume ucvol=  2.4076091E+02 bohr^3
 Angles (23,13,12)=  6.00000000E+01  6.00000000E+01  6.00000000E+01 degrees

 getcut: wavevector=  0.0000  0.0000  0.0000  ngfft=  45  45  45
         ecut(hartree)=     42.000   => boxcut(ratio)=   2.15988

--- Pseudopotential description ------------------------------------------------
- pspini: atom type   1  psp file is /scratch/users/j/a/jabreu/pseudos/PBEsol/B.psp8
- pspatm: opening atomic psp file    /scratch/users/j/a/jabreu/pseudos/PBEsol/B.psp8
- B     ONCVPSP-3.3.0  r_core=   1.20849   1.20849
-  5.00000   3.00000    180112                znucl, zion, pspdat
    8 -116133    1    4       600   0.00000   pspcod,pspxc,lmax,lloc,mmax,r2well
    5.99000000000000    2.90000000000000    0.00000000000000   rchrg,fchrg,qchrg
     nproj     2     2
     extension_switch     1
  pspatm : epsatm=    3.20154566
         --- l  ekb(1:nproj) -->
             0    8.466603    1.247630
             1   -3.609180   -0.822621
 pspatm: atomic psp has been read  and splines computed

- pspini: atom type   2  psp file is /scratch/users/j/a/jabreu/pseudos/PBEsol/Sb.psp8
- pspatm: opening atomic psp file    /scratch/users/j/a/jabreu/pseudos/PBEsol/Sb.psp8
- Sb    ONCVPSP-3.3.0  r_core=   1.81962   2.12485   1.81962
- 51.00000  15.00000    180112                znucl, zion, pspdat
    8 -116133    2    4       600   0.00000   pspcod,pspxc,lmax,lloc,mmax,r2well
    5.99000000000000    5.00000000000000    0.00000000000000   rchrg,fchrg,qchrg
     nproj     2     2     2
     extension_switch     1
  pspatm : epsatm=   26.35641246
         --- l  ekb(1:nproj) -->
             0    9.727814    1.485032
             1    5.505335    0.704623
             2   -4.710637   -1.436443
 pspatm: atomic psp has been read  and splines computed

   5.32043246E+02                                ecore*ucvol(ha*bohr**3)

-inwffil : will read wavefunctions from disk file /scratch/users/j/a/jabreu/flow_simple2/flow/w199/t1/indata/in_WFK

 ==>  initialize data related to q vector <==

 The list of irreducible perturbations for this q vector is:
    1)    idir= 1    ipert=   3
    2)    idir= 2    ipert=   3
    3)    idir= 3    ipert=   3

 Perturbation wavevector (in red.coord.)   0.000000  0.000000  0.000000
 Perturbation : derivative vs k along direction   1

 dfpt_looppert : COMMENT -
  In a d/dk calculation, iscf is set to -3 automatically.
 The set of symmetries contains only one element for this perturbation.
 symkpt : not enough symmetry to change the number of k points.

[...]

 Initialisation of the first-order wave-functions :
  ireadwf=   0

--- !BeginCycle
iteration_state: {dtset: 1, }
solver: {iscf: 7, nstep: 100, nline: 4, wfoptalg: 0, }
tolerances: {tolwfr: 1.00E-20, }
...

     iter   2DEtotal(Ha)        deltaE(Ha) residm    vres2
-ETOT  1  -62.310997098716     -6.231E+01 7.562E-02 0.000E+00
 ETOT  2  -62.324473187769     -1.348E-02 6.907E-04 0.000E+00
 ETOT  3  -62.324486041101     -1.285E-05 1.591E-05 0.000E+00
 ETOT  4  -62.324486073191     -3.209E-08 2.111E-07 0.000E+00
 ETOT  5  -62.324486073409     -2.182E-10 5.286E-09 0.000E+00
 ETOT  6  -62.324486073412     -2.551E-12 8.121E-11 0.000E+00
 ETOT  7  -62.324486073412     -1.137E-13 1.960E-12 0.000E+00
 ETOT  8  -62.324486073412      2.132E-14 3.321E-14 0.000E+00
 ETOT  9  -62.324486073412      5.684E-14 7.683E-16 0.000E+00
 ETOT 10  -62.324486073412      2.842E-14 1.399E-17 0.000E+00
 ETOT 11  -62.324486073412     -4.974E-14 3.124E-19 0.000E+00
 ETOT 12  -62.324486073412     -7.105E-15 9.777E-21 0.000E+00

 At SCF step   12   max residual=  9.78E-21 < tolwfr=  1.00E-20 =>converged.

 ----iterations are completed or convergence reached----

 dfpt_looppert: DFPT cycle converged with prtwf=-1. Will skip output of the 1st-order WFK file.
 dfpt_looppert : ek2=    4.3720606948E+01
          f-sum rule ratio=    1.8509045809E+00
 prteigrs : about to open file /scratch/users/j/a/jabreu/flow_simple2/flow/w199/t1/tmpdata/tmp_1WF1_EIG
 Expectation of eigenvalue derivatives (hartree) for nkpt=   2  k points:
  (in case of degenerate eigenvalues, averaged derivative)
 kpt#   1, nband= 18, wtk=  0.50000, kpt=  0.0000  0.0000  0.0000 (reduced coord)
   0.00000    0.00000    0.00000    0.00000    0.00000    0.00000   -0.00000   -0.00000
  -0.00000   -0.00000    0.00000    0.00000    0.00000    0.00000    0.00000    0.00000
  -0.00770   -0.00000
 prteigrs : prtvol=0 or 1, do not print more k-points.

 Eight components of 2nd-order total energy (hartree) are
 1,2,3: 0th-order hamiltonian combined with 1st-order wavefunctions
     kin0=   4.49055894E+01 eigvalue=   5.19437753E+00  local=  -2.40689209E+01
 4,5,6: 1st-order hamiltonian combined with 1st and 0th-order wfs
     kin1=  -8.09226717E+01  Hartree=   0.00000000E+00     xc=   0.00000000E+00
 7,8,9: eventually, occupation + non-local contributions
    edocc=   2.94977165E+01     enl0=   6.79572343E+00   enl1=  -4.37263005E+01
 1-9 gives the relaxation energy (to be shifted if some occ is /=2.0)
   erelax=  -6.23244861E+01
  No Ewald or frozen-wf contrib.: the relaxation energy is the total one
 2DEtotal=   -0.6232448607E+02 Ha. Also 2DEtotal=   -0.169593551442E+04 eV
    (  non-var. 2DEtotal :   -6.2324486073E+01 Ha)

 Perturbation wavevector (in red.coord.)   0.000000  0.000000  0.000000
 Perturbation : derivative vs k along direction   2
 The set of symmetries contains only one element for this perturbation.
 symkpt : not enough symmetry to change the number of k points.

[...]

 Perturbation wavevector (in red.coord.)   0.000000  0.000000  0.000000
 Perturbation : derivative vs k along direction   3
 The set of symmetries contains only one element for this perturbation.
 symkpt : not enough symmetry to change the number of k points.

-inwffil : will read wavefunctions from disk file /scratch/users/j/a/jabreu/flow_simple2/flow/w199/t1/indata/in_WFK

 Initialisation of the first-order wave-functions :
  ireadwf=   0

--- !BeginCycle
iteration_state: {dtset: 1, }
solver: {iscf: 7, nstep: 100, nline: 4, wfoptalg: 0, }
tolerances: {tolwfr: 1.00E-20, }
...

     iter   2DEtotal(Ha)        deltaE(Ha) residm    vres2
-ETOT  1  -62.310195764439     -6.231E+01 7.562E-02 0.000E+00
 ETOT  2  -62.324638744233     -1.444E-02 6.907E-04 0.000E+00
 ETOT  3  -62.324659065801     -2.032E-05 1.591E-05 0.000E+00
 ETOT  4  -62.324659139593     -7.379E-08 2.111E-07 0.000E+00
 ETOT  5  -62.324659140002     -4.095E-10 5.286E-09 0.000E+00
 ETOT  6  -62.324659140006     -3.872E-12 8.120E-11 0.000E+00
 ETOT  7  -62.324659140006     -1.350E-13 1.960E-12 0.000E+00
 ETOT  8  -62.324659140006      2.842E-14 3.321E-14 0.000E+00
 ETOT  9  -62.324659140006     -7.105E-15 7.682E-16 0.000E+00
 ETOT 10  -62.324659140006     -1.421E-14 1.399E-17 0.000E+00
 ETOT 11  -62.324659140006      1.421E-14 3.124E-19 0.000E+00
 ETOT 12  -62.324659140006      0.000E+00 9.966E-21 0.000E+00

 At SCF step   12   max residual=  9.97E-21 < tolwfr=  1.00E-20 =>converged.

 ----iterations are completed or convergence reached----

 dfpt_looppert: DFPT cycle converged with prtwf=-1. Will skip output of the 1st-order WFK file.
 dfpt_looppert : ek2=    4.3720606948E+01
          f-sum rule ratio=    1.8509108839E+00
 prteigrs : about to open file /scratch/users/j/a/jabreu/flow_simple2/flow/w199/t1/tmpdata/tmp_1WF1_EIG
 Expectation of eigenvalue derivatives (hartree) for nkpt=   2  k points:
  (in case of degenerate eigenvalues, averaged derivative)
 kpt#   1, nband= 18, wtk=  0.50000, kpt=  0.0000  0.0000  0.0000 (reduced coord)
   0.00000    0.00000    0.00000   -0.00000   -0.00000    0.00000    0.00000    0.00000
   0.00000    0.00000    0.00000    0.00000    0.00000   -0.00000   -0.00000   -0.00000
   0.01386   -0.00000
 prteigrs : prtvol=0 or 1, do not print more k-points.

 Eight components of 2nd-order total energy (hartree) are
 1,2,3: 0th-order hamiltonian combined with 1st-order wavefunctions
     kin0=   4.48936362E+01 eigvalue=   5.19660944E+00  local=  -2.40621598E+01
 4,5,6: 1st-order hamiltonian combined with 1st and 0th-order wfs
     kin1=  -8.09229473E+01  Hartree=   0.00000000E+00     xc=   0.00000000E+00
 7,8,9: eventually, occupation + non-local contributions
    edocc=   2.95008408E+01     enl0=   6.79573249E+00   enl1=  -4.37263710E+01
 1-9 gives the relaxation energy (to be shifted if some occ is /=2.0)
   erelax=  -6.23246591E+01
  No Ewald or frozen-wf contrib.: the relaxation energy is the total one
 2DEtotal=   -0.6232465914E+02 Ha. Also 2DEtotal=   -0.169594022380E+04 eV
    (  non-var. 2DEtotal :   -6.2324659140E+01 Ha)

 CALCULATION OF EFFECTIVE MASSES
 NOTE : Additional infos (eff. mass eigenvalues, eigenvectors and, if degenerate, average mass) are available in stdout.

 COMMENTS:
 - At k-point ( 0.000, 0.000, 0.000), bands     7 through     9
   are DEGENERATE (effective mass tensor is therefore not defined).
   See Section IIIB Eqs. (67)-(70) and Appendix E of PRB 93 205147 (2016).
 - Angular average effective mass for Frohlich model is to be averaged over degenerate bands. See later.
 - Associated theta integrals calculated with ntheta=   1000 points.

 K-point ( 0.000, 0.000, 0.000) | band =     7
 Transport equivalent effective mass tensor:
             -0.1339820128              0.0000003258             -0.0000004033
              0.0000003258             -0.1339824047              0.0000003760
             -0.0000004033              0.0000003760             -0.1339817799
 Transport equivalent effective mass tensor eigenvalues:
             -0.1339828532             -0.1339818840             -0.1339814602
 Angular average effective mass 1/(<1/m>)=  -0.1071852202
 Angular average effective mass for Frohlich model (<m**0.5>)**2=  -0.1086306038
 Effective masses along directions: (cart. coord. / red. coord. -> eff. mass)
    1:   1.000000  0.000000  0.000000 /   0.948683  0.316228  0.000000 ->  -0.0986347291
    2:   0.000000  1.000000  0.000000 /   0.000000  1.000000  0.000000 ->  -0.0906566077
    3:   0.000000  0.000000  1.000000 /   0.408248  0.408248  0.816497 ->  -0.1027906572
    4:   0.577350  0.577350  0.577350 /   0.585539  0.688047  0.428644 ->  -0.0989101242
    5:   0.000000  0.707107  0.707107 /   0.289489  0.762222  0.578977 ->  -0.1146925017
    6:   0.707107  0.000000  0.707107 /   0.731423  0.422287  0.535439 ->  -0.1005533416
    7:   0.707107  0.707107  0.000000 /   0.616798  0.787122  0.000000 ->  -0.1462821219

[...]

 K-point ( 0.000, 0.000, 0.000) | band =     9
 Transport equivalent effective mass tensor:
             -5.3773936043             -0.0000410795              0.0000554654
             -0.0000410795             -5.3773761677              0.0000610335
              0.0000554654              0.0000610335             -5.3775587807
 Transport equivalent effective mass tensor eigenvalues:
             -5.3775981843             -5.3773886038             -5.3773417646
 Angular average effective mass 1/(<1/m>)=  -0.6229817600
 Angular average effective mass for Frohlich model (<m**0.5>)**2=  -0.7405522196
 Effective masses along directions: (cart. coord. / red. coord. -> eff. mass)
    1:   1.000000  0.000000  0.000000 /   0.948683  0.316228  0.000000 ->  -0.6870618261
    2:   0.000000  1.000000  0.000000 /   0.000000  1.000000  0.000000 ->  -0.5361178330
    3:   0.000000  0.000000  1.000000 /   0.408248  0.408248  0.816497 ->  -1.7760309761
    4:   0.577350  0.577350  0.577350 /   0.585539  0.688047  0.428644 ->  -0.8101816634
    5:   0.000000  0.707107  0.707107 /   0.289489  0.762222  0.578977 ->  -0.5915651254
    6:   0.707107  0.000000  0.707107 /   0.731423  0.422287  0.535439 ->  -1.0884158521
    7:   0.707107  0.707107  0.000000 /   0.616798  0.787122  0.000000 ->  -0.2803264934

 Angular average effective mass for Frohlich model, averaged over degenerate bands.
 Value of     (<<m**0.5>>)**2 =     3.240443E-01
 Absolute Value of <<m**0.5>> =     5.692489E-01

 K-point ( 0.440, 0.000, 0.440) | band =    10
 Effective mass tensor:
              0.6100035191             -0.5654786008              0.6925670118
             -0.5654786008              1.0098572793             -0.9794376667
              0.6925670118             -0.9794376667              1.4097110274
 Effective mass tensor eigenvalues:
              0.2101497681              0.2101497720              2.6092722856
 Angular average effective mass 1/(<1/m>)=   0.3030220177
 Angular average effective mass for Frohlich model (<m**0.5>)**2=   0.3762537883
 Effective masses along directions: (cart. coord. / red. coord. -> eff. mass)
    1:   1.000000  0.000000  0.000000 /   0.948683  0.316228  0.000000 ->   0.2481820257
    2:   0.000000  1.000000  0.000000 /   0.000000  1.000000  0.000000 ->   0.3030220183
    3:   0.000000  0.000000  1.000000 /   0.408248  0.408248  0.816497 ->   0.3889718986
    4:   0.577350  0.577350  0.577350 /   0.585539  0.688047  0.428644 ->   0.2306075020
    5:   0.000000  0.707107  0.707107 /   0.289489  0.762222  0.578977 ->   0.2117890959
    6:   0.707107  0.000000  0.707107 /   0.731423  0.422287  0.535439 ->   0.4909033680
    7:   0.707107  0.707107  0.000000 /   0.616798  0.787122  0.000000 ->   0.2129492427

 END OF EFFECTIVE MASSES SECTION

 ---- first-order wavefunction calculations are completed ----

 Total localisation tensor (bohr^2) in cartesian coordinates
  WARNING : still subject to testing - especially symmetries.
      direction              matrix element
   alpha     beta       real part   imaginary part
     1        1       6.5750864871    0.0000000000
     1        2       1.8597143390    0.0000000000
     1        3       4.5553531529    0.0000000000
     2        1       1.8597143390    0.0000000000
     2        2       5.2600664807    0.0000000000
     2        3       3.2211197227    0.0000000000
     3        1       4.5553531529    0.0000000000
     3        2       3.2211197227    0.0000000000
     3        3      11.8351673054    0.0000000000

 respfn : d/dk was computed, but no 2DTE, so no DDB output.

== END DATASET(S) ==============================================================

 -outvars: echo values of variables after computation  --------
            acell      1.0000000000E+00  1.0000000000E+00  1.0000000000E+00 Bohr
              amu      1.08110000E+01  1.21753000E+02
             ecut      4.20000000E+01 Hartree
           etotal     -6.2324659140E+01
            fcart      0.0000000000E+00  0.0000000000E+00  0.0000000000E+00
                       0.0000000000E+00  0.0000000000E+00  0.0000000000E+00
-          fftalg         512
           irdden           1
           irdwfk           1
           istwfk        1    0
              ixc     -116133
              kpt      0.00000000E+00  0.00000000E+00  0.00000000E+00
                       4.40000000E-01  0.00000000E+00  4.40000000E-01
           kptopt           0
P           mkmem           2
P          mkqmem           2
P          mk1mem           2
            natom           2
            nband          18
           nbdbuf           4
            ngfft          45      45      45
             nkpt           2
            nstep         100
             nsym          24
           ntypat           2
              occ      2.000000  2.000000  2.000000  2.000000  2.000000  2.000000
                       2.000000  2.000000  2.000000  0.000000  0.000000  0.000000
                       0.000000  0.000000  0.000000  0.000000  0.000000  0.000000
        optdriver           1
            prtwf          -1
            rfdir           1       1       1
           rfelfd           2
            rprim      6.0473386370E+00  0.0000000000E+00  3.4914325899E+00
                       2.0157795457E+00  5.7014855445E+00  3.4914325899E+00
                       0.0000000000E+00  0.0000000000E+00  6.9828651799E+00
          spgroup         216
           strten      0.0000000000E+00  0.0000000000E+00  0.0000000000E+00
                       0.0000000000E+00  0.0000000000E+00  0.0000000000E+00
           symrel      1  0  0   0  1  0   0  0  1       0 -1  1   0 -1  0   1 -1  0
                      -1  0  0  -1  0  1  -1  1  0       0  1 -1   1  0 -1   0  0 -1
                      -1  0  0  -1  1  0  -1  0  1       0 -1  1   1 -1  0   0 -1  0
                       1  0  0   0  0  1   0  1  0       0  1 -1   0  0 -1   1  0 -1
                      -1  0  1  -1  1  0  -1  0  0       0 -1  0   1 -1  0   0 -1  1
                       1  0 -1   0  0 -1   0  1 -1       0  1  0   0  0  1   1  0  0
                       1  0 -1   0  1 -1   0  0 -1       0 -1  0   0 -1  1   1 -1  0
                      -1  0  1  -1  0  0  -1  1  0       0  1  0   1  0  0   0  0  1
                       0  0 -1   0  1 -1   1  0 -1       1 -1  0   0 -1  1   0 -1  0
                       0  0  1   1  0  0   0  1  0      -1  1  0  -1  0  0  -1  0  1
                       0  0  1   0  1  0   1  0  0       1 -1  0   0 -1  0   0 -1  1
                       0  0 -1   1  0 -1   0  1 -1      -1  1  0  -1  0  1  -1  0  0
           tolwfr      1.00000000E-20
            typat      1  2
           useylm           1
              wtk        0.50000    0.50000
           xangst      0.0000000000E+00  0.0000000000E+00  0.0000000000E+00
                       3.2001137793E+00  2.2628221539E+00  5.5427596557E+00
            xcart      0.0000000000E+00  0.0000000000E+00  0.0000000000E+00
                       6.0473386370E+00  4.2761141584E+00  1.0474297770E+01
             xred      0.0000000000E+00  0.0000000000E+00  0.0000000000E+00
                       7.5000000000E-01  7.5000000000E-01  7.5000000000E-01
            znucl        5.00000   51.00000

- Timing analysis has been suppressed with timopt=0

 Suggested references for the acknowledgment of ABINIT usage.

 Calculation completed.
.Delivered  14 WARNINGs and   9 COMMENTs to log file.