.Version 9.5.1 of ABINIT

 ABINIT is a project of the Universite Catholique de Louvain,
 Corning Inc. and other collaborators, see ~abinit/doc/developers/contributors.txt .
 acknowledgments of the ABINIT effort.

.Starting date : Wed 28 Apr 2021.
- ( at 23h22 )

- input  file    -> /scratch/users/j/a/jabreu/flow_simple_5atoms/flow/w103/t1/run.abi
- output file    -> /scratch/users/j/a/jabreu/flow_simple_5atoms/flow/w103/t1/run.abo
- root for input  files -> /scratch/users/j/a/jabreu/flow_simple_5atoms/flow/w103/t1/indata/in
- root for output files -> /scratch/users/j/a/jabreu/flow_simple_5atoms/flow/w103/t1/outdata/out

 Symmetries : space group Cm (#  8); Bravais mC (1-face-center monocl.)
     intxc =       0      iscf =       7    lmnmax =      18     lnmax =       6
     mgfft =      60  mpssoang =       3    mqgrid =    3001     natom =       5
  nloc_mem =       1    nspden =       1   nspinor =       1    nsppol =       1
      nsym =       2    n1xccc =    2501    ntypat =       3    occopt =       1
   xclevel =       2
-    mband =          31        mffmem =           1         mkmem =           2
-   mkqmem =           2        mk1mem =           2           mpw =       11742
      nfft =      216000          nkpt =           2
  Rough estimation (10% accuracy) of disk space for files :

------------- Echo of variables that govern the present computation ------------
-
- outvars: echo of selected default values
-   iomode0 =  0 , fftalg0 =512 , wfoptalg0 =  0
-
- outvars: echo of global parameters not present in the input file
-  max_nthreads =    0
-
 -outvars: echo values of preprocessed input variables --------
            acell      1.0000000000E+00  1.0000000000E+00  1.0000000000E+00 Bohr
              amu      8.54678000E+01  1.18710000E+02  3.54527000E+01
             ecut      3.60000000E+01 Hartree
-          fftalg         512
           irdden           1
           irdwfk           1
           istwfk        1    0
              ixc     -116133
              kpt      5.00000000E-01  5.00000000E-01  5.00000000E-01
                       4.78949449E-01 -4.78949449E-01  5.00000000E-01
           kptopt           0
P           mkmem           2
P          mkqmem           2
P          mk1mem           2
            natom           5
            nband          31
           nbdbuf           4
            ngfft          60      60      60
             nkpt           2
            nstep         100
             nsym           2
           ntypat           3
              occ      2.000000  2.000000  2.000000  2.000000  2.000000  2.000000
                       2.000000  2.000000  2.000000  2.000000  2.000000  2.000000
                       2.000000  2.000000  2.000000  2.000000  2.000000  2.000000
                       2.000000  2.000000  2.000000  2.000000  0.000000  0.000000
                       0.000000  0.000000  0.000000  0.000000  0.000000  0.000000
                       0.000000
        optdriver           1
            prtwf          -1
            rfdir           1       1       1
           rfelfd           2
            rprim      1.0409587965E+01  0.0000000000E+00  2.3354897900E-02
                      -3.0664178308E-04  1.0409587960E+01  2.3354897900E-02
                       0.0000000000E+00  0.0000000000E+00  1.0529825766E+01
          spgroup           8
           symrel      1  0  0   0  1  0   0  0  1       0  1  0   1  0  0   0  0  1
           tolwfr      1.00000000E-20
            typat      1  2  3  3  3
           useylm           1
              wtk        0.50000    0.50000
           xangst      5.5005215539E+00  5.5006835887E+00  4.6400714477E-01
                       2.7212042073E+00  2.7212843687E+00  2.6651643065E+00
                       2.7055494640E+00  2.7056291643E+00  5.5591875412E+00
                       2.7295071533E+00  5.4715545524E+00  2.4977980456E+00
                       5.4714741452E+00  2.7296683312E+00  2.4977980456E+00
            xcart      1.0394479325E+01  1.0394785526E+01  8.7684642732E-01
                       5.1423307035E+00  5.1424821866E+00  5.0364306384E+00
                       5.1127475260E+00  5.1128981376E+00  1.0505341974E+01
                       5.1580209975E+00  1.0339739625E+01  4.7201542414E+00
                       1.0339587678E+01  5.1583255795E+00  4.7201542414E+00
             xred      9.9857800000E-01  9.9857800000E-01  7.8843000000E-02
                       4.9401400000E-01  4.9401400000E-01  4.7611000000E-01
                       4.9117200000E-01  4.9117200000E-01  9.9549600000E-01
                       4.9553600000E-01  9.9329000000E-01  4.4496300000E-01
                       9.9329000000E-01  4.9553600000E-01  4.4496300000E-01
            znucl       37.00000   50.00000   17.00000

 chkinp: Checking input parameters for consistency.

== DATASET  1 ==================================================================
-   mpi_nproc: 1, omp_nthreads: -1 (-1 if OMP is not activated)

--- !DatasetInfo
iteration_state: {dtset: 1, }
dimensions: {natom: 5, nkpt: 2, mband: 31, nsppol: 1, nspinor: 1, nspden: 1, mpw: 11742, }
cutoff_energies: {ecut:  36.0, pawecutdg:  -1.0, }
electrons: {nelect:   4.40000000E+01, charge:   0.00000000E+00, occopt:   1.00000000E+00, tsmear:   1.00000000E-02, }
meta: {optdriver: 1, rfelfd: 2, }
...

 Real(R)+Recip(G) space primitive vectors, cartesian coordinates (Bohr,Bohr^-1):
 R(1)= 10.4095880  0.0000000  0.0233549  G(1)=  0.0960653  0.0000028  0.0000000
 R(2)= -0.0003066 10.4095880  0.0233549  G(2)=  0.0000000  0.0960653  0.0000000
 R(3)=  0.0000000  0.0000000 10.5298258  G(3)= -0.0002131 -0.0002131  0.0949683
 Unit cell volume ucvol=  1.1410069E+03 bohr^3
 Angles (23,13,12)=  8.98714517E+01  8.98714517E+01  9.00013994E+01 degrees

 getcut: wavevector=  0.0000  0.0000  0.0000  ngfft=  60  60  60
         ecut(hartree)=     36.000   => boxcut(ratio)=   2.10968

--- Pseudopotential description ------------------------------------------------
- pspini: atom type   1  psp file is /scratch/users/j/a/jabreu/pseudos/PBEsol/Rb.psp8
- pspatm: opening atomic psp file    /scratch/users/j/a/jabreu/pseudos/PBEsol/Rb.psp8
- Rb    ONCVPSP-3.3.0  r_core=   1.71227   1.75361   1.90633
- 37.00000   9.00000    180112                znucl, zion, pspdat
    8 -116133    2    4       600   0.00000   pspcod,pspxc,lmax,lloc,mmax,r2well
    5.99000000000000    7.00000000000000    0.00000000000000   rchrg,fchrg,qchrg
     nproj     2     2     2
     extension_switch     1
  pspatm : epsatm=   34.48400912
         --- l  ekb(1:nproj) -->
             0    8.196957   -0.477221
             1    3.231347   -0.378736
             2   -1.047201    0.996637
 pspatm: atomic psp has been read  and splines computed

- pspini: atom type   2  psp file is /scratch/users/j/a/jabreu/pseudos/PBEsol/Sn.psp8
- pspatm: opening atomic psp file    /scratch/users/j/a/jabreu/pseudos/PBEsol/Sn.psp8
- Sn    ONCVPSP-3.3.0  r_core=   2.27326   2.62311   1.85601
- 50.00000  14.00000    180112                znucl, zion, pspdat
    8 -116133    2    4       600   0.00000   pspcod,pspxc,lmax,lloc,mmax,r2well
    5.99000000000000    6.50000000000000    0.00000000000000   rchrg,fchrg,qchrg
     nproj     2     2     2
     extension_switch     1
  pspatm : epsatm=   32.44586081
         --- l  ekb(1:nproj) -->
             0    5.587869    0.749373
             1    4.197111    0.728791
             2   -5.271877   -1.523486
 pspatm: atomic psp has been read  and splines computed

- pspini: atom type   3  psp file is /scratch/users/j/a/jabreu/pseudos/PBEsol/Cl.psp8
- pspatm: opening atomic psp file    /scratch/users/j/a/jabreu/pseudos/PBEsol/Cl.psp8
- Cl    ONCVPSP-3.3.0  r_core=   1.56009   1.35202   1.75774
- 17.00000   7.00000    180112                znucl, zion, pspdat
    8 -116133    2    4       600   0.00000   pspcod,pspxc,lmax,lloc,mmax,r2well
    5.99000000000000    8.00000000000000    0.00000000000000   rchrg,fchrg,qchrg
     nproj     2     2     2
     extension_switch     1
  pspatm : epsatm=    8.95520722
         --- l  ekb(1:nproj) -->
             0    8.193503    0.707970
             1    3.869736    1.114731
             2   -2.915303   -0.810552
 pspatm: atomic psp has been read  and splines computed

   4.12700163E+03                                ecore*ucvol(ha*bohr**3)

-inwffil : will read wavefunctions from disk file /scratch/users/j/a/jabreu/flow_simple_5atoms/flow/w103/t1/indata/in_WFK

 ==>  initialize data related to q vector <==

 The list of irreducible perturbations for this q vector is:
    1)    idir= 1    ipert=   6
    2)    idir= 2    ipert=   6
    3)    idir= 3    ipert=   6

 Perturbation wavevector (in red.coord.)   0.000000  0.000000  0.000000
 Perturbation : derivative vs k along direction   1

 dfpt_looppert : COMMENT -
  In a d/dk calculation, iscf is set to -3 automatically.
 The set of symmetries contains only one element for this perturbation.
 symkpt : not enough symmetry to change the number of k points.

[...]

 Initialisation of the first-order wave-functions :
  ireadwf=   0

--- !BeginCycle
iteration_state: {dtset: 1, }
solver: {iscf: 7, nstep: 100, nline: 4, wfoptalg: 0, }
tolerances: {tolwfr: 1.00E-20, }
...

     iter   2DEtotal(Ha)        deltaE(Ha) residm    vres2
-ETOT  1  -28.211351959912     -2.821E+01 1.561E-02 0.000E+00
 ETOT  2  -28.238189759498     -2.684E-02 1.071E-03 0.000E+00
 ETOT  3  -28.238317883887     -1.281E-04 1.150E-05 0.000E+00
 ETOT  4  -28.238319020372     -1.136E-06 1.515E-06 0.000E+00
 ETOT  5  -28.238319032102     -1.173E-08 5.883E-08 0.000E+00
 ETOT  6  -28.238319032233     -1.306E-10 4.522E-09 0.000E+00
 ETOT  7  -28.238319032234     -1.485E-12 2.831E-10 0.000E+00
 ETOT  8  -28.238319032234     -7.105E-15 2.301E-11 0.000E+00
 ETOT  9  -28.238319032234     -2.132E-14 1.461E-12 0.000E+00
 ETOT 10  -28.238319032234     -2.132E-14 1.216E-13 0.000E+00
 ETOT 11  -28.238319032234     -3.553E-15 7.855E-15 0.000E+00
 ETOT 12  -28.238319032234      1.066E-14 6.634E-16 0.000E+00
 ETOT 13  -28.238319032234     -3.553E-15 4.384E-17 0.000E+00
 ETOT 14  -28.238319032234      0.000E+00 3.747E-18 0.000E+00
 ETOT 15  -28.238319032234      3.553E-15 2.526E-19 0.000E+00
 ETOT 16  -28.238319032234      0.000E+00 2.180E-20 0.000E+00
 ETOT 17  -28.238319032234     -3.553E-15 9.259E-21 0.000E+00

 At SCF step   17   max residual=  9.26E-21 < tolwfr=  1.00E-20 =>converged.

 ----iterations are completed or convergence reached----

 dfpt_looppert: DFPT cycle converged with prtwf=-1. Will skip output of the 1st-order WFK file.
 dfpt_looppert : ek2=    3.2060872003E+01
          f-sum rule ratio=    1.3457144552E+00
 prteigrs : about to open file /scratch/users/j/a/jabreu/flow_simple_5atoms/flow/w103/t1/tmpdata/tmp_1WF1_EIG
 Expectation of eigenvalue derivatives (hartree) for nkpt=   2  k points:
  (in case of degenerate eigenvalues, averaged derivative)
 kpt#   1, nband= 31, wtk=  0.50000, kpt=  0.5000  0.5000  0.5000 (reduced coord)
  -0.00000    0.00000   -0.00000   -0.00000    0.00000    0.00000   -0.00000    0.00000
  -0.00000   -0.00000    0.00000    0.00000    0.00000    0.00000    0.00000   -0.00000
  -0.00000    0.00000   -0.00000   -0.00000   -0.00000    0.00000    0.00000    0.00000
   0.00000    0.00000    0.00000   -0.00000    0.00000   -0.00000    0.00004
 prteigrs : prtvol=0 or 1, do not print more k-points.

 Eight components of 2nd-order total energy (hartree) are
 1,2,3: 0th-order hamiltonian combined with 1st-order wavefunctions
     kin0=   2.43447772E+01 eigvalue=   2.96328357E+00  local=  -1.29294550E+01
 4,5,6: 1st-order hamiltonian combined with 1st and 0th-order wfs
     kin1=  -4.31447789E+01  Hartree=   0.00000000E+00     xc=   0.00000000E+00
 7,8,9: eventually, occupation + non-local contributions
    edocc=   1.13893583E+01     enl0=   2.47035491E+00   enl1=  -1.33318592E+01
 1-9 gives the relaxation energy (to be shifted if some occ is /=2.0)
   erelax=  -2.82383190E+01
  No Ewald or frozen-wf contrib.: the relaxation energy is the total one
 2DEtotal=   -0.2823831903E+02 Ha. Also 2DEtotal=   -0.768403738747E+03 eV
    (  non-var. 2DEtotal :   -2.8238319032E+01 Ha)

 Perturbation wavevector (in red.coord.)   0.000000  0.000000  0.000000
 Perturbation : derivative vs k along direction   2
 The set of symmetries contains only one element for this perturbation.
 symkpt : not enough symmetry to change the number of k points.

[...]

 Perturbation wavevector (in red.coord.)   0.000000  0.000000  0.000000
 Perturbation : derivative vs k along direction   3
 The set of symmetries contains only one element for this perturbation.
 symkpt : not enough symmetry to change the number of k points.

-inwffil : will read wavefunctions from disk file /scratch/users/j/a/jabreu/flow_simple_5atoms/flow/w103/t1/indata/in_WFK

 Initialisation of the first-order wave-functions :
  ireadwf=   0

--- !BeginCycle
iteration_state: {dtset: 1, }
solver: {iscf: 7, nstep: 100, nline: 4, wfoptalg: 0, }
tolerances: {tolwfr: 1.00E-20, }
...

     iter   2DEtotal(Ha)        deltaE(Ha) residm    vres2
-ETOT  1  -27.560088437076     -2.756E+01 1.851E-02 0.000E+00
 ETOT  2  -27.581466123515     -2.138E-02 1.112E-03 0.000E+00
 ETOT  3  -27.581573313710     -1.072E-04 2.397E-05 0.000E+00
 ETOT  4  -27.581574287261     -9.736E-07 1.677E-06 0.000E+00
 ETOT  5  -27.581574297455     -1.019E-08 5.460E-08 0.000E+00
 ETOT  6  -27.581574297567     -1.123E-10 3.848E-09 0.000E+00
 ETOT  7  -27.581574297568     -1.307E-12 1.689E-10 0.000E+00
 ETOT  8  -27.581574297568     -1.421E-14 1.318E-11 0.000E+00
 ETOT  9  -27.581574297568      3.908E-14 6.374E-13 0.000E+00
 ETOT 10  -27.581574297568     -1.066E-14 5.670E-14 0.000E+00
 ETOT 11  -27.581574297568      1.776E-14 2.940E-15 0.000E+00
 ETOT 12  -27.581574297568     -1.776E-14 3.042E-16 0.000E+00
 ETOT 13  -27.581574297568      3.553E-15 1.614E-17 0.000E+00
 ETOT 14  -27.581574297568     -3.553E-15 1.856E-18 0.000E+00
 ETOT 15  -27.581574297568      3.553E-15 9.801E-20 0.000E+00
 ETOT 16  -27.581574297568      0.000E+00 1.188E-20 0.000E+00
 ETOT 17  -27.581574297568      0.000E+00 9.534E-21 0.000E+00

 At SCF step   17   max residual=  9.53E-21 < tolwfr=  1.00E-20 =>converged.

 ----iterations are completed or convergence reached----

 dfpt_looppert: DFPT cycle converged with prtwf=-1. Will skip output of the 1st-order WFK file.
 dfpt_looppert : ek2=    3.1333175486E+01
          f-sum rule ratio=    1.3439528868E+00
 prteigrs : about to open file /scratch/users/j/a/jabreu/flow_simple_5atoms/flow/w103/t1/tmpdata/tmp_1WF1_EIG
 Expectation of eigenvalue derivatives (hartree) for nkpt=   2  k points:
  (in case of degenerate eigenvalues, averaged derivative)
 kpt#   1, nband= 31, wtk=  0.50000, kpt=  0.5000  0.5000  0.5000 (reduced coord)
   0.00000    0.00000    0.00000   -0.00000    0.00000   -0.00000   -0.00000   -0.00000
   0.00000   -0.00000    0.00000   -0.00000    0.00000    0.00000    0.00000    0.00000
  -0.00000   -0.00000   -0.00000    0.00000   -0.00000   -0.00000    0.00000   -0.00000
  -0.00000   -0.00000    0.00000   -0.00000    0.00000    0.00000    0.00001
 prteigrs : prtvol=0 or 1, do not print more k-points.

 Eight components of 2nd-order total energy (hartree) are
 1,2,3: 0th-order hamiltonian combined with 1st-order wavefunctions
     kin0=   2.49005012E+01 eigvalue=   3.15643643E+00  local=  -1.34411297E+01
 4,5,6: 1st-order hamiltonian combined with 1st and 0th-order wfs
     kin1=  -4.21103116E+01  Hartree=   0.00000000E+00     xc=   0.00000000E+00
 7,8,9: eventually, occupation + non-local contributions
    edocc=   1.03995079E+01     enl0=   2.56625855E+00   enl1=  -1.30528369E+01
 1-9 gives the relaxation energy (to be shifted if some occ is /=2.0)
   erelax=  -2.75815743E+01
  No Ewald or frozen-wf contrib.: the relaxation energy is the total one
 2DEtotal=   -0.2758157430E+02 Ha. Also 2DEtotal=   -0.750532805674E+03 eV
    (  non-var. 2DEtotal :   -2.7581574297E+01 Ha)

 CALCULATION OF EFFECTIVE MASSES
 NOTE : Additional infos (eff. mass eigenvalues, eigenvectors and, if degenerate, average mass) are available in stdout.

 K-point ( 0.500, 0.500, 0.500) | band =    22
 Effective mass tensor:
             -0.1903673776             -0.0000894832              0.0029333371
             -0.0000894832             -0.1903672474              0.0029335263
              0.0029333371              0.0029335263             -0.1950476854
 Effective mass tensor eigenvalues:
             -0.1974934545             -0.1902778293             -0.1880110266
 Angular average effective mass 1/(<1/m>)=  -0.1918432232
 Angular average effective mass for Frohlich model (<m**0.5>)**2=  -0.1918683338
 Effective masses along directions: (cart. coord. / red. coord. -> eff. mass)
    1:   1.000000  0.000000  0.000000 /   1.000000 -0.000029  0.000000 ->  -0.1903232521
    2:   0.000000  1.000000  0.000000 /   0.000000  1.000000  0.000000 ->  -0.1903231163
    3:   0.000000  0.000000  1.000000 /   0.002218  0.002218  0.999995 ->  -0.1949573235
    4:   0.577350  0.577350  0.577350 /   0.575569  0.575552  0.580914 ->  -0.1880727579
    5:   0.000000  0.707107  0.707107 /   0.001576  0.703830  0.710366 ->  -0.1897252393
    6:   0.707107  0.000000  0.707107 /   0.703830  0.001555  0.710366 ->  -0.1897254923
    7:   0.707107  0.707107  0.000000 /   0.707117  0.707096  0.000000 ->  -0.1903685607

 K-point ( 0.479,-0.479, 0.500) | band =    23
 Effective mass tensor:
              1.2035898504             -0.8457620617              0.0131163522
             -0.8457620617              1.2035245496              0.0131293241
              0.0131163522              0.0131293241              0.5662332967
 Effective mass tensor eigenvalues:
              0.3561556592              0.5678727751              2.0493192624
 Angular average effective mass 1/(<1/m>)=   0.5932739567
 Angular average effective mass for Frohlich model (<m**0.5>)**2=   0.6710470540
 Effective masses along directions: (cart. coord. / red. coord. -> eff. mass)
    1:   1.000000  0.000000  0.000000 /   1.000000 -0.000029  0.000000 ->   0.6083591315
    2:   0.000000  1.000000  0.000000 /   0.000000  1.000000  0.000000 ->   0.6083258126
    3:   0.000000  0.000000  1.000000 /   0.002218  0.002218  0.999995 ->   0.5652706850
    4:   0.577350  0.577350  0.577350 /   0.575569  0.575552  0.580914 ->   0.4220098822
    5:   0.000000  0.707107  0.707107 /   0.001576  0.703830  0.710366 ->   0.6091731373
    6:   0.707107  0.000000  0.707107 /   0.703830  0.001555  0.710366 ->   0.6091849198
    7:   0.707107  0.707107  0.000000 /   0.707117  0.707096  0.000000 ->   0.3571868766

 END OF EFFECTIVE MASSES SECTION

 ---- first-order wavefunction calculations are completed ----

 Total localisation tensor (bohr^2) in cartesian coordinates
  WARNING : still subject to testing - especially symmetries.
      direction              matrix element
   alpha     beta       real part   imaginary part
     1        1       4.2459147366    0.0000000000
     1        2      -0.0001250746    0.0000000000
     1        3       0.0095258318    0.0000000000
     2        1      -0.0001250746    0.0000000000
     2        2       4.2459154845    0.0000000000
     2        3       0.0095261141    0.0000000000
     3        1       0.0095258318    0.0000000000
     3        2       0.0095261141    0.0000000000
     3        3       3.7076466966    0.0000000000

 respfn : d/dk was computed, but no 2DTE, so no DDB output.

== END DATASET(S) ==============================================================

 -outvars: echo values of variables after computation  --------
            acell      1.0000000000E+00  1.0000000000E+00  1.0000000000E+00 Bohr
              amu      8.54678000E+01  1.18710000E+02  3.54527000E+01
             ecut      3.60000000E+01 Hartree
           etotal     -2.7581574298E+01
            fcart      0.0000000000E+00  0.0000000000E+00  0.0000000000E+00
                       0.0000000000E+00  0.0000000000E+00  0.0000000000E+00
                       0.0000000000E+00  0.0000000000E+00  0.0000000000E+00
                       0.0000000000E+00  0.0000000000E+00  0.0000000000E+00
                       0.0000000000E+00  0.0000000000E+00  0.0000000000E+00
-          fftalg         512
           irdden           1
           irdwfk           1
           istwfk        1    0
              ixc     -116133
              kpt      5.00000000E-01  5.00000000E-01  5.00000000E-01
                       4.78949449E-01 -4.78949449E-01  5.00000000E-01
           kptopt           0
P           mkmem           2
P          mkqmem           2
P          mk1mem           2
            natom           5
            nband          31
           nbdbuf           4
            ngfft          60      60      60
             nkpt           2
            nstep         100
             nsym           2
           ntypat           3
              occ      2.000000  2.000000  2.000000  2.000000  2.000000  2.000000
                       2.000000  2.000000  2.000000  2.000000  2.000000  2.000000
                       2.000000  2.000000  2.000000  2.000000  2.000000  2.000000
                       2.000000  2.000000  2.000000  2.000000  0.000000  0.000000
                       0.000000  0.000000  0.000000  0.000000  0.000000  0.000000
                       0.000000
        optdriver           1
            prtwf          -1
            rfdir           1       1       1
           rfelfd           2
            rprim      1.0409587965E+01  0.0000000000E+00  2.3354897900E-02
                      -3.0664178308E-04  1.0409587960E+01  2.3354897900E-02
                       0.0000000000E+00  0.0000000000E+00  1.0529825766E+01
          spgroup           8
           strten      0.0000000000E+00  0.0000000000E+00  0.0000000000E+00
                       0.0000000000E+00  0.0000000000E+00  0.0000000000E+00
           symrel      1  0  0   0  1  0   0  0  1       0  1  0   1  0  0   0  0  1
           tolwfr      1.00000000E-20
            typat      1  2  3  3  3
           useylm           1
              wtk        0.50000    0.50000
           xangst      5.5005215539E+00  5.5006835887E+00  4.6400714477E-01
                       2.7212042073E+00  2.7212843687E+00  2.6651643065E+00
                       2.7055494640E+00  2.7056291643E+00  5.5591875412E+00
                       2.7295071533E+00  5.4715545524E+00  2.4977980456E+00
                       5.4714741452E+00  2.7296683312E+00  2.4977980456E+00
            xcart      1.0394479325E+01  1.0394785526E+01  8.7684642732E-01
                       5.1423307035E+00  5.1424821866E+00  5.0364306384E+00
                       5.1127475260E+00  5.1128981376E+00  1.0505341974E+01
                       5.1580209975E+00  1.0339739625E+01  4.7201542414E+00
                       1.0339587678E+01  5.1583255795E+00  4.7201542414E+00
             xred      9.9857800000E-01  9.9857800000E-01  7.8843000000E-02
                       4.9401400000E-01  4.9401400000E-01  4.7611000000E-01
                       4.9117200000E-01  4.9117200000E-01  9.9549600000E-01
                       4.9553600000E-01  9.9329000000E-01  4.4496300000E-01
                       9.9329000000E-01  4.9553600000E-01  4.4496300000E-01
            znucl       37.00000   50.00000   17.00000

- Timing analysis has been suppressed with timopt=0

 Suggested references for the acknowledgment of ABINIT usage.

 Calculation completed.
.Delivered  14 WARNINGs and   9 COMMENTs to log file.