.Version 9.5.2 of ABINIT

 ABINIT is a project of the Universite Catholique de Louvain,
 Corning Inc. and other collaborators, see ~abinit/doc/developers/contributors.txt .
 acknowledgments of the ABINIT effort.

.Starting date : Mon 24 May 2021.
- ( at 22h55 )

- input  file    -> /scratch/users/j/a/jabreu/flow_simple_10atoms/flow/w456/t1/run.abi
- output file    -> /scratch/users/j/a/jabreu/flow_simple_10atoms/flow/w456/t1/run.abo
- root for input  files -> /scratch/users/j/a/jabreu/flow_simple_10atoms/flow/w456/t1/indata/in
- root for output files -> /scratch/users/j/a/jabreu/flow_simple_10atoms/flow/w456/t1/outdata/out

 Symmetries : space group Fm -3 m (#225); Bravais cF (face-center cubic)
     intxc =       0      iscf =       7    lmnmax =      18     lnmax =       6
     mgfft =      90  mpssoang =       3    mqgrid =    3431     natom =      10
  nloc_mem =       1    nspden =       1   nspinor =       1    nsppol =       1
      nsym =      48    n1xccc =    2501    ntypat =       4    occopt =       1
   xclevel =       2
-    mband =          50        mffmem =           1         mkmem =           1
-   mkqmem =           1        mk1mem =           1           mpw =       27317
      nfft =      729000          nkpt =           1
  Rough estimation (10% accuracy) of disk space for files :

------------- Echo of variables that govern the present computation ------------
-
- outvars: echo of selected default values
-   iomode0 =  0 , fftalg0 =512 , wfoptalg0 =  0
-
- outvars: echo of global parameters not present in the input file
-  max_nthreads =    0
-
 -outvars: echo values of preprocessed input variables --------
            acell      1.0000000000E+00  1.0000000000E+00  1.0000000000E+00 Bohr
              amu      8.54678000E+01  2.29897680E+01  2.04383300E+02
                       3.54527000E+01
             ecut      4.40000000E+01 Hartree
-          fftalg         512
           irdden           1
           irdwfk           1
           istwfk        1
              ixc     -116133
           kptopt           0
P           mkmem           1
P          mkqmem           1
P          mk1mem           1
            natom          10
            nband          50
           nbdbuf           4
            ngfft          90      90      90
             nkpt           1
            nstep        2000
             nsym          48
           ntypat           4
              occ      2.000000  2.000000  2.000000  2.000000  2.000000  2.000000
                       2.000000  2.000000  2.000000  2.000000  2.000000  2.000000
                       2.000000  2.000000  2.000000  2.000000  2.000000  2.000000
                       2.000000  2.000000  2.000000  2.000000  2.000000  2.000000
                       2.000000  2.000000  2.000000  2.000000  2.000000  2.000000
                       2.000000  2.000000  2.000000  2.000000  2.000000  2.000000
                       2.000000  2.000000  2.000000  2.000000  2.000000  0.000000
                       0.000000  0.000000  0.000000  0.000000  0.000000  0.000000
                       0.000000  0.000000
        optdriver           1
            prtwf          -1
            rfdir           1       1       1
           rfelfd           2
            rprim      1.2185995567E+01  0.0000000000E+00  7.0355878207E+00
                       4.0619985222E+00  1.1489066801E+01  7.0355878207E+00
                       0.0000000000E+00  0.0000000000E+00  1.4071175641E+01
          spgroup         225
           symrel      1  0  0   0  1  0   0  0  1      -1  0  0   0 -1  0   0  0 -1
                       0 -1  1   0 -1  0   1 -1  0       0  1 -1   0  1  0  -1  1  0
                      -1  0  0  -1  0  1  -1  1  0       1  0  0   1  0 -1   1 -1  0
                       0  1 -1   1  0 -1   0  0 -1       0 -1  1  -1  0  1   0  0  1
                      -1  0  0  -1  1  0  -1  0  1       1  0  0   1 -1  0   1  0 -1
                       0 -1  1   1 -1  0   0 -1  0       0  1 -1  -1  1  0   0  1  0
                       1  0  0   0  0  1   0  1  0      -1  0  0   0  0 -1   0 -1  0
                       0  1 -1   0  0 -1   1  0 -1       0 -1  1   0  0  1  -1  0  1
                      -1  0  1  -1  1  0  -1  0  0       1  0 -1   1 -1  0   1  0  0
                       0 -1  0   1 -1  0   0 -1  1       0  1  0  -1  1  0   0  1 -1
                       1  0 -1   0  0 -1   0  1 -1      -1  0  1   0  0  1   0 -1  1
                       0  1  0   0  0  1   1  0  0       0 -1  0   0  0 -1  -1  0  0
                       1  0 -1   0  1 -1   0  0 -1      -1  0  1   0 -1  1   0  0  1
                       0 -1  0   0 -1  1   1 -1  0       0  1  0   0  1 -1  -1  1  0
                      -1  0  1  -1  0  0  -1  1  0       1  0 -1   1  0  0   1 -1  0
                       0  1  0   1  0  0   0  0  1       0 -1  0  -1  0  0   0  0 -1
                       0  0 -1   0  1 -1   1  0 -1       0  0  1   0 -1  1  -1  0  1
                       1 -1  0   0 -1  1   0 -1  0      -1  1  0   0  1 -1   0  1  0
                       0  0  1   1  0  0   0  1  0       0  0 -1  -1  0  0   0 -1  0
                      -1  1  0  -1  0  0  -1  0  1       1 -1  0   1  0  0   1  0 -1
                       0  0  1   0  1  0   1  0  0       0  0 -1   0 -1  0  -1  0  0
                       1 -1  0   0 -1  0   0 -1  1      -1  1  0   0  1  0   0  1 -1
                       0  0 -1   1  0 -1   0  1 -1       0  0  1  -1  0  1   0 -1  1
                      -1  1  0  -1  0  1  -1  0  0       1 -1  0   1  0 -1   1  0  0
           tolwfr      1.00000000E-20
            typat      1  1  2  3  4  4  4  4  4  4
           useylm           1
           xangst      6.4485511178E+00  4.5598142242E+00  1.1169218171E+01
                       2.1495170393E+00  1.5199380747E+00  3.7230727237E+00
                       0.0000000000E+00  0.0000000000E+00  0.0000000000E+00
                       4.2990340785E+00  3.0398761495E+00  7.4461454475E+00
                       5.3504187499E+00  1.5529936880E+00  5.6250937784E+00
                       3.2476494072E+00  4.5267586110E+00  5.6250937784E+00
                       5.3504187499E+00  1.5529936880E+00  9.2671971165E+00
                       6.4018034212E+00  4.5267586110E+00  7.4461454475E+00
                       2.1962647358E+00  1.5529936880E+00  7.4461454475E+00
                       3.2476494072E+00  4.5267586110E+00  9.2671971165E+00
            xcart      1.2185995567E+01  8.6168001006E+00  2.1106763462E+01
                       4.0619985222E+00  2.8722667002E+00  7.0355878207E+00
                       0.0000000000E+00  0.0000000000E+00  0.0000000000E+00
                       8.1239970444E+00  5.7445334004E+00  1.4071175641E+01
                       1.0110826133E+01  2.9347327564E+00  1.0629886713E+01
                       6.1371679552E+00  8.5543340444E+00  1.0629886713E+01
                       1.0110826133E+01  2.9347327564E+00  1.7512464570E+01
                       1.2097655223E+01  8.5543340444E+00  1.4071175641E+01
                       4.1503388660E+00  2.9347327564E+00  1.4071175641E+01
                       6.1371679552E+00  8.5543340444E+00  1.7512464570E+01
             xred      7.5000000000E-01  7.5000000000E-01  7.5000000000E-01
                       2.5000000000E-01  2.5000000000E-01  2.5000000000E-01
                       0.0000000000E+00  0.0000000000E+00  0.0000000000E+00
                       5.0000000000E-01  5.0000000000E-01  5.0000000000E-01
                       7.4456300000E-01  2.5543700000E-01  2.5543700000E-01
                       2.5543700000E-01  7.4456300000E-01  2.5543700000E-01
                       7.4456300000E-01  2.5543700000E-01  7.4456300000E-01
                       7.4456300000E-01  7.4456300000E-01  2.5543700000E-01
                       2.5543700000E-01  2.5543700000E-01  7.4456300000E-01
                       2.5543700000E-01  7.4456300000E-01  7.4456300000E-01
            znucl       37.00000   11.00000   81.00000   17.00000

 chkinp: Checking input parameters for consistency.

== DATASET  1 ==================================================================
-   mpi_nproc: 1, omp_nthreads: -1 (-1 if OMP is not activated)

--- !DatasetInfo
iteration_state: {dtset: 1, }
dimensions: {natom: 10, nkpt: 1, mband: 50, nsppol: 1, nspinor: 1, nspden: 1, mpw: 27317, }
cutoff_energies: {ecut:  44.0, pawecutdg:  -1.0, }
electrons: {nelect:   8.20000000E+01, charge:   0.00000000E+00, occopt:   1.00000000E+00, tsmear:   1.00000000E-02, }
meta: {optdriver: 1, rfelfd: 2, }
...

 Real(R)+Recip(G) space primitive vectors, cartesian coordinates (Bohr,Bohr^-1):
 R(1)= 12.1859956  0.0000000  7.0355878  G(1)=  0.0820614 -0.0290131  0.0000000
 R(2)=  4.0619985 11.4890668  7.0355878  G(2)=  0.0000000  0.0870393  0.0000000
 R(3)=  0.0000000  0.0000000 14.0711756  G(3)= -0.0410307 -0.0290131  0.0710673
 Unit cell volume ucvol=  1.9700450E+03 bohr^3
 Angles (23,13,12)=  6.00000000E+01  6.00000000E+01  6.00000000E+01 degrees

 getcut: wavevector=  0.0000  0.0000  0.0000  ngfft=  90  90  90
         ecut(hartree)=     44.000   => boxcut(ratio)=   2.14227

--- Pseudopotential description ------------------------------------------------
- pspini: atom type   1  psp file is /scratch/users/j/a/jabreu/pseudos/PBEsol/Rb.psp8
- pspatm: opening atomic psp file    /scratch/users/j/a/jabreu/pseudos/PBEsol/Rb.psp8
- Rb    ONCVPSP-3.3.0  r_core=   1.71227   1.75361   1.90633
- 37.00000   9.00000    180112                znucl, zion, pspdat
    8 -116133    2    4       600   0.00000   pspcod,pspxc,lmax,lloc,mmax,r2well
    5.99000000000000    7.00000000000000    0.00000000000000   rchrg,fchrg,qchrg
     nproj     2     2     2
     extension_switch     1
  pspatm : epsatm=   34.48400912
         --- l  ekb(1:nproj) -->
             0    8.196957   -0.477221
             1    3.231347   -0.378736
             2   -1.047201    0.996637
 pspatm: atomic psp has been read  and splines computed

- pspini: atom type   2  psp file is /scratch/users/j/a/jabreu/pseudos/PBEsol/Na.psp8
- pspatm: opening atomic psp file    /scratch/users/j/a/jabreu/pseudos/PBEsol/Na.psp8
- Na    ONCVPSP-3.3.0  r_core=   1.20708   1.55069
- 11.00000   9.00000    180112                znucl, zion, pspdat
    8 -116133    1    4       400   0.00000   pspcod,pspxc,lmax,lloc,mmax,r2well
    3.99000000000000    0.00000000000000    0.00000000000000   rchrg,fchrg,qchrg
     nproj     2     2
     extension_switch     1
  pspatm : epsatm=    9.32878306
         --- l  ekb(1:nproj) -->
             0    2.657905   -0.678300
             1   -6.761319   -2.404728
 pspatm: atomic psp has been read  and splines computed

[...]

- pspini: atom type   4  psp file is /scratch/users/j/a/jabreu/pseudos/PBEsol/Cl.psp8
- pspatm: opening atomic psp file    /scratch/users/j/a/jabreu/pseudos/PBEsol/Cl.psp8
- Cl    ONCVPSP-3.3.0  r_core=   1.56009   1.35202   1.75774
- 17.00000   7.00000    180112                znucl, zion, pspdat
    8 -116133    2    4       600   0.00000   pspcod,pspxc,lmax,lloc,mmax,r2well
    5.99000000000000    8.00000000000000    0.00000000000000   rchrg,fchrg,qchrg
     nproj     2     2     2
[...]
  ireadwf=   0

--- !BeginCycle
iteration_state: {dtset: 1, }
solver: {iscf: 7, nstep: 2000, nline: 4, wfoptalg: 0, }
tolerances: {tolwfr: 1.00E-20, }
...

     iter   2DEtotal(Ha)        deltaE(Ha) residm    vres2
-ETOT  1  -31.681484344991     -3.168E+01 2.529E-02 0.000E+00
 ETOT  2  -31.724184270318     -4.270E-02 8.364E-04 0.000E+00
 ETOT  3  -31.724451271129     -2.670E-04 5.740E-05 0.000E+00
 ETOT  4  -31.724453666439     -2.395E-06 5.845E-06 0.000E+00
 ETOT  5  -31.724453692355     -2.592E-08 9.590E-07 0.000E+00
 ETOT  6  -31.724453692662     -3.068E-10 1.745E-07 0.000E+00
 ETOT  7  -31.724453692666     -3.975E-12 2.927E-08 0.000E+00
 ETOT  8  -31.724453692666     -5.684E-14 5.446E-09 0.000E+00
 ETOT  9  -31.724453692666     -1.066E-14 9.254E-10 0.000E+00
 ETOT 10  -31.724453692666     -7.105E-15 1.734E-10 0.000E+00
 ETOT 11  -31.724453692666     -2.487E-14 2.976E-11 0.000E+00
 ETOT 12  -31.724453692666      3.553E-15 5.593E-12 0.000E+00
 ETOT 13  -31.724453692666      3.553E-15 9.669E-13 0.000E+00
 ETOT 14  -31.724453692666      0.000E+00 1.822E-13 0.000E+00
 ETOT 15  -31.724453692666      0.000E+00 3.165E-14 0.000E+00
 ETOT 16  -31.724453692666      0.000E+00 5.985E-15 0.000E+00
 ETOT 17  -31.724453692666      3.553E-15 1.043E-15 0.000E+00
 ETOT 18  -31.724453692666      0.000E+00 1.979E-16 0.000E+00
 ETOT 19  -31.724453692666     -1.066E-14 3.454E-17 0.000E+00
 ETOT 20  -31.724453692666      7.105E-15 6.571E-18 0.000E+00
 ETOT 21  -31.724453692666      0.000E+00 1.149E-18 0.000E+00
 ETOT 22  -31.724453692666     -3.553E-15 2.189E-19 0.000E+00
 ETOT 23  -31.724453692666      3.553E-15 3.831E-20 0.000E+00
 ETOT 24  -31.724453692666      3.553E-15 9.887E-21 0.000E+00

 At SCF step   24   max residual=  9.89E-21 < tolwfr=  1.00E-20 =>converged.

 ----iterations are completed or convergence reached----

 dfpt_looppert: DFPT cycle converged with prtwf=-1. Will skip output of the 1st-order WFK file.
 dfpt_looppert : ek2=    4.9049442515E+01
          f-sum rule ratio=    1.1191570506E+00
 prteigrs : about to open file /scratch/users/j/a/jabreu/flow_simple_10atoms/flow/w456/t1/tmpdata/tmp_1WF1_EIG
 Expectation of eigenvalue derivatives (hartree) for nkpt=   1  k points:
  (in case of degenerate eigenvalues, averaged derivative)
 kpt#   1, nband= 50, wtk=  1.00000, kpt=  0.0000  0.0000  0.0000 (reduced coord)
  -0.00000    0.00000   -0.00000   -0.00000   -0.00000   -0.00000   -0.00000   -0.00000
  -0.00000   -0.00000   -0.00000   -0.00000   -0.00000   -0.00000   -0.00000    0.00000
   0.00000   -0.00000   -0.00000   -0.00000    0.00000    0.00000    0.00000   -0.00000
   0.00000    0.00000    0.00000   -0.00000   -0.00000   -0.00000    0.00000    0.00000
   0.00000    0.00000    0.00000    0.00000   -0.00000   -0.00000    0.00000    0.00000
   0.00000    0.00000   -0.00000    0.00000    0.00000    0.00000   -0.00000    0.00000
   0.00000    0.00000

 Eight components of 2nd-order total energy (hartree) are
 1,2,3: 0th-order hamiltonian combined with 1st-order wavefunctions
     kin0=   3.87488439E+01 eigvalue=   4.37641325E+00  local=  -2.10070424E+01
 4,5,6: 1st-order hamiltonian combined with 1st and 0th-order wfs
     kin1=  -5.48940294E+01  Hartree=   0.00000000E+00     xc=   0.00000000E+00
 7,8,9: eventually, occupation + non-local contributions
    edocc=   7.47048410E+00     enl0=   2.13575481E+00   enl1=  -8.55487797E+00
 1-9 gives the relaxation energy (to be shifted if some occ is /=2.0)
   erelax=  -3.17244537E+01
  No Ewald or frozen-wf contrib.: the relaxation energy is the total one
 2DEtotal=   -0.3172445369E+02 Ha. Also 2DEtotal=   -0.863266287180E+03 eV
    (  non-var. 2DEtotal :   -3.1724453692E+01 Ha)

 CALCULATION OF EFFECTIVE MASSES
 NOTE : Additional infos (eff. mass eigenvalues, eigenvectors and, if degenerate, average mass) are available in stdout.

 COMMENTS:
 - At k-point ( 0.000, 0.000, 0.000), bands    39 through    41
   are DEGENERATE (effective mass tensor is therefore not defined).
   See Section IIIB Eqs. (67)-(70) and Appendix E of PRB 93 205147 (2016).
 - Angular average effective mass for Frohlich model is to be averaged over degenerate bands. See later.
 - Associated theta integrals calculated with ntheta=   1000 points.

 K-point ( 0.000, 0.000, 0.000) | band =    39
 Transport equivalent effective mass tensor:
             -1.1802125325             -0.0000003362              0.0000000004
             -0.0000003362             -1.1802122100              0.0000000003
              0.0000000004              0.0000000003             -1.1802107376
 Transport equivalent effective mass tensor eigenvalues:
             -1.1802127441             -1.1802119984             -1.1802107376
 Angular average effective mass 1/(<1/m>)=  -1.1288553887
 Angular average effective mass for Frohlich model (<m**0.5>)**2=  -1.1308652171
 Effective masses along directions: (cart. coord. / red. coord. -> eff. mass)
    1:   1.000000  0.000000  0.000000 /   0.948683  0.316228  0.000000 ->  -1.1954533994
    2:   0.000000  1.000000  0.000000 /   0.000000  1.000000  0.000000 ->  -1.3380462292
    3:   0.000000  0.000000  1.000000 /   0.408248  0.408248  0.816497 ->  -1.0803253531
    4:   0.577350  0.577350  0.577350 /   0.585539  0.688047  0.428644 ->  -1.1591789237
    5:   0.000000  0.707107  0.707107 /   0.289489  0.762222  0.578977 ->  -1.0871029042
    6:   0.707107  0.000000  0.707107 /   0.731423  0.422287  0.535439 ->  -1.1167841618
    7:   0.707107  0.707107  0.000000 /   0.616798  0.787122  0.000000 ->  -1.0893249813

[...]

 K-point ( 0.000, 0.000, 0.000) | band =    41
 Transport equivalent effective mass tensor:
            -76.6883753173             -0.0000000057              0.0000000102
             -0.0000000057            -76.6883753297              0.0000000087
              0.0000000102              0.0000000087            -76.6883753324
 Transport equivalent effective mass tensor eigenvalues:
            -76.6883753447            -76.6883753226            -76.6883753121
 Angular average effective mass 1/(<1/m>)=  -4.5188451908
 Angular average effective mass for Frohlich model (<m**0.5>)**2=  -5.7736343083
 Effective masses along directions: (cart. coord. / red. coord. -> eff. mass)
    1:   1.000000  0.000000  0.000000 /   0.948683  0.316228  0.000000 ->  -3.8293452347
    2:   0.000000  1.000000  0.000000 /   0.000000  1.000000  0.000000 ->  -2.6111462871
    3:   0.000000  0.000000  1.000000 /   0.408248  0.408248  0.816497 ->  -3.4033377845
    4:   0.577350  0.577350  0.577350 /   0.585539  0.688047  0.428644 ->  -3.7083316776
    5:   0.000000  0.707107  0.707107 /   0.289489  0.762222  0.578977 ->  -6.5328163950
    6:   0.707107  0.000000  0.707107 /   0.731423  0.422287  0.535439 ->  -3.6175473273
    7:   0.707107  0.707107  0.000000 /   0.616798  0.787122  0.000000 -> -20.9114206756

 Angular average effective mass for Frohlich model, averaged over degenerate bands.
 Value of     (<<m**0.5>>)**2 =     2.360663E+00
 Absolute Value of <<m**0.5>> =     1.536445E+00

 K-point ( 0.000, 0.000, 0.000) | band =    42
 Effective mass tensor:
              0.3947730724             -0.0000000000             -0.0000000000
             -0.0000000000              0.3947730724             -0.0000000000
             -0.0000000000             -0.0000000000              0.3947730724
 Effective mass tensor eigenvalues:
              0.3947730723              0.3947730724              0.3947730724
 Angular average effective mass 1/(<1/m>)=   0.3947730724
 Angular average effective mass for Frohlich model (<m**0.5>)**2=   0.3947730724
 Effective masses along directions: (cart. coord. / red. coord. -> eff. mass)
    1:   1.000000  0.000000  0.000000 /   0.948683  0.316228  0.000000 ->   0.3947730724
    2:   0.000000  1.000000  0.000000 /   0.000000  1.000000  0.000000 ->   0.3947730724
    3:   0.000000  0.000000  1.000000 /   0.408248  0.408248  0.816497 ->   0.3947730724
    4:   0.577350  0.577350  0.577350 /   0.585539  0.688047  0.428644 ->   0.3947730724
    5:   0.000000  0.707107  0.707107 /   0.289489  0.762222  0.578977 ->   0.3947730724
    6:   0.707107  0.000000  0.707107 /   0.731423  0.422287  0.535439 ->   0.3947730724
    7:   0.707107  0.707107  0.000000 /   0.616798  0.787122  0.000000 ->   0.3947730724

 END OF EFFECTIVE MASSES SECTION

 ---- first-order wavefunction calculations are completed ----

 Total localisation tensor (bohr^2) in cartesian coordinates
  WARNING : still subject to testing - especially symmetries.
      direction              matrix element
   alpha     beta       real part   imaginary part
     1        1       1.5776701286    0.0000000000
     1        2       0.4462324986    0.0000000000
     1        3       1.0930419281    0.0000000000
     2        1       0.4462324986    0.0000000000
     2        2       1.2621361029    0.0000000000
     2        3       0.7728973595    0.0000000000
     3        1       1.0930419281    0.0000000000
     3        2       0.7728973595    0.0000000000
     3        3       2.8398062313    0.0000000000

 respfn : d/dk was computed, but no 2DTE, so no DDB output.

== END DATASET(S) ==============================================================

 -outvars: echo values of variables after computation  --------
            acell      1.0000000000E+00  1.0000000000E+00  1.0000000000E+00 Bohr
              amu      8.54678000E+01  2.29897680E+01  2.04383300E+02
                       3.54527000E+01
             ecut      4.40000000E+01 Hartree
           etotal     -3.1724453693E+01
            fcart      0.0000000000E+00  0.0000000000E+00  0.0000000000E+00
                       0.0000000000E+00  0.0000000000E+00  0.0000000000E+00
                       0.0000000000E+00  0.0000000000E+00  0.0000000000E+00
                       0.0000000000E+00  0.0000000000E+00  0.0000000000E+00
                       0.0000000000E+00  0.0000000000E+00  0.0000000000E+00
                       0.0000000000E+00  0.0000000000E+00  0.0000000000E+00
                       0.0000000000E+00  0.0000000000E+00  0.0000000000E+00
                       0.0000000000E+00  0.0000000000E+00  0.0000000000E+00
                       0.0000000000E+00  0.0000000000E+00  0.0000000000E+00
                       0.0000000000E+00  0.0000000000E+00  0.0000000000E+00
-          fftalg         512
           irdden           1
           irdwfk           1
           istwfk        1
              ixc     -116133
           kptopt           0
P           mkmem           1
P          mkqmem           1
P          mk1mem           1
            natom          10
            nband          50
           nbdbuf           4
            ngfft          90      90      90
             nkpt           1
            nstep        2000
             nsym          48
           ntypat           4
              occ      2.000000  2.000000  2.000000  2.000000  2.000000  2.000000
                       2.000000  2.000000  2.000000  2.000000  2.000000  2.000000
                       2.000000  2.000000  2.000000  2.000000  2.000000  2.000000
                       2.000000  2.000000  2.000000  2.000000  2.000000  2.000000
                       2.000000  2.000000  2.000000  2.000000  2.000000  2.000000
                       2.000000  2.000000  2.000000  2.000000  2.000000  2.000000
                       2.000000  2.000000  2.000000  2.000000  2.000000  0.000000
                       0.000000  0.000000  0.000000  0.000000  0.000000  0.000000
                       0.000000  0.000000
        optdriver           1
            prtwf          -1
            rfdir           1       1       1
           rfelfd           2
            rprim      1.2185995567E+01  0.0000000000E+00  7.0355878207E+00
                       4.0619985222E+00  1.1489066801E+01  7.0355878207E+00
                       0.0000000000E+00  0.0000000000E+00  1.4071175641E+01
          spgroup         225
           strten      0.0000000000E+00  0.0000000000E+00  0.0000000000E+00
                       0.0000000000E+00  0.0000000000E+00  0.0000000000E+00
           symrel      1  0  0   0  1  0   0  0  1      -1  0  0   0 -1  0   0  0 -1
                       0 -1  1   0 -1  0   1 -1  0       0  1 -1   0  1  0  -1  1  0
                      -1  0  0  -1  0  1  -1  1  0       1  0  0   1  0 -1   1 -1  0
                       0  1 -1   1  0 -1   0  0 -1       0 -1  1  -1  0  1   0  0  1
                      -1  0  0  -1  1  0  -1  0  1       1  0  0   1 -1  0   1  0 -1
                       0 -1  1   1 -1  0   0 -1  0       0  1 -1  -1  1  0   0  1  0
                       1  0  0   0  0  1   0  1  0      -1  0  0   0  0 -1   0 -1  0
                       0  1 -1   0  0 -1   1  0 -1       0 -1  1   0  0  1  -1  0  1
                      -1  0  1  -1  1  0  -1  0  0       1  0 -1   1 -1  0   1  0  0
                       0 -1  0   1 -1  0   0 -1  1       0  1  0  -1  1  0   0  1 -1
                       1  0 -1   0  0 -1   0  1 -1      -1  0  1   0  0  1   0 -1  1
                       0  1  0   0  0  1   1  0  0       0 -1  0   0  0 -1  -1  0  0
                       1  0 -1   0  1 -1   0  0 -1      -1  0  1   0 -1  1   0  0  1
                       0 -1  0   0 -1  1   1 -1  0       0  1  0   0  1 -1  -1  1  0
                      -1  0  1  -1  0  0  -1  1  0       1  0 -1   1  0  0   1 -1  0
                       0  1  0   1  0  0   0  0  1       0 -1  0  -1  0  0   0  0 -1
                       0  0 -1   0  1 -1   1  0 -1       0  0  1   0 -1  1  -1  0  1
                       1 -1  0   0 -1  1   0 -1  0      -1  1  0   0  1 -1   0  1  0
                       0  0  1   1  0  0   0  1  0       0  0 -1  -1  0  0   0 -1  0
                      -1  1  0  -1  0  0  -1  0  1       1 -1  0   1  0  0   1  0 -1
                       0  0  1   0  1  0   1  0  0       0  0 -1   0 -1  0  -1  0  0
                       1 -1  0   0 -1  0   0 -1  1      -1  1  0   0  1  0   0  1 -1
                       0  0 -1   1  0 -1   0  1 -1       0  0  1  -1  0  1   0 -1  1
                      -1  1  0  -1  0  1  -1  0  0       1 -1  0   1  0 -1   1  0  0
           tolwfr      1.00000000E-20
            typat      1  1  2  3  4  4  4  4  4  4
           useylm           1
           xangst      6.4485511178E+00  4.5598142242E+00  1.1169218171E+01
                       2.1495170393E+00  1.5199380747E+00  3.7230727237E+00
                       0.0000000000E+00  0.0000000000E+00  0.0000000000E+00
                       4.2990340785E+00  3.0398761495E+00  7.4461454475E+00
                       5.3504187499E+00  1.5529936880E+00  5.6250937784E+00
                       3.2476494072E+00  4.5267586110E+00  5.6250937784E+00
                       5.3504187499E+00  1.5529936880E+00  9.2671971165E+00
                       6.4018034212E+00  4.5267586110E+00  7.4461454475E+00
                       2.1962647358E+00  1.5529936880E+00  7.4461454475E+00
                       3.2476494072E+00  4.5267586110E+00  9.2671971165E+00
            xcart      1.2185995567E+01  8.6168001006E+00  2.1106763462E+01
                       4.0619985222E+00  2.8722667002E+00  7.0355878207E+00
                       0.0000000000E+00  0.0000000000E+00  0.0000000000E+00
                       8.1239970444E+00  5.7445334004E+00  1.4071175641E+01
                       1.0110826133E+01  2.9347327564E+00  1.0629886713E+01
                       6.1371679552E+00  8.5543340444E+00  1.0629886713E+01
                       1.0110826133E+01  2.9347327564E+00  1.7512464570E+01
                       1.2097655223E+01  8.5543340444E+00  1.4071175641E+01
                       4.1503388660E+00  2.9347327564E+00  1.4071175641E+01
                       6.1371679552E+00  8.5543340444E+00  1.7512464570E+01
             xred      7.5000000000E-01  7.5000000000E-01  7.5000000000E-01
                       2.5000000000E-01  2.5000000000E-01  2.5000000000E-01
                       0.0000000000E+00  0.0000000000E+00  0.0000000000E+00
                       5.0000000000E-01  5.0000000000E-01  5.0000000000E-01
                       7.4456300000E-01  2.5543700000E-01  2.5543700000E-01
                       2.5543700000E-01  7.4456300000E-01  2.5543700000E-01
                       7.4456300000E-01  2.5543700000E-01  7.4456300000E-01
                       7.4456300000E-01  7.4456300000E-01  2.5543700000E-01
                       2.5543700000E-01  2.5543700000E-01  7.4456300000E-01
                       2.5543700000E-01  7.4456300000E-01  7.4456300000E-01
            znucl       37.00000   11.00000   81.00000   17.00000

- Timing analysis has been suppressed with timopt=0

 Suggested references for the acknowledgment of ABINIT usage.

 Calculation completed.
.Delivered   2 WARNINGs and   5 COMMENTs to log file.