.Version 9.5.1 of ABINIT

 ABINIT is a project of the Universite Catholique de Louvain,
 Corning Inc. and other collaborators, see ~abinit/doc/developers/contributors.txt .
 acknowledgments of the ABINIT effort.

.Starting date : Tue 11 May 2021.
- ( at 21h12 )

- input  file    -> /scratch/users/j/a/jabreu/flow_simple_8atoms/flow/w264/t1/run.abi
- output file    -> /scratch/users/j/a/jabreu/flow_simple_8atoms/flow/w264/t1/run.abo
- root for input  files -> /scratch/users/j/a/jabreu/flow_simple_8atoms/flow/w264/t1/indata/in
- root for output files -> /scratch/users/j/a/jabreu/flow_simple_8atoms/flow/w264/t1/outdata/out

 Symmetries : space group I-4 2 d (#122); Bravais tI (body-center tetrag.)
     intxc =       0      iscf =       7    lmnmax =      18     lnmax =       6
     mgfft =      72  mpssoang =       3    mqgrid =    3001     natom =       8
  nloc_mem =       1    nspden =       1   nspinor =       1    nsppol =       1
      nsym =       8    n1xccc =    2501    ntypat =       3    occopt =       1
   xclevel =       2
-    mband =          63        mffmem =           1         mkmem =           1
-   mkqmem =           1        mk1mem =           1           mpw =       13287
      nfft =      373248          nkpt =           1
  Rough estimation (10% accuracy) of disk space for files :

------------- Echo of variables that govern the present computation ------------
-
- outvars: echo of selected default values
-   iomode0 =  0 , fftalg0 =512 , wfoptalg0 =  0
-
- outvars: echo of global parameters not present in the input file
-  max_nthreads =    0
-
 -outvars: echo values of preprocessed input variables --------
            acell      1.0000000000E+00  1.0000000000E+00  1.0000000000E+00 Bohr
              amu      6.35460000E+01  1.08110000E+01  7.89600000E+01
             ecut      4.60000000E+01 Hartree
-          fftalg         512
           irdden           1
           irdwfk           1
           istwfk        1
              ixc     -116133
           kptopt           0
P           mkmem           1
P          mkqmem           1
P          mk1mem           1
            natom           8
            nband          63
           nbdbuf           4
            ngfft          72      72      72
             nkpt           1
            nstep        2000
             nsym           8
           ntypat           3
              occ      2.000000  2.000000  2.000000  2.000000  2.000000  2.000000
                       2.000000  2.000000  2.000000  2.000000  2.000000  2.000000
                       2.000000  2.000000  2.000000  2.000000  2.000000  2.000000
                       2.000000  2.000000  2.000000  2.000000  2.000000  2.000000
                       2.000000  2.000000  2.000000  2.000000  2.000000  2.000000
                       2.000000  2.000000  2.000000  2.000000  2.000000  2.000000
                       2.000000  2.000000  2.000000  2.000000  2.000000  2.000000
                       2.000000  2.000000  2.000000  2.000000  2.000000  2.000000
                       2.000000  2.000000  2.000000  2.000000  2.000000  2.000000
                       0.000000  0.000000  0.000000  0.000000  0.000000  0.000000
                       0.000000  0.000000  0.000000
        optdriver           1
            prtwf          -1
            rfdir           1       1       1
           rfelfd           2
            rprim      8.9304902678E+00  0.0000000000E+00 -7.2357018458E+00
                      -2.0303468010E+00  8.6966285589E+00 -7.2357018458E+00
                       0.0000000000E+00  0.0000000000E+00  1.1493869567E+01
          spgroup         122
           symrel      1  0  0   0  1  0   0  0  1       0  0  1  -1 -1 -1   1  0  0
                       0  1  0   1  0  0  -1 -1 -1      -1 -1 -1   0  0  1   0  1  0
                       0  1  0   1  0  0   0  0  1       0  0  1  -1 -1 -1   0  1  0
                       1  0  0   0  1  0  -1 -1 -1      -1 -1 -1   0  0  1   1  0  0
            tnons      0.0000000  0.0000000  0.0000000    -0.2500000  0.2500000  0.5000000
                       0.0000000  0.0000000  0.0000000    -0.2500000  0.2500000  0.5000000
                      -0.2500000  0.2500000  0.5000000     0.0000000  0.0000000  0.0000000
                      -0.2500000  0.2500000  0.5000000     0.0000000  0.0000000  0.0000000
           tolwfr      1.00000000E-20
            typat      1  1  2  2  3  3  3  3
           useylm           1
           xangst      0.0000000000E+00  0.0000000000E+00  0.0000000000E+00
                       3.2757556203E+00  1.1505144062E+00 -7.8782159824E-01
                       1.8256993293E+00  2.3010288125E+00 -3.8289685049E+00
                       3.7564303835E-01  3.4515432187E+00 -7.8782159824E-01
                       3.2427701743E+00  3.8220732863E+00 -3.7597894066E+00
                       1.3214781490E+00  1.9304987449E+00  2.6966195767E-01
                       1.2945067470E-01  2.8762860156E+00 -2.7714849490E+00
                       2.6090983193E+00  5.7525720312E-01  3.1103260050E+00
            xcart      0.0000000000E+00  0.0000000000E+00  0.0000000000E+00
                       6.1902810006E+00  2.1741571397E+00 -1.4887670622E+00
                       3.4500717334E+00  4.3483142795E+00 -7.2357018458E+00
                       7.0986246620E-01  6.5224714192E+00 -1.4887670622E+00
                       6.1279475412E+00  7.2226717710E+00 -7.1049722958E+00
                       2.4972317923E+00  3.6481139277E+00  5.0958724845E-01
                       2.4462632290E-01  5.4353928493E+00 -5.2373475351E+00
                       4.9304812772E+00  1.0870785699E+00  5.8776643335E+00
             xred      0.0000000000E+00  0.0000000000E+00  0.0000000000E+00
                       7.5000000000E-01  2.5000000000E-01  5.0000000000E-01
                       5.0000000000E-01  5.0000000000E-01 -5.5511151231E-17
                       2.5000000000E-01  7.5000000000E-01  5.0000000000E-01
                       8.7500000000E-01  8.3051400000E-01  4.5551400000E-01
                       3.7500000000E-01  4.1948600000E-01  5.4448600000E-01
                       1.6948600000E-01  6.2500000000E-01  4.4486000000E-02
                       5.8051400000E-01  1.2500000000E-01  9.5551400000E-01
            znucl       29.00000    5.00000   34.00000

 chkinp: Checking input parameters for consistency.

== DATASET  1 ==================================================================
-   mpi_nproc: 1, omp_nthreads: -1 (-1 if OMP is not activated)

--- !DatasetInfo
iteration_state: {dtset: 1, }
dimensions: {natom: 8, nkpt: 1, mband: 63, nsppol: 1, nspinor: 1, nspden: 1, mpw: 13287, }
cutoff_energies: {ecut:  46.0, pawecutdg:  -1.0, }
electrons: {nelect:   1.08000000E+02, charge:   0.00000000E+00, occopt:   1.00000000E+00, tsmear:   1.00000000E-02, }
meta: {optdriver: 1, rfelfd: 2, }
...

 Real(R)+Recip(G) space primitive vectors, cartesian coordinates (Bohr,Bohr^-1):
 R(1)=  8.9304903  0.0000000 -7.2357018  G(1)=  0.1119759  0.0261423  0.0000000
 R(2)= -2.0303468  8.6966286 -7.2357018  G(2)=  0.0000000  0.1149871  0.0000000
 R(3)=  0.0000000  0.0000000 11.4938696  G(3)=  0.0704919  0.0888448  0.0870029
 Unit cell volume ucvol=  8.9267318E+02 bohr^3
 Angles (23,13,12)=  1.29015238E+02  1.29015238E+02  7.49860564E+01 degrees

 getcut: wavevector=  0.0000  0.0000  0.0000  ngfft=  72  72  72
         ecut(hartree)=     46.000   => boxcut(ratio)=   2.05212

--- Pseudopotential description ------------------------------------------------
- pspini: atom type   1  psp file is /scratch/users/j/a/jabreu/pseudos/PBEsol/Cu.psp8
- pspatm: opening atomic psp file    /scratch/users/j/a/jabreu/pseudos/PBEsol/Cu.psp8
- Cu    ONCVPSP-3.3.0  r_core=   1.26204   1.45626   1.76249
- 29.00000  19.00000    180112                znucl, zion, pspdat
    8 -116133    2    4       600   0.00000   pspcod,pspxc,lmax,lloc,mmax,r2well
    5.99000000000000    3.50000000000000    0.00000000000000   rchrg,fchrg,qchrg
     nproj     2     2     2
     extension_switch     1
  pspatm : epsatm=   21.63488701
         --- l  ekb(1:nproj) -->
             0    5.008230   -0.401634
             1   -3.496700   -0.765945
             2   -6.895851   -2.521180
 pspatm: atomic psp has been read  and splines computed

- pspini: atom type   2  psp file is /scratch/users/j/a/jabreu/pseudos/PBEsol/B.psp8
- pspatm: opening atomic psp file    /scratch/users/j/a/jabreu/pseudos/PBEsol/B.psp8
- B     ONCVPSP-3.3.0  r_core=   1.20849   1.20849
-  5.00000   3.00000    180112                znucl, zion, pspdat
    8 -116133    1    4       600   0.00000   pspcod,pspxc,lmax,lloc,mmax,r2well
    5.99000000000000    2.90000000000000    0.00000000000000   rchrg,fchrg,qchrg
     nproj     2     2
     extension_switch     1
  pspatm : epsatm=    3.20154566
         --- l  ekb(1:nproj) -->
             0    8.466603    1.247630
             1   -3.609180   -0.822621
 pspatm: atomic psp has been read  and splines computed

- pspini: atom type   3  psp file is /scratch/users/j/a/jabreu/pseudos/PBEsol/Se.psp8
- pspatm: opening atomic psp file    /scratch/users/j/a/jabreu/pseudos/PBEsol/Se.psp8
- Se    ONCVPSP-3.3.0  r_core=   1.81943   1.50330   1.90835
- 34.00000  16.00000    180112                znucl, zion, pspdat
    8 -116133    2    4       600   0.00000   pspcod,pspxc,lmax,lloc,mmax,r2well
    5.99000000000000    5.00000000000000    0.00000000000000   rchrg,fchrg,qchrg
     nproj     2     2     2
     extension_switch     1
  pspatm : epsatm=   29.17862020
         --- l  ekb(1:nproj) -->
             0    8.973804    1.019550
             1    6.849857    1.297308
             2   -9.203962   -3.731027
 pspatm: atomic psp has been read  and splines computed

   1.79698334E+04                                ecore*ucvol(ha*bohr**3)

-inwffil : will read wavefunctions from disk file /scratch/users/j/a/jabreu/flow_simple_8atoms/flow/w264/t1/indata/in_WFK

 ==>  initialize data related to q vector <==

 The list of irreducible perturbations for this q vector is:
    1)    idir= 1    ipert=   9
    2)    idir= 2    ipert=   9
    3)    idir= 3    ipert=   9

 Perturbation wavevector (in red.coord.)   0.000000  0.000000  0.000000
 Perturbation : derivative vs k along direction   1

 dfpt_looppert : COMMENT -
  In a d/dk calculation, iscf is set to -3 automatically.
 The set of symmetries contains only one element for this perturbation.
 symkpt : not enough symmetry to change the number of k points.

[...]

 Initialisation of the first-order wave-functions :
  ireadwf=   0

--- !BeginCycle
iteration_state: {dtset: 1, }
solver: {iscf: 7, nstep: 2000, nline: 4, wfoptalg: 0, }
tolerances: {tolwfr: 1.00E-20, }
...

     iter   2DEtotal(Ha)        deltaE(Ha) residm    vres2
-ETOT  1  -120.64284566237     -1.206E+02 1.091E-01 0.000E+00
 ETOT  2  -120.90967686001     -2.668E-01 5.196E-03 0.000E+00
 ETOT  3  -120.91963866713     -9.962E-03 9.954E-05 0.000E+00
 ETOT  4  -120.92035317668     -7.145E-04 1.860E-05 0.000E+00
 ETOT  5  -120.92041091343     -5.774E-05 6.450E-07 0.000E+00
 ETOT  6  -120.92041575140     -4.838E-06 1.051E-07 0.000E+00
 ETOT  7  -120.92041616648     -4.151E-07 4.936E-09 0.000E+00
 ETOT  8  -120.92041620287     -3.639E-08 7.445E-10 0.000E+00
 ETOT  9  -120.92041620610     -3.229E-09 4.048E-11 0.000E+00
 ETOT 10  -120.92041620639     -2.889E-10 5.854E-12 0.000E+00
 ETOT 11  -120.92041620642     -2.618E-11 3.676E-13 0.000E+00
 ETOT 12  -120.92041620642     -2.316E-12 5.184E-14 0.000E+00
 ETOT 13  -120.92041620642     -1.847E-13 3.367E-15 0.000E+00
 ETOT 14  -120.92041620642     -1.705E-13 4.763E-16 0.000E+00
 ETOT 15  -120.92041620642      1.279E-13 3.095E-17 0.000E+00
 ETOT 16  -120.92041620642     -2.842E-14 4.390E-18 0.000E+00
 ETOT 17  -120.92041620642      1.421E-14 2.854E-19 0.000E+00
 ETOT 18  -120.92041620642     -2.842E-14 4.055E-20 0.000E+00
 ETOT 19  -120.92041620642     -1.421E-14 9.839E-21 0.000E+00

 At SCF step   19   max residual=  9.84E-21 < tolwfr=  1.00E-20 =>converged.

 ----iterations are completed or convergence reached----

 dfpt_looppert: DFPT cycle converged with prtwf=-1. Will skip output of the 1st-order WFK file.
 dfpt_looppert : ek2=    1.1274872649E+02
          f-sum rule ratio=    1.1585202666E+00
 prteigrs : about to open file /scratch/users/j/a/jabreu/flow_simple_8atoms/flow/w264/t1/tmpdata/tmp_1WF1_EIG
 Expectation of eigenvalue derivatives (hartree) for nkpt=   1  k points:
  (in case of degenerate eigenvalues, averaged derivative)
 kpt#   1, nband= 63, wtk=  1.00000, kpt=  0.0000  0.0000  0.0000 (reduced coord)
   0.00000    0.00000    0.00000   -0.00000   -0.00000   -0.00000    0.00000    0.00000
  -0.00000   -0.00000    0.00000    0.00000   -0.00000   -0.00000   -0.00000   -0.00000
  -0.00000   -0.00000   -0.00000   -0.00000   -0.00000    0.00000    0.00000    0.00000
  -0.00000   -0.00000    0.00000    0.00000   -0.00000    0.00000    0.00000   -0.00000
   0.00000   -0.00000   -0.00000    0.00000    0.00000    0.00000    0.00000   -0.00000
  -0.00000    0.00000    0.00000    0.00000    0.00000   -0.00000    0.00000    0.00000
   0.00000    0.00000    0.00000    0.00000    0.00000   -0.00000    0.00000   -0.00000
   0.00000   -0.00000   -0.00000   -0.00000    0.00000    0.00004   -0.00109

 Eight components of 2nd-order total energy (hartree) are
 1,2,3: 0th-order hamiltonian combined with 1st-order wavefunctions
     kin0=   1.30865200E+02 eigvalue=   1.37883827E+01  local=  -5.09646430E+01
 4,5,6: 1st-order hamiltonian combined with 1st and 0th-order wfs
     kin1=  -1.30621685E+02  Hartree=   0.00000000E+00     xc=   0.00000000E+00
 7,8,9: eventually, occupation + non-local contributions
    edocc=   2.04303301E+01     enl0=   6.80114689E+00   enl1=  -1.11219148E+02
 1-9 gives the relaxation energy (to be shifted if some occ is /=2.0)
   erelax=  -1.20920416E+02
  No Ewald or frozen-wf contrib.: the relaxation energy is the total one
 2DEtotal=   -0.1209204162E+03 Ha. Also 2DEtotal=   -0.329041186190E+04 eV
    (  non-var. 2DEtotal :   -1.2092041621E+02 Ha)

 Perturbation wavevector (in red.coord.)   0.000000  0.000000  0.000000
 Perturbation : derivative vs k along direction   2
 The set of symmetries contains only one element for this perturbation.
 symkpt : not enough symmetry to change the number of k points.

[...]

 Perturbation wavevector (in red.coord.)   0.000000  0.000000  0.000000
 Perturbation : derivative vs k along direction   3
 The set of symmetries contains only one element for this perturbation.
 symkpt : not enough symmetry to change the number of k points.

-inwffil : will read wavefunctions from disk file /scratch/users/j/a/jabreu/flow_simple_8atoms/flow/w264/t1/indata/in_WFK

 Initialisation of the first-order wave-functions :
  ireadwf=   0

--- !BeginCycle
iteration_state: {dtset: 1, }
solver: {iscf: 7, nstep: 2000, nline: 4, wfoptalg: 0, }
tolerances: {tolwfr: 1.00E-20, }
...

     iter   2DEtotal(Ha)        deltaE(Ha) residm    vres2
-ETOT  1  -187.20293708189     -1.872E+02 1.585E-01 0.000E+00
 ETOT  2  -187.58303075740     -3.801E-01 5.567E-03 0.000E+00
 ETOT  3  -187.59748213181     -1.445E-02 3.969E-04 0.000E+00
 ETOT  4  -187.59848429674     -1.002E-03 2.554E-05 0.000E+00
 ETOT  5  -187.59856323037     -7.893E-05 2.343E-06 0.000E+00
 ETOT  6  -187.59856982637     -6.596E-06 1.674E-07 0.000E+00
 ETOT  7  -187.59857040176     -5.754E-07 1.949E-08 0.000E+00
 ETOT  8  -187.59857045381     -5.206E-08 1.301E-09 0.000E+00
 ETOT  9  -187.59857045859     -4.776E-09 1.821E-10 0.000E+00
 ETOT 10  -187.59857045903     -4.421E-10 1.223E-11 0.000E+00
 ETOT 11  -187.59857045907     -4.101E-11 1.720E-12 0.000E+00
 ETOT 12  -187.59857045908     -4.007E-12 1.155E-13 0.000E+00
 ETOT 13  -187.59857045908     -3.411E-13 1.633E-14 0.000E+00
 ETOT 14  -187.59857045908     -8.527E-14 1.095E-15 0.000E+00
 ETOT 15  -187.59857045908     -2.842E-14 1.554E-16 0.000E+00
 ETOT 16  -187.59857045908     -1.705E-13 1.040E-17 0.000E+00
 ETOT 17  -187.59857045908      1.421E-13 1.482E-18 0.000E+00
 ETOT 18  -187.59857045908     -2.842E-14 9.899E-20 0.000E+00
 ETOT 19  -187.59857045908     -2.842E-14 1.414E-20 0.000E+00
 ETOT 20  -187.59857045908      2.842E-14 9.911E-21 0.000E+00

 At SCF step   20   max residual=  9.91E-21 < tolwfr=  1.00E-20 =>converged.

 ----iterations are completed or convergence reached----

 dfpt_looppert: DFPT cycle converged with prtwf=-1. Will skip output of the 1st-order WFK file.
 dfpt_looppert : ek2=    1.7423061113E+02
          f-sum rule ratio=    1.1685343663E+00
 prteigrs : about to open file /scratch/users/j/a/jabreu/flow_simple_8atoms/flow/w264/t1/tmpdata/tmp_1WF1_EIG
 Expectation of eigenvalue derivatives (hartree) for nkpt=   1  k points:
  (in case of degenerate eigenvalues, averaged derivative)
 kpt#   1, nband= 63, wtk=  1.00000, kpt=  0.0000  0.0000  0.0000 (reduced coord)
  -0.00000    0.00000    0.00000    0.00000   -0.00000   -0.00000    0.00000    0.00000
   0.00000    0.00000    0.00000    0.00000   -0.00000    0.00000   -0.00000   -0.00000
   0.00000    0.00000   -0.00000   -0.00000    0.00000    0.00000    0.00000    0.00000
   0.00000    0.00000    0.00000    0.00000   -0.00000    0.00000    0.00000    0.00000
   0.00000    0.00000   -0.00000    0.00000    0.00000   -0.00000    0.00000   -0.00000
  -0.00000    0.00000    0.00000    0.00000    0.00000    0.00000    0.00000    0.00000
   0.00000    0.00000    0.00000    0.00000    0.00000   -0.00000    0.00000   -0.00000
  -0.00000    0.00000    0.00000   -0.00000    0.00000    0.00035    0.00407

 Eight components of 2nd-order total energy (hartree) are
 1,2,3: 0th-order hamiltonian combined with 1st-order wavefunctions
     kin0=   2.02427046E+02 eigvalue=   2.11287907E+01  local=  -7.87141464E+01
 4,5,6: 1st-order hamiltonian combined with 1st and 0th-order wfs
     kin1=  -2.03594457E+02  Hartree=   0.00000000E+00     xc=   0.00000000E+00
 7,8,9: eventually, occupation + non-local contributions
    edocc=   3.25917445E+01     enl0=   1.01651354E+01   enl1=  -1.71602684E+02
 1-9 gives the relaxation energy (to be shifted if some occ is /=2.0)
   erelax=  -1.87598570E+02
  No Ewald or frozen-wf contrib.: the relaxation energy is the total one
 2DEtotal=   -0.1875985705E+03 Ha. Also 2DEtotal=   -0.510481671235E+04 eV
    (  non-var. 2DEtotal :   -1.8759857046E+02 Ha)

 CALCULATION OF EFFECTIVE MASSES
 NOTE : Additional infos (eff. mass eigenvalues, eigenvectors and, if degenerate, average mass) are available in stdout.

 K-point ( 0.000, 0.000, 0.000) | band =    54
 Effective mass tensor:
             -0.4590278278              0.0562153248             -0.0935355145
              0.0562153248             -0.4327768977             -0.1178859352
             -0.0935355145             -0.1178859352             -0.3074517738
 Effective mass tensor eigenvalues:
             -0.5036299005             -0.5036176989             -0.1920089000
 Angular average effective mass 1/(<1/m>)=  -0.3268219465
 Angular average effective mass for Frohlich model (<m**0.5>)**2=  -0.3502957448
 Effective masses along directions: (cart. coord. / red. coord. -> eff. mass)
    1:   1.000000  0.000000  0.000000 /   0.975117 -0.221693  0.000000 ->  -0.4086955997
    2:   0.000000  1.000000  0.000000 /   0.000000  1.000000  0.000000 ->  -0.3678844096
    3:   0.000000  0.000000  1.000000 /  -0.470188 -0.470188  0.746891 ->  -0.2491121533
    4:   0.577350  0.577350  0.577350 /   0.145699 -0.048953  0.988117 ->  -0.5025832840
    5:   0.000000  0.707107  0.707107 /  -0.529696  0.106948  0.841418 ->  -0.4657344674
    6:   0.707107  0.000000  0.707107 /   0.114045 -0.623526  0.773440 ->  -0.4418417529
    7:   0.707107  0.707107  0.000000 /   0.801358  0.598185  0.000000 ->  -0.3160721021

 K-point ( 0.000, 0.000, 0.000) | band =    55
 Effective mass tensor:
              0.4126389222              0.0934586871             -0.1555157300
              0.0934586871              0.4562798355             -0.1960073546
             -0.1555157300             -0.1960073546              0.6646469654
 Effective mass tensor eigenvalues:
              0.3384871980              0.3384881707              0.8565903544
 Angular average effective mass 1/(<1/m>)=   0.4239651298
 Angular average effective mass for Frohlich model (<m**0.5>)**2=   0.4443038281
 Effective masses along directions: (cart. coord. / red. coord. -> eff. mass)
    1:   1.000000  0.000000  0.000000 /   0.975117 -0.221693  0.000000 ->   0.3705657702
    2:   0.000000  1.000000  0.000000 /   0.000000  1.000000  0.000000 ->   0.3924553641
    3:   0.000000  0.000000  1.000000 /  -0.470188 -0.470188  0.746891 ->   0.5466222649
    4:   0.577350  0.577350  0.577350 /   0.145699 -0.048953  0.988117 ->   0.3387481593
    5:   0.000000  0.707107  0.707107 /  -0.529696  0.106948  0.841418 ->   0.3490702887
    6:   0.707107  0.000000  0.707107 /   0.114045 -0.623526  0.773440 ->   0.3570971575
    7:   0.707107  0.707107  0.000000 /   0.801358  0.598185  0.000000 ->   0.4345966241

 END OF EFFECTIVE MASSES SECTION

 ---- first-order wavefunction calculations are completed ----

 Total localisation tensor (bohr^2) in cartesian coordinates
  WARNING : still subject to testing - especially symmetries.
      direction              matrix element
   alpha     beta       real part   imaginary part
     1        1       1.7822970206    0.0000000000
     1        2      -0.3751973569    0.0000000000
     1        3      -1.0609202931    0.0000000000
     2        1      -0.3751973569    0.0000000000
     2        2       1.6070909893    0.0000000000
     2        3      -1.3371194548    0.0000000000
     3        1      -1.0609202931    0.0000000000
     3        2      -1.3371194548    0.0000000000
     3        3       6.5528455730    0.0000000000

 respfn : d/dk was computed, but no 2DTE, so no DDB output.

== END DATASET(S) ==============================================================

 -outvars: echo values of variables after computation  --------
            acell      1.0000000000E+00  1.0000000000E+00  1.0000000000E+00 Bohr
              amu      6.35460000E+01  1.08110000E+01  7.89600000E+01
             ecut      4.60000000E+01 Hartree
           etotal     -1.8759857046E+02
            fcart      0.0000000000E+00  0.0000000000E+00  0.0000000000E+00
                       0.0000000000E+00  0.0000000000E+00  0.0000000000E+00
                       0.0000000000E+00  0.0000000000E+00  0.0000000000E+00
                       0.0000000000E+00  0.0000000000E+00  0.0000000000E+00
                       0.0000000000E+00  0.0000000000E+00  0.0000000000E+00
                       0.0000000000E+00  0.0000000000E+00  0.0000000000E+00
                       0.0000000000E+00  0.0000000000E+00  0.0000000000E+00
                       0.0000000000E+00  0.0000000000E+00  0.0000000000E+00
-          fftalg         512
           irdden           1
           irdwfk           1
           istwfk        1
              ixc     -116133
           kptopt           0
P           mkmem           1
P          mkqmem           1
P          mk1mem           1
            natom           8
            nband          63
           nbdbuf           4
            ngfft          72      72      72
             nkpt           1
            nstep        2000
             nsym           8
           ntypat           3
              occ      2.000000  2.000000  2.000000  2.000000  2.000000  2.000000
                       2.000000  2.000000  2.000000  2.000000  2.000000  2.000000
                       2.000000  2.000000  2.000000  2.000000  2.000000  2.000000
                       2.000000  2.000000  2.000000  2.000000  2.000000  2.000000
                       2.000000  2.000000  2.000000  2.000000  2.000000  2.000000
                       2.000000  2.000000  2.000000  2.000000  2.000000  2.000000
                       2.000000  2.000000  2.000000  2.000000  2.000000  2.000000
                       2.000000  2.000000  2.000000  2.000000  2.000000  2.000000
                       2.000000  2.000000  2.000000  2.000000  2.000000  2.000000
                       0.000000  0.000000  0.000000  0.000000  0.000000  0.000000
                       0.000000  0.000000  0.000000
        optdriver           1
            prtwf          -1
            rfdir           1       1       1
           rfelfd           2
            rprim      8.9304902678E+00  0.0000000000E+00 -7.2357018458E+00
                      -2.0303468010E+00  8.6966285589E+00 -7.2357018458E+00
                       0.0000000000E+00  0.0000000000E+00  1.1493869567E+01
          spgroup         122
           strten      0.0000000000E+00  0.0000000000E+00  0.0000000000E+00
                       0.0000000000E+00  0.0000000000E+00  0.0000000000E+00
           symrel      1  0  0   0  1  0   0  0  1       0  0  1  -1 -1 -1   1  0  0
                       0  1  0   1  0  0  -1 -1 -1      -1 -1 -1   0  0  1   0  1  0
                       0  1  0   1  0  0   0  0  1       0  0  1  -1 -1 -1   0  1  0
                       1  0  0   0  1  0  -1 -1 -1      -1 -1 -1   0  0  1   1  0  0
            tnons      0.0000000  0.0000000  0.0000000    -0.2500000  0.2500000  0.5000000
                       0.0000000  0.0000000  0.0000000    -0.2500000  0.2500000  0.5000000
                      -0.2500000  0.2500000  0.5000000     0.0000000  0.0000000  0.0000000
                      -0.2500000  0.2500000  0.5000000     0.0000000  0.0000000  0.0000000
           tolwfr      1.00000000E-20
            typat      1  1  2  2  3  3  3  3
           useylm           1
           xangst      0.0000000000E+00  0.0000000000E+00  0.0000000000E+00
                       3.2757556203E+00  1.1505144062E+00 -7.8782159824E-01
                       1.8256993293E+00  2.3010288125E+00 -3.8289685049E+00
                       3.7564303835E-01  3.4515432187E+00 -7.8782159824E-01
                       3.2427701743E+00  3.8220732863E+00 -3.7597894066E+00
                       1.3214781490E+00  1.9304987449E+00  2.6966195767E-01
                       1.2945067470E-01  2.8762860156E+00 -2.7714849490E+00
                       2.6090983193E+00  5.7525720312E-01  3.1103260050E+00
            xcart      0.0000000000E+00  0.0000000000E+00  0.0000000000E+00
                       6.1902810006E+00  2.1741571397E+00 -1.4887670622E+00
                       3.4500717334E+00  4.3483142795E+00 -7.2357018458E+00
                       7.0986246620E-01  6.5224714192E+00 -1.4887670622E+00
                       6.1279475412E+00  7.2226717710E+00 -7.1049722958E+00
                       2.4972317923E+00  3.6481139277E+00  5.0958724845E-01
                       2.4462632290E-01  5.4353928493E+00 -5.2373475351E+00
                       4.9304812772E+00  1.0870785699E+00  5.8776643335E+00
             xred      0.0000000000E+00  0.0000000000E+00  0.0000000000E+00
                       7.5000000000E-01  2.5000000000E-01  5.0000000000E-01
                       5.0000000000E-01  5.0000000000E-01 -5.5511151231E-17
                       2.5000000000E-01  7.5000000000E-01  5.0000000000E-01
                       8.7500000000E-01  8.3051400000E-01  4.5551400000E-01
                       3.7500000000E-01  4.1948600000E-01  5.4448600000E-01
                       1.6948600000E-01  6.2500000000E-01  4.4486000000E-02
                       5.8051400000E-01  1.2500000000E-01  9.5551400000E-01
            znucl       29.00000    5.00000   34.00000

- Timing analysis has been suppressed with timopt=0

 Suggested references for the acknowledgment of ABINIT usage.

 Calculation completed.
.Delivered   6 WARNINGs and   5 COMMENTs to log file.