.Version 9.5.2 of ABINIT

 ABINIT is a project of the Universite Catholique de Louvain,
 Corning Inc. and other collaborators, see ~abinit/doc/developers/contributors.txt .
 acknowledgments of the ABINIT effort.

.Starting date : Mon 31 May 2021.
- ( at 22h20 )

- input  file    -> /scratch/users/j/a/jabreu/flow_simple_11atoms/flow/w357/t1/run.abi
- output file    -> /scratch/users/j/a/jabreu/flow_simple_11atoms/flow/w357/t1/run.abo
- root for input  files -> /scratch/users/j/a/jabreu/flow_simple_11atoms/flow/w357/t1/indata/in
- root for output files -> /scratch/users/j/a/jabreu/flow_simple_11atoms/flow/w357/t1/outdata/out

 Symmetries : space group Cm c m (# 63); Bravais oC (1-face-center ortho.)
     intxc =       0      iscf =       7    lmnmax =      32     lnmax =       8
     mgfft =     120  mpssoang =       4    mqgrid =    5555     natom =      12
  nloc_mem =       1    nspden =       1   nspinor =       1    nsppol =       1
      nsym =       8    n1xccc =    2501    ntypat =       4    occopt =       1
   xclevel =       2
-    mband =          67        mffmem =           1         mkmem =           2
-   mkqmem =           2        mk1mem =           2           mpw =       24998
      nfft =      972000          nkpt =           2
  Rough estimation (10% accuracy) of disk space for files :

------------- Echo of variables that govern the present computation ------------
-
- outvars: echo of selected default values
-   iomode0 =  0 , fftalg0 =512 , wfoptalg0 =  0
-
- outvars: echo of global parameters not present in the input file
-  max_nthreads =    0
-
 -outvars: echo values of preprocessed input variables --------
            acell      1.0000000000E+00  1.0000000000E+00  1.0000000000E+00 Bohr
              amu      3.90983000E+01  1.78490000E+02  6.35460000E+01
                       3.20660000E+01
             ecut      4.60000000E+01 Hartree
-          fftalg         512
           irdden           1
           irdwfk           1
           istwfk        1    0
              ixc     -116133
              kpt      0.00000000E+00  0.00000000E+00  0.00000000E+00
                      -5.00000000E-01  5.00000000E-01  0.00000000E+00
           kptopt           0
P           mkmem           2
P          mkqmem           2
P          mk1mem           2
            natom          12
            nband          67
           nbdbuf           4
            ngfft          90      90     120
             nkpt           2
            nstep        2000
             nsym           8
           ntypat           4
              occ      2.000000  2.000000  2.000000  2.000000  2.000000  2.000000
                       2.000000  2.000000  2.000000  2.000000  2.000000  2.000000
                       2.000000  2.000000  2.000000  2.000000  2.000000  2.000000
                       2.000000  2.000000  2.000000  2.000000  2.000000  2.000000
                       2.000000  2.000000  2.000000  2.000000  2.000000  2.000000
                       2.000000  2.000000  2.000000  2.000000  2.000000  2.000000
                       2.000000  2.000000  2.000000  2.000000  2.000000  2.000000
                       2.000000  2.000000  2.000000  2.000000  2.000000  2.000000
                       2.000000  2.000000  2.000000  2.000000  2.000000  2.000000
                       2.000000  2.000000  2.000000  2.000000  0.000000  0.000000
                       0.000000  0.000000  0.000000  0.000000  0.000000  0.000000
                       0.000000
        optdriver           1
            prtwf          -1
            rfdir           1       1       1
           rfelfd           2
            rprim      1.3668150236E+01  0.0000000000E+00  0.0000000000E+00
                      -1.1895025286E+01  6.7325109955E+00  0.0000000000E+00
                       0.0000000000E+00  0.0000000000E+00  1.8193593038E+01
          spgroup          63
           symrel      1  0  0   0  1  0   0  0  1      -1  0  0   0 -1  0   0  0 -1
                       0  1  0   1  0  0   0  0 -1       0 -1  0  -1  0  0   0  0  1
                      -1  0  0   0 -1  0   0  0  1       1  0  0   0  1  0   0  0 -1
                       0 -1  0  -1  0  0   0  0 -1       0  1  0   1  0  0   0  0  1
            tnons      0.0000000  0.0000000  0.0000000     0.0000000  0.0000000  0.0000000
                       0.0000000  0.0000000  0.0000000     0.0000000  0.0000000  0.0000000
                       0.0000000  0.0000000  0.5000000     0.0000000  0.0000000  0.5000000
                       0.0000000  0.0000000  0.5000000     0.0000000  0.0000000  0.5000000
           tolwfr      1.00000000E-20
            typat      1  1  2  2  3  3  4  4  4  4  4  4
           useylm           1
              wtk        0.50000    0.50000
           xangst      3.7924913739E+00  9.0608504674E-01  7.2207260834E+00
                      -2.8541940627E+00  2.6566063287E+00  2.4069086945E+00
                       0.0000000000E+00  0.0000000000E+00  0.0000000000E+00
                       0.0000000000E+00  0.0000000000E+00  4.8138173890E+00
                       1.1379752124E-02  1.9019071638E+00  7.2207260834E+00
                       9.2691755903E-01  1.6607842116E+00  2.4069086945E+00
                       2.1106235321E+00  1.3490344654E+00  4.3094159753E+00
                      -1.1723262209E+00  2.2136569100E+00  5.3182188026E+00
                      -1.1723262209E+00  2.2136569100E+00  9.1232333643E+00
                       6.3609753347E+00  2.2962970991E-01  2.4069086945E+00
                      -5.4226780236E+00  3.3330616655E+00  7.2207260834E+00
                       2.1106235321E+00  1.3490344654E+00  5.0440141365E-01
            xcart      7.1667700579E+00  1.7122525914E+00  1.3645194778E+01
                      -5.3936451086E+00  5.0202584041E+00  4.5483982594E+00
                       0.0000000000E+00  0.0000000000E+00  0.0000000000E+00
                       0.0000000000E+00  0.0000000000E+00  9.0967965189E+00
                       2.1504614975E-02  3.5940836698E+00  1.3645194778E+01
                       1.7516203343E+00  3.1384273257E+00  4.5483982594E+00
                       3.9885004452E+00  2.5493056835E+00  8.1436159860E+00
                      -2.2153754959E+00  4.1832053120E+00  1.0049977052E+01
                      -2.2153754959E+00  4.1832053120E+00  1.7240412505E+01
                       1.2020501321E+01  4.3393726370E-01  4.5483982594E+00
                      -1.0247376371E+01  6.2985737318E+00  1.3645194778E+01
                       3.9885004452E+00  2.5493056835E+00  9.5318053284E-01
             xred      7.4567400000E-01  2.5432600000E-01  7.5000000000E-01
                       2.5432600000E-01  7.4567400000E-01  2.5000000000E-01
                       0.0000000000E+00  0.0000000000E+00  0.0000000000E+00
                       0.0000000000E+00  0.0000000000E+00  5.0000000000E-01
                       4.6616000000E-01  5.3384000000E-01  7.5000000000E-01
                       5.3384000000E-01  4.6616000000E-01  2.5000000000E-01
                       6.2134400000E-01  3.7865600000E-01  4.4760900000E-01
                       3.7865600000E-01  6.2134400000E-01  5.5239100000E-01
                       3.7865600000E-01  6.2134400000E-01  9.4760900000E-01
                       9.3554600000E-01  6.4454000000E-02  2.5000000000E-01
                       6.4454000000E-02  9.3554600000E-01  7.5000000000E-01
                       6.2134400000E-01  3.7865600000E-01  5.2391000000E-02
            znucl       19.00000   72.00000   29.00000   16.00000

 chkinp: Checking input parameters for consistency.

== DATASET  1 ==================================================================
-   mpi_nproc: 1, omp_nthreads: -1 (-1 if OMP is not activated)

--- !DatasetInfo
iteration_state: {dtset: 1, }
dimensions: {natom: 12, nkpt: 2, mband: 67, nsppol: 1, nspinor: 1, nspden: 1, mpw: 24998, }
cutoff_energies: {ecut:  46.0, pawecutdg:  -1.0, }
electrons: {nelect:   1.16000000E+02, charge:   0.00000000E+00, occopt:   1.00000000E+00, tsmear:   1.00000000E-02, }
meta: {optdriver: 1, rfelfd: 2, }
...

 Real(R)+Recip(G) space primitive vectors, cartesian coordinates (Bohr,Bohr^-1):
 R(1)= 13.6681502  0.0000000  0.0000000  G(1)=  0.0731628  0.1292643  0.0000000
 R(2)=-11.8950253  6.7325110  0.0000000  G(2)=  0.0000000  0.1485330  0.0000000
 R(3)=  0.0000000  0.0000000 18.1935930  G(3)=  0.0000000  0.0000000  0.0549644
 Unit cell volume ucvol=  1.6741921E+03 bohr^3
 Angles (23,13,12)=  9.00000000E+01  9.00000000E+01  1.50490406E+02 degrees

 getcut: wavevector=  0.0000  0.0000  0.0000  ngfft=  90  90 120
         ecut(hartree)=     46.000   => boxcut(ratio)=   2.15675

--- Pseudopotential description ------------------------------------------------
- pspini: atom type   1  psp file is /scratch/users/j/a/jabreu/pseudos/PBEsol/K.psp8
- pspatm: opening atomic psp file    /scratch/users/j/a/jabreu/pseudos/PBEsol/K.psp8
- K     ONCVPSP-3.3.0  r_core=   1.36296   1.46408   1.61068
- 19.00000   9.00000    180112                znucl, zion, pspdat
    8 -116133    2    4       400   0.00000   pspcod,pspxc,lmax,lloc,mmax,r2well
    3.99000000000000    5.00000000000000    0.00000000000000   rchrg,fchrg,qchrg
     nproj     2     2     2
     extension_switch     1
  pspatm : epsatm=    8.32487830
         --- l  ekb(1:nproj) -->
             0   10.921326    0.816676
             1    4.431000    0.560368
             2   -3.384038   -1.043186
 pspatm: atomic psp has been read  and splines computed

- pspini: atom type   2  psp file is /scratch/users/j/a/jabreu/pseudos/PBEsol/Hf.psp8
- pspatm: opening atomic psp file    /scratch/users/j/a/jabreu/pseudos/PBEsol/Hf.psp8
- Hf    ONCVPSP-3.3.0  r_core=   1.71613   1.71613   1.71613   2.42541
- 72.00000  12.00000    180112                znucl, zion, pspdat
    8 -116133    3    4       600   0.00000   pspcod,pspxc,lmax,lloc,mmax,r2well
    5.99000000000000    5.40000000000000    0.00000000000000   rchrg,fchrg,qchrg
     nproj     2     2     2     2
     extension_switch     1
  pspatm : epsatm=   21.99082902
         --- l  ekb(1:nproj) -->
             0    5.882750   -0.519107
             1    2.555685   -1.768609
             2    1.383259    0.138001
             3    9.464546    0.347497
 pspatm: atomic psp has been read  and splines computed

[...]

- pspini: atom type   4  psp file is /scratch/users/j/a/jabreu/pseudos/PBEsol/S.psp8
- pspatm: opening atomic psp file    /scratch/users/j/a/jabreu/pseudos/PBEsol/S.psp8
- S     ONCVPSP-3.3.0  r_core=   1.45376   1.45376   1.61851
- 16.00000   6.00000    180112                znucl, zion, pspdat
    8 -116133    2    4       600   0.00000   pspcod,pspxc,lmax,lloc,mmax,r2well
    5.99000000000000    6.00000000000000    0.00000000000000   rchrg,fchrg,qchrg
     nproj     2     2     2
     extension_switch     1
  pspatm : epsatm=    8.71840985
         --- l  ekb(1:nproj) -->
             0    6.834532    0.579453
             1    3.282851    0.896984
             2   -3.496974   -0.974265
 pspatm: atomic psp has been read  and splines computed

   1.81205511E+04                                ecore*ucvol(ha*bohr**3)

[...]
   0.00000    0.00000   -0.00000    0.00000    0.00000    0.00000   -0.00000    0.00000
   0.00000   -0.00000   -0.00000   -0.00000    0.00000   -0.00000   -0.00000   -0.00000
   0.00000    0.00000    0.00000    0.00000   -0.00000    0.00000    0.00000   -0.00000
  -0.00000    0.00000    0.00001
 prteigrs : prtvol=0 or 1, do not print more k-points.

 Eight components of 2nd-order total energy (hartree) are
 1,2,3: 0th-order hamiltonian combined with 1st-order wavefunctions
     kin0=   2.22835049E+02 eigvalue=  -8.10004814E+00  local=  -1.29477757E+02
 4,5,6: 1st-order hamiltonian combined with 1st and 0th-order wfs
     kin1=  -2.56307102E+02  Hartree=   0.00000000E+00     xc=   0.00000000E+00
 7,8,9: eventually, occupation + non-local contributions
    edocc=   3.52335527E+01     enl0=   8.70746453E+00   enl1=  -2.08941818E+00
 1-9 gives the relaxation energy (to be shifted if some occ is /=2.0)
   erelax=  -1.29198260E+02
  No Ewald or frozen-wf contrib.: the relaxation energy is the total one
 2DEtotal=   -0.1291982603E+03 Ha. Also 2DEtotal=   -0.351566345543E+04 eV
    (  non-var. 2DEtotal :   -1.2919826031E+02 Ha)

 Perturbation wavevector (in red.coord.)   0.000000  0.000000  0.000000
 Perturbation : derivative vs k along direction   2
 The set of symmetries contains only one element for this perturbation.
 symkpt : not enough symmetry to change the number of k points.

[...]

 Perturbation wavevector (in red.coord.)   0.000000  0.000000  0.000000
 Perturbation : derivative vs k along direction   3
 The set of symmetries contains only one element for this perturbation.
 symkpt : not enough symmetry to change the number of k points.

 Initialisation of the first-order wave-functions :
  ireadwf=   0

--- !BeginCycle
iteration_state: {dtset: 1, }
solver: {iscf: 7, nstep: 2000, nline: 4, wfoptalg: 0, }
tolerances: {tolwfr: 1.00E-20, }
...

     iter   2DEtotal(Ha)        deltaE(Ha) residm    vres2
-ETOT  1  -14.897959676796     -1.490E+01 7.251E-02 0.000E+00
 ETOT  2  -14.980005472485     -8.205E-02 6.032E-03 0.000E+00
 ETOT  3  -14.982789422130     -2.784E-03 4.409E-04 0.000E+00
 ETOT  4  -14.982941146077     -1.517E-04 6.534E-05 0.000E+00
 ETOT  5  -14.982951398677     -1.025E-05 5.575E-06 0.000E+00
 ETOT  6  -14.982952165376     -7.667E-07 1.417E-06 0.000E+00
 ETOT  7  -14.982952227269     -6.189E-08 1.456E-07 0.000E+00
 ETOT  8  -14.982952232525     -5.256E-09 5.306E-08 0.000E+00
 ETOT  9  -14.982952232991     -4.661E-10 6.826E-09 0.000E+00
 ETOT 10  -14.982952233034     -4.261E-11 2.688E-09 0.000E+00
 ETOT 11  -14.982952233038     -4.011E-12 3.579E-10 0.000E+00
 ETOT 12  -14.982952233038     -3.695E-13 1.421E-10 0.000E+00
 ETOT 13  -14.982952233038     -6.217E-14 1.899E-11 0.000E+00
 ETOT 14  -14.982952233038      7.105E-15 7.531E-12 0.000E+00
 ETOT 15  -14.982952233038     -1.421E-14 1.007E-12 0.000E+00
 ETOT 16  -14.982952233038      1.954E-14 3.980E-13 0.000E+00
 ETOT 17  -14.982952233038     -1.066E-14 5.325E-14 0.000E+00
 ETOT 18  -14.982952233038      1.066E-14 2.099E-14 0.000E+00
 ETOT 19  -14.982952233038     -5.329E-15 2.812E-15 0.000E+00
 ETOT 20  -14.982952233038      1.776E-15 1.105E-15 0.000E+00
 ETOT 21  -14.982952233038      7.105E-15 1.483E-16 0.000E+00
 ETOT 22  -14.982952233038     -1.243E-14 5.812E-17 0.000E+00
 ETOT 23  -14.982952233038     -3.553E-15 7.821E-18 0.000E+00
 ETOT 24  -14.982952233038      1.599E-14 3.057E-18 0.000E+00
 ETOT 25  -14.982952233038     -1.954E-14 4.124E-19 0.000E+00
 ETOT 26  -14.982952233038      1.066E-14 1.607E-19 0.000E+00
 ETOT 27  -14.982952233038     -8.882E-15 2.175E-20 0.000E+00
 ETOT 28  -14.982952233038      7.105E-15 9.995E-21 0.000E+00

 At SCF step   28   max residual=  1.00E-20 < tolwfr=  1.00E-20 =>converged.

 ----iterations are completed or convergence reached----

 dfpt_looppert: DFPT cycle converged with prtwf=-1. Will skip output of the 1st-order WFK file.
 dfpt_looppert : ek2=    2.7670102608E+01
          f-sum rule ratio=    1.0543742831E+00
 prteigrs : about to open file /scratch/users/j/a/jabreu/flow_simple_11atoms/flow/w357/t1/tmpdata/tmp_1WF1_EIG
 Expectation of eigenvalue derivatives (hartree) for nkpt=   2  k points:
  (in case of degenerate eigenvalues, averaged derivative)
 kpt#   1, nband= 67, wtk=  0.50000, kpt=  0.0000  0.0000  0.0000 (reduced coord)
  -0.00000   -0.00000    0.00000    0.00000   -0.00000   -0.00000   -0.00000    0.00000
   0.00000   -0.00000    0.00000   -0.00000    0.00000   -0.00000   -0.00000   -0.00000
   0.00000   -0.00000    0.00000   -0.00000   -0.00000   -0.00000   -0.00000   -0.00000
   0.00000    0.00000    0.00000   -0.00000    0.00000   -0.00000    0.00000    0.00000
   0.00000    0.00000    0.00000   -0.00000    0.00000    0.00000   -0.00000    0.00000
  -0.00000   -0.00000   -0.00000    0.00000    0.00000    0.00000    0.00000    0.00000
   0.00000   -0.00000   -0.00000   -0.00000    0.00000    0.00000    0.00000   -0.00000
  -0.00000   -0.00000   -0.00000    0.00000   -0.00000    0.00000    0.00000   -0.00000
  -0.00000    0.00000   -0.00000
 prteigrs : prtvol=0 or 1, do not print more k-points.

 Eight components of 2nd-order total energy (hartree) are
 1,2,3: 0th-order hamiltonian combined with 1st-order wavefunctions
     kin0=   2.27963838E+01 eigvalue=  -3.47281833E-01  local=  -1.19158515E+01
 4,5,6: 1st-order hamiltonian combined with 1st and 0th-order wfs
     kin1=  -2.91746446E+01  Hartree=   0.00000000E+00     xc=   0.00000000E+00
 7,8,9: eventually, occupation + non-local contributions
    edocc=   3.91486419E+00     enl0=   5.34837667E-01   enl1=  -7.91259864E-01
 1-9 gives the relaxation energy (to be shifted if some occ is /=2.0)
   erelax=  -1.49829522E+01
  No Ewald or frozen-wf contrib.: the relaxation energy is the total one
 2DEtotal=   -0.1498295223E+02 Ha. Also 2DEtotal=   -0.407706864569E+03 eV
    (  non-var. 2DEtotal :   -1.4982952233E+01 Ha)

 CALCULATION OF EFFECTIVE MASSES
 NOTE : Additional infos (eff. mass eigenvalues, eigenvectors and, if degenerate, average mass) are available in stdout.

 K-point ( 0.000, 0.000, 0.000) | band =    58
 Effective mass tensor:
             -5.2137104326              1.3128314701             -0.0000015438
              1.3128314701             -0.5736156247             -0.0000090524
             -0.0000015438             -0.0000090524             -0.7738825121
 Effective mass tensor eigenvalues:
             -5.5593986542             -0.7738825123             -0.2279274030
 Angular average effective mass 1/(<1/m>)=  -0.5119957829
 Angular average effective mass for Frohlich model (<m**0.5>)**2=  -0.7213999272
 Effective masses along directions: (cart. coord. / red. coord. -> eff. mass)
    1:   1.000000  0.000000  0.000000 /   0.754341 -0.656483  0.000000 ->  -2.2090390206
    2:   0.000000  1.000000  0.000000 /   0.000000  1.000000  0.000000 ->  -0.2430398301
    3:   0.000000  0.000000  1.000000 /   0.000000  0.000000  1.000000 ->  -0.7738825118
    4:   0.577350  0.577350  0.577350 /   0.585761 -0.221244  0.779702 ->  -0.3782427006
    5:   0.000000  0.707107  0.707107 /   0.000000  0.347049  0.937847 ->  -0.3699156933
    6:   0.707107  0.000000  0.707107 /   0.532308 -0.463253  0.708551 ->  -1.1462334257
    7:   0.707107  0.707107  0.000000 /   0.935495 -0.353340  0.000000 ->  -0.3012340318

 K-point (-0.500, 0.500, 0.000) | band =    59
 Effective mass tensor:
              2.3912555883             -0.5744154361             -0.0000089063
             -0.5744154361              0.3614948557              0.0000023446
             -0.0000089063              0.0000023446              1.2206047992
 Effective mass tensor eigenvalues:
              0.2102126042              1.2206047991              2.5425378398
 Angular average effective mass 1/(<1/m>)=   0.5025409740
 Angular average effective mass for Frohlich model (<m**0.5>)**2=   0.6996097210
 Effective masses along directions: (cart. coord. / red. coord. -> eff. mass)
    1:   1.000000  0.000000  0.000000 /   0.754341 -0.656483  0.000000 ->   1.4785092848
    2:   0.000000  1.000000  0.000000 /   0.000000  1.000000  0.000000 ->   0.2235116577
    3:   0.000000  0.000000  1.000000 /   0.000000  0.000000  1.000000 ->   1.2206047992
    4:   0.577350  0.577350  0.577350 /   0.585761 -0.221244  0.779702 ->   0.3694977418
    5:   0.000000  0.707107  0.707107 /   0.000000  0.347049  0.937847 ->   0.3778358432
    6:   0.707107  0.000000  0.707107 /   0.532308 -0.463253  0.708551 ->   1.3372303241
    7:   0.707107  0.707107  0.000000 /   0.935495 -0.353340  0.000000 ->   0.2739778860

 END OF EFFECTIVE MASSES SECTION

 ---- first-order wavefunction calculations are completed ----

 Total localisation tensor (bohr^2) in cartesian coordinates
  WARNING : still subject to testing - especially symmetries.
      direction              matrix element
   alpha     beta       real part   imaginary part
     1        1      16.3242373443    0.0000000000
     1        2      -3.9819214464    0.0000000000
     1        3       0.0000000000    0.0000000000
     2        1      -3.9819214464    0.0000000000
     2        2       2.2537429955    0.0000000000
     2        3       0.0000000000    0.0000000000
     3        1       0.0000000000    0.0000000000
     3        2       0.0000000000    0.0000000000
     3        3       1.3208767566    0.0000000000

 respfn : d/dk was computed, but no 2DTE, so no DDB output.

== END DATASET(S) ==============================================================

 -outvars: echo values of variables after computation  --------
            acell      1.0000000000E+00  1.0000000000E+00  1.0000000000E+00 Bohr
              amu      3.90983000E+01  1.78490000E+02  6.35460000E+01
                       3.20660000E+01
             ecut      4.60000000E+01 Hartree
           etotal     -1.4982952233E+01
            fcart      0.0000000000E+00  0.0000000000E+00  0.0000000000E+00
                       0.0000000000E+00  0.0000000000E+00  0.0000000000E+00
                       0.0000000000E+00  0.0000000000E+00  0.0000000000E+00
                       0.0000000000E+00  0.0000000000E+00  0.0000000000E+00
                       0.0000000000E+00  0.0000000000E+00  0.0000000000E+00
                       0.0000000000E+00  0.0000000000E+00  0.0000000000E+00
                       0.0000000000E+00  0.0000000000E+00  0.0000000000E+00
                       0.0000000000E+00  0.0000000000E+00  0.0000000000E+00
                       0.0000000000E+00  0.0000000000E+00  0.0000000000E+00
                       0.0000000000E+00  0.0000000000E+00  0.0000000000E+00
                       0.0000000000E+00  0.0000000000E+00  0.0000000000E+00
                       0.0000000000E+00  0.0000000000E+00  0.0000000000E+00
-          fftalg         512
           irdden           1
           irdwfk           1
           istwfk        1    0
              ixc     -116133
              kpt      0.00000000E+00  0.00000000E+00  0.00000000E+00
                      -5.00000000E-01  5.00000000E-01  0.00000000E+00
           kptopt           0
P           mkmem           2
P          mkqmem           2
P          mk1mem           2
            natom          12
            nband          67
           nbdbuf           4
            ngfft          90      90     120
             nkpt           2
            nstep        2000
             nsym           8
           ntypat           4
              occ      2.000000  2.000000  2.000000  2.000000  2.000000  2.000000
                       2.000000  2.000000  2.000000  2.000000  2.000000  2.000000
                       2.000000  2.000000  2.000000  2.000000  2.000000  2.000000
                       2.000000  2.000000  2.000000  2.000000  2.000000  2.000000
                       2.000000  2.000000  2.000000  2.000000  2.000000  2.000000
                       2.000000  2.000000  2.000000  2.000000  2.000000  2.000000
                       2.000000  2.000000  2.000000  2.000000  2.000000  2.000000
                       2.000000  2.000000  2.000000  2.000000  2.000000  2.000000
                       2.000000  2.000000  2.000000  2.000000  2.000000  2.000000
                       2.000000  2.000000  2.000000  2.000000  0.000000  0.000000
                       0.000000  0.000000  0.000000  0.000000  0.000000  0.000000
                       0.000000
        optdriver           1
            prtwf          -1
            rfdir           1       1       1
           rfelfd           2
            rprim      1.3668150236E+01  0.0000000000E+00  0.0000000000E+00
                      -1.1895025286E+01  6.7325109955E+00  0.0000000000E+00
                       0.0000000000E+00  0.0000000000E+00  1.8193593038E+01
          spgroup          63
           strten      0.0000000000E+00  0.0000000000E+00  0.0000000000E+00
                       0.0000000000E+00  0.0000000000E+00  0.0000000000E+00
           symrel      1  0  0   0  1  0   0  0  1      -1  0  0   0 -1  0   0  0 -1
                       0  1  0   1  0  0   0  0 -1       0 -1  0  -1  0  0   0  0  1
                      -1  0  0   0 -1  0   0  0  1       1  0  0   0  1  0   0  0 -1
                       0 -1  0  -1  0  0   0  0 -1       0  1  0   1  0  0   0  0  1
            tnons      0.0000000  0.0000000  0.0000000     0.0000000  0.0000000  0.0000000
                       0.0000000  0.0000000  0.0000000     0.0000000  0.0000000  0.0000000
                       0.0000000  0.0000000  0.5000000     0.0000000  0.0000000  0.5000000
                       0.0000000  0.0000000  0.5000000     0.0000000  0.0000000  0.5000000
           tolwfr      1.00000000E-20
            typat      1  1  2  2  3  3  4  4  4  4  4  4
           useylm           1
              wtk        0.50000    0.50000
           xangst      3.7924913739E+00  9.0608504674E-01  7.2207260834E+00
                      -2.8541940627E+00  2.6566063287E+00  2.4069086945E+00
                       0.0000000000E+00  0.0000000000E+00  0.0000000000E+00
                       0.0000000000E+00  0.0000000000E+00  4.8138173890E+00
                       1.1379752124E-02  1.9019071638E+00  7.2207260834E+00
                       9.2691755903E-01  1.6607842116E+00  2.4069086945E+00
                       2.1106235321E+00  1.3490344654E+00  4.3094159753E+00
                      -1.1723262209E+00  2.2136569100E+00  5.3182188026E+00
                      -1.1723262209E+00  2.2136569100E+00  9.1232333643E+00
                       6.3609753347E+00  2.2962970991E-01  2.4069086945E+00
                      -5.4226780236E+00  3.3330616655E+00  7.2207260834E+00
                       2.1106235321E+00  1.3490344654E+00  5.0440141365E-01
            xcart      7.1667700579E+00  1.7122525914E+00  1.3645194778E+01
                      -5.3936451086E+00  5.0202584041E+00  4.5483982594E+00
                       0.0000000000E+00  0.0000000000E+00  0.0000000000E+00
                       0.0000000000E+00  0.0000000000E+00  9.0967965189E+00
                       2.1504614975E-02  3.5940836698E+00  1.3645194778E+01
                       1.7516203343E+00  3.1384273257E+00  4.5483982594E+00
                       3.9885004452E+00  2.5493056835E+00  8.1436159860E+00
                      -2.2153754959E+00  4.1832053120E+00  1.0049977052E+01
                      -2.2153754959E+00  4.1832053120E+00  1.7240412505E+01
                       1.2020501321E+01  4.3393726370E-01  4.5483982594E+00
                      -1.0247376371E+01  6.2985737318E+00  1.3645194778E+01
                       3.9885004452E+00  2.5493056835E+00  9.5318053284E-01
             xred      7.4567400000E-01  2.5432600000E-01  7.5000000000E-01
                       2.5432600000E-01  7.4567400000E-01  2.5000000000E-01
                       0.0000000000E+00  0.0000000000E+00  0.0000000000E+00
                       0.0000000000E+00  0.0000000000E+00  5.0000000000E-01
                       4.6616000000E-01  5.3384000000E-01  7.5000000000E-01
                       5.3384000000E-01  4.6616000000E-01  2.5000000000E-01
                       6.2134400000E-01  3.7865600000E-01  4.4760900000E-01
                       3.7865600000E-01  6.2134400000E-01  5.5239100000E-01
                       3.7865600000E-01  6.2134400000E-01  9.4760900000E-01
                       9.3554600000E-01  6.4454000000E-02  2.5000000000E-01
                       6.4454000000E-02  9.3554600000E-01  7.5000000000E-01
                       6.2134400000E-01  3.7865600000E-01  5.2391000000E-02
            znucl       19.00000   72.00000   29.00000   16.00000

- Timing analysis has been suppressed with timopt=0

 Suggested references for the acknowledgment of ABINIT usage.

 Calculation completed.
.Delivered   2 WARNINGs and   5 COMMENTs to log file.