.Version 9.5.2 of ABINIT

 ABINIT is a project of the Universite Catholique de Louvain,
 Corning Inc. and other collaborators, see ~abinit/doc/developers/contributors.txt .
 acknowledgments of the ABINIT effort.

.Starting date : Mon 24 May 2021.
- ( at 11h13 )

- input  file    -> /scratch/users/j/a/jabreu/flow_simple_10atoms/flow/w302/t1/run.abi
- output file    -> /scratch/users/j/a/jabreu/flow_simple_10atoms/flow/w302/t1/run.abo
- root for input  files -> /scratch/users/j/a/jabreu/flow_simple_10atoms/flow/w302/t1/indata/in
- root for output files -> /scratch/users/j/a/jabreu/flow_simple_10atoms/flow/w302/t1/outdata/out

 Symmetries : space group Fm -3 m (#225); Bravais cF (face-center cubic)
     intxc =       0      iscf =       7    lmnmax =      32     lnmax =       8
     mgfft =      80  mpssoang =       4    mqgrid =    3226     natom =      10
  nloc_mem =       1    nspden =       1   nspinor =       1    nsppol =       1
      nsym =      48    n1xccc =    2501    ntypat =       4    occopt =       1
   xclevel =       2
-    mband =          47        mffmem =           1         mkmem =           1
-   mkqmem =           1        mk1mem =           1           mpw =       22995
      nfft =      512000          nkpt =           1
  Rough estimation (10% accuracy) of disk space for files :

------------- Echo of variables that govern the present computation ------------
-
- outvars: echo of selected default values
-   iomode0 =  0 , fftalg0 =512 , wfoptalg0 =  0
-
- outvars: echo of global parameters not present in the input file
-  max_nthreads =    0
-
 -outvars: echo values of preprocessed input variables --------
            acell      1.0000000000E+00  1.0000000000E+00  1.0000000000E+00 Bohr
              amu      1.32905430E+02  6.94100000E+00  1.14820000E+02
                       7.99040000E+01
             ecut      3.70000000E+01 Hartree
-          fftalg         512
           irdden           1
           irdwfk           1
           istwfk        1
              ixc     -116133
           kptopt           0
P           mkmem           1
P          mkqmem           1
P          mk1mem           1
            natom          10
            nband          47
           nbdbuf           4
            ngfft          80      80      80
             nkpt           1
            nstep        2000
             nsym          48
           ntypat           4
              occ      2.000000  2.000000  2.000000  2.000000  2.000000  2.000000
                       2.000000  2.000000  2.000000  2.000000  2.000000  2.000000
                       2.000000  2.000000  2.000000  2.000000  2.000000  2.000000
                       2.000000  2.000000  2.000000  2.000000  2.000000  2.000000
                       2.000000  2.000000  2.000000  2.000000  2.000000  2.000000
                       2.000000  2.000000  2.000000  2.000000  2.000000  2.000000
                       2.000000  2.000000  0.000000  0.000000  0.000000  0.000000
                       0.000000  0.000000  0.000000  0.000000  0.000000
        optdriver           1
            prtwf          -1
            rfdir           1       1       1
           rfelfd           2
            rprim      1.2493455484E+01  0.0000000000E+00  7.2130998867E+00
                       4.1644851613E+00  1.1778942791E+01  7.2130998867E+00
                       0.0000000000E+00  0.0000000000E+00  1.4426199773E+01
          spgroup         225
           symrel      1  0  0   0  1  0   0  0  1      -1  0  0   0 -1  0   0  0 -1
                       0 -1  1   0 -1  0   1 -1  0       0  1 -1   0  1  0  -1  1  0
                      -1  0  0  -1  0  1  -1  1  0       1  0  0   1  0 -1   1 -1  0
                       0  1 -1   1  0 -1   0  0 -1       0 -1  1  -1  0  1   0  0  1
                      -1  0  0  -1  1  0  -1  0  1       1  0  0   1 -1  0   1  0 -1
                       0 -1  1   1 -1  0   0 -1  0       0  1 -1  -1  1  0   0  1  0
                       1  0  0   0  0  1   0  1  0      -1  0  0   0  0 -1   0 -1  0
                       0  1 -1   0  0 -1   1  0 -1       0 -1  1   0  0  1  -1  0  1
                      -1  0  1  -1  1  0  -1  0  0       1  0 -1   1 -1  0   1  0  0
                       0 -1  0   1 -1  0   0 -1  1       0  1  0  -1  1  0   0  1 -1
                       1  0 -1   0  0 -1   0  1 -1      -1  0  1   0  0  1   0 -1  1
                       0  1  0   0  0  1   1  0  0       0 -1  0   0  0 -1  -1  0  0
                       1  0 -1   0  1 -1   0  0 -1      -1  0  1   0 -1  1   0  0  1
                       0 -1  0   0 -1  1   1 -1  0       0  1  0   0  1 -1  -1  1  0
                      -1  0  1  -1  0  0  -1  1  0       1  0 -1   1  0  0   1 -1  0
                       0  1  0   1  0  0   0  0  1       0 -1  0  -1  0  0   0  0 -1
                       0  0 -1   0  1 -1   1  0 -1       0  0  1   0 -1  1  -1  0  1
                       1 -1  0   0 -1  1   0 -1  0      -1  1  0   0  1 -1   0  1  0
                       0  0  1   1  0  0   0  1  0       0  0 -1  -1  0  0   0 -1  0
                      -1  1  0  -1  0  0  -1  0  1       1 -1  0   1  0  0   1  0 -1
                       0  0  1   0  1  0   1  0  0       0  0 -1   0 -1  0  -1  0  0
                       1 -1  0   0 -1  0   0 -1  1      -1  1  0   0  1  0   0  1 -1
                       0  0 -1   1  0 -1   0  1 -1       0  0  1  -1  0  1   0 -1  1
                      -1  1  0  -1  0  1  -1  0  0       1 -1  0   1  0 -1   1  0  0
           tolwfr      1.00000000E-20
            typat      1  1  2  3  4  4  4  4  4  4
           useylm           1
           xangst      2.2037506329E+00  1.5582870165E+00  3.8170080633E+00
                       6.6112518986E+00  4.6748610496E+00  1.1451024190E+01
                       0.0000000000E+00  0.0000000000E+00  0.0000000000E+00
                       4.4075012657E+00  3.1165740331E+00  7.6340161266E+00
                       3.3139649417E+00  4.6630679335E+00  9.5280765998E+00
                       5.5010375897E+00  1.5700801327E+00  9.5280765998E+00
                       3.3139649417E+00  4.6630679335E+00  5.7399556535E+00
                       2.2204286176E+00  1.5700801327E+00  7.6340161266E+00
                       6.5945739138E+00  4.6630679335E+00  7.6340161266E+00
                       5.5010375897E+00  1.5700801327E+00  5.7399556535E+00
            xcart      4.1644851613E+00  2.9447356977E+00  7.2130998867E+00
                       1.2493455484E+01  8.8342070930E+00  2.1639299660E+01
                       0.0000000000E+00  0.0000000000E+00  0.0000000000E+00
                       8.3289703225E+00  5.8894713954E+00  1.4426199773E+01
                       6.2624861538E+00  8.8119213333E+00  1.8005455347E+01
                       1.0395454491E+01  2.9670214574E+00  1.8005455347E+01
                       6.2624861538E+00  8.8119213333E+00  1.0846944200E+01
                       4.1960019850E+00  2.9670214574E+00  1.4426199773E+01
                       1.2461938660E+01  8.8119213333E+00  1.4426199773E+01
                       1.0395454491E+01  2.9670214574E+00  1.0846944200E+01
             xred      2.5000000000E-01  2.5000000000E-01  2.5000000000E-01
                       7.5000000000E-01  7.5000000000E-01  7.5000000000E-01
                       0.0000000000E+00  0.0000000000E+00  0.0000000000E+00
                       5.0000000000E-01  5.0000000000E-01  5.0000000000E-01
                       2.5189200000E-01  7.4810800000E-01  7.4810800000E-01
                       7.4810800000E-01  2.5189200000E-01  7.4810800000E-01
                       2.5189200000E-01  7.4810800000E-01  2.5189200000E-01
                       2.5189200000E-01  2.5189200000E-01  7.4810800000E-01
                       7.4810800000E-01  7.4810800000E-01  2.5189200000E-01
                       7.4810800000E-01  2.5189200000E-01  2.5189200000E-01
            znucl       55.00000    3.00000   49.00000   35.00000

 chkinp: Checking input parameters for consistency.

== DATASET  1 ==================================================================
-   mpi_nproc: 1, omp_nthreads: -1 (-1 if OMP is not activated)

--- !DatasetInfo
iteration_state: {dtset: 1, }
dimensions: {natom: 10, nkpt: 1, mband: 47, nsppol: 1, nspinor: 1, nspden: 1, mpw: 22995, }
cutoff_energies: {ecut:  37.0, pawecutdg:  -1.0, }
electrons: {nelect:   7.60000000E+01, charge:   0.00000000E+00, occopt:   1.00000000E+00, tsmear:   1.00000000E-02, }
meta: {optdriver: 1, rfelfd: 2, }
...

 Real(R)+Recip(G) space primitive vectors, cartesian coordinates (Bohr,Bohr^-1):
 R(1)= 12.4934555  0.0000000  7.2130999  G(1)=  0.0800419 -0.0282991  0.0000000
 R(2)=  4.1644852 11.7789428  7.2130999  G(2)=  0.0000000  0.0848973  0.0000000
 R(3)=  0.0000000  0.0000000 14.4261998  G(3)= -0.0400210 -0.0282991  0.0693183
 Unit cell volume ucvol=  2.1229552E+03 bohr^3
 Angles (23,13,12)=  6.00000000E+01  6.00000000E+01  6.00000000E+01 degrees

 getcut: wavevector=  0.0000  0.0000  0.0000  ngfft=  80  80  80
         ecut(hartree)=     37.000   => boxcut(ratio)=   2.02522

--- Pseudopotential description ------------------------------------------------
- pspini: atom type   1  psp file is /scratch/users/j/a/jabreu/pseudos/PBEsol/Cs.psp8
- pspatm: opening atomic psp file    /scratch/users/j/a/jabreu/pseudos/PBEsol/Cs.psp8
- Cs    ONCVPSP-3.3.0  r_core=   2.27353   1.85623   2.01788   1.90105
- 55.00000   9.00000    180112                znucl, zion, pspdat
    8 -116133    3    4       600   0.00000   pspcod,pspxc,lmax,lloc,mmax,r2well
    5.99000000000000    5.00000000000000    0.00000000000000   rchrg,fchrg,qchrg
     nproj     2     2     2     2
     extension_switch     1
  pspatm : epsatm=   22.12462445
         --- l  ekb(1:nproj) -->
             0    6.214110    0.767882
             1    6.311966    0.793598
             2    3.769790    0.913105
             3   -9.247129   -2.432478
 pspatm: atomic psp has been read  and splines computed

- pspini: atom type   2  psp file is /scratch/users/j/a/jabreu/pseudos/PBEsol/Li.psp8
- pspatm: opening atomic psp file    /scratch/users/j/a/jabreu/pseudos/PBEsol/Li.psp8
- Li    ONCVPSP-3.3.0  r_core=   1.40824   1.10935
-  3.00000   3.00000    180112                znucl, zion, pspdat
    8 -116133    1    4       400   0.00000   pspcod,pspxc,lmax,lloc,mmax,r2well
    3.99000000000000    0.00000000000000    0.00000000000000   rchrg,fchrg,qchrg
     nproj     2     2
     extension_switch     1
  pspatm : epsatm=    2.60859637
         --- l  ekb(1:nproj) -->
             0   -4.855856   -1.482423
             1   -2.171544   -0.427615
 pspatm: atomic psp has been read  and splines computed

[...]

- pspini: atom type   4  psp file is /scratch/users/j/a/jabreu/pseudos/PBEsol/Br.psp8
- pspatm: opening atomic psp file    /scratch/users/j/a/jabreu/pseudos/PBEsol/Br.psp8
- Br    ONCVPSP-3.3.0  r_core=   1.81012   1.51356   1.92136
- 35.00000   7.00000    180112                znucl, zion, pspdat
    8 -116133    2    4       600   0.00000   pspcod,pspxc,lmax,lloc,mmax,r2well
    5.99000000000000    8.00000000000000    0.00000000000000   rchrg,fchrg,qchrg
     nproj     2     2     2
[...]
 ETOT  2  -32.804784823927     -1.296E-02 2.992E-04 0.000E+00
 ETOT  3  -32.804828652670     -4.383E-05 1.123E-04 0.000E+00
 ETOT  4  -32.804831483228     -2.831E-06 1.251E-05 0.000E+00
 ETOT  5  -32.804831841521     -3.583E-07 3.865E-06 0.000E+00
 ETOT  6  -32.804831898112     -5.659E-08 5.704E-07 0.000E+00
 ETOT  7  -32.804831908034     -9.922E-09 1.987E-07 0.000E+00
 ETOT  8  -32.804831909858     -1.823E-09 3.029E-08 0.000E+00
 ETOT  9  -32.804831910203     -3.449E-10 1.072E-08 0.000E+00
 ETOT 10  -32.804831910269     -6.639E-11 1.650E-09 0.000E+00
 ETOT 11  -32.804831910282     -1.289E-11 5.925E-10 0.000E+00
 ETOT 12  -32.804831910285     -2.593E-12 9.166E-11 0.000E+00
 ETOT 13  -32.804831910285     -4.619E-13 3.323E-11 0.000E+00
 ETOT 14  -32.804831910285     -8.527E-14 5.535E-12 0.000E+00
 ETOT 15  -32.804831910285     -5.684E-14 2.070E-12 0.000E+00
 ETOT 16  -32.804831910285      1.421E-14 3.846E-13 0.000E+00
 ETOT 17  -32.804831910285      0.000E+00 1.437E-13 0.000E+00
 ETOT 18  -32.804831910285      3.553E-14 2.682E-14 0.000E+00
 ETOT 19  -32.804831910285     -3.553E-14 1.001E-14 0.000E+00
 ETOT 20  -32.804831910285      1.421E-14 1.876E-15 0.000E+00
 ETOT 21  -32.804831910285     -2.842E-14 6.983E-16 0.000E+00
 ETOT 22  -32.804831910285      1.421E-14 1.315E-16 0.000E+00
 ETOT 23  -32.804831910285      1.421E-14 4.883E-17 0.000E+00
 ETOT 24  -32.804831910285     -1.421E-14 9.241E-18 0.000E+00
 ETOT 25  -32.804831910285     -1.421E-14 3.421E-18 0.000E+00
 ETOT 26  -32.804831910285      1.421E-14 6.506E-19 0.000E+00
 ETOT 27  -32.804831910285     -7.105E-15 2.402E-19 0.000E+00
 ETOT 28  -32.804831910285      0.000E+00 4.588E-20 0.000E+00
 ETOT 29  -32.804831910285      7.105E-15 1.688E-20 0.000E+00
 ETOT 30  -32.804831910285      0.000E+00 9.822E-21 0.000E+00

 At SCF step   30   max residual=  9.82E-21 < tolwfr=  1.00E-20 =>converged.

 ----iterations are completed or convergence reached----

 dfpt_looppert: DFPT cycle converged with prtwf=-1. Will skip output of the 1st-order WFK file.
 dfpt_looppert : ek2=    4.3250456901E+01
          f-sum rule ratio=    1.2252006085E+00
 prteigrs : about to open file /scratch/users/j/a/jabreu/flow_simple_10atoms/flow/w302/t1/tmpdata/tmp_1WF1_EIG
 Expectation of eigenvalue derivatives (hartree) for nkpt=   1  k points:
  (in case of degenerate eigenvalues, averaged derivative)
 kpt#   1, nband= 47, wtk=  1.00000, kpt=  0.0000  0.0000  0.0000 (reduced coord)
  -0.00000   -0.00000   -0.00000   -0.00000   -0.00000    0.00000   -0.00000   -0.00000
  -0.00000   -0.00000   -0.00000   -0.00000   -0.00000   -0.00000    0.00000    0.00000
   0.00000    0.00000    0.00000    0.00000   -0.00000   -0.00000   -0.00000   -0.00000
   0.00000    0.00000    0.00000   -0.00000   -0.00000   -0.00000    0.00000    0.00000
   0.00000    0.00000    0.00000   -0.00000   -0.00000   -0.00000   -0.00000    0.00000
   0.00000    0.00000   -0.00000   -0.00000   -0.00000    0.00000   -0.00073

 Eight components of 2nd-order total energy (hartree) are
 1,2,3: 0th-order hamiltonian combined with 1st-order wavefunctions
     kin0=   3.59981279E+01 eigvalue=   1.85723891E+00  local=  -2.08789222E+01
 4,5,6: 1st-order hamiltonian combined with 1st and 0th-order wfs
     kin1=  -5.29904861E+01  Hartree=   0.00000000E+00     xc=   0.00000000E+00
 7,8,9: eventually, occupation + non-local contributions
    edocc=   9.59194936E+00     enl0=   6.23643787E+00   enl1=  -1.26191777E+01
 1-9 gives the relaxation energy (to be shifted if some occ is /=2.0)
   erelax=  -3.28048319E+01
  No Ewald or frozen-wf contrib.: the relaxation energy is the total one
 2DEtotal=   -0.3280483191E+02 Ha. Also 2DEtotal=   -0.892664873574E+03 eV
    (  non-var. 2DEtotal :   -3.2804831910E+01 Ha)

 CALCULATION OF EFFECTIVE MASSES
 NOTE : Additional infos (eff. mass eigenvalues, eigenvectors and, if degenerate, average mass) are available in stdout.

 COMMENTS:
 - At k-point ( 0.000, 0.000, 0.000), bands    36 through    38
   are DEGENERATE (effective mass tensor is therefore not defined).
   See Section IIIB Eqs. (67)-(70) and Appendix E of PRB 93 205147 (2016).
 - Angular average effective mass for Frohlich model is to be averaged over degenerate bands. See later.
 - Associated theta integrals calculated with ntheta=   1000 points.

 K-point ( 0.000, 0.000, 0.000) | band =    36
 Transport equivalent effective mass tensor:
             -0.7397089452             -0.0000000332             -0.0000000635
             -0.0000000332             -0.7397084495             -0.0000000683
             -0.0000000635             -0.0000000683             -0.7397078983
 Transport equivalent effective mass tensor eigenvalues:
             -0.7397089518             -0.7397084545             -0.7397078867
 Angular average effective mass 1/(<1/m>)=  -0.7133470974
 Angular average effective mass for Frohlich model (<m**0.5>)**2=  -0.7143935005
 Effective masses along directions: (cart. coord. / red. coord. -> eff. mass)
    1:   1.000000  0.000000  0.000000 /   0.948683  0.316228  0.000000 ->  -0.7510969106
    2:   0.000000  1.000000  0.000000 /   0.000000  1.000000  0.000000 ->  -0.8309992443
    3:   0.000000  0.000000  1.000000 /   0.408248  0.408248  0.816497 ->  -0.6852117515
    4:   0.577350  0.577350  0.577350 /   0.585539  0.688047  0.428644 ->  -0.7309952966
    5:   0.000000  0.707107  0.707107 /   0.289489  0.762222  0.578977 ->  -0.6891978389
    6:   0.707107  0.000000  0.707107 /   0.731423  0.422287  0.535439 ->  -0.7065638560
    7:   0.707107  0.707107  0.000000 /   0.616798  0.787122  0.000000 ->  -0.6904068032

[...]

 K-point ( 0.000, 0.000, 0.000) | band =    38
 Transport equivalent effective mass tensor:
            -40.9611177971              0.0000029985             -0.0000008839
              0.0000029985            -40.9611158853             -0.0000000667
             -0.0000008839             -0.0000000667            -40.9611184288
 Transport equivalent effective mass tensor eigenvalues:
            -40.9611202459            -40.9611182413            -40.9611136241
 Angular average effective mass 1/(<1/m>)=  -3.0356720388
 Angular average effective mass for Frohlich model (<m**0.5>)**2=  -3.7851104266
 Effective masses along directions: (cart. coord. / red. coord. -> eff. mass)
    1:   1.000000  0.000000  0.000000 /   0.948683  0.316228  0.000000 ->  -2.5657580121
    2:   0.000000  1.000000  0.000000 /   0.000000  1.000000  0.000000 ->  -1.7919548477
    3:   0.000000  0.000000  1.000000 /   0.408248  0.408248  0.816497 ->  -2.3254022818
    4:   0.577350  0.577350  0.577350 /   0.585539  0.688047  0.428644 ->  -2.4931682251
    5:   0.000000  0.707107  0.707107 /   0.289489  0.762222  0.578977 ->  -4.2963575607
    6:   0.707107  0.000000  0.707107 /   0.731423  0.422287  0.535439 ->  -2.4453911985
    7:   0.707107  0.707107  0.000000 /   0.616798  0.787122  0.000000 -> -12.8459781233

 Angular average effective mass for Frohlich model, averaged over degenerate bands.
 Value of     (<<m**0.5>>)**2 =     1.515830E+00
 Absolute Value of <<m**0.5>> =     1.231190E+00

 K-point ( 0.000, 0.000, 0.000) | band =    39
 Effective mass tensor:
              0.3163363296              0.0000000046              0.0000000068
              0.0000000046              0.3163363328              0.0000000001
              0.0000000068              0.0000000001              0.3163363774
 Effective mass tensor eigenvalues:
              0.3163363257              0.3163363356              0.3163363784
 Angular average effective mass 1/(<1/m>)=   0.3163363466
 Angular average effective mass for Frohlich model (<m**0.5>)**2=   0.3163363466
 Effective masses along directions: (cart. coord. / red. coord. -> eff. mass)
    1:   1.000000  0.000000  0.000000 /   0.948683  0.316228  0.000000 ->   0.3163363296
    2:   0.000000  1.000000  0.000000 /   0.000000  1.000000  0.000000 ->   0.3163363328
    3:   0.000000  0.000000  1.000000 /   0.408248  0.408248  0.816497 ->   0.3163363774
    4:   0.577350  0.577350  0.577350 /   0.585539  0.688047  0.428644 ->   0.3163363542
    5:   0.000000  0.707107  0.707107 /   0.289489  0.762222  0.578977 ->   0.3163363552
    6:   0.707107  0.000000  0.707107 /   0.731423  0.422287  0.535439 ->   0.3163363603
    7:   0.707107  0.707107  0.000000 /   0.616798  0.787122  0.000000 ->   0.3163363357

 END OF EFFECTIVE MASSES SECTION

 ---- first-order wavefunction calculations are completed ----

 Total localisation tensor (bohr^2) in cartesian coordinates
  WARNING : still subject to testing - especially symmetries.
      direction              matrix element
   alpha     beta       real part   imaginary part
     1        1       2.4477918109    0.0000000000
     1        2       0.6923624480    0.0000000000
     1        3       1.6958890467    0.0000000000
     2        1       0.6923624480    0.0000000000
     2        2       1.9582967282    0.0000000000
     2        3       1.1992069373    0.0000000000
     3        1       1.6958890467    0.0000000000
     3        2       1.1992069373    0.0000000000
     3        3       4.4059696876    0.0000000000

 respfn : d/dk was computed, but no 2DTE, so no DDB output.

== END DATASET(S) ==============================================================

 -outvars: echo values of variables after computation  --------
            acell      1.0000000000E+00  1.0000000000E+00  1.0000000000E+00 Bohr
              amu      1.32905430E+02  6.94100000E+00  1.14820000E+02
                       7.99040000E+01
             ecut      3.70000000E+01 Hartree
           etotal     -3.2804831910E+01
            fcart      0.0000000000E+00  0.0000000000E+00  0.0000000000E+00
                       0.0000000000E+00  0.0000000000E+00  0.0000000000E+00
                       0.0000000000E+00  0.0000000000E+00  0.0000000000E+00
                       0.0000000000E+00  0.0000000000E+00  0.0000000000E+00
                       0.0000000000E+00  0.0000000000E+00  0.0000000000E+00
                       0.0000000000E+00  0.0000000000E+00  0.0000000000E+00
                       0.0000000000E+00  0.0000000000E+00  0.0000000000E+00
                       0.0000000000E+00  0.0000000000E+00  0.0000000000E+00
                       0.0000000000E+00  0.0000000000E+00  0.0000000000E+00
                       0.0000000000E+00  0.0000000000E+00  0.0000000000E+00
-          fftalg         512
           irdden           1
           irdwfk           1
           istwfk        1
              ixc     -116133
           kptopt           0
P           mkmem           1
P          mkqmem           1
P          mk1mem           1
            natom          10
            nband          47
           nbdbuf           4
            ngfft          80      80      80
             nkpt           1
            nstep        2000
             nsym          48
           ntypat           4
              occ      2.000000  2.000000  2.000000  2.000000  2.000000  2.000000
                       2.000000  2.000000  2.000000  2.000000  2.000000  2.000000
                       2.000000  2.000000  2.000000  2.000000  2.000000  2.000000
                       2.000000  2.000000  2.000000  2.000000  2.000000  2.000000
                       2.000000  2.000000  2.000000  2.000000  2.000000  2.000000
                       2.000000  2.000000  2.000000  2.000000  2.000000  2.000000
                       2.000000  2.000000  0.000000  0.000000  0.000000  0.000000
                       0.000000  0.000000  0.000000  0.000000  0.000000
        optdriver           1
            prtwf          -1
            rfdir           1       1       1
           rfelfd           2
            rprim      1.2493455484E+01  0.0000000000E+00  7.2130998867E+00
                       4.1644851613E+00  1.1778942791E+01  7.2130998867E+00
                       0.0000000000E+00  0.0000000000E+00  1.4426199773E+01
          spgroup         225
           strten      0.0000000000E+00  0.0000000000E+00  0.0000000000E+00
                       0.0000000000E+00  0.0000000000E+00  0.0000000000E+00
           symrel      1  0  0   0  1  0   0  0  1      -1  0  0   0 -1  0   0  0 -1
                       0 -1  1   0 -1  0   1 -1  0       0  1 -1   0  1  0  -1  1  0
                      -1  0  0  -1  0  1  -1  1  0       1  0  0   1  0 -1   1 -1  0
                       0  1 -1   1  0 -1   0  0 -1       0 -1  1  -1  0  1   0  0  1
                      -1  0  0  -1  1  0  -1  0  1       1  0  0   1 -1  0   1  0 -1
                       0 -1  1   1 -1  0   0 -1  0       0  1 -1  -1  1  0   0  1  0
                       1  0  0   0  0  1   0  1  0      -1  0  0   0  0 -1   0 -1  0
                       0  1 -1   0  0 -1   1  0 -1       0 -1  1   0  0  1  -1  0  1
                      -1  0  1  -1  1  0  -1  0  0       1  0 -1   1 -1  0   1  0  0
                       0 -1  0   1 -1  0   0 -1  1       0  1  0  -1  1  0   0  1 -1
                       1  0 -1   0  0 -1   0  1 -1      -1  0  1   0  0  1   0 -1  1
                       0  1  0   0  0  1   1  0  0       0 -1  0   0  0 -1  -1  0  0
                       1  0 -1   0  1 -1   0  0 -1      -1  0  1   0 -1  1   0  0  1
                       0 -1  0   0 -1  1   1 -1  0       0  1  0   0  1 -1  -1  1  0
                      -1  0  1  -1  0  0  -1  1  0       1  0 -1   1  0  0   1 -1  0
                       0  1  0   1  0  0   0  0  1       0 -1  0  -1  0  0   0  0 -1
                       0  0 -1   0  1 -1   1  0 -1       0  0  1   0 -1  1  -1  0  1
                       1 -1  0   0 -1  1   0 -1  0      -1  1  0   0  1 -1   0  1  0
                       0  0  1   1  0  0   0  1  0       0  0 -1  -1  0  0   0 -1  0
                      -1  1  0  -1  0  0  -1  0  1       1 -1  0   1  0  0   1  0 -1
                       0  0  1   0  1  0   1  0  0       0  0 -1   0 -1  0  -1  0  0
                       1 -1  0   0 -1  0   0 -1  1      -1  1  0   0  1  0   0  1 -1
                       0  0 -1   1  0 -1   0  1 -1       0  0  1  -1  0  1   0 -1  1
                      -1  1  0  -1  0  1  -1  0  0       1 -1  0   1  0 -1   1  0  0
           tolwfr      1.00000000E-20
            typat      1  1  2  3  4  4  4  4  4  4
           useylm           1
           xangst      2.2037506329E+00  1.5582870165E+00  3.8170080633E+00
                       6.6112518986E+00  4.6748610496E+00  1.1451024190E+01
                       0.0000000000E+00  0.0000000000E+00  0.0000000000E+00
                       4.4075012657E+00  3.1165740331E+00  7.6340161266E+00
                       3.3139649417E+00  4.6630679335E+00  9.5280765998E+00
                       5.5010375897E+00  1.5700801327E+00  9.5280765998E+00
                       3.3139649417E+00  4.6630679335E+00  5.7399556535E+00
                       2.2204286176E+00  1.5700801327E+00  7.6340161266E+00
                       6.5945739138E+00  4.6630679335E+00  7.6340161266E+00
                       5.5010375897E+00  1.5700801327E+00  5.7399556535E+00
            xcart      4.1644851613E+00  2.9447356977E+00  7.2130998867E+00
                       1.2493455484E+01  8.8342070930E+00  2.1639299660E+01
                       0.0000000000E+00  0.0000000000E+00  0.0000000000E+00
                       8.3289703225E+00  5.8894713954E+00  1.4426199773E+01
                       6.2624861538E+00  8.8119213333E+00  1.8005455347E+01
                       1.0395454491E+01  2.9670214574E+00  1.8005455347E+01
                       6.2624861538E+00  8.8119213333E+00  1.0846944200E+01
                       4.1960019850E+00  2.9670214574E+00  1.4426199773E+01
                       1.2461938660E+01  8.8119213333E+00  1.4426199773E+01
                       1.0395454491E+01  2.9670214574E+00  1.0846944200E+01
             xred      2.5000000000E-01  2.5000000000E-01  2.5000000000E-01
                       7.5000000000E-01  7.5000000000E-01  7.5000000000E-01
                       0.0000000000E+00  0.0000000000E+00  0.0000000000E+00
                       5.0000000000E-01  5.0000000000E-01  5.0000000000E-01
                       2.5189200000E-01  7.4810800000E-01  7.4810800000E-01
                       7.4810800000E-01  2.5189200000E-01  7.4810800000E-01
                       2.5189200000E-01  7.4810800000E-01  2.5189200000E-01
                       2.5189200000E-01  2.5189200000E-01  7.4810800000E-01
                       7.4810800000E-01  7.4810800000E-01  2.5189200000E-01
                       7.4810800000E-01  2.5189200000E-01  2.5189200000E-01
            znucl       55.00000    3.00000   49.00000   35.00000

- Timing analysis has been suppressed with timopt=0

 Suggested references for the acknowledgment of ABINIT usage.

 Calculation completed.
.Delivered   2 WARNINGs and   5 COMMENTs to log file.