.Version 9.5.2 of ABINIT

 ABINIT is a project of the Universite Catholique de Louvain,
 Corning Inc. and other collaborators, see ~abinit/doc/developers/contributors.txt .
 acknowledgments of the ABINIT effort.

.Starting date : Mon 24 May 2021.
- ( at 10h57 )

- input  file    -> /scratch/users/j/a/jabreu/flow_simple_10atoms/flow/w275/t1/run.abi
- output file    -> /scratch/users/j/a/jabreu/flow_simple_10atoms/flow/w275/t1/run.abo
- root for input  files -> /scratch/users/j/a/jabreu/flow_simple_10atoms/flow/w275/t1/indata/in
- root for output files -> /scratch/users/j/a/jabreu/flow_simple_10atoms/flow/w275/t1/outdata/out

 Symmetries : space group P2_1/m (# 11); Bravais mP (primitive monocl.)
     intxc =       0      iscf =       7    lmnmax =      18     lnmax =       6
     mgfft =      90  mpssoang =       3    mqgrid =    3828     natom =      10
  nloc_mem =       1    nspden =       1   nspinor =       1    nsppol =       1
      nsym =       4    n1xccc =    2501    ntypat =       4    occopt =       1
   xclevel =       2
-    mband =          53        mffmem =           1         mkmem =           2
-   mkqmem =           2        mk1mem =           2           mpw =       17190
      nfft =      349920          nkpt =           2
  Rough estimation (10% accuracy) of disk space for files :

------------- Echo of variables that govern the present computation ------------
-
- outvars: echo of selected default values
-   iomode0 =  0 , fftalg0 =512 , wfoptalg0 =  0
-
- outvars: echo of global parameters not present in the input file
-  max_nthreads =    0
-
 -outvars: echo values of preprocessed input variables --------
            acell      1.0000000000E+00  1.0000000000E+00  1.0000000000E+00 Bohr
              amu      3.90983000E+01  7.89600000E+01  1.59994000E+01
                       1.89984032E+01
             ecut      4.40000000E+01 Hartree
-          fftalg         512
           irdden           1
           irdwfk           1
           istwfk        0    1
              ixc     -116133
              kpt      2.18750000E-01  5.00000000E-01  5.00000000E-01
                       0.00000000E+00  5.00000000E-01  0.00000000E+00
           kptopt           0
P           mkmem           2
P          mkqmem           2
P          mk1mem           2
            natom          10
            nband          53
           nbdbuf           4
            ngfft          72      54      90
             nkpt           2
            nstep        2000
             nsym           4
           ntypat           4
              occ      2.000000  2.000000  2.000000  2.000000  2.000000  2.000000
                       2.000000  2.000000  2.000000  2.000000  2.000000  2.000000
                       2.000000  2.000000  2.000000  2.000000  2.000000  2.000000
                       2.000000  2.000000  2.000000  2.000000  2.000000  2.000000
                       2.000000  2.000000  2.000000  2.000000  2.000000  2.000000
                       2.000000  2.000000  2.000000  2.000000  2.000000  2.000000
                       2.000000  2.000000  2.000000  2.000000  2.000000  2.000000
                       2.000000  2.000000  0.000000  0.000000  0.000000  0.000000
                       0.000000  0.000000  0.000000  0.000000  0.000000
        optdriver           1
            prtwf          -1
            rfdir           1       1       1
           rfelfd           2
            rprim      1.1417663319E+01  0.0000000000E+00  0.0000000000E+00
                       0.0000000000E+00  8.0188718876E+00  2.6008284820E+00
                       0.0000000000E+00  0.0000000000E+00  1.3474370198E+01
          spgroup          11
           symrel      1  0  0   0  1  0   0  0  1      -1  0  0   0 -1  0   0  0 -1
                       1  0  0   0 -1  0   0  0 -1      -1  0  0   0  1  0   0  0  1
            tnons      0.0000000  0.0000000  0.0000000     0.0000000  0.0000000  0.0000000
                       0.5000000  0.0000000  0.0000000     0.5000000  0.0000000  0.0000000
           tolwfr      1.00000000E-20
            typat      1  1  2  2  3  3  3  3  4  4
           useylm           1
              wtk        0.50000    0.50000
           xangst      1.5104918009E+00  1.4100195784E+00  6.3612935238E+00
                       4.5314754027E+00  2.8333846631E+00  2.1453352411E+00
                       1.5104918009E+00  3.4165344910E-01  2.6060274149E+00
                       4.5314754027E+00  3.9017507924E+00  5.9006013501E+00
                       3.2048044120E+00  3.5962044700E+00  6.8360119310E+00
                       1.8382081020E-01  6.4719977151E-01  1.6706168340E+00
                       2.8371627916E+00  6.4719977151E-01  1.6706168340E+00
                       5.8581463934E+00  3.5962044700E+00  6.8360119310E+00
                       1.5104918009E+00  2.6753899930E+00  3.8370577855E+00
                       4.5314754027E+00  1.5680142485E+00  4.6695709794E+00
            xcart      2.8544158297E+00  2.6645508452E+00  1.2021102611E+01
                       8.5632474890E+00  5.3543210424E+00  4.0540960689E+00
                       2.8544158297E+00  6.4563145116E-01  4.9246781089E+00
                       8.5632474890E+00  7.3732404364E+00  1.1150520571E+01
                       6.0562026482E+00  6.7958415662E+00  1.2918190391E+01
                       3.4737098881E-01  1.2230303214E+00  3.1570082892E+00
                       5.3614606705E+00  1.2230303214E+00  3.1570082892E+00
                       1.1070292330E+01  6.7958415662E+00  1.2918190391E+01
                       2.8544158297E+00  5.0557543854E+00  7.2509883707E+00
                       8.5632474890E+00  2.9631175022E+00  8.8242103092E+00
             xred      2.5000000000E-01  3.3228500000E-01  8.2800800000E-01
                       7.5000000000E-01  6.6771500000E-01  1.7199200000E-01
                       2.5000000000E-01  8.0514000000E-02  3.4994400000E-01
                       7.5000000000E-01  9.1948600000E-01  6.5005600000E-01
                       5.3042400000E-01  8.4748100000E-01  7.9514200000E-01
                       3.0424000000E-02  1.5251900000E-01  2.0485800000E-01
                       4.6957600000E-01  1.5251900000E-01  2.0485800000E-01
                       9.6957600000E-01  8.4748100000E-01  7.9514200000E-01
                       2.5000000000E-01  6.3048200000E-01  4.1643600000E-01
                       7.5000000000E-01  3.6951800000E-01  5.8356400000E-01
            znucl       19.00000   34.00000    8.00000    9.00000

 chkinp: Checking input parameters for consistency.

== DATASET  1 ==================================================================
-   mpi_nproc: 1, omp_nthreads: -1 (-1 if OMP is not activated)

--- !DatasetInfo
iteration_state: {dtset: 1, }
dimensions: {natom: 10, nkpt: 2, mband: 53, nsppol: 1, nspinor: 1, nspden: 1, mpw: 17190, }
cutoff_energies: {ecut:  44.0, pawecutdg:  -1.0, }
electrons: {nelect:   8.80000000E+01, charge:   0.00000000E+00, occopt:   1.00000000E+00, tsmear:   1.00000000E-02, }
meta: {optdriver: 1, rfelfd: 2, }
...

 Real(R)+Recip(G) space primitive vectors, cartesian coordinates (Bohr,Bohr^-1):
 R(1)= 11.4176633  0.0000000  0.0000000  G(1)=  0.0875836  0.0000000  0.0000000
 R(2)=  0.0000000  8.0188719  2.6008285  G(2)=  0.0000000  0.1247058  0.0000000
 R(3)=  0.0000000  0.0000000 13.4743702  G(3)=  0.0000000 -0.0240708  0.0742150
 Unit cell volume ucvol=  1.2336699E+03 bohr^3
 Angles (23,13,12)=  7.20301279E+01  9.00000000E+01  9.00000000E+01 degrees

 getcut: wavevector=  0.0000  0.0000  0.0000  ngfft=  72  54  90
         ecut(hartree)=     44.000   => boxcut(ratio)=   2.11185

--- Pseudopotential description ------------------------------------------------
- pspini: atom type   1  psp file is /scratch/users/j/a/jabreu/pseudos/PBEsol/K.psp8
- pspatm: opening atomic psp file    /scratch/users/j/a/jabreu/pseudos/PBEsol/K.psp8
- K     ONCVPSP-3.3.0  r_core=   1.36296   1.46408   1.61068
- 19.00000   9.00000    180112                znucl, zion, pspdat
    8 -116133    2    4       400   0.00000   pspcod,pspxc,lmax,lloc,mmax,r2well
    3.99000000000000    5.00000000000000    0.00000000000000   rchrg,fchrg,qchrg
     nproj     2     2     2
     extension_switch     1
  pspatm : epsatm=    8.32487830
         --- l  ekb(1:nproj) -->
             0   10.921326    0.816676
             1    4.431000    0.560368
             2   -3.384038   -1.043186
 pspatm: atomic psp has been read  and splines computed

- pspini: atom type   2  psp file is /scratch/users/j/a/jabreu/pseudos/PBEsol/Se.psp8
- pspatm: opening atomic psp file    /scratch/users/j/a/jabreu/pseudos/PBEsol/Se.psp8
- Se    ONCVPSP-3.3.0  r_core=   1.81943   1.50330   1.90835
- 34.00000  16.00000    180112                znucl, zion, pspdat
    8 -116133    2    4       600   0.00000   pspcod,pspxc,lmax,lloc,mmax,r2well
    5.99000000000000    5.00000000000000    0.00000000000000   rchrg,fchrg,qchrg
     nproj     2     2     2
     extension_switch     1
  pspatm : epsatm=   29.17862020
         --- l  ekb(1:nproj) -->
             0    8.973804    1.019550
             1    6.849857    1.297308
             2   -9.203962   -3.731027
 pspatm: atomic psp has been read  and splines computed

[...]

- pspini: atom type   4  psp file is /scratch/users/j/a/jabreu/pseudos/PBEsol/F.psp8
- pspatm: opening atomic psp file    /scratch/users/j/a/jabreu/pseudos/PBEsol/F.psp8
- F     ONCVPSP-3.3.0  r_core=   1.30942   1.45782   1.60379
-  9.00000   7.00000    180112                znucl, zion, pspdat
    8 -116133    2    4       600   0.00000   pspcod,pspxc,lmax,lloc,mmax,r2well
    5.99000000000000    2.50000000000000    0.00000000000000   rchrg,fchrg,qchrg
     nproj     2     2     1
     extension_switch     1
  pspatm : epsatm=    4.89824824
         --- l  ekb(1:nproj) -->
             0    6.506434    1.065875
             1   -3.978753   -1.295852
             2   -2.394754
 pspatm: atomic psp has been read  and splines computed

   9.65535246E+03                                ecore*ucvol(ha*bohr**3)

 ==>  initialize data related to q vector <==

 The list of irreducible perturbations for this q vector is:
    1)    idir= 1    ipert=  11
    2)    idir= 2    ipert=  11
    3)    idir= 3    ipert=  11

 Perturbation wavevector (in red.coord.)   0.000000  0.000000  0.000000
 Perturbation : derivative vs k along direction   1

 dfpt_looppert : COMMENT -
  In a d/dk calculation, iscf is set to -3 automatically.
 The set of symmetries contains only one element for this perturbation.
 symkpt : not enough symmetry to change the number of k points.

 Initialisation of the first-order wave-functions :
  ireadwf=   0

--- !BeginCycle
iteration_state: {dtset: 1, }
solver: {iscf: 7, nstep: 2000, nline: 4, wfoptalg: 0, }
tolerances: {tolwfr: 1.00E-20, }
...

     iter   2DEtotal(Ha)        deltaE(Ha) residm    vres2
-ETOT  1  -42.187987994160     -4.219E+01 5.230E-02 0.000E+00
 ETOT  2  -42.254369768030     -6.638E-02 4.470E-03 0.000E+00
 ETOT  3  -42.255114079383     -7.443E-04 1.170E-04 0.000E+00
 ETOT  4  -42.255130081864     -1.600E-05 3.053E-05 0.000E+00
[...]
 ETOT 12  -42.255130519445     -1.421E-14 5.073E-12 0.000E+00
 ETOT 13  -42.255130519445      0.000E+00 3.361E-13 0.000E+00
 ETOT 14  -42.255130519445      0.000E+00 1.170E-13 0.000E+00
 ETOT 15  -42.255130519445      0.000E+00 8.047E-15 0.000E+00
 ETOT 16  -42.255130519445     -7.105E-15 2.765E-15 0.000E+00
 ETOT 17  -42.255130519445      0.000E+00 2.017E-16 0.000E+00
 ETOT 18  -42.255130519445      0.000E+00 6.646E-17 0.000E+00
 ETOT 19  -42.255130519445     -7.105E-15 6.438E-18 0.000E+00
 ETOT 20  -42.255130519445      1.421E-14 1.619E-18 0.000E+00
 ETOT 21  -42.255130519445      0.000E+00 2.101E-19 0.000E+00
 ETOT 22  -42.255130519445      0.000E+00 3.984E-20 0.000E+00
 ETOT 23  -42.255130519445      0.000E+00 9.888E-21 0.000E+00

 At SCF step   23   max residual=  9.89E-21 < tolwfr=  1.00E-20 =>converged.

 ----iterations are completed or convergence reached----

 dfpt_looppert: DFPT cycle converged with prtwf=-1. Will skip output of the 1st-order WFK file.
 dfpt_looppert : ek2=    5.3298862390E+01
          f-sum rule ratio=    1.0138552569E+00
 prteigrs : about to open file /scratch/users/j/a/jabreu/flow_simple_10atoms/flow/w275/t1/tmpdata/tmp_1WF1_EIG
 Expectation of eigenvalue derivatives (hartree) for nkpt=   2  k points:
  (in case of degenerate eigenvalues, averaged derivative)
 kpt#   1, nband= 53, wtk=  0.50000, kpt=  0.2188  0.5000  0.5000 (reduced coord)
   0.00001   -0.00001    0.00000   -0.00000    0.00000   -0.00000    0.00001   -0.00001
   0.00000   -0.00000    0.00005   -0.00003    0.00100   -0.00096    0.00350    0.00004
  -0.00345   -0.00652    0.02912    0.02643   -0.00119   -0.00011   -0.00031    0.00223
  -0.01988   -0.02837    0.01027    0.00159    0.01383    0.00041   -0.00886   -0.00749
   0.00974   -0.02983    0.01645    0.01254    0.00646   -0.00014   -0.02334   -0.02154
  -0.02540   -0.03800    0.04038   -0.00032    0.00965    0.00548    0.04644    0.06870
  -0.00502   -0.08742    0.02815    0.03086    0.04469
 prteigrs : prtvol=0 or 1, do not print more k-points.

 Eight components of 2nd-order total energy (hartree) are
 1,2,3: 0th-order hamiltonian combined with 1st-order wavefunctions
     kin0=   5.06074042E+01 eigvalue=   7.36680090E+00  local=  -2.25212359E+01
 4,5,6: 1st-order hamiltonian combined with 1st and 0th-order wfs
     kin1=  -5.40373318E+01  Hartree=   0.00000000E+00     xc=   0.00000000E+00
 7,8,9: eventually, occupation + non-local contributions
    edocc=   5.02789238E+00     enl0=   1.77426891E+00   enl1=  -3.04729292E+01
 1-9 gives the relaxation energy (to be shifted if some occ is /=2.0)
   erelax=  -4.22551305E+01
  No Ewald or frozen-wf contrib.: the relaxation energy is the total one
 2DEtotal=   -0.4225513052E+02 Ha. Also 2DEtotal=   -0.114982057662E+04 eV
    (  non-var. 2DEtotal :   -4.2255130519E+01 Ha)

 Perturbation wavevector (in red.coord.)   0.000000  0.000000  0.000000
 Perturbation : derivative vs k along direction   2
 The set of symmetries contains only one element for this perturbation.
 symkpt : not enough symmetry to change the number of k points.

[...]

 Perturbation wavevector (in red.coord.)   0.000000  0.000000  0.000000
 Perturbation : derivative vs k along direction   3
 The set of symmetries contains only one element for this perturbation.
 symkpt : not enough symmetry to change the number of k points.

 Initialisation of the first-order wave-functions :
  ireadwf=   0

--- !BeginCycle
iteration_state: {dtset: 1, }
solver: {iscf: 7, nstep: 2000, nline: 4, wfoptalg: 0, }
tolerances: {tolwfr: 1.00E-20, }
...

     iter   2DEtotal(Ha)        deltaE(Ha) residm    vres2
-ETOT  1  -33.214089674272     -3.321E+01 8.424E-02 0.000E+00
 ETOT  2  -33.268241741656     -5.415E-02 2.353E-03 0.000E+00
 ETOT  3  -33.268799992919     -5.583E-04 3.729E-04 0.000E+00
 ETOT  4  -33.268811723967     -1.173E-05 2.137E-05 0.000E+00
 ETOT  5  -33.268812031579     -3.076E-07 3.677E-06 0.000E+00
 ETOT  6  -33.268812040745     -9.166E-09 3.219E-07 0.000E+00
 ETOT  7  -33.268812041039     -2.938E-10 4.897E-08 0.000E+00
 ETOT  8  -33.268812041049     -9.884E-12 5.400E-09 0.000E+00
 ETOT  9  -33.268812041049     -3.411E-13 8.401E-10 0.000E+00
 ETOT 10  -33.268812041049     -1.421E-14 9.338E-11 0.000E+00
 ETOT 11  -33.268812041049     -2.132E-14 1.476E-11 0.000E+00
 ETOT 12  -33.268812041049     -7.105E-15 1.641E-12 0.000E+00
 ETOT 13  -33.268812041049     -7.105E-15 2.629E-13 0.000E+00
 ETOT 14  -33.268812041049      7.105E-15 2.918E-14 0.000E+00
 ETOT 15  -33.268812041049      0.000E+00 4.783E-15 0.000E+00
 ETOT 16  -33.268812041049      0.000E+00 5.388E-16 0.000E+00
 ETOT 17  -33.268812041049      0.000E+00 9.397E-17 0.000E+00
 ETOT 18  -33.268812041049      0.000E+00 1.103E-17 0.000E+00
 ETOT 19  -33.268812041049      0.000E+00 1.891E-18 0.000E+00
 ETOT 20  -33.268812041049      0.000E+00 2.308E-19 0.000E+00
 ETOT 21  -33.268812041049      7.105E-15 3.891E-20 0.000E+00
 ETOT 22  -33.268812041049     -7.105E-15 9.991E-21 0.000E+00

 At SCF step   22   max residual=  9.99E-21 < tolwfr=  1.00E-20 =>converged.

 ----iterations are completed or convergence reached----

 dfpt_looppert: DFPT cycle converged with prtwf=-1. Will skip output of the 1st-order WFK file.
 dfpt_looppert : ek2=    4.2295536188E+01
          f-sum rule ratio=    1.0001633593E+00
 prteigrs : about to open file /scratch/users/j/a/jabreu/flow_simple_10atoms/flow/w275/t1/tmpdata/tmp_1WF1_EIG
 Expectation of eigenvalue derivatives (hartree) for nkpt=   2  k points:
  (in case of degenerate eigenvalues, averaged derivative)
 kpt#   1, nband= 53, wtk=  0.50000, kpt=  0.2188  0.5000  0.5000 (reduced coord)
   0.00000    0.00000   -0.00000   -0.00000    0.00000   -0.00000   -0.00000    0.00000
  -0.00000    0.00000   -0.00000    0.00000    0.00000    0.00000    0.00000    0.00000
   0.00000   -0.00000   -0.00000   -0.00000   -0.00000    0.00000   -0.00000    0.00000
  -0.00000    0.00000    0.00000   -0.00000    0.00000   -0.00000    0.00000   -0.00000
   0.00000    0.00000    0.00000   -0.00000    0.00000   -0.00000    0.00000    0.00000
   0.00000    0.00000    0.00000   -0.00000   -0.00000    0.00000   -0.00000    0.00000
  -0.00000    0.00000    0.00000    0.00000    0.00001
 prteigrs : prtvol=0 or 1, do not print more k-points.

 Eight components of 2nd-order total energy (hartree) are
 1,2,3: 0th-order hamiltonian combined with 1st-order wavefunctions
     kin0=   4.09869080E+01 eigvalue=   5.86638113E+00  local=  -1.81228904E+01
 4,5,6: 1st-order hamiltonian combined with 1st and 0th-order wfs
     kin1=  -4.23024456E+01  Hartree=   0.00000000E+00     xc=   0.00000000E+00
 7,8,9: eventually, occupation + non-local contributions
    edocc=   3.20079749E+00     enl0=   1.33761582E+00   enl1=  -2.42351785E+01
 1-9 gives the relaxation energy (to be shifted if some occ is /=2.0)
   erelax=  -3.32688120E+01
  No Ewald or frozen-wf contrib.: the relaxation energy is the total one
 2DEtotal=   -0.3326881204E+02 Ha. Also 2DEtotal=   -0.905290415015E+03 eV
    (  non-var. 2DEtotal :   -3.3268812041E+01 Ha)

 CALCULATION OF EFFECTIVE MASSES
 NOTE : Additional infos (eff. mass eigenvalues, eigenvectors and, if degenerate, average mass) are available in stdout.

 K-point ( 0.219, 0.500, 0.500) | band =    44
 Effective mass tensor:
             -6.2735273653              0.0000007684             -0.0000026544
              0.0000007684             -1.9525995454              0.9694926883
             -0.0000026544              0.9694926883             -3.5985866527
 Effective mass tensor eigenvalues:
             -6.2735273653             -4.0472984352             -1.5038877629
 Angular average effective mass 1/(<1/m>)=  -2.8000182402
 Angular average effective mass for Frohlich model (<m**0.5>)**2=  -3.1357713532
 Effective masses along directions: (cart. coord. / red. coord. -> eff. mass)
    1:   1.000000  0.000000  0.000000 /   1.000000  0.000000  0.000000 ->  -6.2735273653
    2:   0.000000  1.000000  0.000000 /   0.000000  1.000000  0.000000 ->  -1.6914092050
    3:   0.000000  0.000000  1.000000 /   0.000000  0.189522  0.981876 ->  -3.1172201201
    4:   0.577350  0.577350  0.577350 /   0.554034  0.515313  0.653834 ->  -2.1582993068
    5:   0.000000  0.707107  0.707107 /   0.000000  0.618999  0.785392 ->  -1.6252451706
    6:   0.707107  0.000000  0.707107 /   0.639581  0.145690  0.754791 ->  -4.1649453835
    7:   0.707107  0.707107  0.000000 /   0.818338  0.574737  0.000000 ->  -2.6644535579

 K-point ( 0.000, 0.500, 0.000) | band =    45
 Effective mass tensor:
              3.4204085727             -0.0000000692              0.0000001277
             -0.0000000692              2.0415485390             -5.3430207663
              0.0000001277             -5.3430207663             17.6138065567
 Effective mass tensor eigenvalues:
              0.3846019974              3.4204085727             19.2707530983
 Angular average effective mass 1/(<1/m>)=   1.0189022181
 Angular average effective mass for Frohlich model (<m**0.5>)**2=   1.8268712124
 Effective masses along directions: (cart. coord. / red. coord. -> eff. mass)
    1:   1.000000  0.000000  0.000000 /   1.000000  0.000000  0.000000 ->   3.4204085727
    2:   0.000000  1.000000  0.000000 /   0.000000  1.000000  0.000000 ->   0.4207818514
    3:   0.000000  0.000000  1.000000 /   0.000000  0.189522  0.981876 ->   3.6303668471
    4:   0.577350  0.577350  0.577350 /   0.554034  0.515313  0.653834 ->   0.6839710192
    5:   0.000000  0.707107  0.707107 /   0.000000  0.618999  0.785392 ->   0.4885450873
    6:   0.707107  0.000000  0.707107 /   0.639581  0.145690  0.754791 ->   3.5222615835
    7:   0.707107  0.707107  0.000000 /   0.818338  0.574737  0.000000 ->   0.7493748916

 END OF EFFECTIVE MASSES SECTION

 ---- first-order wavefunction calculations are completed ----

 Total localisation tensor (bohr^2) in cartesian coordinates
  WARNING : still subject to testing - especially symmetries.
      direction              matrix element
   alpha     beta       real part   imaginary part
     1        1       0.6410331404    0.0000000000
     1        2       0.0000000000    0.0000000000
     1        3       0.0000000000    0.0000000000
     2        1       0.0000000000    0.0000000000
     2        2       0.7330075556    0.0000000000
     2        3       0.2377425347    0.0000000000
     3        1       0.0000000000    0.0000000000
     3        2       0.2377425347    0.0000000000
     3        3       0.6823720073    0.0000000000

 respfn : d/dk was computed, but no 2DTE, so no DDB output.

== END DATASET(S) ==============================================================

 -outvars: echo values of variables after computation  --------
            acell      1.0000000000E+00  1.0000000000E+00  1.0000000000E+00 Bohr
              amu      3.90983000E+01  7.89600000E+01  1.59994000E+01
                       1.89984032E+01
             ecut      4.40000000E+01 Hartree
           etotal     -3.3268812041E+01
            fcart      0.0000000000E+00  0.0000000000E+00  0.0000000000E+00
                       0.0000000000E+00  0.0000000000E+00  0.0000000000E+00
                       0.0000000000E+00  0.0000000000E+00  0.0000000000E+00
                       0.0000000000E+00  0.0000000000E+00  0.0000000000E+00
                       0.0000000000E+00  0.0000000000E+00  0.0000000000E+00
                       0.0000000000E+00  0.0000000000E+00  0.0000000000E+00
                       0.0000000000E+00  0.0000000000E+00  0.0000000000E+00
                       0.0000000000E+00  0.0000000000E+00  0.0000000000E+00
                       0.0000000000E+00  0.0000000000E+00  0.0000000000E+00
                       0.0000000000E+00  0.0000000000E+00  0.0000000000E+00
-          fftalg         512
           irdden           1
           irdwfk           1
           istwfk        0    1
              ixc     -116133
              kpt      2.18750000E-01  5.00000000E-01  5.00000000E-01
                       0.00000000E+00  5.00000000E-01  0.00000000E+00
           kptopt           0
P           mkmem           2
P          mkqmem           2
P          mk1mem           2
            natom          10
            nband          53
           nbdbuf           4
            ngfft          72      54      90
             nkpt           2
            nstep        2000
             nsym           4
           ntypat           4
              occ      2.000000  2.000000  2.000000  2.000000  2.000000  2.000000
                       2.000000  2.000000  2.000000  2.000000  2.000000  2.000000
                       2.000000  2.000000  2.000000  2.000000  2.000000  2.000000
                       2.000000  2.000000  2.000000  2.000000  2.000000  2.000000
                       2.000000  2.000000  2.000000  2.000000  2.000000  2.000000
                       2.000000  2.000000  2.000000  2.000000  2.000000  2.000000
                       2.000000  2.000000  2.000000  2.000000  2.000000  2.000000
                       2.000000  2.000000  0.000000  0.000000  0.000000  0.000000
                       0.000000  0.000000  0.000000  0.000000  0.000000
        optdriver           1
            prtwf          -1
            rfdir           1       1       1
           rfelfd           2
            rprim      1.1417663319E+01  0.0000000000E+00  0.0000000000E+00
                       0.0000000000E+00  8.0188718876E+00  2.6008284820E+00
                       0.0000000000E+00  0.0000000000E+00  1.3474370198E+01
          spgroup          11
           strten      0.0000000000E+00  0.0000000000E+00  0.0000000000E+00
                       0.0000000000E+00  0.0000000000E+00  0.0000000000E+00
           symrel      1  0  0   0  1  0   0  0  1      -1  0  0   0 -1  0   0  0 -1
                       1  0  0   0 -1  0   0  0 -1      -1  0  0   0  1  0   0  0  1
            tnons      0.0000000  0.0000000  0.0000000     0.0000000  0.0000000  0.0000000
                       0.5000000  0.0000000  0.0000000     0.5000000  0.0000000  0.0000000
           tolwfr      1.00000000E-20
            typat      1  1  2  2  3  3  3  3  4  4
           useylm           1
              wtk        0.50000    0.50000
           xangst      1.5104918009E+00  1.4100195784E+00  6.3612935238E+00
                       4.5314754027E+00  2.8333846631E+00  2.1453352411E+00
                       1.5104918009E+00  3.4165344910E-01  2.6060274149E+00
                       4.5314754027E+00  3.9017507924E+00  5.9006013501E+00
                       3.2048044120E+00  3.5962044700E+00  6.8360119310E+00
                       1.8382081020E-01  6.4719977151E-01  1.6706168340E+00
                       2.8371627916E+00  6.4719977151E-01  1.6706168340E+00
                       5.8581463934E+00  3.5962044700E+00  6.8360119310E+00
                       1.5104918009E+00  2.6753899930E+00  3.8370577855E+00
                       4.5314754027E+00  1.5680142485E+00  4.6695709794E+00
            xcart      2.8544158297E+00  2.6645508452E+00  1.2021102611E+01
                       8.5632474890E+00  5.3543210424E+00  4.0540960689E+00
                       2.8544158297E+00  6.4563145116E-01  4.9246781089E+00
                       8.5632474890E+00  7.3732404364E+00  1.1150520571E+01
                       6.0562026482E+00  6.7958415662E+00  1.2918190391E+01
                       3.4737098881E-01  1.2230303214E+00  3.1570082892E+00
                       5.3614606705E+00  1.2230303214E+00  3.1570082892E+00
                       1.1070292330E+01  6.7958415662E+00  1.2918190391E+01
                       2.8544158297E+00  5.0557543854E+00  7.2509883707E+00
                       8.5632474890E+00  2.9631175022E+00  8.8242103092E+00
             xred      2.5000000000E-01  3.3228500000E-01  8.2800800000E-01
                       7.5000000000E-01  6.6771500000E-01  1.7199200000E-01
                       2.5000000000E-01  8.0514000000E-02  3.4994400000E-01
                       7.5000000000E-01  9.1948600000E-01  6.5005600000E-01
                       5.3042400000E-01  8.4748100000E-01  7.9514200000E-01
                       3.0424000000E-02  1.5251900000E-01  2.0485800000E-01
                       4.6957600000E-01  1.5251900000E-01  2.0485800000E-01
                       9.6957600000E-01  8.4748100000E-01  7.9514200000E-01
                       2.5000000000E-01  6.3048200000E-01  4.1643600000E-01
                       7.5000000000E-01  3.6951800000E-01  5.8356400000E-01
            znucl       19.00000   34.00000    8.00000    9.00000

- Timing analysis has been suppressed with timopt=0

 Suggested references for the acknowledgment of ABINIT usage.

 Calculation completed.
.Delivered   2 WARNINGs and   5 COMMENTs to log file.