.Version 9.7.2 of ABINIT

 ABINIT is a project of the Universite Catholique de Louvain,
 Corning Inc. and other collaborators, see ~abinit/doc/developers/contributors.txt .
 acknowledgments of the ABINIT effort.

.Starting date : Wed  1 Dec 2021.
- ( at 21h36 )

- input  file    -> /scratch/users/j/a/jabreu/flow_simple_remain_atoms/flow/w219/t1/run.abi
- output file    -> /scratch/users/j/a/jabreu/flow_simple_remain_atoms/flow/w219/t1/run.abo
- root for input  files -> /scratch/users/j/a/jabreu/flow_simple_remain_atoms/flow/w219/t1/indata/in
- root for output files -> /scratch/users/j/a/jabreu/flow_simple_remain_atoms/flow/w219/t1/outdata/out

 Symmetries : space group Cm c m (# 63); Bravais oC (1-face-center ortho.)
     intxc =       0      iscf =       7    lmnmax =      25     lnmax =       7
     mgfft =      80  mpssoang =       4    mqgrid =    3725     natom =       6
  nloc_mem =       1    nspden =       1   nspinor =       1    nsppol =       1
      nsym =       8    n1xccc =    2501    ntypat =       3    occopt =       1
   xclevel =       2
-    mband =          53        mffmem =           1         mkmem =           2
-   mkqmem =           2        mk1mem =           2           mpw =       15917
      nfft =      288000          nkpt =           2
  Rough estimation (10% accuracy) of disk space for files :

------------- Echo of variables that govern the present computation ------------
-
- outvars: echo of selected default values
-   iomode0 =  0 , fftalg0 =512 , wfoptalg0 =  0
-
- outvars: echo of global parameters not present in the input file
-  max_nthreads =    0
-
 -outvars: echo values of preprocessed input variables --------
            acell      1.0000000000E+00  1.0000000000E+00  1.0000000000E+00 Bohr
              amu      3.90983000E+01  1.96966540E+02  7.89600000E+01
             ecut      4.30000000E+01 Hartree
-          fftalg         512
           irdden           1
           irdwfk           1
              ixc     -116133
              kpt     -5.00000000E-01  5.00000000E-01  0.00000000E+00
                      -8.33333333E-02  8.33333333E-02  0.00000000E+00
           kptopt           0
P           mkmem           2
P          mkqmem           2
P          mk1mem           2
            natom           6
            nband          53
           nbdbuf           4
            ngfft          60      60      80
             nkpt           2
            nstep        2000
             nsym           8
           ntypat           3
              occ      2.000000  2.000000  2.000000  2.000000  2.000000  2.000000
                       2.000000  2.000000  2.000000  2.000000  2.000000  2.000000
                       2.000000  2.000000  2.000000  2.000000  2.000000  2.000000
                       2.000000  2.000000  2.000000  2.000000  2.000000  2.000000
                       2.000000  2.000000  2.000000  2.000000  2.000000  2.000000
                       2.000000  2.000000  2.000000  2.000000  2.000000  2.000000
                       2.000000  2.000000  2.000000  2.000000  2.000000  2.000000
                       2.000000  2.000000  0.000000  0.000000  0.000000  0.000000
                       0.000000  0.000000  0.000000  0.000000  0.000000
        optdriver           1
            prtwf          -1
            rfdir           1       1       1
           rfelfd           2
            rprim      9.8033307238E+00  0.0000000000E+00  0.0000000000E+00
                      -2.2445011688E+00  9.5429297275E+00  0.0000000000E+00
                       0.0000000000E+00  0.0000000000E+00  1.2616193824E+01
          spgroup          63
           symrel      1  0  0   0  1  0   0  0  1      -1  0  0   0 -1  0   0  0 -1
                       0 -1  0  -1  0  0   0  0 -1       0  1  0   1  0  0   0  0  1
                      -1  0  0   0 -1  0   0  0  1       1  0  0   0  1  0   0  0 -1
                       0  1  0   1  0  0   0  0 -1       0 -1  0  -1  0  0   0  0  1
            tnons      0.0000000  0.0000000  0.0000000     0.0000000  0.0000000  0.0000000
                       0.0000000  0.0000000  0.5000000    -0.0000000  0.0000000  0.5000000
                       0.0000000  0.0000000  0.5000000     0.0000000  0.0000000  0.5000000
                      -0.0000000  0.0000000  0.0000000     0.0000000  0.0000000  0.0000000
           tolwfr      1.00000000E-20
            typat      1  1  2  2  3  3
           useylm           1
              wtk        0.50000    0.50000
           xangst      1.1228027670E+00  3.2197511747E+00  1.6690505577E+00
                       2.8771575571E+00  1.8301497403E+00  5.0071516731E+00
                       0.0000000000E+00  0.0000000000E+00  3.3381011154E+00
                       0.0000000000E+00  0.0000000000E+00  0.0000000000E+00
                       3.8112931157E+00  1.0902332083E+00  1.6690505577E+00
                       1.8866720841E-01  3.9596677066E+00  5.0071516731E+00
            xcart      2.1217897309E+00  6.0844479362E+00  3.1540484560E+00
                       5.4370398241E+00  3.4584817913E+00  9.4621453680E+00
                       0.0000000000E+00  0.0000000000E+00  6.3080969120E+00
                       0.0000000000E+00  0.0000000000E+00  0.0000000000E+00
                       7.2023002008E+00  2.0602421847E+00  3.1540484560E+00
                       3.5652935416E-01  7.4826875428E+00  9.4621453680E+00
             xred      3.6241300000E-01  6.3758700000E-01  2.5000000000E-01
                       6.3758700000E-01  3.6241300000E-01  7.5000000000E-01
                       0.0000000000E+00  0.0000000000E+00  5.0000000000E-01
                       0.0000000000E+00  0.0000000000E+00  0.0000000000E+00
                       7.8410800000E-01  2.1589200000E-01  2.5000000000E-01
                       2.1589200000E-01  7.8410800000E-01  7.5000000000E-01
            znucl       19.00000   79.00000   34.00000

 chkinp: Checking input parameters for consistency.

== DATASET  1 ==================================================================
-   mpi_nproc: 1, omp_nthreads: -1 (-1 if OMP is not activated)

--- !DatasetInfo
iteration_state: {dtset: 1, }
dimensions: {natom: 6, nkpt: 2, mband: 53, nsppol: 1, nspinor: 1, nspden: 1, mpw: 15917, }
cutoff_energies: {ecut:  43.0, pawecutdg:  -1.0, }
electrons: {nelect:   8.80000000E+01, charge:   0.00000000E+00, occopt:   1.00000000E+00, tsmear:   1.00000000E-02, }
meta: {optdriver: 1, rfelfd: 2, }
...

 Real(R)+Recip(G) space primitive vectors, cartesian coordinates (Bohr,Bohr^-1):
 R(1)=  9.8033307  0.0000000  0.0000000  G(1)=  0.1020061  0.0239919  0.0000000
 R(2)= -2.2445012  9.5429297  0.0000000  G(2)=  0.0000000  0.1047896  0.0000000
 R(3)=  0.0000000  0.0000000 12.6161938  G(3)=  0.0000000  0.0000000  0.0792632
 Unit cell volume ucvol=  1.1802764E+03 bohr^3
 Angles (23,13,12)=  9.00000000E+01  9.00000000E+01  1.03235433E+02 degrees

 getcut: wavevector=  0.0000  0.0000  0.0000  ngfft=  60  60  80
         ecut(hartree)=     43.000   => boxcut(ratio)=   2.07340

--- Pseudopotential description ------------------------------------------------
- pspini: atom type   1  psp file is /scratch/users/j/a/jabreu/pseudos/PBEsol/K.psp8
- pspatm: opening atomic psp file    /scratch/users/j/a/jabreu/pseudos/PBEsol/K.psp8
- K     ONCVPSP-3.3.0  r_core=   1.36296   1.46408   1.61068
- 19.00000   9.00000    180112                znucl, zion, pspdat
    8 -116133    2    4       400   0.00000   pspcod,pspxc,lmax,lloc,mmax,r2well
    3.99000000000000    5.00000000000000    0.00000000000000   rchrg,fchrg,qchrg
     nproj     2     2     2
     extension_switch     1
  pspatm : epsatm=    8.32487830
         --- l  ekb(1:nproj) -->
             0   10.921326    0.816676
             1    4.431000    0.560368
             2   -3.384038   -1.043186
 pspatm: atomic psp has been read  and splines computed

- pspini: atom type   2  psp file is /scratch/users/j/a/jabreu/pseudos/PBEsol/Au.psp8
- pspatm: opening atomic psp file    /scratch/users/j/a/jabreu/pseudos/PBEsol/Au.psp8
- Au    ONCVPSP-3.3.0  r_core=   1.45604   1.56407   1.56407   1.60183
- 79.00000  19.00000    180112                znucl, zion, pspdat
    8 -116133    3    4       500   0.00000   pspcod,pspxc,lmax,lloc,mmax,r2well
    4.99000000000000    5.00000000000000    0.00000000000000   rchrg,fchrg,qchrg
     nproj     2     2     2     1
     extension_switch     1
  pspatm : epsatm=   32.21965837
         --- l  ekb(1:nproj) -->
             0    9.413866   -0.196587
             1    2.474292   -1.517497
             2    1.503483    0.298081
             3    1.177996
 pspatm: atomic psp has been read  and splines computed

- pspini: atom type   3  psp file is /scratch/users/j/a/jabreu/pseudos/PBEsol/Se.psp8
- pspatm: opening atomic psp file    /scratch/users/j/a/jabreu/pseudos/PBEsol/Se.psp8
- Se    ONCVPSP-3.3.0  r_core=   1.81943   1.50330   1.90835
- 34.00000  16.00000    180112                znucl, zion, pspdat
    8 -116133    2    4       600   0.00000   pspcod,pspxc,lmax,lloc,mmax,r2well
    5.99000000000000    5.00000000000000    0.00000000000000   rchrg,fchrg,qchrg
     nproj     2     2     2
     extension_switch     1
  pspatm : epsatm=   29.17862020
         --- l  ekb(1:nproj) -->
             0    8.973804    1.019550
             1    6.849857    1.297308
             2   -9.203962   -3.731027
 pspatm: atomic psp has been read  and splines computed

   1.22712756E+04                                ecore*ucvol(ha*bohr**3)

 ==>  initialize data related to q vector <==

 The list of irreducible perturbations for this q vector is:
    1)    idir= 1    ipert=   7
    2)    idir= 2    ipert=   7
    3)    idir= 3    ipert=   7

 Perturbation wavevector (in red.coord.)   0.000000  0.000000  0.000000
 Perturbation : derivative vs k along direction   1

 dfpt_looppert : COMMENT -
  In a d/dk calculation, iscf is set to -3 automatically.
 The set of symmetries contains only one element for this perturbation.
 symkpt : not enough symmetry to change the number of k points.

 Initialisation of the first-order wave-functions :
  ireadwf=   0

--- !BeginCycle
iteration_state: {dtset: 1, }
solver: {iscf: 7, nstep: 2000, nline: 4, wfoptalg: 0, }
tolerances: {tolwfr: 1.00E-20, }
...

     iter   2DEtotal(Ha)        deltaE(Ha) residm    vres2
-ETOT  1  -61.229791952110     -6.123E+01 7.084E-02 0.000E+00
 ETOT  2  -61.332985023429     -1.032E-01 7.815E-03 0.000E+00
 ETOT  3  -61.334640913005     -1.656E-03 2.384E-04 0.000E+00
 ETOT  4  -61.334694310680     -5.340E-05 6.239E-05 0.000E+00
 ETOT  5  -61.334696400666     -2.090E-06 2.288E-06 0.000E+00
 ETOT  6  -61.334696488528     -8.786E-08 9.721E-07 0.000E+00
 ETOT  7  -61.334696492374     -3.846E-09 3.867E-08 0.000E+00
 ETOT  8  -61.334696492546     -1.719E-10 1.901E-08 0.000E+00
 ETOT  9  -61.334696492553     -7.724E-12 7.282E-10 0.000E+00
 ETOT 10  -61.334696492554     -4.619E-13 3.809E-10 0.000E+00
 ETOT 11  -61.334696492554      2.132E-14 1.434E-11 0.000E+00
 ETOT 12  -61.334696492554      3.553E-14 7.815E-12 0.000E+00
 ETOT 13  -61.334696492554      4.263E-14 2.896E-13 0.000E+00
 ETOT 14  -61.334696492554     -5.684E-14 1.631E-13 0.000E+00
 ETOT 15  -61.334696492554      2.842E-14 5.950E-15 0.000E+00
 ETOT 16  -61.334696492554     -2.842E-14 3.442E-15 0.000E+00
 ETOT 17  -61.334696492554      7.105E-15 1.237E-16 0.000E+00
 ETOT 18  -61.334696492554     -2.132E-14 7.317E-17 0.000E+00
 ETOT 19  -61.334696492554      7.105E-15 2.593E-18 0.000E+00
 ETOT 20  -61.334696492554      0.000E+00 1.563E-18 0.000E+00
 ETOT 21  -61.334696492554      3.553E-14 5.467E-20 0.000E+00
 ETOT 22  -61.334696492554     -3.553E-14 3.350E-20 0.000E+00
 ETOT 23  -61.334696492554      0.000E+00 9.963E-21 0.000E+00

 At SCF step   23   max residual=  9.96E-21 < tolwfr=  1.00E-20 =>converged.

 ----iterations are completed or convergence reached----

 dfpt_looppert: DFPT cycle converged with prtwf=-1. Will skip output of the 1st-order WFK file.
 dfpt_looppert : ek2=    7.6297261971E+01
          f-sum rule ratio=    1.0341977745E+00
 prteigrs : about to open file /scratch/users/j/a/jabreu/flow_simple_remain_atoms/flow/w219/t1/tmpdata/tmp_1WF1_EIG
 Expectation of eigenvalue derivatives (hartree) for nkpt=   2  k points:
  (in case of degenerate eigenvalues, averaged derivative)
 kpt#   1, nband= 53, wtk=  0.50000, kpt= -0.5000  0.5000  0.0000 (reduced coord)
   0.00000    0.00000   -0.00000    0.00000   -0.00000   -0.00000    0.00000   -0.00000
   0.00000   -0.00000   -0.00000    0.00000    0.00000    0.00000   -0.00000    0.00000
   0.00000   -0.00000   -0.00000    0.00000    0.00000   -0.00000   -0.00000   -0.00000
  -0.00000   -0.00000   -0.00000    0.00000    0.00000   -0.00000    0.00000   -0.00000
  -0.00000   -0.00000   -0.00000   -0.00000    0.00000    0.00000    0.00000   -0.00000
  -0.00000   -0.00000   -0.00000   -0.00000   -0.00000    0.00000   -0.00000   -0.00000
   0.00000   -0.00000    0.00000    0.00000   -0.00113
 prteigrs : prtvol=0 or 1, do not print more k-points.

 Eight components of 2nd-order total energy (hartree) are
 1,2,3: 0th-order hamiltonian combined with 1st-order wavefunctions
     kin0=   7.83143539E+01 eigvalue=   8.10529041E+00  local=  -3.82358044E+01
 4,5,6: 1st-order hamiltonian combined with 1st and 0th-order wfs
     kin1=  -7.89064585E+01  Hartree=   0.00000000E+00     xc=   0.00000000E+00
 7,8,9: eventually, occupation + non-local contributions
    edocc=   7.90342384E+00     enl0=   5.24743279E+00   enl1=  -4.37629345E+01
 1-9 gives the relaxation energy (to be shifted if some occ is /=2.0)
   erelax=  -6.13346965E+01
  No Ewald or frozen-wf contrib.: the relaxation energy is the total one
 2DEtotal=   -0.6133469649E+02 Ha. Also 2DEtotal=   -0.166900197020E+04 eV
    (  non-var. 2DEtotal :   -6.1334696492E+01 Ha)

 Perturbation wavevector (in red.coord.)   0.000000  0.000000  0.000000
 Perturbation : derivative vs k along direction   2
 The set of symmetries contains only one element for this perturbation.
 symkpt : not enough symmetry to change the number of k points.

[...]

 Perturbation wavevector (in red.coord.)   0.000000  0.000000  0.000000
 Perturbation : derivative vs k along direction   3
 The set of symmetries contains only one element for this perturbation.
 symkpt : not enough symmetry to change the number of k points.

 Initialisation of the first-order wave-functions :
  ireadwf=   0

--- !BeginCycle
iteration_state: {dtset: 1, }
solver: {iscf: 7, nstep: 2000, nline: 4, wfoptalg: 0, }
tolerances: {tolwfr: 1.00E-20, }
...

     iter   2DEtotal(Ha)        deltaE(Ha) residm    vres2
-ETOT  1  -35.317028800738     -3.532E+01 8.452E-02 0.000E+00
 ETOT  2  -35.364381498132     -4.735E-02 1.140E-02 0.000E+00
 ETOT  3  -35.364893355623     -5.119E-04 8.244E-04 0.000E+00
 ETOT  4  -35.364906470884     -1.312E-05 1.770E-04 0.000E+00
 ETOT  5  -35.364906907792     -4.369E-07 1.690E-05 0.000E+00
 ETOT  6  -35.364906924242     -1.645E-08 4.501E-06 0.000E+00
 ETOT  7  -35.364906924900     -6.588E-10 4.316E-07 0.000E+00
 ETOT  8  -35.364906924928     -2.736E-11 1.239E-07 0.000E+00
 ETOT  9  -35.364906924929     -1.172E-12 1.204E-08 0.000E+00
 ETOT 10  -35.364906924929     -1.421E-14 3.555E-09 0.000E+00
 ETOT 11  -35.364906924929     -1.421E-14 3.521E-10 0.000E+00
 ETOT 12  -35.364906924929     -2.842E-14 1.047E-10 0.000E+00
 ETOT 13  -35.364906924929      0.000E+00 1.052E-11 0.000E+00
 ETOT 14  -35.364906924929     -7.105E-15 3.139E-12 0.000E+00
 ETOT 15  -35.364906924929      1.421E-14 3.175E-13 0.000E+00
 ETOT 16  -35.364906924929     -7.105E-15 9.538E-14 0.000E+00
 ETOT 17  -35.364906924929      0.000E+00 9.646E-15 0.000E+00
 ETOT 18  -35.364906924929      0.000E+00 2.921E-15 0.000E+00
 ETOT 19  -35.364906924929      0.000E+00 2.945E-16 0.000E+00
 ETOT 20  -35.364906924929     -7.105E-15 8.985E-17 0.000E+00
 ETOT 21  -35.364906924929      7.105E-15 9.023E-18 0.000E+00
 ETOT 22  -35.364906924929      0.000E+00 2.772E-18 0.000E+00
 ETOT 23  -35.364906924929     -1.421E-14 2.772E-19 0.000E+00
 ETOT 24  -35.364906924929      7.105E-15 8.564E-20 0.000E+00
 ETOT 25  -35.364906924929      0.000E+00 9.912E-21 0.000E+00

 At SCF step   25   max residual=  9.91E-21 < tolwfr=  1.00E-20 =>converged.

 ----iterations are completed or convergence reached----

 dfpt_looppert: DFPT cycle converged with prtwf=-1. Will skip output of the 1st-order WFK file.
 dfpt_looppert : ek2=    4.3653161238E+01
          f-sum rule ratio=    1.0446884634E+00
 prteigrs : about to open file /scratch/users/j/a/jabreu/flow_simple_remain_atoms/flow/w219/t1/tmpdata/tmp_1WF1_EIG
 Expectation of eigenvalue derivatives (hartree) for nkpt=   2  k points:
  (in case of degenerate eigenvalues, averaged derivative)
 kpt#   1, nband= 53, wtk=  0.50000, kpt= -0.5000  0.5000  0.0000 (reduced coord)
   0.00000    0.00000    0.00000   -0.00000    0.00000   -0.00000   -0.00000   -0.00000
  -0.00000   -0.00000    0.00000   -0.00000    0.00000    0.00000    0.00000    0.00000
  -0.00000   -0.00000    0.00000   -0.00000   -0.00000    0.00000   -0.00000   -0.00000
  -0.00000   -0.00000    0.00000    0.00000    0.00000   -0.00000   -0.00000    0.00000
  -0.00000   -0.00000    0.00000   -0.00000    0.00000    0.00000    0.00000    0.00000
  -0.00000    0.00000   -0.00000   -0.00000   -0.00000   -0.00000    0.00000   -0.00000
  -0.00000   -0.00000    0.00000   -0.00001   -0.00031
 prteigrs : prtvol=0 or 1, do not print more k-points.

 Eight components of 2nd-order total energy (hartree) are
 1,2,3: 0th-order hamiltonian combined with 1st-order wavefunctions
     kin0=   4.27720737E+01 eigvalue=   4.64461319E+00  local=  -2.06537451E+01
 4,5,6: 1st-order hamiltonian combined with 1st and 0th-order wfs
     kin1=  -4.56039539E+01  Hartree=   0.00000000E+00     xc=   0.00000000E+00
 7,8,9: eventually, occupation + non-local contributions
    edocc=   5.69275408E+00     enl0=   2.90921107E+00   enl1=  -2.51258599E+01
 1-9 gives the relaxation energy (to be shifted if some occ is /=2.0)
   erelax=  -3.53649069E+01
  No Ewald or frozen-wf contrib.: the relaxation energy is the total one
 2DEtotal=   -0.3536490692E+02 Ha. Also 2DEtotal=   -0.962328057507E+03 eV
    (  non-var. 2DEtotal :   -3.5364906925E+01 Ha)

 CALCULATION OF EFFECTIVE MASSES
 NOTE : Additional infos (eff. mass eigenvalues, eigenvectors and, if degenerate, average mass) are available in stdout.

 K-point (-0.500, 0.500, 0.000) | band =    44
 Effective mass tensor:
             -1.7002933689              0.7857304274             -0.0000004733
              0.7857304274             -1.3303125197             -0.0000006202
             -0.0000004733             -0.0000006202             -0.4219858359
 Effective mass tensor eigenvalues:
             -2.3225165231             -0.7080893655             -0.4219858359
 Angular average effective mass 1/(<1/m>)=  -0.7121549553
 Angular average effective mass for Frohlich model (<m**0.5>)**2=  -0.8023052755
 Effective masses along directions: (cart. coord. / red. coord. -> eff. mass)
    1:   1.000000  0.000000  0.000000 /   0.974778 -0.223178  0.000000 ->  -1.2362127146
    2:   0.000000  1.000000  0.000000 /   0.000000  1.000000  0.000000 ->  -0.9672150002
    3:   0.000000  0.000000  1.000000 /   0.000000  0.000000  1.000000 ->  -0.4219858359
    4:   0.577350  0.577350  0.577350 /   0.558107  0.415502  0.718244 ->  -0.5804823036
    5:   0.000000  0.707107  0.707107 /   0.000000  0.603263  0.797542 ->  -0.5876062160
    6:   0.707107  0.000000  0.707107 /   0.607613 -0.139115  0.781955 ->  -0.6291945965
    7:   0.707107  0.707107  0.000000 /   0.802119  0.597165  0.000000 ->  -0.7147003044

 K-point (-0.083, 0.083, 0.000) | band =    45
 Effective mass tensor:
              0.4639945790              0.1573599793              0.0000002743
              0.1573599793              0.5381496084              0.0000004039
              0.0000002743              0.0000004039              0.2515317538
 Effective mass tensor eigenvalues:
              0.2515317538              0.3394029712              0.6627412163
 Angular average effective mass 1/(<1/m>)=   0.3558349127
 Angular average effective mass for Frohlich model (<m**0.5>)**2=   0.3716875845
 Effective masses along directions: (cart. coord. / red. coord. -> eff. mass)
    1:   1.000000  0.000000  0.000000 /   0.974778 -0.223178  0.000000 ->   0.4179810492
    2:   0.000000  1.000000  0.000000 /   0.000000  1.000000  0.000000 ->   0.4847822541
    3:   0.000000  0.000000  1.000000 /   0.000000  0.000000  1.000000 ->   0.2515317538
    4:   0.577350  0.577350  0.577350 /   0.558107  0.415502  0.718244 ->   0.4266383541
    5:   0.000000  0.707107  0.707107 /   0.000000  0.603263  0.797542 ->   0.3312125865
    6:   0.707107  0.000000  0.707107 /   0.607613 -0.139115  0.781955 ->   0.3140658549
    7:   0.707107  0.707107  0.000000 /   0.802119  0.597165  0.000000 ->   0.6544323825

 END OF EFFECTIVE MASSES SECTION

 ---- first-order wavefunction calculations are completed ----

 Total localisation tensor (bohr^2) in cartesian coordinates
  WARNING : still subject to testing - especially symmetries.
      direction              matrix element
   alpha     beta       real part   imaginary part
     1        1       0.9511897360    0.0000000000
     1        2      -0.2014510223    0.0000000000
     1        3       0.0000000000    0.0000000000
     2        1      -0.2014510223    0.0000000000
     2        2       0.8565078851    0.0000000000
     2        3       0.0000000000    0.0000000000
     3        1       0.0000000000    0.0000000000
     3        2       0.0000000000    0.0000000000
     3        3       1.0650919567    0.0000000000

 respfn : d/dk was computed, but no 2DTE, so no DDB output.

== END DATASET(S) ==============================================================

 -outvars: echo values of variables after computation  --------
            acell      1.0000000000E+00  1.0000000000E+00  1.0000000000E+00 Bohr
              amu      3.90983000E+01  1.96966540E+02  7.89600000E+01
             ecut      4.30000000E+01 Hartree
           etotal     -3.5364906925E+01
            fcart      0.0000000000E+00  0.0000000000E+00  0.0000000000E+00
                       0.0000000000E+00  0.0000000000E+00  0.0000000000E+00
                       0.0000000000E+00  0.0000000000E+00  0.0000000000E+00
                       0.0000000000E+00  0.0000000000E+00  0.0000000000E+00
                       0.0000000000E+00  0.0000000000E+00  0.0000000000E+00
                       0.0000000000E+00  0.0000000000E+00  0.0000000000E+00
-          fftalg         512
           irdden           1
           irdwfk           1
              ixc     -116133
              kpt     -5.00000000E-01  5.00000000E-01  0.00000000E+00
                      -8.33333333E-02  8.33333333E-02  0.00000000E+00
           kptopt           0
P           mkmem           2
P          mkqmem           2
P          mk1mem           2
            natom           6
            nband          53
           nbdbuf           4
            ngfft          60      60      80
             nkpt           2
            nstep        2000
             nsym           8
           ntypat           3
              occ      2.000000  2.000000  2.000000  2.000000  2.000000  2.000000
                       2.000000  2.000000  2.000000  2.000000  2.000000  2.000000
                       2.000000  2.000000  2.000000  2.000000  2.000000  2.000000
                       2.000000  2.000000  2.000000  2.000000  2.000000  2.000000
                       2.000000  2.000000  2.000000  2.000000  2.000000  2.000000
                       2.000000  2.000000  2.000000  2.000000  2.000000  2.000000
                       2.000000  2.000000  2.000000  2.000000  2.000000  2.000000
                       2.000000  2.000000  0.000000  0.000000  0.000000  0.000000
                       0.000000  0.000000  0.000000  0.000000  0.000000
        optdriver           1
            prtwf          -1
            rfdir           1       1       1
           rfelfd           2
            rprim      9.8033307238E+00  0.0000000000E+00  0.0000000000E+00
                      -2.2445011688E+00  9.5429297275E+00  0.0000000000E+00
                       0.0000000000E+00  0.0000000000E+00  1.2616193824E+01
          spgroup          63
           strten      0.0000000000E+00  0.0000000000E+00  0.0000000000E+00
                       0.0000000000E+00  0.0000000000E+00  0.0000000000E+00
           symrel      1  0  0   0  1  0   0  0  1      -1  0  0   0 -1  0   0  0 -1
                       0 -1  0  -1  0  0   0  0 -1       0  1  0   1  0  0   0  0  1
                      -1  0  0   0 -1  0   0  0  1       1  0  0   0  1  0   0  0 -1
                       0  1  0   1  0  0   0  0 -1       0 -1  0  -1  0  0   0  0  1
            tnons      0.0000000  0.0000000  0.0000000     0.0000000  0.0000000  0.0000000
                       0.0000000  0.0000000  0.5000000    -0.0000000  0.0000000  0.5000000
                       0.0000000  0.0000000  0.5000000     0.0000000  0.0000000  0.5000000
                      -0.0000000  0.0000000  0.0000000     0.0000000  0.0000000  0.0000000
           tolwfr      1.00000000E-20
            typat      1  1  2  2  3  3
           useylm           1
              wtk        0.50000    0.50000
           xangst      1.1228027670E+00  3.2197511747E+00  1.6690505577E+00
                       2.8771575571E+00  1.8301497403E+00  5.0071516731E+00
                       0.0000000000E+00  0.0000000000E+00  3.3381011154E+00
                       0.0000000000E+00  0.0000000000E+00  0.0000000000E+00
                       3.8112931157E+00  1.0902332083E+00  1.6690505577E+00
                       1.8866720841E-01  3.9596677066E+00  5.0071516731E+00
            xcart      2.1217897309E+00  6.0844479362E+00  3.1540484560E+00
                       5.4370398241E+00  3.4584817913E+00  9.4621453680E+00
                       0.0000000000E+00  0.0000000000E+00  6.3080969120E+00
                       0.0000000000E+00  0.0000000000E+00  0.0000000000E+00
                       7.2023002008E+00  2.0602421847E+00  3.1540484560E+00
                       3.5652935416E-01  7.4826875428E+00  9.4621453680E+00
             xred      3.6241300000E-01  6.3758700000E-01  2.5000000000E-01
                       6.3758700000E-01  3.6241300000E-01  7.5000000000E-01
                       0.0000000000E+00  0.0000000000E+00  5.0000000000E-01
                       0.0000000000E+00  0.0000000000E+00  0.0000000000E+00
                       7.8410800000E-01  2.1589200000E-01  2.5000000000E-01
                       2.1589200000E-01  7.8410800000E-01  7.5000000000E-01
            znucl       19.00000   79.00000   34.00000

- Timing analysis has been suppressed with timopt=0

 Suggested references for the acknowledgment of ABINIT usage.

 Calculation completed.
.Delivered   2 WARNINGs and   5 COMMENTs to log file.