.Version 9.5.1 of ABINIT

 ABINIT is a project of the Universite Catholique de Louvain,
 Corning Inc. and other collaborators, see ~abinit/doc/developers/contributors.txt .
 acknowledgments of the ABINIT effort.

.Starting date : Tue  4 May 2021.
- ( at 19h48 )

- input  file    -> /scratch/users/j/a/jabreu/flow_simple_6atoms/flow/w226/t1/run.abi
- output file    -> /scratch/users/j/a/jabreu/flow_simple_6atoms/flow/w226/t1/run.abo
- root for input  files -> /scratch/users/j/a/jabreu/flow_simple_6atoms/flow/w226/t1/indata/in
- root for output files -> /scratch/users/j/a/jabreu/flow_simple_6atoms/flow/w226/t1/outdata/out

 Symmetries : space group P-3 m 1 (#164); Bravais hP (primitive hexag.)
     intxc =       0      iscf =       7    lmnmax =      32     lnmax =       8
     mgfft =      72  mpssoang =       4    mqgrid =    3031     natom =       6
  nloc_mem =       1    nspden =       1   nspinor =       1    nsppol =       1
      nsym =      12    n1xccc =    2501    ntypat =       3    occopt =       1
   xclevel =       2
-    mband =          58        mffmem =           1         mkmem =           2
-   mkqmem =           2        mk1mem =           2           mpw =       16158
      nfft =      331776          nkpt =           2
  Rough estimation (10% accuracy) of disk space for files :

------------- Echo of variables that govern the present computation ------------
-
- outvars: echo of selected default values
-   iomode0 =  0 , fftalg0 =512 , wfoptalg0 =  0
-
- outvars: echo of global parameters not present in the input file
-  max_nthreads =    0
-
 -outvars: echo values of preprocessed input variables --------
            acell      1.0000000000E+00  1.0000000000E+00  1.0000000000E+00 Bohr
              amu      1.32905430E+02  1.96966540E+02  7.89600000E+01
             ecut      4.30000000E+01 Hartree
-          fftalg         512
           irdden           1
           irdwfk           1
           istwfk        1    0
              ixc     -116133
              kpt      0.00000000E+00  0.00000000E+00  5.00000000E-01
                       0.00000000E+00  0.00000000E+00  1.11111111E-01
           kptopt           0
P           mkmem           2
P          mkqmem           2
P          mk1mem           2
            natom           6
            nband          58
           nbdbuf           4
            ngfft          72      72      64
             nkpt           2
            nstep        1000
             nsym          12
           ntypat           3
              occ      2.000000  2.000000  2.000000  2.000000  2.000000  2.000000
                       2.000000  2.000000  2.000000  2.000000  2.000000  2.000000
                       2.000000  2.000000  2.000000  2.000000  2.000000  2.000000
                       2.000000  2.000000  2.000000  2.000000  2.000000  2.000000
                       2.000000  2.000000  2.000000  2.000000  2.000000  2.000000
                       2.000000  2.000000  2.000000  2.000000  2.000000  2.000000
                       2.000000  2.000000  2.000000  2.000000  2.000000  2.000000
                       2.000000  2.000000  2.000000  2.000000  2.000000  2.000000
                       2.000000  0.000000  0.000000  0.000000  0.000000  0.000000
                       0.000000  0.000000  0.000000  0.000000
        optdriver           1
            prtwf          -1
            rfdir           1       1       1
           rfelfd           2
            rprim      1.1606277771E+01  0.0000000000E+00  0.0000000000E+00
                      -5.8031388857E+00  1.0051331393E+01  0.0000000000E+00
                       0.0000000000E+00  0.0000000000E+00  1.0265792041E+01
          spgroup         164
           symrel      1  0  0   0  1  0   0  0  1      -1  0  0   0 -1  0   0  0 -1
                      -1  0  0   1  1  0   0  0  1       1  0  0  -1 -1  0   0  0 -1
                       0  1  0  -1 -1  0   0  0  1       0 -1  0   1  1  0   0  0 -1
                       0 -1  0  -1  0  0   0  0  1       0  1  0   1  0  0   0  0 -1
                      -1 -1  0   1  0  0   0  0  1       1  1  0  -1  0  0   0  0 -1
                       1  1  0   0 -1  0   0  0  1      -1 -1  0   0  1  0   0  0 -1
           tolwfr      1.00000000E-20
            typat      1  2  2  2  3  3
           useylm           1
              wtk        0.50000    0.50000
           xangst      0.0000000000E+00  0.0000000000E+00  2.7162115881E+00
                       3.0708888366E+00  0.0000000000E+00  0.0000000000E+00
                      -1.5354444183E+00  2.6594677447E+00  0.0000000000E+00
                       1.5354444183E+00  2.6594677447E+00  0.0000000000E+00
                      -1.7639241746E-11  3.5459569929E+00  1.6857243710E+00
                       3.0708888366E+00  1.7729784965E+00  3.7466988053E+00
            xcart      0.0000000000E+00  0.0000000000E+00  5.1328960205E+00
                       5.8031388857E+00  0.0000000000E+00  0.0000000000E+00
                      -2.9015694429E+00  5.0256656967E+00  0.0000000000E+00
                       2.9015694428E+00  5.0256656967E+00  0.0000000000E+00
                      -3.3333336091E-11  6.7008875956E+00  3.1855573967E+00
                       5.8031388856E+00  3.3504437978E+00  7.0802346444E+00
             xred      0.0000000000E+00  0.0000000000E+00  5.0000000000E-01
                       5.0000000000E-01  0.0000000000E+00  0.0000000000E+00
                       0.0000000000E+00  5.0000000000E-01  0.0000000000E+00
                       5.0000000000E-01  5.0000000000E-01  0.0000000000E+00
                       3.3333333333E-01  6.6666666667E-01  3.1030800000E-01
                       6.6666666667E-01  3.3333333333E-01  6.8969200000E-01
            znucl       55.00000   79.00000   34.00000

 chkinp: Checking input parameters for consistency.

== DATASET  1 ==================================================================
-   mpi_nproc: 1, omp_nthreads: -1 (-1 if OMP is not activated)

--- !DatasetInfo
iteration_state: {dtset: 1, }
dimensions: {natom: 6, nkpt: 2, mband: 58, nsppol: 1, nspinor: 1, nspden: 1, mpw: 16158, }
cutoff_energies: {ecut:  43.0, pawecutdg:  -1.0, }
electrons: {nelect:   9.80000000E+01, charge:   0.00000000E+00, occopt:   1.00000000E+00, tsmear:   1.00000000E-02, }
meta: {optdriver: 1, rfelfd: 2, }
...

 Real(R)+Recip(G) space primitive vectors, cartesian coordinates (Bohr,Bohr^-1):
 R(1)= 11.6062778  0.0000000  0.0000000  G(1)=  0.0861603  0.0497447  0.0000000
 R(2)= -5.8031389 10.0513314  0.0000000  G(2)=  0.0000000  0.0994893  0.0000000
 R(3)=  0.0000000  0.0000000 10.2657920  G(3)=  0.0000000  0.0000000  0.0974109
 Unit cell volume ucvol=  1.1975924E+03 bohr^3
 Angles (23,13,12)=  9.00000000E+01  9.00000000E+01  1.20000000E+02 degrees

 getcut: wavevector=  0.0000  0.0000  0.0000  ngfft=  72  72  64
         ecut(hartree)=     43.000   => boxcut(ratio)=   2.10155

--- Pseudopotential description ------------------------------------------------
- pspini: atom type   1  psp file is /scratch/users/j/a/jabreu/pseudos/PBEsol/Cs.psp8
- pspatm: opening atomic psp file    /scratch/users/j/a/jabreu/pseudos/PBEsol/Cs.psp8
- Cs    ONCVPSP-3.3.0  r_core=   2.27353   1.85623   2.01788   1.90105
- 55.00000   9.00000    180112                znucl, zion, pspdat
    8 -116133    3    4       600   0.00000   pspcod,pspxc,lmax,lloc,mmax,r2well
    5.99000000000000    5.00000000000000    0.00000000000000   rchrg,fchrg,qchrg
     nproj     2     2     2     2
     extension_switch     1
  pspatm : epsatm=   22.12462445
         --- l  ekb(1:nproj) -->
             0    6.214110    0.767882
             1    6.311966    0.793598
             2    3.769790    0.913105
             3   -9.247129   -2.432478
 pspatm: atomic psp has been read  and splines computed

- pspini: atom type   2  psp file is /scratch/users/j/a/jabreu/pseudos/PBEsol/Au.psp8
- pspatm: opening atomic psp file    /scratch/users/j/a/jabreu/pseudos/PBEsol/Au.psp8
- Au    ONCVPSP-3.3.0  r_core=   1.45604   1.56407   1.56407   1.60183
- 79.00000  19.00000    180112                znucl, zion, pspdat
    8 -116133    3    4       500   0.00000   pspcod,pspxc,lmax,lloc,mmax,r2well
    4.99000000000000    5.00000000000000    0.00000000000000   rchrg,fchrg,qchrg
     nproj     2     2     2     1
     extension_switch     1
  pspatm : epsatm=   32.21965837
         --- l  ekb(1:nproj) -->
             0    9.413866   -0.196587
             1    2.474292   -1.517497
             2    1.503483    0.298081
             3    1.177996
 pspatm: atomic psp has been read  and splines computed

- pspini: atom type   3  psp file is /scratch/users/j/a/jabreu/pseudos/PBEsol/Se.psp8
- pspatm: opening atomic psp file    /scratch/users/j/a/jabreu/pseudos/PBEsol/Se.psp8
- Se    ONCVPSP-3.3.0  r_core=   1.81943   1.50330   1.90835
- 34.00000  16.00000    180112                znucl, zion, pspdat
    8 -116133    2    4       600   0.00000   pspcod,pspxc,lmax,lloc,mmax,r2well
    5.99000000000000    5.00000000000000    0.00000000000000   rchrg,fchrg,qchrg
     nproj     2     2     2
     extension_switch     1
  pspatm : epsatm=   29.17862020
         --- l  ekb(1:nproj) -->
             0    8.973804    1.019550
             1    6.849857    1.297308
             2   -9.203962   -3.731027
 pspatm: atomic psp has been read  and splines computed

   1.73598023E+04                                ecore*ucvol(ha*bohr**3)

-inwffil : will read wavefunctions from disk file /scratch/users/j/a/jabreu/flow_simple_6atoms/flow/w226/t1/indata/in_WFK

 ==>  initialize data related to q vector <==

 The list of irreducible perturbations for this q vector is:
    1)    idir= 1    ipert=   7
    2)    idir= 2    ipert=   7
    3)    idir= 3    ipert=   7

 Perturbation wavevector (in red.coord.)   0.000000  0.000000  0.000000
 Perturbation : derivative vs k along direction   1

 dfpt_looppert : COMMENT -
  In a d/dk calculation, iscf is set to -3 automatically.
 The set of symmetries contains only one element for this perturbation.
 symkpt : not enough symmetry to change the number of k points.

[...]

 Initialisation of the first-order wave-functions :
  ireadwf=   0

--- !BeginCycle
iteration_state: {dtset: 1, }
solver: {iscf: 7, nstep: 1000, nline: 4, wfoptalg: 0, }
tolerances: {tolwfr: 1.00E-20, }
...

     iter   2DEtotal(Ha)        deltaE(Ha) residm    vres2
-ETOT  1  -63.707010827565     -6.371E+01 6.640E-02 0.000E+00
 ETOT  2  -63.780032575397     -7.302E-02 1.837E-03 0.000E+00
 ETOT  3  -63.780872828314     -8.403E-04 2.303E-04 0.000E+00
 ETOT  4  -63.780928115406     -5.529E-05 4.340E-05 0.000E+00
 ETOT  5  -63.780933437952     -5.323E-06 6.603E-06 0.000E+00
 ETOT  6  -63.780934017512     -5.796E-07 1.559E-06 0.000E+00
 ETOT  7  -63.780934082942     -6.543E-08 2.448E-07 0.000E+00
 ETOT  8  -63.780934090484     -7.542E-09 5.780E-08 0.000E+00
 ETOT  9  -63.780934091363     -8.793E-10 9.176E-09 0.000E+00
 ETOT 10  -63.780934091467     -1.036E-10 2.166E-09 0.000E+00
 ETOT 11  -63.780934091479     -1.225E-11 3.460E-10 0.000E+00
 ETOT 12  -63.780934091480     -1.492E-12 8.176E-11 0.000E+00
[...]
  (in case of degenerate eigenvalues, averaged derivative)
 kpt#   1, nband= 58, wtk=  0.50000, kpt=  0.0000  0.0000  0.5000 (reduced coord)
   0.00000   -0.00000   -0.00000   -0.00000    0.00000    0.00000   -0.00000   -0.00000
   0.00000    0.00000   -0.00000   -0.00000    0.00000   -0.00000   -0.00000   -0.00000
   0.00000    0.00000    0.00000    0.00000    0.00000    0.00000    0.00000    0.00000
   0.00000    0.00000    0.00000   -0.00000    0.00000   -0.00000   -0.00000    0.00000
   0.00000   -0.00000    0.00000   -0.00000    0.00000    0.00000    0.00000   -0.00000
  -0.00000    0.00000    0.00000    0.00000    0.00000    0.00000   -0.00000   -0.00000
  -0.00000   -0.00000   -0.00000    0.00000    0.00000    0.00000    0.00000   -0.00000
   0.00000    0.00000
 prteigrs : prtvol=0 or 1, do not print more k-points.

 Eight components of 2nd-order total energy (hartree) are
 1,2,3: 0th-order hamiltonian combined with 1st-order wavefunctions
     kin0=   7.68884385E+01 eigvalue=   5.63990928E+00  local=  -3.66632055E+01
 4,5,6: 1st-order hamiltonian combined with 1st and 0th-order wfs
     kin1=  -8.44211820E+01  Hartree=   0.00000000E+00     xc=   0.00000000E+00
 7,8,9: eventually, occupation + non-local contributions
    edocc=   1.19016821E+01     enl0=   6.01410979E+00   enl1=  -4.31406862E+01
 1-9 gives the relaxation energy (to be shifted if some occ is /=2.0)
   erelax=  -6.37809341E+01
  No Ewald or frozen-wf contrib.: the relaxation energy is the total one
 2DEtotal=   -0.6378093409E+02 Ha. Also 2DEtotal=   -0.173556748051E+04 eV
    (  non-var. 2DEtotal :   -6.3780934091E+01 Ha)

 Perturbation wavevector (in red.coord.)   0.000000  0.000000  0.000000
 Perturbation : derivative vs k along direction   2
 The set of symmetries contains only one element for this perturbation.
 symkpt : not enough symmetry to change the number of k points.

[...]

 Perturbation wavevector (in red.coord.)   0.000000  0.000000  0.000000
 Perturbation : derivative vs k along direction   3
 The set of symmetries contains only one element for this perturbation.
 symkpt : not enough symmetry to change the number of k points.

-inwffil : will read wavefunctions from disk file /scratch/users/j/a/jabreu/flow_simple_6atoms/flow/w226/t1/indata/in_WFK

 Initialisation of the first-order wave-functions :
  ireadwf=   0

--- !BeginCycle
iteration_state: {dtset: 1, }
solver: {iscf: 7, nstep: 1000, nline: 4, wfoptalg: 0, }
tolerances: {tolwfr: 1.00E-20, }
...

     iter   2DEtotal(Ha)        deltaE(Ha) residm    vres2
-ETOT  1  -57.323952951425     -5.732E+01 4.917E-02 0.000E+00
 ETOT  2  -57.365872543431     -4.192E-02 5.701E-04 0.000E+00
 ETOT  3  -57.366069006380     -1.965E-04 1.032E-04 0.000E+00
 ETOT  4  -57.366075804427     -6.798E-06 7.677E-06 0.000E+00
 ETOT  5  -57.366076204267     -3.998E-07 1.453E-06 0.000E+00
 ETOT  6  -57.366076240380     -3.611E-08 1.197E-07 0.000E+00
 ETOT  7  -57.366076244032     -3.651E-09 2.297E-08 0.000E+00
 ETOT  8  -57.366076244425     -3.938E-10 2.650E-09 0.000E+00
 ETOT  9  -57.366076244470     -4.466E-11 6.181E-10 0.000E+00
 ETOT 10  -57.366076244475     -5.215E-12 8.628E-11 0.000E+00
 ETOT 11  -57.366076244476     -5.755E-13 2.227E-11 0.000E+00
 ETOT 12  -57.366076244476     -1.137E-13 3.242E-12 0.000E+00
 ETOT 13  -57.366076244476     -1.421E-14 8.177E-13 0.000E+00
 ETOT 14  -57.366076244476      2.842E-14 1.260E-13 0.000E+00
 ETOT 15  -57.366076244476     -1.421E-14 3.078E-14 0.000E+00
 ETOT 16  -57.366076244476     -1.421E-14 5.150E-15 0.000E+00
 ETOT 17  -57.366076244476      0.000E+00 1.209E-15 0.000E+00
 ETOT 18  -57.366076244476      0.000E+00 2.223E-16 0.000E+00
 ETOT 19  -57.366076244476      1.421E-14 4.990E-17 0.000E+00
 ETOT 20  -57.366076244476     -2.132E-14 9.904E-18 0.000E+00
 ETOT 21  -57.366076244476      0.000E+00 2.144E-18 0.000E+00
 ETOT 22  -57.366076244476      7.105E-15 4.467E-19 0.000E+00
 ETOT 23  -57.366076244476      0.000E+00 9.521E-20 0.000E+00
 ETOT 24  -57.366076244476     -1.421E-14 2.045E-20 0.000E+00
 ETOT 25  -57.366076244476      0.000E+00 9.860E-21 0.000E+00

 At SCF step   25   max residual=  9.86E-21 < tolwfr=  1.00E-20 =>converged.

 ----iterations are completed or convergence reached----

 dfpt_looppert: DFPT cycle converged with prtwf=-1. Will skip output of the 1st-order WFK file.
 dfpt_looppert : ek2=    7.3422790029E+01
          f-sum rule ratio=    1.0021427797E+00
 prteigrs : about to open file /scratch/users/j/a/jabreu/flow_simple_6atoms/flow/w226/t1/tmpdata/tmp_1WF1_EIG
 Expectation of eigenvalue derivatives (hartree) for nkpt=   2  k points:
  (in case of degenerate eigenvalues, averaged derivative)
 kpt#   1, nband= 58, wtk=  0.50000, kpt=  0.0000  0.0000  0.5000 (reduced coord)
  -0.00000   -0.00000   -0.00000   -0.00000   -0.00000   -0.00000    0.00000    0.00000
   0.00000   -0.00000    0.00000    0.00000   -0.00000    0.00000    0.00000    0.00000
   0.00000    0.00000   -0.00000   -0.00000    0.00000    0.00000    0.00000    0.00000
  -0.00000    0.00000    0.00000    0.00000   -0.00000    0.00000    0.00000   -0.00000
  -0.00000   -0.00000    0.00000   -0.00000   -0.00000   -0.00000    0.00000    0.00000
   0.00000   -0.00000   -0.00000   -0.00000   -0.00000   -0.00000    0.00000    0.00000
   0.00000    0.00000    0.00000    0.00000   -0.00000   -0.00000    0.00000    0.00000
  -0.00000   -0.00000
 prteigrs : prtvol=0 or 1, do not print more k-points.

 Eight components of 2nd-order total energy (hartree) are
 1,2,3: 0th-order hamiltonian combined with 1st-order wavefunctions
     kin0=   7.29529118E+01 eigvalue=   5.75696557E+00  local=  -3.51060472E+01
 4,5,6: 1st-order hamiltonian combined with 1st and 0th-order wfs
     kin1=  -7.35801189E+01  Hartree=   0.00000000E+00     xc=   0.00000000E+00
 7,8,9: eventually, occupation + non-local contributions
    edocc=   7.94459927E+00     enl0=   5.81764675E+00   enl1=  -4.11520336E+01
 1-9 gives the relaxation energy (to be shifted if some occ is /=2.0)
   erelax=  -5.73660762E+01
  No Ewald or frozen-wf contrib.: the relaxation energy is the total one
 2DEtotal=   -0.5736607624E+02 Ha. Also 2DEtotal=   -0.156101032123E+04 eV
    (  non-var. 2DEtotal :   -5.7366076245E+01 Ha)

 CALCULATION OF EFFECTIVE MASSES
 NOTE : Additional infos (eff. mass eigenvalues, eigenvectors and, if degenerate, average mass) are available in stdout.

 COMMENTS:
 - At k-point ( 0.000, 0.000, 0.500), bands    48 through    49
   are DEGENERATE (effective mass tensor is therefore not defined).
   See Section IIIB Eqs. (67)-(70) and Appendix E of PRB 93 205147 (2016).
 - Angular average effective mass for Frohlich model is to be averaged over degenerate bands. See later.
 - Associated theta integrals calculated with ntheta=   1000 points.

 K-point ( 0.000, 0.000, 0.500) | band =    48
 Transport equivalent effective mass tensor:
             -0.2591348319              0.0000000095             -0.0000001926
              0.0000000095             -0.2591351431             -0.0000000528
             -0.0000001926             -0.0000000528             -0.8059245892
 Transport equivalent effective mass tensor eigenvalues:
             -0.8059245893             -0.2591351434             -0.2591348316
 Angular average effective mass 1/(<1/m>)=  -0.3034230777
 Angular average effective mass for Frohlich model (<m**0.5>)**2=  -0.3230402840
 Effective masses along directions: (cart. coord. / red. coord. -> eff. mass)
    1:   1.000000  0.000000  0.000000 /   0.894427 -0.447214  0.000000 ->  -0.2433562582
    2:   0.000000  1.000000  0.000000 /   0.000000  1.000000  0.000000 ->  -0.2433561853
    3:   0.000000  0.000000  1.000000 /   0.000000  0.000000  1.000000 ->  -1.0005135402
    4:   0.577350  0.577350  0.577350 /   0.722380  0.264410  0.638948 ->  -0.3289339681
    5:   0.000000  0.707107  0.707107 /   0.000000  0.699604  0.714531 ->  -0.3001157956
    6:   0.707107  0.000000  0.707107 /   0.701457 -0.350729  0.620441 ->  -0.3309776762
    7:   0.707107  0.707107  0.000000 /   0.939071  0.343724  0.000000 ->  -0.2433563264

 K-point ( 0.000, 0.000, 0.500) | band =    49
 Transport equivalent effective mass tensor:
             -0.6775145693             -0.0000001358             -0.0000017468
             -0.0000001358             -0.6775135477              0.0000006748
             -0.0000017468              0.0000006748             -2.2860188649
 Transport equivalent effective mass tensor eigenvalues:
             -2.2860188649             -0.6775145870             -0.6775135300
 Angular average effective mass 1/(<1/m>)=  -0.5729314260
 Angular average effective mass for Frohlich model (<m**0.5>)**2=  -0.6529105715
 Effective masses along directions: (cart. coord. / red. coord. -> eff. mass)
    1:   1.000000  0.000000  0.000000 /   0.894427 -0.447214  0.000000 ->  -0.4076610812
    2:   0.000000  1.000000  0.000000 /   0.000000  1.000000  0.000000 ->  -0.4076610432
    3:   0.000000  0.000000  1.000000 /   0.000000  0.000000  1.000000 ->  -1.0005150049
    4:   0.577350  0.577350  0.577350 /   0.722380  0.264410  0.638948 ->  -0.4997474320
    5:   0.000000  0.707107  0.707107 /   0.000000  0.699604  0.714531 ->  -1.0542416956
    6:   0.707107  0.000000  0.707107 /   0.701457 -0.350729  0.620441 ->  -0.7941286779
    7:   0.707107  0.707107  0.000000 /   0.939071  0.343724  0.000000 ->  -0.4076610910

 Angular average effective mass for Frohlich model, averaged over degenerate bands.
 Value of     (<<m**0.5>>)**2 =     4.736159E-01
 Absolute Value of <<m**0.5>> =     6.881976E-01

 K-point ( 0.000, 0.000, 0.111) | band =    50
 Effective mass tensor:
              0.2771157560              0.0000000000             -0.0000000000
              0.0000000000              0.2771157560              0.0000000000
             -0.0000000000              0.0000000000              0.4655042247
 Effective mass tensor eigenvalues:
              0.2771157560              0.2771157560              0.4655042247
 Angular average effective mass 1/(<1/m>)=   0.3203277144
 Angular average effective mass for Frohlich model (<m**0.5>)**2=   0.3255446463
 Effective masses along directions: (cart. coord. / red. coord. -> eff. mass)
    1:   1.000000  0.000000  0.000000 /   0.894427 -0.447214  0.000000 ->   0.2771157560
    2:   0.000000  1.000000  0.000000 /   0.000000  1.000000  0.000000 ->   0.2771157560
    3:   0.000000  0.000000  1.000000 /   0.000000  0.000000  1.000000 ->   0.4655042247
    4:   0.577350  0.577350  0.577350 /   0.722380  0.264410  0.638948 ->   0.3203277144
    5:   0.000000  0.707107  0.707107 /   0.000000  0.699604  0.714531 ->   0.3474147168
    6:   0.707107  0.000000  0.707107 /   0.701457 -0.350729  0.620441 ->   0.3474147168
    7:   0.707107  0.707107  0.000000 /   0.939071  0.343724  0.000000 ->   0.2771157560

 END OF EFFECTIVE MASSES SECTION

 ---- first-order wavefunction calculations are completed ----

 Total localisation tensor (bohr^2) in cartesian coordinates
  WARNING : still subject to testing - especially symmetries.
      direction              matrix element
   alpha     beta       real part   imaginary part
     1        1       2.5621024664    0.0000000000
     1        2      -0.8875383934    0.0000000000
     1        3       0.0000000000    0.0000000000
     2        1      -0.8875383934    0.0000000000
     2        2       1.5372615910    0.0000000000
     2        3       0.0000000000    0.0000000000
     3        1       0.0000000000    0.0000000000
     3        2       0.0000000000    0.0000000000
     3        3       0.8433233008    0.0000000000

 respfn : d/dk was computed, but no 2DTE, so no DDB output.

== END DATASET(S) ==============================================================

 -outvars: echo values of variables after computation  --------
            acell      1.0000000000E+00  1.0000000000E+00  1.0000000000E+00 Bohr
              amu      1.32905430E+02  1.96966540E+02  7.89600000E+01
             ecut      4.30000000E+01 Hartree
           etotal     -5.7366076244E+01
            fcart      0.0000000000E+00  0.0000000000E+00  0.0000000000E+00
                       0.0000000000E+00  0.0000000000E+00  0.0000000000E+00
                       0.0000000000E+00  0.0000000000E+00  0.0000000000E+00
                       0.0000000000E+00  0.0000000000E+00  0.0000000000E+00
                       0.0000000000E+00  0.0000000000E+00  0.0000000000E+00
                       0.0000000000E+00  0.0000000000E+00  0.0000000000E+00
-          fftalg         512
           irdden           1
           irdwfk           1
           istwfk        1    0
              ixc     -116133
              kpt      0.00000000E+00  0.00000000E+00  5.00000000E-01
                       0.00000000E+00  0.00000000E+00  1.11111111E-01
           kptopt           0
P           mkmem           2
P          mkqmem           2
P          mk1mem           2
            natom           6
            nband          58
           nbdbuf           4
            ngfft          72      72      64
             nkpt           2
            nstep        1000
             nsym          12
           ntypat           3
              occ      2.000000  2.000000  2.000000  2.000000  2.000000  2.000000
                       2.000000  2.000000  2.000000  2.000000  2.000000  2.000000
                       2.000000  2.000000  2.000000  2.000000  2.000000  2.000000
                       2.000000  2.000000  2.000000  2.000000  2.000000  2.000000
                       2.000000  2.000000  2.000000  2.000000  2.000000  2.000000
                       2.000000  2.000000  2.000000  2.000000  2.000000  2.000000
                       2.000000  2.000000  2.000000  2.000000  2.000000  2.000000
                       2.000000  2.000000  2.000000  2.000000  2.000000  2.000000
                       2.000000  0.000000  0.000000  0.000000  0.000000  0.000000
                       0.000000  0.000000  0.000000  0.000000
        optdriver           1
            prtwf          -1
            rfdir           1       1       1
           rfelfd           2
            rprim      1.1606277771E+01  0.0000000000E+00  0.0000000000E+00
                      -5.8031388857E+00  1.0051331393E+01  0.0000000000E+00
                       0.0000000000E+00  0.0000000000E+00  1.0265792041E+01
          spgroup         164
           strten      0.0000000000E+00  0.0000000000E+00  0.0000000000E+00
                       0.0000000000E+00  0.0000000000E+00  0.0000000000E+00
           symrel      1  0  0   0  1  0   0  0  1      -1  0  0   0 -1  0   0  0 -1
                      -1  0  0   1  1  0   0  0  1       1  0  0  -1 -1  0   0  0 -1
                       0  1  0  -1 -1  0   0  0  1       0 -1  0   1  1  0   0  0 -1
                       0 -1  0  -1  0  0   0  0  1       0  1  0   1  0  0   0  0 -1
                      -1 -1  0   1  0  0   0  0  1       1  1  0  -1  0  0   0  0 -1
                       1  1  0   0 -1  0   0  0  1      -1 -1  0   0  1  0   0  0 -1
           tolwfr      1.00000000E-20
            typat      1  2  2  2  3  3
           useylm           1
              wtk        0.50000    0.50000
           xangst      0.0000000000E+00  0.0000000000E+00  2.7162115881E+00
                       3.0708888366E+00  0.0000000000E+00  0.0000000000E+00
                      -1.5354444183E+00  2.6594677447E+00  0.0000000000E+00
                       1.5354444183E+00  2.6594677447E+00  0.0000000000E+00
                      -1.7639241746E-11  3.5459569929E+00  1.6857243710E+00
                       3.0708888366E+00  1.7729784965E+00  3.7466988053E+00
            xcart      0.0000000000E+00  0.0000000000E+00  5.1328960205E+00
                       5.8031388857E+00  0.0000000000E+00  0.0000000000E+00
                      -2.9015694429E+00  5.0256656967E+00  0.0000000000E+00
                       2.9015694428E+00  5.0256656967E+00  0.0000000000E+00
                      -3.3333336091E-11  6.7008875956E+00  3.1855573967E+00
                       5.8031388856E+00  3.3504437978E+00  7.0802346444E+00
             xred      0.0000000000E+00  0.0000000000E+00  5.0000000000E-01
                       5.0000000000E-01  0.0000000000E+00  0.0000000000E+00
                       0.0000000000E+00  5.0000000000E-01  0.0000000000E+00
                       5.0000000000E-01  5.0000000000E-01  0.0000000000E+00
                       3.3333333333E-01  6.6666666667E-01  3.1030800000E-01
                       6.6666666667E-01  3.3333333333E-01  6.8969200000E-01
            znucl       55.00000   79.00000   34.00000

- Timing analysis has been suppressed with timopt=0

 Suggested references for the acknowledgment of ABINIT usage.

 Calculation completed.
.Delivered  14 WARNINGs and   9 COMMENTs to log file.