.Version 9.5.1 of ABINIT

 ABINIT is a project of the Universite Catholique de Louvain,
 Corning Inc. and other collaborators, see ~abinit/doc/developers/contributors.txt .
 acknowledgments of the ABINIT effort.

.Starting date : Mon 26 Apr 2021.
- ( at 00h47 )

- input  file    -> /scratch/users/j/a/jabreu/flow_simple/flow/w100/t1/run.abi
- output file    -> /scratch/users/j/a/jabreu/flow_simple/flow/w100/t1/run.abo
- root for input  files -> /scratch/users/j/a/jabreu/flow_simple/flow/w100/t1/indata/in
- root for output files -> /scratch/users/j/a/jabreu/flow_simple/flow/w100/t1/outdata/out

 Symmetries : space group P-6 m 2 (#187); Bravais hP (primitive hexag.)
     intxc =       0      iscf =       7    lmnmax =      32     lnmax =       8
     mgfft =      45  mpssoang =       4    mqgrid =    3001     natom =       3
  nloc_mem =       1    nspden =       1   nspinor =       1    nsppol =       1
      nsym =      12    n1xccc =    2501    ntypat =       2    occopt =       1
   xclevel =       2
-    mband =          21        mffmem =           1         mkmem =           2
-   mkqmem =           2        mk1mem =           2           mpw =        2502
      nfft =       46080          nkpt =           2
  Rough estimation (10% accuracy) of disk space for files :

------------- Echo of variables that govern the present computation ------------
-
- outvars: echo of selected default values
-   iomode0 =  0 , fftalg0 =512 , wfoptalg0 =  0
-
- outvars: echo of global parameters not present in the input file
-  max_nthreads =    0
-
 -outvars: echo values of preprocessed input variables --------
            acell      1.0000000000E+00  1.0000000000E+00  1.0000000000E+00 Bohr
              amu      1.83850000E+02  1.40067400E+01
             ecut      4.20000000E+01 Hartree
-          fftalg         512
           irdden           1
           irdwfk           1
              ixc     -116133
              kpt      3.33333333E-01  3.33333333E-01  5.00000000E-01
                       2.65151515E-01  2.65151515E-01  5.00000000E-01
           kptopt           0
P           mkmem           2
P          mkqmem           2
P          mk1mem           2
            natom           3
            nband          21
           nbdbuf           4
            ngfft          32      32      45
             nkpt           2
            nstep         100
             nsym          12
           ntypat           2
              occ      2.000000  2.000000  2.000000  2.000000  2.000000  2.000000
                       2.000000  2.000000  2.000000  2.000000  2.000000  2.000000
                       0.000000  0.000000  0.000000  0.000000  0.000000  0.000000
                       0.000000  0.000000  0.000000
        optdriver           1
            prtwf          -1
            rfdir           1       1       1
           rfelfd           2
            rprim      5.4745632849E+00  0.0000000000E+00  0.0000000000E+00
                      -2.7372816424E+00  4.7411108793E+00  0.0000000000E+00
                       0.0000000000E+00  0.0000000000E+00  7.3570122632E+00
          spgroup         187
           symrel      1  0  0   0  1  0   0  0  1       0 -1  0  -1  0  0   0  0 -1
                      -1 -1  0   1  0  0   0  0 -1      -1  0  0   1  1  0   0  0  1
                       0  1  0  -1 -1  0   0  0  1       1  1  0   0 -1  0   0  0 -1
                       1  0  0   0  1  0   0  0 -1       0 -1  0  -1  0  0   0  0  1
                      -1 -1  0   1  0  0   0  0  1      -1  0  0   1  1  0   0  0 -1
                       0  1  0  -1 -1  0   0  0 -1       1  1  0   0 -1  0   0  0  1
            tnons      0.0000000  0.0000000  0.0000000    -0.0000000 -0.0000000 -0.0000000
                      -0.0000000 -0.0000000 -0.0000000    -0.0000000  0.0000000  0.0000000
                      -0.0000000  0.0000000  0.0000000     0.0000000  0.0000000 -0.0000000
                       0.0000000  0.0000000 -0.0000000    -0.0000000 -0.0000000  0.0000000
                      -0.0000000 -0.0000000  0.0000000    -0.0000000  0.0000000 -0.0000000
                      -0.0000000  0.0000000 -0.0000000     0.0000000  0.0000000  0.0000000
           tolwfr      1.00000000E-20
            typat      1  2  2
           useylm           1
              wtk        0.50000    0.50000
           xangst     -1.2721122225E-10  1.6725918806E+00  1.9465816065E+00
                       1.4485070585E+00  8.3629594032E-01  3.1854834700E+00
                       1.4485070585E+00  8.3629594032E-01  7.0767974304E-01
            xcart     -2.4039437108E-10  3.1607405864E+00  3.6785061316E+00
                       2.7372816422E+00  1.5803702933E+00  6.0196913591E+00
                       2.7372816422E+00  1.5803702933E+00  1.3373209041E+00
             xred      3.3333333330E-01  6.6666666670E-01  5.0000000000E-01
                       6.6666666663E-01  3.3333333337E-01  8.1822500000E-01
                       6.6666666663E-01  3.3333333337E-01  1.8177500000E-01
            znucl       74.00000    7.00000

 chkinp: Checking input parameters for consistency.

== DATASET  1 ==================================================================
-   mpi_nproc: 1, omp_nthreads: -1 (-1 if OMP is not activated)

--- !DatasetInfo
iteration_state: {dtset: 1, }
dimensions: {natom: 3, nkpt: 2, mband: 21, nsppol: 1, nspinor: 1, nspden: 1, mpw: 2502, }
cutoff_energies: {ecut:  42.0, pawecutdg:  -1.0, }
electrons: {nelect:   2.40000000E+01, charge:   0.00000000E+00, occopt:   1.00000000E+00, tsmear:   1.00000000E-02, }
meta: {optdriver: 1, rfelfd: 2, }
...

 Real(R)+Recip(G) space primitive vectors, cartesian coordinates (Bohr,Bohr^-1):
 R(1)=  5.4745633  0.0000000  0.0000000  G(1)=  0.1826630  0.1054605  0.0000000
 R(2)= -2.7372816  4.7411109  0.0000000  G(2)=  0.0000000  0.2109210  0.0000000
 R(3)=  0.0000000  0.0000000  7.3570123  G(3)=  0.0000000  0.0000000  0.1359247
 Unit cell volume ucvol=  1.9095502E+02 bohr^3
 Angles (23,13,12)=  9.00000000E+01  9.00000000E+01  1.20000000E+02 degrees

 getcut: wavevector=  0.0000  0.0000  0.0000  ngfft=  32  32  45
         ecut(hartree)=     42.000   => boxcut(ratio)=   2.00360

--- Pseudopotential description ------------------------------------------------
- pspini: atom type   1  psp file is /scratch/users/j/a/jabreu/pseudos/PBEsol/W.psp8
- pspatm: opening atomic psp file    /scratch/users/j/a/jabreu/pseudos/PBEsol/W.psp8
- W     ONCVPSP-3.3.0  r_core=   1.61105   1.61105   1.61105   2.02088
- 74.00000  14.00000    180112                znucl, zion, pspdat
    8 -116133    3    4       600   0.00000   pspcod,pspxc,lmax,lloc,mmax,r2well
    5.99000000000000    5.00000000000000    0.00000000000000   rchrg,fchrg,qchrg
     nproj     2     2     2     2
     extension_switch     1
  pspatm : epsatm=   11.51367240
         --- l  ekb(1:nproj) -->
             0   13.027742    1.852033
             1    9.109631    1.414397
             2    4.487527    0.514612
             3   47.292176    0.887489
 pspatm: atomic psp has been read  and splines computed

- pspini: atom type   2  psp file is /scratch/users/j/a/jabreu/pseudos/PBEsol/N.psp8
- pspatm: opening atomic psp file    /scratch/users/j/a/jabreu/pseudos/PBEsol/N.psp8
- N     ONCVPSP-3.3.0  r_core=   1.20551   1.35824
-  7.00000   5.00000    180112                znucl, zion, pspdat
    8 -116133    1    4       600   0.00000   pspcod,pspxc,lmax,lloc,mmax,r2well
    5.99000000000000    4.00000000000000    0.00000000000000   rchrg,fchrg,qchrg
     nproj     2     2
     extension_switch     1
  pspatm : epsatm=    5.26508895
         --- l  ekb(1:nproj) -->
             0    7.464189    0.625868
             1   -4.309714   -1.012941
 pspatm: atomic psp has been read  and splines computed

   5.29052407E+02                                ecore*ucvol(ha*bohr**3)

-inwffil : will read wavefunctions from disk file /scratch/users/j/a/jabreu/flow_simple/flow/w100/t1/indata/in_WFK

 ==>  initialize data related to q vector <==

 The list of irreducible perturbations for this q vector is:
    1)    idir= 1    ipert=   4
    2)    idir= 2    ipert=   4
    3)    idir= 3    ipert=   4

 Perturbation wavevector (in red.coord.)   0.000000  0.000000  0.000000
 Perturbation : derivative vs k along direction   1

 dfpt_looppert : COMMENT -
  In a d/dk calculation, iscf is set to -3 automatically.
 The set of symmetries contains only one element for this perturbation.
 symkpt : not enough symmetry to change the number of k points.

[...]

 Initialisation of the first-order wave-functions :
  ireadwf=   0

--- !BeginCycle
iteration_state: {dtset: 1, }
solver: {iscf: 7, nstep: 100, nline: 4, wfoptalg: 0, }
tolerances: {tolwfr: 1.00E-20, }
...

     iter   2DEtotal(Ha)        deltaE(Ha) residm    vres2
-ETOT  1  -47.168533826905     -4.717E+01 9.041E-02 0.000E+00
 ETOT  2  -47.183033264723     -1.450E-02 2.540E-03 0.000E+00
 ETOT  3  -47.183043143475     -9.879E-06 5.030E-06 0.000E+00
 ETOT  4  -47.183043160338     -1.686E-08 2.167E-07 0.000E+00
 ETOT  5  -47.183043160375     -3.671E-11 6.076E-10 0.000E+00
 ETOT  6  -47.183043160375     -8.527E-14 2.820E-11 0.000E+00
 ETOT  7  -47.183043160375     -7.105E-15 8.568E-14 0.000E+00
 ETOT  8  -47.183043160375      2.842E-14 4.056E-15 0.000E+00
 ETOT  9  -47.183043160375     -2.842E-14 1.270E-17 0.000E+00
 ETOT 10  -47.183043160375      2.132E-14 6.055E-19 0.000E+00
 ETOT 11  -47.183043160375     -7.105E-15 9.828E-21 0.000E+00

 At SCF step   11   max residual=  9.83E-21 < tolwfr=  1.00E-20 =>converged.

 ----iterations are completed or convergence reached----

 dfpt_looppert: DFPT cycle converged with prtwf=-1. Will skip output of the 1st-order WFK file.
 dfpt_looppert : ek2=    8.4302557427E+01
          f-sum rule ratio=    1.0488046879E+00
 prteigrs : about to open file /scratch/users/j/a/jabreu/flow_simple/flow/w100/t1/tmpdata/tmp_1WF1_EIG
 Expectation of eigenvalue derivatives (hartree) for nkpt=   2  k points:
  (in case of degenerate eigenvalues, averaged derivative)
 kpt#   1, nband= 21, wtk=  0.50000, kpt=  0.3333  0.3333  0.5000 (reduced coord)
   0.00000    0.00000   -0.00000    0.00000    0.00000    0.00000   -0.00000    0.00000
  -0.00000    0.00000   -0.00000    0.00000    0.00000   -0.00000   -0.00000    0.00000
   0.00000    0.00000   -0.00000   -0.00000    0.00000
 prteigrs : prtvol=0 or 1, do not print more k-points.

 Eight components of 2nd-order total energy (hartree) are
 1,2,3: 0th-order hamiltonian combined with 1st-order wavefunctions
     kin0=   2.88935382E+01 eigvalue=  -3.24586450E+00  local=  -1.08364445E+01
 4,5,6: 1st-order hamiltonian combined with 1st and 0th-order wfs
     kin1=  -8.84169174E+01  Hartree=   0.00000000E+00     xc=   0.00000000E+00
 7,8,9: eventually, occupation + non-local contributions
    edocc=   3.01991280E+01     enl0=   2.17268594E+00   enl1=  -5.94916888E+00
 1-9 gives the relaxation energy (to be shifted if some occ is /=2.0)
   erelax=  -4.71830432E+01
  No Ewald or frozen-wf contrib.: the relaxation energy is the total one
 2DEtotal=   -0.4718304316E+02 Ha. Also 2DEtotal=   -0.128391589912E+04 eV
    (  non-var. 2DEtotal :   -4.7183043160E+01 Ha)

 Perturbation wavevector (in red.coord.)   0.000000  0.000000  0.000000
 Perturbation : derivative vs k along direction   2
 The set of symmetries contains only one element for this perturbation.
 symkpt : not enough symmetry to change the number of k points.

[...]

 Perturbation wavevector (in red.coord.)   0.000000  0.000000  0.000000
 Perturbation : derivative vs k along direction   3
 The set of symmetries contains only one element for this perturbation.
 symkpt : not enough symmetry to change the number of k points.

-inwffil : will read wavefunctions from disk file /scratch/users/j/a/jabreu/flow_simple/flow/w100/t1/indata/in_WFK

 Initialisation of the first-order wave-functions :
  ireadwf=   0

--- !BeginCycle
iteration_state: {dtset: 1, }
solver: {iscf: 7, nstep: 100, nline: 4, wfoptalg: 0, }
tolerances: {tolwfr: 1.00E-20, }
...

     iter   2DEtotal(Ha)        deltaE(Ha) residm    vres2
-ETOT  1  -23.081634076939     -2.308E+01 8.448E-02 0.000E+00
 ETOT  2  -23.085291997115     -3.658E-03 9.182E-04 0.000E+00
 ETOT  3  -23.085292813109     -8.160E-07 9.642E-07 0.000E+00
 ETOT  4  -23.085292813909     -8.008E-10 1.258E-08 0.000E+00
 ETOT  5  -23.085292813911     -1.194E-12 2.960E-11 0.000E+00
 ETOT  6  -23.085292813911     -1.776E-14 3.641E-13 0.000E+00
 ETOT  7  -23.085292813911      1.066E-14 1.006E-15 0.000E+00
 ETOT  8  -23.085292813911     -1.066E-14 1.234E-17 0.000E+00
 ETOT  9  -23.085292813911      3.553E-15 3.524E-20 0.000E+00
 ETOT 10  -23.085292813911     -7.105E-15 9.403E-21 0.000E+00

 At SCF step   10   max residual=  9.40E-21 < tolwfr=  1.00E-20 =>converged.

 ----iterations are completed or convergence reached----

 dfpt_looppert: DFPT cycle converged with prtwf=-1. Will skip output of the 1st-order WFK file.
 dfpt_looppert : ek2=    3.5010475898E+01
          f-sum rule ratio=    1.2813200110E+00
 prteigrs : about to open file /scratch/users/j/a/jabreu/flow_simple/flow/w100/t1/tmpdata/tmp_1WF1_EIG
 Expectation of eigenvalue derivatives (hartree) for nkpt=   2  k points:
  (in case of degenerate eigenvalues, averaged derivative)
 kpt#   1, nband= 21, wtk=  0.50000, kpt=  0.3333  0.3333  0.5000 (reduced coord)
   0.00000    0.00000   -0.00000   -0.00000    0.00000   -0.00000   -0.00000    0.00000
  -0.00000    0.00000    0.00000   -0.00000   -0.00000    0.00000    0.00000    0.00000
  -0.00000   -0.00000    0.00000    0.00000   -0.00000
 prteigrs : prtvol=0 or 1, do not print more k-points.

 Eight components of 2nd-order total energy (hartree) are
 1,2,3: 0th-order hamiltonian combined with 1st-order wavefunctions
     kin0=   1.03917769E+01 eigvalue=  -9.94741310E-01  local=  -3.92337830E+00
 4,5,6: 1st-order hamiltonian combined with 1st and 0th-order wfs
     kin1=  -4.48596234E+01  Hartree=   0.00000000E+00     xc=   0.00000000E+00
 7,8,9: eventually, occupation + non-local contributions
    edocc=   1.72069110E+01     enl0=   4.04724520E-01   enl1=  -1.31096227E+00
 1-9 gives the relaxation energy (to be shifted if some occ is /=2.0)
   erelax=  -2.30852928E+01
  No Ewald or frozen-wf contrib.: the relaxation energy is the total one
 2DEtotal=   -0.2308529281E+02 Ha. Also 2DEtotal=   -0.628182764280E+03 eV
    (  non-var. 2DEtotal :   -2.3085292814E+01 Ha)

 CALCULATION OF EFFECTIVE MASSES
 NOTE : Additional infos (eff. mass eigenvalues, eigenvectors and, if degenerate, average mass) are available in stdout.

 K-point ( 0.333, 0.333, 0.500) | band =    12
 Effective mass tensor:
             -0.4936090597             -0.0000000005             -0.0000000001
             -0.0000000005             -0.4936090591              0.0000000000
             -0.0000000001              0.0000000000             -0.3450694091
 Effective mass tensor eigenvalues:
             -0.4936090600             -0.4936090588             -0.3450694091
 Angular average effective mass 1/(<1/m>)=  -0.4316697576
 Angular average effective mass for Frohlich model (<m**0.5>)**2=  -0.4355845806
 Effective masses along directions: (cart. coord. / red. coord. -> eff. mass)
    1:   1.000000  0.000000  0.000000 /   0.894427 -0.447214  0.000000 ->  -0.4936090597
    2:   0.000000  1.000000  0.000000 /   0.000000  1.000000  0.000000 ->  -0.4936090591
    3:   0.000000  0.000000  1.000000 /   0.000000  0.000000  1.000000 ->  -0.3450694091
    4:   0.577350  0.577350  0.577350 /   0.583220  0.213473  0.783762 ->  -0.4316697579
    5:   0.000000  0.707107  0.707107 /   0.000000  0.541695  0.840575 ->  -0.4061851897
    6:   0.707107  0.000000  0.707107 /   0.572041 -0.286021  0.768740 ->  -0.4061851900
    7:   0.707107  0.707107  0.000000 /   0.939071  0.343724  0.000000 ->  -0.4936090600

 K-point ( 0.265, 0.265, 0.500) | band =    13
 Effective mass tensor:
              0.3744165104              0.1660154754             -0.0000000021
              0.1660154754              0.5661146712              0.0000000028
             -0.0000000021              0.0000000028              1.5092920919
 Effective mass tensor eigenvalues:
              0.2785674315              0.6619637501              1.5092920919
 Angular average effective mass 1/(<1/m>)=   0.5205609326
 Angular average effective mass for Frohlich model (<m**0.5>)**2=   0.5945772767
 Effective masses along directions: (cart. coord. / red. coord. -> eff. mass)
    1:   1.000000  0.000000  0.000000 /   0.894427 -0.447214  0.000000 ->   0.3257317836
    2:   0.000000  1.000000  0.000000 /   0.000000  1.000000  0.000000 ->   0.4925037665
    3:   0.000000  0.000000  1.000000 /   0.000000  0.000000  1.000000 ->   1.5092920919
    4:   0.577350  0.577350  0.577350 /   0.583220  0.213473  0.783762 ->   0.7571116481
    5:   0.000000  0.707107  0.707107 /   0.000000  0.541695  0.840575 ->   0.7426651820
    6:   0.707107  0.000000  0.707107 /   0.572041 -0.286021  0.768740 ->   0.5358234409
    7:   0.707107  0.707107  0.000000 /   0.939071  0.343724  0.000000 ->   0.6060853628

 END OF EFFECTIVE MASSES SECTION

 ---- first-order wavefunction calculations are completed ----

 Total localisation tensor (bohr^2) in cartesian coordinates
  WARNING : still subject to testing - especially symmetries.
      direction              matrix element
   alpha     beta       real part   imaginary part
     1        1       3.2223864609    0.0000000000
     1        2      -1.1162674141    0.0000000000
     1        3       0.0000000000    0.0000000000
     2        1      -1.1162674141    0.0000000000
     2        2       1.9334318762    0.0000000000
     2        3       0.0000000000    0.0000000000
     3        1       0.0000000000    0.0000000000
     3        2       0.0000000000    0.0000000000
     3        3       1.5269115111    0.0000000000

 respfn : d/dk was computed, but no 2DTE, so no DDB output.

== END DATASET(S) ==============================================================

 -outvars: echo values of variables after computation  --------
            acell      1.0000000000E+00  1.0000000000E+00  1.0000000000E+00 Bohr
              amu      1.83850000E+02  1.40067400E+01
             ecut      4.20000000E+01 Hartree
           etotal     -2.3085292814E+01
            fcart      0.0000000000E+00  0.0000000000E+00  0.0000000000E+00
                       0.0000000000E+00  0.0000000000E+00  0.0000000000E+00
                       0.0000000000E+00  0.0000000000E+00  0.0000000000E+00
-          fftalg         512
           irdden           1
           irdwfk           1
              ixc     -116133
              kpt      3.33333333E-01  3.33333333E-01  5.00000000E-01
                       2.65151515E-01  2.65151515E-01  5.00000000E-01
           kptopt           0
P           mkmem           2
P          mkqmem           2
P          mk1mem           2
            natom           3
            nband          21
           nbdbuf           4
            ngfft          32      32      45
             nkpt           2
            nstep         100
             nsym          12
           ntypat           2
              occ      2.000000  2.000000  2.000000  2.000000  2.000000  2.000000
                       2.000000  2.000000  2.000000  2.000000  2.000000  2.000000
                       0.000000  0.000000  0.000000  0.000000  0.000000  0.000000
                       0.000000  0.000000  0.000000
        optdriver           1
            prtwf          -1
            rfdir           1       1       1
           rfelfd           2
            rprim      5.4745632849E+00  0.0000000000E+00  0.0000000000E+00
                      -2.7372816424E+00  4.7411108793E+00  0.0000000000E+00
                       0.0000000000E+00  0.0000000000E+00  7.3570122632E+00
          spgroup         187
           strten      0.0000000000E+00  0.0000000000E+00  0.0000000000E+00
                       0.0000000000E+00  0.0000000000E+00  0.0000000000E+00
           symrel      1  0  0   0  1  0   0  0  1       0 -1  0  -1  0  0   0  0 -1
                      -1 -1  0   1  0  0   0  0 -1      -1  0  0   1  1  0   0  0  1
                       0  1  0  -1 -1  0   0  0  1       1  1  0   0 -1  0   0  0 -1
                       1  0  0   0  1  0   0  0 -1       0 -1  0  -1  0  0   0  0  1
                      -1 -1  0   1  0  0   0  0  1      -1  0  0   1  1  0   0  0 -1
                       0  1  0  -1 -1  0   0  0 -1       1  1  0   0 -1  0   0  0  1
            tnons      0.0000000  0.0000000  0.0000000    -0.0000000 -0.0000000 -0.0000000
                      -0.0000000 -0.0000000 -0.0000000    -0.0000000  0.0000000  0.0000000
                      -0.0000000  0.0000000  0.0000000     0.0000000  0.0000000 -0.0000000
                       0.0000000  0.0000000 -0.0000000    -0.0000000 -0.0000000  0.0000000
                      -0.0000000 -0.0000000  0.0000000    -0.0000000  0.0000000 -0.0000000
                      -0.0000000  0.0000000 -0.0000000     0.0000000  0.0000000  0.0000000
           tolwfr      1.00000000E-20
            typat      1  2  2
           useylm           1
              wtk        0.50000    0.50000
           xangst     -1.2721122225E-10  1.6725918806E+00  1.9465816065E+00
                       1.4485070585E+00  8.3629594032E-01  3.1854834700E+00
                       1.4485070585E+00  8.3629594032E-01  7.0767974304E-01
            xcart     -2.4039437108E-10  3.1607405864E+00  3.6785061316E+00
                       2.7372816422E+00  1.5803702933E+00  6.0196913591E+00
                       2.7372816422E+00  1.5803702933E+00  1.3373209041E+00
             xred      3.3333333330E-01  6.6666666670E-01  5.0000000000E-01
                       6.6666666663E-01  3.3333333337E-01  8.1822500000E-01
                       6.6666666663E-01  3.3333333337E-01  1.8177500000E-01
            znucl       74.00000    7.00000

- Timing analysis has been suppressed with timopt=0

 Suggested references for the acknowledgment of ABINIT usage.

 Calculation completed.
.Delivered  14 WARNINGs and   9 COMMENTs to log file.