.Version 9.5.1 of ABINIT

 ABINIT is a project of the Universite Catholique de Louvain,
 Corning Inc. and other collaborators, see ~abinit/doc/developers/contributors.txt .
 acknowledgments of the ABINIT effort.

.Starting date : Wed 19 May 2021.
- ( at 13h10 )

- input  file    -> /scratch/users/j/a/jabreu/flow_simple_9atoms/flow/w159/t1/run.abi
- output file    -> /scratch/users/j/a/jabreu/flow_simple_9atoms/flow/w159/t1/run.abo
- root for input  files -> /scratch/users/j/a/jabreu/flow_simple_9atoms/flow/w159/t1/indata/in
- root for output files -> /scratch/users/j/a/jabreu/flow_simple_9atoms/flow/w159/t1/outdata/out

 Symmetries : space group P-6 2 m (#189); Bravais hP (primitive hexag.)
     intxc =       0      iscf =       7    lmnmax =      18     lnmax =       6
     mgfft =      90  mpssoang =       3    mqgrid =    3798     natom =       9
  nloc_mem =       1    nspden =       1   nspinor =       1    nsppol =       1
      nsym =      12    n1xccc =    2501    ntypat =       3    occopt =       1
   xclevel =       2
-    mband =          60        mffmem =           1         mkmem =           1
-   mkqmem =           1        mk1mem =           1           mpw =       22381
      nfft =      437400          nkpt =           1
  Rough estimation (10% accuracy) of disk space for files :

------------- Echo of variables that govern the present computation ------------
-
- outvars: echo of selected default values
-   iomode0 =  0 , fftalg0 =512 , wfoptalg0 =  0
-
- outvars: echo of global parameters not present in the input file
-  max_nthreads =    0
-
 -outvars: echo values of preprocessed input variables --------
            acell      1.0000000000E+00  1.0000000000E+00  1.0000000000E+00 Bohr
              amu      2.29897680E+01  8.76200000E+01  7.49215900E+01
             ecut      4.40000000E+01 Hartree
-          fftalg         512
           irdden           1
           irdwfk           1
           istwfk        1
              ixc     -116133
           kptopt           0
P           mkmem           1
P          mkqmem           1
P          mk1mem           1
            natom           9
            nband          60
           nbdbuf           4
            ngfft          90      90      54
             nkpt           1
            nstep        2000
             nsym          12
           ntypat           3
              occ      2.000000  2.000000  2.000000  2.000000  2.000000  2.000000
                       2.000000  2.000000  2.000000  2.000000  2.000000  2.000000
                       2.000000  2.000000  2.000000  2.000000  2.000000  2.000000
                       2.000000  2.000000  2.000000  2.000000  2.000000  2.000000
                       2.000000  2.000000  2.000000  2.000000  2.000000  2.000000
                       2.000000  2.000000  2.000000  2.000000  2.000000  2.000000
                       2.000000  2.000000  2.000000  2.000000  2.000000  2.000000
                       2.000000  2.000000  2.000000  2.000000  2.000000  2.000000
                       2.000000  2.000000  2.000000  0.000000  0.000000  0.000000
                       0.000000  0.000000  0.000000  0.000000  0.000000  0.000000
        optdriver           1
            prtwf          -1
            rfdir           1       1       1
           rfelfd           2
            rprim      1.4684049067E+01  0.0000000000E+00  0.0000000000E+00
                      -7.3420245335E+00  1.2716759522E+01  0.0000000000E+00
                       0.0000000000E+00  0.0000000000E+00  8.5988093331E+00
          spgroup         189
           symrel      1  0  0   0  1  0   0  0  1       0  1  0   1  0  0   0  0  1
                      -1 -1  0   1  0  0   0  0 -1       1  0  0  -1 -1  0   0  0 -1
                       0  1  0  -1 -1  0   0  0  1      -1 -1  0   0  1  0   0  0  1
                       1  0  0   0  1  0   0  0 -1       0  1  0   1  0  0   0  0 -1
                      -1 -1  0   1  0  0   0  0  1       1  0  0  -1 -1  0   0  0  1
                       0  1  0  -1 -1  0   0  0 -1      -1 -1  0   0  1  0   0  0 -1
           tolwfr      1.00000000E-20
            typat      1  1  1  2  2  2  3  3  3
           useylm           1
           xangst      1.8828844665E+00 -1.8677890641E-16  0.0000000000E+00
                       2.9437898147E+00  5.0987935260E+00  0.0000000000E+00
                      -9.4144223326E-01  1.6306257804E+00  0.0000000000E+00
                      -2.2717029490E+00  3.9347049273E+00  2.2751469600E+00
                       4.5434058979E+00 -1.8677890641E-16  2.2751469600E+00
                       1.6135290991E+00  2.7947143791E+00  2.2751469600E+00
                       3.8852320480E+00  2.2431397688E+00  0.0000000000E+00
                       1.7972808649E-16 -1.8677890641E-16  2.2751469600E+00
                      -1.7639241746E-11  4.4862795376E+00  0.0000000000E+00
            xcart      3.5581359815E+00 -3.5296098051E-16  0.0000000000E+00
                       5.5629565426E+00  9.6353233722E+00  0.0000000000E+00
                      -1.7790679908E+00  3.0814361502E+00  0.0000000000E+00
                      -4.2928964288E+00  7.4355147263E+00  4.2994046666E+00
                       8.5857928575E+00 -3.5296098051E-16  4.2994046666E+00
                       3.0491281047E+00  5.2812447961E+00  4.2994046666E+00
                       7.3420245334E+00  4.2389198408E+00  0.0000000000E+00
                       3.3963686185E-16 -3.5296098051E-16  4.2994046666E+00
                      -3.3333336091E-11  8.4778396816E+00  0.0000000000E+00
             xred      2.4231300000E-01 -2.7755575616E-17  0.0000000000E+00
                       7.5768700000E-01  7.5768700000E-01  0.0000000000E+00
                       9.2518585385E-18  2.4231300000E-01  0.0000000000E+00
                       9.2518585385E-18  5.8470200000E-01  5.0000000000E-01
                       5.8470200000E-01 -2.7755575616E-17  5.0000000000E-01
                       4.1529800000E-01  4.1529800000E-01  5.0000000000E-01
                       6.6666666667E-01  3.3333333333E-01  0.0000000000E+00
                       9.2518585385E-18 -2.7755575616E-17  5.0000000000E-01
                       3.3333333333E-01  6.6666666667E-01  0.0000000000E+00
            znucl       11.00000   38.00000   33.00000

 chkinp: Checking input parameters for consistency.

== DATASET  1 ==================================================================
-   mpi_nproc: 1, omp_nthreads: -1 (-1 if OMP is not activated)

--- !DatasetInfo
iteration_state: {dtset: 1, }
dimensions: {natom: 9, nkpt: 1, mband: 60, nsppol: 1, nspinor: 1, nspden: 1, mpw: 22381, }
cutoff_energies: {ecut:  44.0, pawecutdg:  -1.0, }
electrons: {nelect:   1.02000000E+02, charge:   0.00000000E+00, occopt:   1.00000000E+00, tsmear:   1.00000000E-02, }
meta: {optdriver: 1, rfelfd: 2, }
...

 Real(R)+Recip(G) space primitive vectors, cartesian coordinates (Bohr,Bohr^-1):
 R(1)= 14.6840491  0.0000000  0.0000000  G(1)=  0.0681011  0.0393182  0.0000000
 R(2)= -7.3420245 12.7167595  0.0000000  G(2)=  0.0000000  0.0786364  0.0000000
 R(3)=  0.0000000  0.0000000  8.5988093  G(3)=  0.0000000  0.0000000  0.1162952
 Unit cell volume ucvol=  1.6056859E+03 bohr^3
 Angles (23,13,12)=  9.00000000E+01  9.00000000E+01  1.20000000E+02 degrees

 getcut: wavevector=  0.0000  0.0000  0.0000  ngfft=  90  90  54
         ecut(hartree)=     44.000   => boxcut(ratio)=   2.05277

--- Pseudopotential description ------------------------------------------------
- pspini: atom type   1  psp file is /scratch/users/j/a/jabreu/pseudos/PBEsol/Na.psp8
- pspatm: opening atomic psp file    /scratch/users/j/a/jabreu/pseudos/PBEsol/Na.psp8
- Na    ONCVPSP-3.3.0  r_core=   1.20708   1.55069
- 11.00000   9.00000    180112                znucl, zion, pspdat
    8 -116133    1    4       400   0.00000   pspcod,pspxc,lmax,lloc,mmax,r2well
    3.99000000000000    0.00000000000000    0.00000000000000   rchrg,fchrg,qchrg
     nproj     2     2
     extension_switch     1
  pspatm : epsatm=    9.32878306
         --- l  ekb(1:nproj) -->
             0    2.657905   -0.678300
             1   -6.761319   -2.404728
 pspatm: atomic psp has been read  and splines computed

- pspini: atom type   2  psp file is /scratch/users/j/a/jabreu/pseudos/PBEsol/Sr.psp8
- pspatm: opening atomic psp file    /scratch/users/j/a/jabreu/pseudos/PBEsol/Sr.psp8
- Sr    ONCVPSP-3.3.0  r_core=   1.66721   1.31335   1.51547
- 38.00000  10.00000    180112                znucl, zion, pspdat
    8 -116133    2    4       600   0.00000   pspcod,pspxc,lmax,lloc,mmax,r2well
    5.99000000000000    6.00000000000000    0.00000000000000   rchrg,fchrg,qchrg
     nproj     2     2     2
     extension_switch     1
  pspatm : epsatm=   12.46450977
         --- l  ekb(1:nproj) -->
             0   10.029206    1.044171
             1    7.472414    1.670829
             2    4.142950    0.968140
 pspatm: atomic psp has been read  and splines computed

- pspini: atom type   3  psp file is /scratch/users/j/a/jabreu/pseudos/PBEsol/As.psp8
- pspatm: opening atomic psp file    /scratch/users/j/a/jabreu/pseudos/PBEsol/As.psp8
- As    ONCVPSP-3.3.0  r_core=   1.76603   1.70395   1.80867
- 33.00000  15.00000    180112                znucl, zion, pspdat
    8 -116133    2    4       600   0.00000   pspcod,pspxc,lmax,lloc,mmax,r2well
    5.99000000000000    5.00000000000000    0.00000000000000   rchrg,fchrg,qchrg
     nproj     2     2     2
     extension_switch     1
  pspatm : epsatm=   28.79155382
         --- l  ekb(1:nproj) -->
             0    8.270760    0.868950
             1    4.919053    0.756587
             2  -10.048665   -4.076802
 pspatm: atomic psp has been read  and splines computed

   1.54789631E+04                                ecore*ucvol(ha*bohr**3)

-inwffil : will read wavefunctions from disk file /scratch/users/j/a/jabreu/flow_simple_9atoms/flow/w159/t1/indata/in_WFK

 ==>  initialize data related to q vector <==

 The list of irreducible perturbations for this q vector is:
    1)    idir= 1    ipert=  10
    2)    idir= 2    ipert=  10
    3)    idir= 3    ipert=  10

 Perturbation wavevector (in red.coord.)   0.000000  0.000000  0.000000
 Perturbation : derivative vs k along direction   1

 dfpt_looppert : COMMENT -
  In a d/dk calculation, iscf is set to -3 automatically.
 The set of symmetries contains only one element for this perturbation.
 symkpt : not enough symmetry to change the number of k points.

[...]

 Initialisation of the first-order wave-functions :
  ireadwf=   0

--- !BeginCycle
iteration_state: {dtset: 1, }
solver: {iscf: 7, nstep: 2000, nline: 4, wfoptalg: 0, }
tolerances: {tolwfr: 1.00E-20, }
...

     iter   2DEtotal(Ha)        deltaE(Ha) residm    vres2
-ETOT  1  -46.935609901691     -4.694E+01 1.724E-02 0.000E+00
 ETOT  2  -46.970280061997     -3.467E-02 4.460E-04 0.000E+00
 ETOT  3  -46.970448783362     -1.687E-04 3.055E-05 0.000E+00
 ETOT  4  -46.970451693922     -2.911E-06 3.269E-06 0.000E+00
 ETOT  5  -46.970451757038     -6.312E-08 3.383E-07 0.000E+00
 ETOT  6  -46.970451758494     -1.456E-09 3.877E-08 0.000E+00
 ETOT  7  -46.970451758529     -3.506E-11 4.171E-09 0.000E+00
 ETOT  8  -46.970451758530     -9.663E-13 4.818E-10 0.000E+00
 ETOT  9  -46.970451758530      1.421E-14 5.233E-11 0.000E+00
 ETOT 10  -46.970451758529      8.527E-14 6.061E-12 0.000E+00
 ETOT 11  -46.970451758530     -6.395E-14 6.601E-13 0.000E+00
 ETOT 12  -46.970451758530      2.132E-14 7.654E-14 0.000E+00
 ETOT 13  -46.970451758530     -1.421E-14 8.348E-15 0.000E+00
 ETOT 14  -46.970451758530      0.000E+00 9.683E-16 0.000E+00
 ETOT 15  -46.970451758530      0.000E+00 1.057E-16 0.000E+00
 ETOT 16  -46.970451758530      0.000E+00 1.226E-17 0.000E+00
 ETOT 17  -46.970451758530      0.000E+00 1.339E-18 0.000E+00
 ETOT 18  -46.970451758530      0.000E+00 1.552E-19 0.000E+00
 ETOT 19  -46.970451758530      0.000E+00 1.696E-20 0.000E+00
 ETOT 20  -46.970451758530      0.000E+00 9.721E-21 0.000E+00

 At SCF step   20   max residual=  9.72E-21 < tolwfr=  1.00E-20 =>converged.

 ----iterations are completed or convergence reached----

 dfpt_looppert: DFPT cycle converged with prtwf=-1. Will skip output of the 1st-order WFK file.
 dfpt_looppert : ek2=    4.9800876527E+01
          f-sum rule ratio=    1.1395292568E+00
 prteigrs : about to open file /scratch/users/j/a/jabreu/flow_simple_9atoms/flow/w159/t1/tmpdata/tmp_1WF1_EIG
 Expectation of eigenvalue derivatives (hartree) for nkpt=   1  k points:
  (in case of degenerate eigenvalues, averaged derivative)
 kpt#   1, nband= 60, wtk=  1.00000, kpt=  0.0000  0.0000  0.0000 (reduced coord)
  -0.00000   -0.00000   -0.00000    0.00000   -0.00000   -0.00000    0.00000    0.00000
  -0.00000   -0.00000    0.00000   -0.00000   -0.00000   -0.00000   -0.00000   -0.00000
  -0.00000   -0.00000   -0.00000   -0.00000    0.00000    0.00000    0.00000   -0.00000
  -0.00000    0.00000    0.00000   -0.00000   -0.00000   -0.00000    0.00000    0.00000
   0.00000    0.00000   -0.00000   -0.00000   -0.00000    0.00000    0.00000   -0.00000
   0.00000   -0.00000    0.00000    0.00000   -0.00000   -0.00000   -0.00000    0.00000
  -0.00000   -0.00000   -0.00000    0.00000    0.00000   -0.00000   -0.00000    0.00000
   0.00000   -0.00000   -0.00000   -0.00000

 Eight components of 2nd-order total energy (hartree) are
 1,2,3: 0th-order hamiltonian combined with 1st-order wavefunctions
     kin0=   5.24224243E+01 eigvalue=   6.02379343E+00  local=  -2.37721951E+01
 4,5,6: 1st-order hamiltonian combined with 1st and 0th-order wfs
     kin1=  -5.67495558E+01  Hartree=   0.00000000E+00     xc=   0.00000000E+00
 7,8,9: eventually, occupation + non-local contributions
    edocc=   8.23732795E+00     enl0=   4.05910124E+00   enl1=  -3.71913477E+01
 1-9 gives the relaxation energy (to be shifted if some occ is /=2.0)
   erelax=  -4.69704518E+01
  No Ewald or frozen-wf contrib.: the relaxation energy is the total one
 2DEtotal=   -0.4697045176E+02 Ha. Also 2DEtotal=   -0.127813099288E+04 eV
    (  non-var. 2DEtotal :   -4.6970451758E+01 Ha)

 Perturbation wavevector (in red.coord.)   0.000000  0.000000  0.000000
 Perturbation : derivative vs k along direction   2
 The set of symmetries contains only one element for this perturbation.
 symkpt : not enough symmetry to change the number of k points.

[...]

 Perturbation wavevector (in red.coord.)   0.000000  0.000000  0.000000
 Perturbation : derivative vs k along direction   3
 The set of symmetries contains only one element for this perturbation.
 symkpt : not enough symmetry to change the number of k points.

-inwffil : will read wavefunctions from disk file /scratch/users/j/a/jabreu/flow_simple_9atoms/flow/w159/t1/indata/in_WFK

 Initialisation of the first-order wave-functions :
  ireadwf=   0

--- !BeginCycle
iteration_state: {dtset: 1, }
solver: {iscf: 7, nstep: 2000, nline: 4, wfoptalg: 0, }
tolerances: {tolwfr: 1.00E-20, }
...

     iter   2DEtotal(Ha)        deltaE(Ha) residm    vres2
-ETOT  1  -112.12690331836     -1.121E+02 6.049E-02 0.000E+00
 ETOT  2  -112.19220186182     -6.530E-02 1.299E-03 0.000E+00
 ETOT  3  -112.19249691518     -2.951E-04 4.910E-05 0.000E+00
 ETOT  4  -112.19249932163     -2.406E-06 5.996E-06 0.000E+00
 ETOT  5  -112.19249934316     -2.153E-08 3.264E-07 0.000E+00
 ETOT  6  -112.19249934336     -2.010E-10 4.615E-08 0.000E+00
 ETOT  7  -112.19249934337     -1.918E-12 2.714E-09 0.000E+00
 ETOT  8  -112.19249934337     -1.137E-13 3.910E-10 0.000E+00
 ETOT  9  -112.19249934337      2.132E-13 2.411E-11 0.000E+00
 ETOT 10  -112.19249934337     -2.842E-14 3.510E-12 0.000E+00
 ETOT 11  -112.19249934337     -4.263E-14 2.247E-13 0.000E+00
 ETOT 12  -112.19249934337      4.263E-14 3.289E-14 0.000E+00
 ETOT 13  -112.19249934337     -2.842E-14 2.169E-15 0.000E+00
 ETOT 14  -112.19249934337      0.000E+00 3.211E-16 0.000E+00
 ETOT 15  -112.19249934337      0.000E+00 2.224E-17 0.000E+00
 ETOT 16  -112.19249934337      0.000E+00 3.635E-18 0.000E+00
 ETOT 17  -112.19249934337     -2.842E-14 3.313E-19 0.000E+00
 ETOT 18  -112.19249934337      2.842E-14 8.691E-20 0.000E+00
 ETOT 19  -112.19249934337      0.000E+00 1.291E-20 0.000E+00
 ETOT 20  -112.19249934337      2.842E-14 9.537E-21 0.000E+00

 At SCF step   20   max residual=  9.54E-21 < tolwfr=  1.00E-20 =>converged.

 ----iterations are completed or convergence reached----

 dfpt_looppert: DFPT cycle converged with prtwf=-1. Will skip output of the 1st-order WFK file.
 dfpt_looppert : ek2=    1.0892141279E+02
          f-sum rule ratio=    1.3093660363E+00
 prteigrs : about to open file /scratch/users/j/a/jabreu/flow_simple_9atoms/flow/w159/t1/tmpdata/tmp_1WF1_EIG
 Expectation of eigenvalue derivatives (hartree) for nkpt=   1  k points:
  (in case of degenerate eigenvalues, averaged derivative)
 kpt#   1, nband= 60, wtk=  1.00000, kpt=  0.0000  0.0000  0.0000 (reduced coord)
   0.00000   -0.00000   -0.00000    0.00000    0.00000    0.00000    0.00000    0.00000
   0.00000    0.00000   -0.00000   -0.00000   -0.00000   -0.00000   -0.00000   -0.00000
  -0.00000   -0.00000   -0.00000   -0.00000   -0.00000   -0.00000   -0.00000   -0.00000
  -0.00000    0.00000    0.00000    0.00000   -0.00000   -0.00000   -0.00000   -0.00000
  -0.00000   -0.00000    0.00000    0.00000    0.00000    0.00000    0.00000   -0.00000
  -0.00000    0.00000   -0.00000   -0.00000   -0.00000   -0.00000    0.00000    0.00000
  -0.00000   -0.00000    0.00000    0.00000   -0.00000    0.00000    0.00000   -0.00000
  -0.00000    0.00000    0.00000    0.00000

 Eight components of 2nd-order total energy (hartree) are
 1,2,3: 0th-order hamiltonian combined with 1st-order wavefunctions
     kin0=   1.24447487E+02 eigvalue=   1.13104363E+01  local=  -6.01822820E+01
 4,5,6: 1st-order hamiltonian combined with 1st and 0th-order wfs
     kin1=  -1.42617999E+02  Hartree=   0.00000000E+00     xc=   0.00000000E+00
 7,8,9: eventually, occupation + non-local contributions
    edocc=   2.50152395E+01     enl0=   1.16016189E+01   enl1=  -8.17670002E+01
 1-9 gives the relaxation energy (to be shifted if some occ is /=2.0)
   erelax=  -1.12192499E+02
  No Ewald or frozen-wf contrib.: the relaxation energy is the total one
 2DEtotal=   -0.1121924993E+03 Ha. Also 2DEtotal=   -0.305291316585E+04 eV
    (  non-var. 2DEtotal :   -1.1219249934E+02 Ha)

 CALCULATION OF EFFECTIVE MASSES
 NOTE : Additional infos (eff. mass eigenvalues, eigenvectors and, if degenerate, average mass) are available in stdout.

 K-point ( 0.000, 0.000, 0.000) | band =    51
 Effective mass tensor:
             -1.2263901255             -0.0000000000             -0.0000000182
             -0.0000000000             -1.2263901255              0.0000000301
             -0.0000000182              0.0000000301             -0.0844456967
 Effective mass tensor eigenvalues:
             -1.2263901255             -1.2263901255             -0.0844456967
 Angular average effective mass 1/(<1/m>)=  -0.2226719852
 Angular average effective mass for Frohlich model (<m**0.5>)**2=  -0.3676137317
 Effective masses along directions: (cart. coord. / red. coord. -> eff. mass)
    1:   1.000000  0.000000  0.000000 /   0.894427 -0.447214  0.000000 ->  -1.2263901255
    2:   0.000000  1.000000  0.000000 /   0.000000  1.000000  0.000000 ->  -1.2263901255
    3:   0.000000  0.000000  1.000000 /   0.000000  0.000000  1.000000 ->  -0.0844456967
    4:   0.577350  0.577350  0.577350 /   0.822860  0.301188  0.481858 ->  -0.2226719814
    5:   0.000000  0.707107  0.707107 /   0.000000  0.828395  0.560144 ->  -0.1580111896
    6:   0.707107  0.000000  0.707107 /   0.792326 -0.396163  0.463977 ->  -0.1580112012
    7:   0.707107  0.707107  0.000000 /   0.939071  0.343724  0.000000 ->  -1.2263901255

 K-point ( 0.000, 0.000, 0.000) | band =    52
 Effective mass tensor:
              0.1139453231             -0.0000000000              0.0000000001
             -0.0000000000              0.1139453231              0.0000000001
              0.0000000001              0.0000000001              0.0958210717
 Effective mass tensor eigenvalues:
              0.0958210717              0.1139453231              0.1139453231
 Angular average effective mass 1/(<1/m>)=   0.1071872787
 Angular average effective mass for Frohlich model (<m**0.5>)**2=   0.1074081666
 Effective masses along directions: (cart. coord. / red. coord. -> eff. mass)
    1:   1.000000  0.000000  0.000000 /   0.894427 -0.447214  0.000000 ->   0.1139453231
    2:   0.000000  1.000000  0.000000 /   0.000000  1.000000  0.000000 ->   0.1139453231
    3:   0.000000  0.000000  1.000000 /   0.000000  0.000000  1.000000 ->   0.0958210717
    4:   0.577350  0.577350  0.577350 /   0.822860  0.301188  0.481858 ->   0.1071872788
    5:   0.000000  0.707107  0.707107 /   0.000000  0.828395  0.560144 ->   0.1041002111
    6:   0.707107  0.000000  0.707107 /   0.792326 -0.396163  0.463977 ->   0.1041002110
    7:   0.707107  0.707107  0.000000 /   0.939071  0.343724  0.000000 ->   0.1139453231

 END OF EFFECTIVE MASSES SECTION

 ---- first-order wavefunction calculations are completed ----

 Total localisation tensor (bohr^2) in cartesian coordinates
  WARNING : still subject to testing - especially symmetries.
      direction              matrix element
   alpha     beta       real part   imaginary part
     1        1       4.6828437165    0.0000000000
     1        2      -1.6221846110    0.0000000000
     1        3       0.0000000000    0.0000000000
     2        1      -1.6221846110    0.0000000000
     2        2       2.8097061656    0.0000000000
     2        3       0.0000000000    0.0000000000
     3        1       0.0000000000    0.0000000000
     3        2       0.0000000000    0.0000000000
     3        3       4.7640031935    0.0000000000

 respfn : d/dk was computed, but no 2DTE, so no DDB output.

== END DATASET(S) ==============================================================

 -outvars: echo values of variables after computation  --------
            acell      1.0000000000E+00  1.0000000000E+00  1.0000000000E+00 Bohr
              amu      2.29897680E+01  8.76200000E+01  7.49215900E+01
             ecut      4.40000000E+01 Hartree
           etotal     -1.1219249934E+02
            fcart      0.0000000000E+00  0.0000000000E+00  0.0000000000E+00
                       0.0000000000E+00  0.0000000000E+00  0.0000000000E+00
                       0.0000000000E+00  0.0000000000E+00  0.0000000000E+00
                       0.0000000000E+00  0.0000000000E+00  0.0000000000E+00
                       0.0000000000E+00  0.0000000000E+00  0.0000000000E+00
                       0.0000000000E+00  0.0000000000E+00  0.0000000000E+00
                       0.0000000000E+00  0.0000000000E+00  0.0000000000E+00
                       0.0000000000E+00  0.0000000000E+00  0.0000000000E+00
                       0.0000000000E+00  0.0000000000E+00  0.0000000000E+00
-          fftalg         512
           irdden           1
           irdwfk           1
           istwfk        1
              ixc     -116133
           kptopt           0
P           mkmem           1
P          mkqmem           1
P          mk1mem           1
            natom           9
            nband          60
           nbdbuf           4
            ngfft          90      90      54
             nkpt           1
            nstep        2000
             nsym          12
           ntypat           3
              occ      2.000000  2.000000  2.000000  2.000000  2.000000  2.000000
                       2.000000  2.000000  2.000000  2.000000  2.000000  2.000000
                       2.000000  2.000000  2.000000  2.000000  2.000000  2.000000
                       2.000000  2.000000  2.000000  2.000000  2.000000  2.000000
                       2.000000  2.000000  2.000000  2.000000  2.000000  2.000000
                       2.000000  2.000000  2.000000  2.000000  2.000000  2.000000
                       2.000000  2.000000  2.000000  2.000000  2.000000  2.000000
                       2.000000  2.000000  2.000000  2.000000  2.000000  2.000000
                       2.000000  2.000000  2.000000  0.000000  0.000000  0.000000
                       0.000000  0.000000  0.000000  0.000000  0.000000  0.000000
        optdriver           1
            prtwf          -1
            rfdir           1       1       1
           rfelfd           2
            rprim      1.4684049067E+01  0.0000000000E+00  0.0000000000E+00
                      -7.3420245335E+00  1.2716759522E+01  0.0000000000E+00
                       0.0000000000E+00  0.0000000000E+00  8.5988093331E+00
          spgroup         189
           strten      0.0000000000E+00  0.0000000000E+00  0.0000000000E+00
                       0.0000000000E+00  0.0000000000E+00  0.0000000000E+00
           symrel      1  0  0   0  1  0   0  0  1       0  1  0   1  0  0   0  0  1
                      -1 -1  0   1  0  0   0  0 -1       1  0  0  -1 -1  0   0  0 -1
                       0  1  0  -1 -1  0   0  0  1      -1 -1  0   0  1  0   0  0  1
                       1  0  0   0  1  0   0  0 -1       0  1  0   1  0  0   0  0 -1
                      -1 -1  0   1  0  0   0  0  1       1  0  0  -1 -1  0   0  0  1
                       0  1  0  -1 -1  0   0  0 -1      -1 -1  0   0  1  0   0  0 -1
           tolwfr      1.00000000E-20
            typat      1  1  1  2  2  2  3  3  3
           useylm           1
           xangst      1.8828844665E+00 -1.8677890641E-16  0.0000000000E+00
                       2.9437898147E+00  5.0987935260E+00  0.0000000000E+00
                      -9.4144223326E-01  1.6306257804E+00  0.0000000000E+00
                      -2.2717029490E+00  3.9347049273E+00  2.2751469600E+00
                       4.5434058979E+00 -1.8677890641E-16  2.2751469600E+00
                       1.6135290991E+00  2.7947143791E+00  2.2751469600E+00
                       3.8852320480E+00  2.2431397688E+00  0.0000000000E+00
                       1.7972808649E-16 -1.8677890641E-16  2.2751469600E+00
                      -1.7639241746E-11  4.4862795376E+00  0.0000000000E+00
            xcart      3.5581359815E+00 -3.5296098051E-16  0.0000000000E+00
                       5.5629565426E+00  9.6353233722E+00  0.0000000000E+00
                      -1.7790679908E+00  3.0814361502E+00  0.0000000000E+00
                      -4.2928964288E+00  7.4355147263E+00  4.2994046666E+00
                       8.5857928575E+00 -3.5296098051E-16  4.2994046666E+00
                       3.0491281047E+00  5.2812447961E+00  4.2994046666E+00
                       7.3420245334E+00  4.2389198408E+00  0.0000000000E+00
                       3.3963686185E-16 -3.5296098051E-16  4.2994046666E+00
                      -3.3333336091E-11  8.4778396816E+00  0.0000000000E+00
             xred      2.4231300000E-01 -2.7755575616E-17  0.0000000000E+00
                       7.5768700000E-01  7.5768700000E-01  0.0000000000E+00
                       9.2518585385E-18  2.4231300000E-01  0.0000000000E+00
                       9.2518585385E-18  5.8470200000E-01  5.0000000000E-01
                       5.8470200000E-01 -2.7755575616E-17  5.0000000000E-01
                       4.1529800000E-01  4.1529800000E-01  5.0000000000E-01
                       6.6666666667E-01  3.3333333333E-01  0.0000000000E+00
                       9.2518585385E-18 -2.7755575616E-17  5.0000000000E-01
                       3.3333333333E-01  6.6666666667E-01  0.0000000000E+00
            znucl       11.00000   38.00000   33.00000

- Timing analysis has been suppressed with timopt=0

 Suggested references for the acknowledgment of ABINIT usage.

 Calculation completed.
.Delivered   6 WARNINGs and   5 COMMENTs to log file.