.Version 9.5.2 of ABINIT

 ABINIT is a project of the Universite Catholique de Louvain,
 Corning Inc. and other collaborators, see ~abinit/doc/developers/contributors.txt .
 acknowledgments of the ABINIT effort.

.Starting date : Mon 24 May 2021.
- ( at 11h27 )

- input  file    -> /scratch/users/j/a/jabreu/flow_simple_10atoms/flow/w329/t1/run.abi
- output file    -> /scratch/users/j/a/jabreu/flow_simple_10atoms/flow/w329/t1/run.abo
- root for input  files -> /scratch/users/j/a/jabreu/flow_simple_10atoms/flow/w329/t1/indata/in
- root for output files -> /scratch/users/j/a/jabreu/flow_simple_10atoms/flow/w329/t1/outdata/out

 Symmetries : space group Fm -3 m (#225); Bravais cF (face-center cubic)
     intxc =       0      iscf =       7    lmnmax =      32     lnmax =       8
     mgfft =      75  mpssoang =       4    mqgrid =    3001     natom =      10
  nloc_mem =       1    nspden =       1   nspinor =       1    nsppol =       1
      nsym =      48    n1xccc =    2501    ntypat =       4    occopt =       1
   xclevel =       2
-    mband =          50        mffmem =           1         mkmem =           2
-   mkqmem =           2        mk1mem =           2           mpw =       17453
      nfft =      421875          nkpt =           2
  Rough estimation (10% accuracy) of disk space for files :

------------- Echo of variables that govern the present computation ------------
-
- outvars: echo of selected default values
-   iomode0 =  0 , fftalg0 =512 , wfoptalg0 =  0
-
- outvars: echo of global parameters not present in the input file
-  max_nthreads =    0
-
 -outvars: echo values of preprocessed input variables --------
            acell      1.0000000000E+00  1.0000000000E+00  1.0000000000E+00 Bohr
              amu      1.32905430E+02  8.54678000E+01  6.97230000E+01
                       1.89984032E+01
             ecut      4.20000000E+01 Hartree
-          fftalg         512
           irdden           1
           irdwfk           1
           istwfk        1    1
              ixc     -116133
              kpt      5.00000000E-01  5.00000000E-01  5.00000000E-01
                       0.00000000E+00  0.00000000E+00  0.00000000E+00
           kptopt           0
P           mkmem           2
P          mkqmem           2
P          mk1mem           2
            natom          10
            nband          50
           nbdbuf           4
            ngfft          75      75      75
             nkpt           2
            nstep        2000
             nsym          48
           ntypat           4
              occ      2.000000  2.000000  2.000000  2.000000  2.000000  2.000000
                       2.000000  2.000000  2.000000  2.000000  2.000000  2.000000
                       2.000000  2.000000  2.000000  2.000000  2.000000  2.000000
                       2.000000  2.000000  2.000000  2.000000  2.000000  2.000000
                       2.000000  2.000000  2.000000  2.000000  2.000000  2.000000
                       2.000000  2.000000  2.000000  2.000000  2.000000  2.000000
                       2.000000  2.000000  2.000000  2.000000  2.000000  0.000000
                       0.000000  0.000000  0.000000  0.000000  0.000000  0.000000
                       0.000000  0.000000
        optdriver           1
            prtwf          -1
            rfdir           1       1       1
           rfelfd           2
            rprim      1.0712983330E+01  0.0000000000E+00  6.1851438092E+00
                       3.5709944432E+00  1.0100297546E+01  6.1851438092E+00
                       0.0000000000E+00  0.0000000000E+00  1.2370287619E+01
          spgroup         225
           symrel      1  0  0   0  1  0   0  0  1      -1  0  0   0 -1  0   0  0 -1
                       0 -1  1   0 -1  0   1 -1  0       0  1 -1   0  1  0  -1  1  0
                      -1  0  0  -1  0  1  -1  1  0       1  0  0   1  0 -1   1 -1  0
                       0  1 -1   1  0 -1   0  0 -1       0 -1  1  -1  0  1   0  0  1
                      -1  0  0  -1  1  0  -1  0  1       1  0  0   1 -1  0   1  0 -1
                       0 -1  1   1 -1  0   0 -1  0       0  1 -1  -1  1  0   0  1  0
                       1  0  0   0  0  1   0  1  0      -1  0  0   0  0 -1   0 -1  0
                       0  1 -1   0  0 -1   1  0 -1       0 -1  1   0  0  1  -1  0  1
                      -1  0  1  -1  1  0  -1  0  0       1  0 -1   1 -1  0   1  0  0
                       0 -1  0   1 -1  0   0 -1  1       0  1  0  -1  1  0   0  1 -1
                       1  0 -1   0  0 -1   0  1 -1      -1  0  1   0  0  1   0 -1  1
                       0  1  0   0  0  1   1  0  0       0 -1  0   0  0 -1  -1  0  0
                       1  0 -1   0  1 -1   0  0 -1      -1  0  1   0 -1  1   0  0  1
                       0 -1  0   0 -1  1   1 -1  0       0  1  0   0  1 -1  -1  1  0
                      -1  0  1  -1  0  0  -1  1  0       1  0 -1   1  0  0   1 -1  0
                       0  1  0   1  0  0   0  0  1       0 -1  0  -1  0  0   0  0 -1
                       0  0 -1   0  1 -1   1  0 -1       0  0  1   0 -1  1  -1  0  1
                       1 -1  0   0 -1  1   0 -1  0      -1  1  0   0  1 -1   0  1  0
                       0  0  1   1  0  0   0  1  0       0  0 -1  -1  0  0   0 -1  0
                      -1  1  0  -1  0  0  -1  0  1       1 -1  0   1  0  0   1  0 -1
                       0  0  1   0  1  0   1  0  0       0  0 -1   0 -1  0  -1  0  0
                       1 -1  0   0 -1  0   0 -1  1      -1  1  0   0  1  0   0  1 -1
                       0  0 -1   1  0 -1   0  1 -1       0  0  1  -1  0  1   0 -1  1
                      -1  1  0  -1  0  1  -1  0  0       1 -1  0   1  0 -1   1  0  0
           tolwfr      1.00000000E-20
            typat      1  2  2  3  4  4  4  4  4  4
           useylm           1
              wtk        0.50000    0.50000
           xangst      3.7793777427E+00  2.6724236306E+00  6.5460742714E+00
                       1.8896888714E+00  1.3362118153E+00  3.2730371357E+00
                       5.6690666141E+00  4.0086354458E+00  9.8191114071E+00
                       0.0000000000E+00  0.0000000000E+00  0.0000000000E+00
                       2.6665361870E+00  4.2462192514E+00  8.4735723867E+00
                       4.8922192984E+00  1.0986280097E+00  8.4735723867E+00
                       2.6665361870E+00  4.2462192514E+00  4.6185761561E+00
                       1.5536946313E+00  1.0986280097E+00  6.5460742714E+00
                       6.0050608542E+00  4.2462192514E+00  6.5460742714E+00
                       4.8922192984E+00  1.0986280097E+00  4.6185761561E+00
            xcart      7.1419888865E+00  5.0501487728E+00  1.2370287618E+01
                       3.5709944432E+00  2.5250743864E+00  6.1851438092E+00
                       1.0712983330E+01  7.5752231592E+00  1.8555431428E+01
                       0.0000000000E+00  0.0000000000E+00  0.0000000000E+00
                       5.0390231168E+00  8.0241914854E+00  1.6012731178E+01
                       9.2449546561E+00  2.0761060602E+00  1.6012731178E+01
                       5.0390231168E+00  8.0241914854E+00  8.7278440589E+00
                       2.9360573472E+00  2.0761060602E+00  1.2370287618E+01
                       1.1347920426E+01  8.0241914854E+00  1.2370287618E+01
                       9.2449546561E+00  2.0761060602E+00  8.7278440589E+00
             xred      5.0000000000E-01  5.0000000000E-01  5.0000000000E-01
                       2.5000000000E-01  2.5000000000E-01  2.5000000000E-01
                       7.5000000000E-01  7.5000000000E-01  7.5000000000E-01
                       0.0000000000E+00  0.0000000000E+00  0.0000000000E+00
                       2.0554900000E-01  7.9445100000E-01  7.9445100000E-01
                       7.9445100000E-01  2.0554900000E-01  7.9445100000E-01
                       2.0554900000E-01  7.9445100000E-01  2.0554900000E-01
                       2.0554900000E-01  2.0554900000E-01  7.9445100000E-01
                       7.9445100000E-01  7.9445100000E-01  2.0554900000E-01
                       7.9445100000E-01  2.0554900000E-01  2.0554900000E-01
            znucl       55.00000   37.00000   31.00000    9.00000

 chkinp: Checking input parameters for consistency.

== DATASET  1 ==================================================================
-   mpi_nproc: 1, omp_nthreads: -1 (-1 if OMP is not activated)

--- !DatasetInfo
iteration_state: {dtset: 1, }
dimensions: {natom: 10, nkpt: 2, mband: 50, nsppol: 1, nspinor: 1, nspden: 1, mpw: 17453, }
cutoff_energies: {ecut:  42.0, pawecutdg:  -1.0, }
electrons: {nelect:   8.20000000E+01, charge:   0.00000000E+00, occopt:   1.00000000E+00, tsmear:   1.00000000E-02, }
meta: {optdriver: 1, rfelfd: 2, }
...

 Real(R)+Recip(G) space primitive vectors, cartesian coordinates (Bohr,Bohr^-1):
 R(1)= 10.7129833  0.0000000  6.1851438  G(1)=  0.0933447 -0.0330023  0.0000000
 R(2)=  3.5709944 10.1002975  6.1851438  G(2)=  0.0000000  0.0990070  0.0000000
 R(3)=  0.0000000  0.0000000 12.3702876  G(3)= -0.0466723 -0.0330023  0.0808389
 Unit cell volume ucvol=  1.3385186E+03 bohr^3
 Angles (23,13,12)=  6.00000000E+01  6.00000000E+01  6.00000000E+01 degrees

 getcut: wavevector=  0.0000  0.0000  0.0000  ngfft=  75  75  75
         ecut(hartree)=     42.000   => boxcut(ratio)=   2.05089

--- Pseudopotential description ------------------------------------------------
- pspini: atom type   1  psp file is /scratch/users/j/a/jabreu/pseudos/PBEsol/Cs.psp8
- pspatm: opening atomic psp file    /scratch/users/j/a/jabreu/pseudos/PBEsol/Cs.psp8
- Cs    ONCVPSP-3.3.0  r_core=   2.27353   1.85623   2.01788   1.90105
- 55.00000   9.00000    180112                znucl, zion, pspdat
    8 -116133    3    4       600   0.00000   pspcod,pspxc,lmax,lloc,mmax,r2well
    5.99000000000000    5.00000000000000    0.00000000000000   rchrg,fchrg,qchrg
     nproj     2     2     2     2
     extension_switch     1
  pspatm : epsatm=   22.12462445
         --- l  ekb(1:nproj) -->
             0    6.214110    0.767882
             1    6.311966    0.793598
             2    3.769790    0.913105
             3   -9.247129   -2.432478
 pspatm: atomic psp has been read  and splines computed

- pspini: atom type   2  psp file is /scratch/users/j/a/jabreu/pseudos/PBEsol/Rb.psp8
- pspatm: opening atomic psp file    /scratch/users/j/a/jabreu/pseudos/PBEsol/Rb.psp8
- Rb    ONCVPSP-3.3.0  r_core=   1.71227   1.75361   1.90633
- 37.00000   9.00000    180112                znucl, zion, pspdat
    8 -116133    2    4       600   0.00000   pspcod,pspxc,lmax,lloc,mmax,r2well
    5.99000000000000    7.00000000000000    0.00000000000000   rchrg,fchrg,qchrg
     nproj     2     2     2
     extension_switch     1
  pspatm : epsatm=   34.48400912
         --- l  ekb(1:nproj) -->
             0    8.196957   -0.477221
             1    3.231347   -0.378736
             2   -1.047201    0.996637
 pspatm: atomic psp has been read  and splines computed

[...]

- pspini: atom type   4  psp file is /scratch/users/j/a/jabreu/pseudos/PBEsol/F.psp8
- pspatm: opening atomic psp file    /scratch/users/j/a/jabreu/pseudos/PBEsol/F.psp8
[...]
 ETOT 44  -41.522170777037      7.105E-15 1.052E-14 0.000E+00
 ETOT 45  -41.522170777037     -7.105E-15 1.107E-14 0.000E+00
 ETOT 46  -41.522170777037      7.105E-15 3.197E-15 0.000E+00
 ETOT 47  -41.522170777037      0.000E+00 3.369E-15 0.000E+00
 ETOT 48  -41.522170777037     -7.105E-15 9.717E-16 0.000E+00
 ETOT 49  -41.522170777037     -7.105E-15 1.025E-15 0.000E+00
 ETOT 50  -41.522170777037      0.000E+00 2.953E-16 0.000E+00
 ETOT 51  -41.522170777037      0.000E+00 3.120E-16 0.000E+00
 ETOT 52  -41.522170777037      0.000E+00 8.974E-17 0.000E+00
 ETOT 53  -41.522170777037      0.000E+00 9.494E-17 0.000E+00
 ETOT 54  -41.522170777037      0.000E+00 2.727E-17 0.000E+00
 ETOT 55  -41.522170777037      1.421E-14 2.888E-17 0.000E+00
 ETOT 56  -41.522170777037     -7.105E-15 8.286E-18 0.000E+00
 ETOT 57  -41.522170777037     -7.105E-15 8.784E-18 0.000E+00
 ETOT 58  -41.522170777037      0.000E+00 2.518E-18 0.000E+00
 ETOT 59  -41.522170777037      0.000E+00 2.672E-18 0.000E+00
 ETOT 60  -41.522170777037     -1.421E-14 7.650E-19 0.000E+00
 ETOT 61  -41.522170777037      1.421E-14 8.124E-19 0.000E+00
 ETOT 62  -41.522170777037      0.000E+00 2.414E-19 0.000E+00
 ETOT 63  -41.522170777037      0.000E+00 2.470E-19 0.000E+00
 ETOT 64  -41.522170777037      7.105E-15 7.757E-20 0.000E+00
 ETOT 65  -41.522170777037      0.000E+00 7.511E-20 0.000E+00
 ETOT 66  -41.522170777037      0.000E+00 9.933E-21 0.000E+00

 At SCF step   66   max residual=  9.93E-21 < tolwfr=  1.00E-20 =>converged.

 ----iterations are completed or convergence reached----

 dfpt_looppert: DFPT cycle converged with prtwf=-1. Will skip output of the 1st-order WFK file.
 dfpt_looppert : ek2=    6.3465140959E+01
          f-sum rule ratio=    1.0161055784E+00
 prteigrs : about to open file /scratch/users/j/a/jabreu/flow_simple_10atoms/flow/w329/t1/tmpdata/tmp_1WF1_EIG
 Expectation of eigenvalue derivatives (hartree) for nkpt=   2  k points:
  (in case of degenerate eigenvalues, averaged derivative)
 kpt#   1, nband= 50, wtk=  0.50000, kpt=  0.5000  0.5000  0.5000 (reduced coord)
  -0.00000   -0.00000    0.00000   -0.00000    0.00000    0.00000    0.00000    0.00000
  -0.00000   -0.00000   -0.00000   -0.00000   -0.00000   -0.00000   -0.00000   -0.00000
   0.00000    0.00000   -0.00000    0.00000   -0.00000    0.00000    0.00000    0.00000
  -0.00000   -0.00000    0.00000   -0.00000   -0.00000   -0.00000   -0.00000    0.00000
   0.00000    0.00000    0.00000    0.00000    0.00000    0.00000    0.00000   -0.00000
  -0.00000   -0.00000   -0.00000   -0.00000   -0.00000   -0.00000    0.00000    0.00020
  -0.00001   -0.00000
 prteigrs : prtvol=0 or 1, do not print more k-points.

 Eight components of 2nd-order total energy (hartree) are
 1,2,3: 0th-order hamiltonian combined with 1st-order wavefunctions
     kin0=   5.35179757E+01 eigvalue=   4.35568850E+00  local=  -2.41439941E+01
 4,5,6: 1st-order hamiltonian combined with 1st and 0th-order wfs
     kin1=  -6.44872838E+01  Hartree=   0.00000000E+00     xc=   0.00000000E+00
 7,8,9: eventually, occupation + non-local contributions
    edocc=   5.25656559E+00     enl0=   2.53593503E+00   enl1=  -1.85570578E+01
 1-9 gives the relaxation energy (to be shifted if some occ is /=2.0)
   erelax=  -4.15221708E+01
  No Ewald or frozen-wf contrib.: the relaxation energy is the total one
 2DEtotal=   -0.4152217078E+02 Ha. Also 2DEtotal=   -0.112987572771E+04 eV
    (  non-var. 2DEtotal :   -4.1522170777E+01 Ha)

 CALCULATION OF EFFECTIVE MASSES
 NOTE : Additional infos (eff. mass eigenvalues, eigenvectors and, if degenerate, average mass) are available in stdout.

 COMMENTS:
 - At k-point ( 0.500, 0.500, 0.500), bands    40 through    41
   are DEGENERATE (effective mass tensor is therefore not defined).
   See Section IIIB Eqs. (67)-(70) and Appendix E of PRB 93 205147 (2016).
 - Angular average effective mass for Frohlich model is to be averaged over degenerate bands. See later.
 - Associated theta integrals calculated with ntheta=   1000 points.

 K-point ( 0.500, 0.500, 0.500) | band =    40
 Transport equivalent effective mass tensor:
             -1.6440073270              0.0762324843              0.1866908602
              0.0762324843             -1.6979046193              0.1320108928
              0.1866908602              0.1320108928             -1.4284149415
 Transport equivalent effective mass tensor eigenvalues:
             -1.7518117184             -1.7517773895             -1.2667377799
 Angular average effective mass 1/(<1/m>)=  -1.2579418887
 Angular average effective mass for Frohlich model (<m**0.5>)**2=  -1.2810139146
 Effective masses along directions: (cart. coord. / red. coord. -> eff. mass)
    1:   1.000000  0.000000  0.000000 /   0.948683  0.316228  0.000000 ->  -1.3555431080
    2:   0.000000  1.000000  0.000000 /   0.000000  1.000000  0.000000 ->  -1.9779715488
    3:   0.000000  0.000000  1.000000 /   0.408248  0.408248  0.816497 ->  -1.1990524866
    4:   0.577350  0.577350  0.577350 /   0.585539  0.688047  0.428644 ->  -1.1634097676
    5:   0.000000  0.707107  0.707107 /   0.289489  0.762222  0.578977 ->  -1.0668877036
    6:   0.707107  0.000000  0.707107 /   0.731423  0.422287  0.535439 ->  -1.1659512742
    7:   0.707107  0.707107  0.000000 /   0.616798  0.787122  0.000000 ->  -1.0425713001

 K-point ( 0.500, 0.500, 0.500) | band =    41
 Transport equivalent effective mass tensor:
            -26.3405777962              1.3146912915              3.2203394835
              1.3146912915            -27.2701518524              2.2771546508
              3.2203394835              2.2771546508            -22.6219553566
 Transport equivalent effective mass tensor eigenvalues:
            -28.1998197721            -28.1997951509            -19.8330700823
 Angular average effective mass 1/(<1/m>)=  -3.9414502545
 Angular average effective mass for Frohlich model (<m**0.5>)**2=  -4.7043138667
 Effective masses along directions: (cart. coord. / red. coord. -> eff. mass)
    1:   1.000000  0.000000  0.000000 /   0.948683  0.316228  0.000000 ->  -3.7268709341
    2:   0.000000  1.000000  0.000000 /   0.000000  1.000000  0.000000 ->  -2.1841763437
    3:   0.000000  0.000000  1.000000 /   0.408248  0.408248  0.816497 ->  -2.9192229298
    4:   0.577350  0.577350  0.577350 /   0.585539  0.688047  0.428644 ->  -2.5165595647
    5:   0.000000  0.707107  0.707107 /   0.289489  0.762222  0.578977 ->  -4.2178200188
    6:   0.707107  0.000000  0.707107 /   0.731423  0.422287  0.535439 ->  -2.6226768471
    7:   0.707107  0.707107  0.000000 /   0.616798  0.787122  0.000000 -> -11.6496837035

 Angular average effective mass for Frohlich model, averaged over degenerate bands.
 Value of     (<<m**0.5>>)**2 =     2.723757E+00
 Absolute Value of <<m**0.5>> =     1.650381E+00

 K-point ( 0.000, 0.000, 0.000) | band =    42
 Effective mass tensor:
              0.4718083402              0.0000000973              0.0000001705
              0.0000000973              0.4718079424             -0.0000001462
              0.0000001705             -0.0000001462              0.4718075886
 Effective mass tensor eigenvalues:
              0.4718074918              0.4718079923              0.4718083871
 Angular average effective mass 1/(<1/m>)=   0.4718079571
 Angular average effective mass for Frohlich model (<m**0.5>)**2=   0.4718079571
 Effective masses along directions: (cart. coord. / red. coord. -> eff. mass)
    1:   1.000000  0.000000  0.000000 /   0.948683  0.316228  0.000000 ->   0.4718083402
    2:   0.000000  1.000000  0.000000 /   0.000000  1.000000  0.000000 ->   0.4718079424
    3:   0.000000  0.000000  1.000000 /   0.408248  0.408248  0.816497 ->   0.4718075886
    4:   0.577350  0.577350  0.577350 /   0.585539  0.688047  0.428644 ->   0.4718080382
    5:   0.000000  0.707107  0.707107 /   0.289489  0.762222  0.578977 ->   0.4718076193
    6:   0.707107  0.000000  0.707107 /   0.731423  0.422287  0.535439 ->   0.4718081349
    7:   0.707107  0.707107  0.000000 /   0.616798  0.787122  0.000000 ->   0.4718082386

 END OF EFFECTIVE MASSES SECTION

 ---- first-order wavefunction calculations are completed ----

 Total localisation tensor (bohr^2) in cartesian coordinates
  WARNING : still subject to testing - especially symmetries.
      direction              matrix element
   alpha     beta       real part   imaginary part
     1        1       0.7234286613    0.0000000000
     1        2       0.2046164992    0.0000000000
     1        3       0.5012060683    0.0000000000
     2        1       0.2046164992    0.0000000000
     2        2       0.5787428564    0.0000000000
     2        3       0.3544061726    0.0000000000
     3        1       0.5012060683    0.0000000000
     3        2       0.3544061726    0.0000000000
     3        3       1.3021702280    0.0000000000

 respfn : d/dk was computed, but no 2DTE, so no DDB output.

== END DATASET(S) ==============================================================

 -outvars: echo values of variables after computation  --------
            acell      1.0000000000E+00  1.0000000000E+00  1.0000000000E+00 Bohr
              amu      1.32905430E+02  8.54678000E+01  6.97230000E+01
                       1.89984032E+01
             ecut      4.20000000E+01 Hartree
           etotal     -4.1522170777E+01
            fcart      0.0000000000E+00  0.0000000000E+00  0.0000000000E+00
                       0.0000000000E+00  0.0000000000E+00  0.0000000000E+00
                       0.0000000000E+00  0.0000000000E+00  0.0000000000E+00
                       0.0000000000E+00  0.0000000000E+00  0.0000000000E+00
                       0.0000000000E+00  0.0000000000E+00  0.0000000000E+00
                       0.0000000000E+00  0.0000000000E+00  0.0000000000E+00
                       0.0000000000E+00  0.0000000000E+00  0.0000000000E+00
                       0.0000000000E+00  0.0000000000E+00  0.0000000000E+00
                       0.0000000000E+00  0.0000000000E+00  0.0000000000E+00
                       0.0000000000E+00  0.0000000000E+00  0.0000000000E+00
-          fftalg         512
           irdden           1
           irdwfk           1
           istwfk        1    1
              ixc     -116133
              kpt      5.00000000E-01  5.00000000E-01  5.00000000E-01
                       0.00000000E+00  0.00000000E+00  0.00000000E+00
           kptopt           0
P           mkmem           2
P          mkqmem           2
P          mk1mem           2
            natom          10
            nband          50
           nbdbuf           4
            ngfft          75      75      75
             nkpt           2
            nstep        2000
             nsym          48
           ntypat           4
              occ      2.000000  2.000000  2.000000  2.000000  2.000000  2.000000
                       2.000000  2.000000  2.000000  2.000000  2.000000  2.000000
                       2.000000  2.000000  2.000000  2.000000  2.000000  2.000000
                       2.000000  2.000000  2.000000  2.000000  2.000000  2.000000
                       2.000000  2.000000  2.000000  2.000000  2.000000  2.000000
                       2.000000  2.000000  2.000000  2.000000  2.000000  2.000000
                       2.000000  2.000000  2.000000  2.000000  2.000000  0.000000
                       0.000000  0.000000  0.000000  0.000000  0.000000  0.000000
                       0.000000  0.000000
        optdriver           1
            prtwf          -1
            rfdir           1       1       1
           rfelfd           2
            rprim      1.0712983330E+01  0.0000000000E+00  6.1851438092E+00
                       3.5709944432E+00  1.0100297546E+01  6.1851438092E+00
                       0.0000000000E+00  0.0000000000E+00  1.2370287619E+01
          spgroup         225
           strten      0.0000000000E+00  0.0000000000E+00  0.0000000000E+00
                       0.0000000000E+00  0.0000000000E+00  0.0000000000E+00
           symrel      1  0  0   0  1  0   0  0  1      -1  0  0   0 -1  0   0  0 -1
                       0 -1  1   0 -1  0   1 -1  0       0  1 -1   0  1  0  -1  1  0
                      -1  0  0  -1  0  1  -1  1  0       1  0  0   1  0 -1   1 -1  0
                       0  1 -1   1  0 -1   0  0 -1       0 -1  1  -1  0  1   0  0  1
                      -1  0  0  -1  1  0  -1  0  1       1  0  0   1 -1  0   1  0 -1
                       0 -1  1   1 -1  0   0 -1  0       0  1 -1  -1  1  0   0  1  0
                       1  0  0   0  0  1   0  1  0      -1  0  0   0  0 -1   0 -1  0
                       0  1 -1   0  0 -1   1  0 -1       0 -1  1   0  0  1  -1  0  1
                      -1  0  1  -1  1  0  -1  0  0       1  0 -1   1 -1  0   1  0  0
                       0 -1  0   1 -1  0   0 -1  1       0  1  0  -1  1  0   0  1 -1
                       1  0 -1   0  0 -1   0  1 -1      -1  0  1   0  0  1   0 -1  1
                       0  1  0   0  0  1   1  0  0       0 -1  0   0  0 -1  -1  0  0
                       1  0 -1   0  1 -1   0  0 -1      -1  0  1   0 -1  1   0  0  1
                       0 -1  0   0 -1  1   1 -1  0       0  1  0   0  1 -1  -1  1  0
                      -1  0  1  -1  0  0  -1  1  0       1  0 -1   1  0  0   1 -1  0
                       0  1  0   1  0  0   0  0  1       0 -1  0  -1  0  0   0  0 -1
                       0  0 -1   0  1 -1   1  0 -1       0  0  1   0 -1  1  -1  0  1
                       1 -1  0   0 -1  1   0 -1  0      -1  1  0   0  1 -1   0  1  0
                       0  0  1   1  0  0   0  1  0       0  0 -1  -1  0  0   0 -1  0
                      -1  1  0  -1  0  0  -1  0  1       1 -1  0   1  0  0   1  0 -1
                       0  0  1   0  1  0   1  0  0       0  0 -1   0 -1  0  -1  0  0
                       1 -1  0   0 -1  0   0 -1  1      -1  1  0   0  1  0   0  1 -1
                       0  0 -1   1  0 -1   0  1 -1       0  0  1  -1  0  1   0 -1  1
                      -1  1  0  -1  0  1  -1  0  0       1 -1  0   1  0 -1   1  0  0
           tolwfr      1.00000000E-20
            typat      1  2  2  3  4  4  4  4  4  4
           useylm           1
              wtk        0.50000    0.50000
           xangst      3.7793777427E+00  2.6724236306E+00  6.5460742714E+00
                       1.8896888714E+00  1.3362118153E+00  3.2730371357E+00
                       5.6690666141E+00  4.0086354458E+00  9.8191114071E+00
                       0.0000000000E+00  0.0000000000E+00  0.0000000000E+00
                       2.6665361870E+00  4.2462192514E+00  8.4735723867E+00
                       4.8922192984E+00  1.0986280097E+00  8.4735723867E+00
                       2.6665361870E+00  4.2462192514E+00  4.6185761561E+00
                       1.5536946313E+00  1.0986280097E+00  6.5460742714E+00
                       6.0050608542E+00  4.2462192514E+00  6.5460742714E+00
                       4.8922192984E+00  1.0986280097E+00  4.6185761561E+00
            xcart      7.1419888865E+00  5.0501487728E+00  1.2370287618E+01
                       3.5709944432E+00  2.5250743864E+00  6.1851438092E+00
                       1.0712983330E+01  7.5752231592E+00  1.8555431428E+01
                       0.0000000000E+00  0.0000000000E+00  0.0000000000E+00
                       5.0390231168E+00  8.0241914854E+00  1.6012731178E+01
                       9.2449546561E+00  2.0761060602E+00  1.6012731178E+01
                       5.0390231168E+00  8.0241914854E+00  8.7278440589E+00
                       2.9360573472E+00  2.0761060602E+00  1.2370287618E+01
                       1.1347920426E+01  8.0241914854E+00  1.2370287618E+01
                       9.2449546561E+00  2.0761060602E+00  8.7278440589E+00
             xred      5.0000000000E-01  5.0000000000E-01  5.0000000000E-01
                       2.5000000000E-01  2.5000000000E-01  2.5000000000E-01
                       7.5000000000E-01  7.5000000000E-01  7.5000000000E-01
                       0.0000000000E+00  0.0000000000E+00  0.0000000000E+00
                       2.0554900000E-01  7.9445100000E-01  7.9445100000E-01
                       7.9445100000E-01  2.0554900000E-01  7.9445100000E-01
                       2.0554900000E-01  7.9445100000E-01  2.0554900000E-01
                       2.0554900000E-01  2.0554900000E-01  7.9445100000E-01
                       7.9445100000E-01  7.9445100000E-01  2.0554900000E-01
                       7.9445100000E-01  2.0554900000E-01  2.0554900000E-01
            znucl       55.00000   37.00000   31.00000    9.00000

- Timing analysis has been suppressed with timopt=0

 Suggested references for the acknowledgment of ABINIT usage.

 Calculation completed.
.Delivered   2 WARNINGs and   5 COMMENTs to log file.