.Version 9.5.2 of ABINIT

 ABINIT is a project of the Universite Catholique de Louvain,
 Corning Inc. and other collaborators, see ~abinit/doc/developers/contributors.txt .
 acknowledgments of the ABINIT effort.

.Starting date : Mon 24 May 2021.
- ( at 18h12 )

- input  file    -> /scratch/users/j/a/jabreu/flow_simple_10atoms/flow/w392/t1/run.abi
- output file    -> /scratch/users/j/a/jabreu/flow_simple_10atoms/flow/w392/t1/run.abo
- root for input  files -> /scratch/users/j/a/jabreu/flow_simple_10atoms/flow/w392/t1/indata/in
- root for output files -> /scratch/users/j/a/jabreu/flow_simple_10atoms/flow/w392/t1/outdata/out

 Symmetries : space group R-3 c (#167); Bravais hR (rhombohedral)
     intxc =       0      iscf =       7    lmnmax =      18     lnmax =       6
     mgfft =      72  mpssoang =       3    mqgrid =    3001     natom =      10
  nloc_mem =       1    nspden =       1   nspinor =       1    nsppol =       1
      nsym =      12    n1xccc =    2501    ntypat =       2    occopt =       1
   xclevel =       2
-    mband =          61        mffmem =           1         mkmem =           2
-   mkqmem =           2        mk1mem =           2           mpw =       14987
      nfft =      373248          nkpt =           2
  Rough estimation (10% accuracy) of disk space for files :

------------- Echo of variables that govern the present computation ------------
-
- outvars: echo of selected default values
-   iomode0 =  0 , fftalg0 =512 , wfoptalg0 =  0
-
- outvars: echo of global parameters not present in the input file
-  max_nthreads =    0
-
 -outvars: echo values of preprocessed input variables --------
            acell      1.0000000000E+00  1.0000000000E+00  1.0000000000E+00 Bohr
              amu      1.02905500E+02  3.20660000E+01
             ecut      4.40000000E+01 Hartree
-          fftalg         512
           irdden           1
           irdwfk           1
           istwfk        1    1
              ixc     -116133
              kpt      0.00000000E+00  0.00000000E+00  0.00000000E+00
                       5.00000000E-01  5.00000000E-01  0.00000000E+00
           kptopt           0
P           mkmem           2
P          mkqmem           2
P          mk1mem           2
            natom          10
            nband          61
           nbdbuf           4
            ngfft          72      72      72
             nkpt           2
            nstep        2000
             nsym          12
           ntypat           2
              occ      2.000000  2.000000  2.000000  2.000000  2.000000  2.000000
                       2.000000  2.000000  2.000000  2.000000  2.000000  2.000000
                       2.000000  2.000000  2.000000  2.000000  2.000000  2.000000
                       2.000000  2.000000  2.000000  2.000000  2.000000  2.000000
                       2.000000  2.000000  2.000000  2.000000  2.000000  2.000000
                       2.000000  2.000000  2.000000  2.000000  2.000000  2.000000
                       2.000000  2.000000  2.000000  2.000000  2.000000  2.000000
                       2.000000  2.000000  2.000000  2.000000  2.000000  2.000000
                       2.000000  2.000000  2.000000  2.000000  0.000000  0.000000
                       0.000000  0.000000  0.000000  0.000000  0.000000  0.000000
                       0.000000
        optdriver           1
            prtwf          -1
            rfdir           1       1       1
           rfelfd           2
            rprim      9.8661405200E+00  0.0000000000E+00  6.4356602106E+00
                       3.4858247936E+00  9.2298295905E+00  6.4356602106E+00
                       0.0000000000E+00  0.0000000000E+00  1.1779577713E+01
          spgroup         167
           symrel      1  0  0   0  1  0   0  0  1      -1  0  0   0 -1  0   0  0 -1
                       0  1  0   1  0  0   0  0  1       0 -1  0  -1  0  0   0  0 -1
                       0  0  1   1  0  0   0  1  0       0  0 -1  -1  0  0   0 -1  0
                       1  0  0   0  0  1   0  1  0      -1  0  0   0  0 -1   0 -1  0
                       0  1  0   0  0  1   1  0  0       0 -1  0   0  0 -1  -1  0  0
                       0  0  1   0  1  0   1  0  0       0  0 -1   0 -1  0  -1  0  0
            tnons      0.0000000  0.0000000  0.0000000     0.0000000  0.0000000  0.0000000
                       0.5000000  0.5000000  0.5000000     0.5000000  0.5000000  0.5000000
                       0.0000000 -0.0000000  0.0000000     0.0000000  0.0000000  0.0000000
                       0.5000000  0.5000000  0.5000000     0.5000000  0.5000000  0.5000000
                      -0.0000000 -0.0000000  0.0000000     0.0000000  0.0000000  0.0000000
                       0.5000000  0.5000000  0.5000000     0.5000000  0.5000000  0.5000000
           tolwfr      1.00000000E-20
            typat      1  1  1  1  2  2  2  2  2  2
           useylm           1
              wtk        0.50000    0.50000
           xangst      2.4776925603E+00  1.7127576032E+00  4.5744087464E+00
                       1.0550853066E+00  7.2935012598E-01  1.9479379856E+00
                       6.0104704272E+00  4.1548653325E+00  1.1096755478E+01
                       4.5878631735E+00  3.1714578552E+00  8.4702847177E+00
                       4.7470409650E+00  2.2012328755E+00  4.3964684079E+00
                       1.6409452107E+00  3.6631615938E+00  5.5314830299E+00
                       2.4439584916E+00  2.4087485376E-01  6.3779153924E+00
                       4.6215972422E+00  4.6433406047E+00  6.6667780717E+00
                       5.4246105232E+00  1.2210538646E+00  7.5132104342E+00
                       2.3185147688E+00  2.6829825830E+00  8.6482250562E+00
            xcart      4.6821603805E+00  3.2366428022E+00  8.6443797507E+00
                       1.9938222763E+00  1.3782719931E+00  3.6810693166E+00
                       1.1358143037E+01  7.8515575974E+00  2.0969828818E+01
                       8.6698049331E+00  5.9931867883E+00  1.6006518384E+01
                       8.9706073655E+00  4.1597272893E+00  8.3081212427E+00
                       3.1009370472E+00  6.9223721929E+00  1.0452988035E+01
                       4.6184122293E+00  4.5518750591E-01  1.2052513390E+01
                       8.7335530843E+00  8.7746420846E+00  1.2598384744E+01
                       1.0251028266E+01  2.3074573976E+00  1.4197910099E+01
                       4.3813579481E+00  5.0701023012E+00  1.6342776892E+01
             xred      3.5067200000E-01  3.5067200000E-01  3.5067200000E-01
                       1.4932800000E-01  1.4932800000E-01  1.4932800000E-01
                       8.5067200000E-01  8.5067200000E-01  8.5067200000E-01
                       6.4932800000E-01  6.4932800000E-01  6.4932800000E-01
                       7.5000000000E-01  4.5068300000E-01  4.9317000000E-02
                       4.9317000000E-02  7.5000000000E-01  4.5068300000E-01
                       4.5068300000E-01  4.9317000000E-02  7.5000000000E-01
                       5.4931700000E-01  9.5068300000E-01  2.5000000000E-01
                       9.5068300000E-01  2.5000000000E-01  5.4931700000E-01
                       2.5000000000E-01  5.4931700000E-01  9.5068300000E-01
            znucl       45.00000   16.00000

 chkinp: Checking input parameters for consistency.

== DATASET  1 ==================================================================
-   mpi_nproc: 1, omp_nthreads: -1 (-1 if OMP is not activated)

--- !DatasetInfo
iteration_state: {dtset: 1, }
dimensions: {natom: 10, nkpt: 2, mband: 61, nsppol: 1, nspinor: 1, nspden: 1, mpw: 14987, }
cutoff_energies: {ecut:  44.0, pawecutdg:  -1.0, }
electrons: {nelect:   1.04000000E+02, charge:   0.00000000E+00, occopt:   1.00000000E+00, tsmear:   1.00000000E-02, }
meta: {optdriver: 1, rfelfd: 2, }
...

 Real(R)+Recip(G) space primitive vectors, cartesian coordinates (Bohr,Bohr^-1):
 R(1)=  9.8661405  0.0000000  6.4356602  G(1)=  0.1013568 -0.0382794  0.0000000
 R(2)=  3.4858248  9.2298296  6.4356602  G(2)=  0.0000000  0.1083444  0.0000000
 R(3)=  0.0000000  0.0000000 11.7795777  G(3)= -0.0553753 -0.0382794  0.0848927
 Unit cell volume ucvol=  1.0726813E+03 bohr^3
 Angles (23,13,12)=  5.68836846E+01  5.68836846E+01  5.68836846E+01 degrees

 getcut: wavevector=  0.0000  0.0000  0.0000  ngfft=  72  72  72
         ecut(hartree)=     44.000   => boxcut(ratio)=   2.04715

--- Pseudopotential description ------------------------------------------------
- pspini: atom type   1  psp file is /scratch/users/j/a/jabreu/pseudos/PBEsol/Rh.psp8
- pspatm: opening atomic psp file    /scratch/users/j/a/jabreu/pseudos/PBEsol/Rh.psp8
- Rh    ONCVPSP-3.3.0  r_core=   1.40787   1.40787   1.35838
- 45.00000  17.00000    180112                znucl, zion, pspdat
    8 -116133    2    4       600   0.00000   pspcod,pspxc,lmax,lloc,mmax,r2well
    5.99000000000000    7.00000000000000    0.00000000000000   rchrg,fchrg,qchrg
     nproj     2     2     2
     extension_switch     1
  pspatm : epsatm=   21.51201928
         --- l  ekb(1:nproj) -->
             0   16.263264    1.496972
             1    7.329212    1.051636
             2    0.393200    0.129871
 pspatm: atomic psp has been read  and splines computed

- pspini: atom type   2  psp file is /scratch/users/j/a/jabreu/pseudos/PBEsol/S.psp8
- pspatm: opening atomic psp file    /scratch/users/j/a/jabreu/pseudos/PBEsol/S.psp8
- S     ONCVPSP-3.3.0  r_core=   1.45376   1.45376   1.61851
- 16.00000   6.00000    180112                znucl, zion, pspdat
    8 -116133    2    4       600   0.00000   pspcod,pspxc,lmax,lloc,mmax,r2well
    5.99000000000000    6.00000000000000    0.00000000000000   rchrg,fchrg,qchrg
     nproj     2     2     2
     extension_switch     1
  pspatm : epsatm=    8.71840985
         --- l  ekb(1:nproj) -->
             0    6.834532    0.579453
             1    3.282851    0.896984
             2   -3.496974   -0.974265
 pspatm: atomic psp has been read  and splines computed

   1.43892878E+04                                ecore*ucvol(ha*bohr**3)

 ==>  initialize data related to q vector <==

 The list of irreducible perturbations for this q vector is:
    1)    idir= 1    ipert=  11
    2)    idir= 2    ipert=  11
    3)    idir= 3    ipert=  11

 Perturbation wavevector (in red.coord.)   0.000000  0.000000  0.000000
 Perturbation : derivative vs k along direction   1

 dfpt_looppert : COMMENT -
  In a d/dk calculation, iscf is set to -3 automatically.
 The set of symmetries contains only one element for this perturbation.
 symkpt : not enough symmetry to change the number of k points.

 Initialisation of the first-order wave-functions :
  ireadwf=   0

--- !BeginCycle
iteration_state: {dtset: 1, }
solver: {iscf: 7, nstep: 2000, nline: 4, wfoptalg: 0, }
tolerances: {tolwfr: 1.00E-20, }
...

     iter   2DEtotal(Ha)        deltaE(Ha) residm    vres2
-ETOT  1  -47.929443227248     -4.793E+01 1.334E-01 0.000E+00
 ETOT  2  -48.062542694644     -1.331E-01 4.590E-03 0.000E+00
 ETOT  3  -48.064150278923     -1.608E-03 8.923E-05 0.000E+00
 ETOT  4  -48.064179204755     -2.893E-05 7.221E-06 0.000E+00
[...]
 ETOT 18  -48.064179819912     -1.421E-14 9.724E-21 0.000E+00

 At SCF step   18   max residual=  9.72E-21 < tolwfr=  1.00E-20 =>converged.

 ----iterations are completed or convergence reached----

 dfpt_looppert: DFPT cycle converged with prtwf=-1. Will skip output of the 1st-order WFK file.
 dfpt_looppert : ek2=    9.6390826951E+01
          f-sum rule ratio=    1.0289488551E+00
 prteigrs : about to open file /scratch/users/j/a/jabreu/flow_simple_10atoms/flow/w392/t1/tmpdata/tmp_1WF1_EIG
 Expectation of eigenvalue derivatives (hartree) for nkpt=   2  k points:
  (in case of degenerate eigenvalues, averaged derivative)
 kpt#   1, nband= 61, wtk=  0.50000, kpt=  0.0000  0.0000  0.0000 (reduced coord)
   0.00000   -0.00000   -0.00000    0.00000   -0.00000   -0.00000    0.00000    0.00000
  -0.00000    0.00000    0.00000    0.00000   -0.00000   -0.00000    0.00000    0.00000
   0.00000    0.00000    0.00000   -0.00000   -0.00000    0.00000    0.00000   -0.00000
  -0.00000   -0.00000    0.00000    0.00000   -0.00000   -0.00000   -0.00000    0.00000
   0.00000   -0.00000    0.00000    0.00000   -0.00000    0.00000    0.00000   -0.00000
  -0.00000    0.00000   -0.00000    0.00000    0.00000    0.00000   -0.00000   -0.00000
   0.00000    0.00000    0.00000   -0.00000   -0.00000   -0.00000    0.00000    0.00000
   0.00000    0.00000   -0.00000   -0.00000   -0.00000
 prteigrs : prtvol=0 or 1, do not print more k-points.

 Eight components of 2nd-order total energy (hartree) are
 1,2,3: 0th-order hamiltonian combined with 1st-order wavefunctions
     kin0=   8.29677288E+01 eigvalue=  -9.83533009E+00  local=  -4.52382402E+01
 4,5,6: 1st-order hamiltonian combined with 1st and 0th-order wfs
     kin1=  -9.91812310E+01  Hartree=   0.00000000E+00     xc=   0.00000000E+00
 7,8,9: eventually, occupation + non-local contributions
    edocc=   1.29278860E+01     enl0=   7.24213534E+00   enl1=   3.05287139E+00
 1-9 gives the relaxation energy (to be shifted if some occ is /=2.0)
   erelax=  -4.80641798E+01
  No Ewald or frozen-wf contrib.: the relaxation energy is the total one
 2DEtotal=   -0.4806417982E+02 Ha. Also 2DEtotal=   -0.130789284700E+04 eV
    (  non-var. 2DEtotal :   -4.8064179820E+01 Ha)

 Perturbation wavevector (in red.coord.)   0.000000  0.000000  0.000000
 Perturbation : derivative vs k along direction   2
 The set of symmetries contains only one element for this perturbation.
 symkpt : not enough symmetry to change the number of k points.

[...]

 Perturbation wavevector (in red.coord.)   0.000000  0.000000  0.000000
 Perturbation : derivative vs k along direction   3
 The set of symmetries contains only one element for this perturbation.
 symkpt : not enough symmetry to change the number of k points.

 Initialisation of the first-order wave-functions :
  ireadwf=   0

--- !BeginCycle
iteration_state: {dtset: 1, }
solver: {iscf: 7, nstep: 2000, nline: 4, wfoptalg: 0, }
tolerances: {tolwfr: 1.00E-20, }
...

     iter   2DEtotal(Ha)        deltaE(Ha) residm    vres2
-ETOT  1  -48.419298144510     -4.842E+01 1.432E-01 0.000E+00
 ETOT  2  -48.549140271639     -1.298E-01 3.767E-03 0.000E+00
 ETOT  3  -48.550724071951     -1.584E-03 1.377E-04 0.000E+00
 ETOT  4  -48.550752412580     -2.834E-05 6.725E-06 0.000E+00
 ETOT  5  -48.550752991416     -5.788E-07 4.320E-07 0.000E+00
 ETOT  6  -48.550753004352     -1.294E-08 2.384E-08 0.000E+00
 ETOT  7  -48.550753004661     -3.085E-10 1.753E-09 0.000E+00
 ETOT  8  -48.550753004668     -7.731E-12 1.143E-10 0.000E+00
 ETOT  9  -48.550753004669     -2.203E-13 9.107E-12 0.000E+00
 ETOT 10  -48.550753004669     -4.974E-14 6.902E-13 0.000E+00
 ETOT 11  -48.550753004669      7.105E-14 5.806E-14 0.000E+00
 ETOT 12  -48.550753004669      1.421E-14 4.733E-15 0.000E+00
 ETOT 13  -48.550753004669     -2.132E-14 4.053E-16 0.000E+00
 ETOT 14  -48.550753004669      1.421E-14 3.421E-17 0.000E+00
 ETOT 15  -48.550753004669      0.000E+00 2.929E-18 0.000E+00
 ETOT 16  -48.550753004669      1.421E-14 2.525E-19 0.000E+00
 ETOT 17  -48.550753004669     -3.553E-14 2.149E-20 0.000E+00
 ETOT 18  -48.550753004669      2.132E-14 9.937E-21 0.000E+00

 At SCF step   18   max residual=  9.94E-21 < tolwfr=  1.00E-20 =>converged.

 ----iterations are completed or convergence reached----

 dfpt_looppert: DFPT cycle converged with prtwf=-1. Will skip output of the 1st-order WFK file.
 dfpt_looppert : ek2=    9.6390826951E+01
          f-sum rule ratio=    1.0396145901E+00
 prteigrs : about to open file /scratch/users/j/a/jabreu/flow_simple_10atoms/flow/w392/t1/tmpdata/tmp_1WF1_EIG
 Expectation of eigenvalue derivatives (hartree) for nkpt=   2  k points:
  (in case of degenerate eigenvalues, averaged derivative)
 kpt#   1, nband= 61, wtk=  0.50000, kpt=  0.0000  0.0000  0.0000 (reduced coord)
   0.00000    0.00000   -0.00000    0.00000   -0.00000   -0.00000   -0.00000   -0.00000
   0.00000    0.00000   -0.00000   -0.00000    0.00000    0.00000    0.00000   -0.00000
  -0.00000   -0.00000   -0.00000   -0.00000   -0.00000   -0.00000    0.00000    0.00000
   0.00000    0.00000   -0.00000   -0.00000    0.00000    0.00000    0.00000    0.00000
   0.00000    0.00000    0.00000    0.00000   -0.00000   -0.00000   -0.00000    0.00000
   0.00000    0.00000   -0.00000   -0.00000   -0.00000   -0.00000   -0.00000   -0.00000
  -0.00000    0.00000    0.00000    0.00000   -0.00000   -0.00000   -0.00000   -0.00000
  -0.00000   -0.00000   -0.00000   -0.00000   -0.00000
 prteigrs : prtvol=0 or 1, do not print more k-points.

 Eight components of 2nd-order total energy (hartree) are
 1,2,3: 0th-order hamiltonian combined with 1st-order wavefunctions
     kin0=   8.33331781E+01 eigvalue=  -9.82638209E+00  local=  -4.58509512E+01
 4,5,6: 1st-order hamiltonian combined with 1st and 0th-order wfs
     kin1=  -1.00209310E+02  Hartree=   0.00000000E+00     xc=   0.00000000E+00
 7,8,9: eventually, occupation + non-local contributions
    edocc=   1.35728790E+01     enl0=   7.32202922E+00   enl1=   3.10780404E+00
 1-9 gives the relaxation energy (to be shifted if some occ is /=2.0)
   erelax=  -4.85507530E+01
  No Ewald or frozen-wf contrib.: the relaxation energy is the total one
 2DEtotal=   -0.4855075300E+02 Ha. Also 2DEtotal=   -0.132113317670E+04 eV
    (  non-var. 2DEtotal :   -4.8550753004E+01 Ha)

 CALCULATION OF EFFECTIVE MASSES
 NOTE : Additional infos (eff. mass eigenvalues, eigenvectors and, if degenerate, average mass) are available in stdout.

 K-point ( 0.000, 0.000, 0.000) | band =    52
 Effective mass tensor:
             -0.5078391296              0.0039043922              0.0104277941
              0.0039043922             -0.5107882694              0.0072084337
              0.0104277941              0.0072084337             -0.4942350827
 Effective mass tensor eigenvalues:
             -0.5134872634             -0.5134872632             -0.4858879552
 Angular average effective mass 1/(<1/m>)=  -0.5039455919
 Angular average effective mass for Frohlich model (<m**0.5>)**2=  -0.5040491233
 Effective masses along directions: (cart. coord. / red. coord. -> eff. mass)
    1:   1.000000  0.000000  0.000000 /   0.942881  0.333131  0.000000 ->  -0.5075868935
    2:   0.000000  1.000000  0.000000 /   0.000000  1.000000  0.000000 ->  -0.5106507181
    3:   0.000000  0.000000  1.000000 /   0.432329  0.432329  0.791318 ->  -0.4939169524
    4:   0.577350  0.577350  0.577350 /   0.586988  0.689593  0.424154 ->  -0.4897402852
    5:   0.000000  0.707107  0.707107 /   0.311961  0.759367  0.571001 ->  -0.4949635929
    6:   0.707107  0.000000  0.707107 /   0.726903  0.442402  0.525255 ->  -0.4903970042
    7:   0.707107  0.707107  0.000000 /   0.613018  0.790069  0.000000 ->  -0.5050900694

 K-point ( 0.500, 0.500, 0.000) | band =    53
 Effective mass tensor:
              2.1261598161              0.2383233554              0.3649751323
              0.2383233554              1.9462959722              0.2523773776
              0.3649751323              0.2523773776              0.8165207973
 Effective mass tensor eigenvalues:
              0.6932785603              1.7815010359              2.4141969894
 Angular average effective mass 1/(<1/m>)=   1.2407140572
 Angular average effective mass for Frohlich model (<m**0.5>)**2=   1.3601316827
 Effective masses along directions: (cart. coord. / red. coord. -> eff. mass)
    1:   1.000000  0.000000  0.000000 /   0.942881  0.333131  0.000000 ->   1.9545881099
    2:   0.000000  1.000000  0.000000 /   0.000000  1.000000  0.000000 ->   1.8602637445
    3:   0.000000  0.000000  1.000000 /   0.432329  0.432329  0.791318 ->   0.7305735791
    4:   0.577350  0.577350  0.577350 /   0.586988  0.689593  0.424154 ->   1.8616021713
    5:   0.000000  0.707107  0.707107 /   0.311961  0.759367  0.571001 ->   1.2462874824
    6:   0.707107  0.000000  0.707107 /   0.726903  0.442402  0.525255 ->   1.3847746062
    7:   0.707107  0.707107  0.000000 /   0.613018  0.790069  0.000000 ->   2.0399150093

 END OF EFFECTIVE MASSES SECTION

 ---- first-order wavefunction calculations are completed ----

 Total localisation tensor (bohr^2) in cartesian coordinates
  WARNING : still subject to testing - especially symmetries.
      direction              matrix element
   alpha     beta       real part   imaginary part
     1        1       2.1507920579    0.0000000000
     1        2       0.6319988660    0.0000000000
     1        3       1.6879341063    0.0000000000
     2        1       0.6319988660    0.0000000000
     2        2       1.6734179655    0.0000000000
     2        3       1.1668199625    0.0000000000
     3        1       1.6879341063    0.0000000000
     3        2       1.1668199625    0.0000000000
     3        3       4.3346558049    0.0000000000

 respfn : d/dk was computed, but no 2DTE, so no DDB output.

== END DATASET(S) ==============================================================

 -outvars: echo values of variables after computation  --------
            acell      1.0000000000E+00  1.0000000000E+00  1.0000000000E+00 Bohr
              amu      1.02905500E+02  3.20660000E+01
             ecut      4.40000000E+01 Hartree
           etotal     -4.8550753005E+01
            fcart      0.0000000000E+00  0.0000000000E+00  0.0000000000E+00
                       0.0000000000E+00  0.0000000000E+00  0.0000000000E+00
                       0.0000000000E+00  0.0000000000E+00  0.0000000000E+00
                       0.0000000000E+00  0.0000000000E+00  0.0000000000E+00
                       0.0000000000E+00  0.0000000000E+00  0.0000000000E+00
                       0.0000000000E+00  0.0000000000E+00  0.0000000000E+00
                       0.0000000000E+00  0.0000000000E+00  0.0000000000E+00
                       0.0000000000E+00  0.0000000000E+00  0.0000000000E+00
                       0.0000000000E+00  0.0000000000E+00  0.0000000000E+00
                       0.0000000000E+00  0.0000000000E+00  0.0000000000E+00
-          fftalg         512
           irdden           1
           irdwfk           1
           istwfk        1    1
              ixc     -116133
              kpt      0.00000000E+00  0.00000000E+00  0.00000000E+00
                       5.00000000E-01  5.00000000E-01  0.00000000E+00
           kptopt           0
P           mkmem           2
P          mkqmem           2
P          mk1mem           2
            natom          10
            nband          61
           nbdbuf           4
            ngfft          72      72      72
             nkpt           2
            nstep        2000
             nsym          12
           ntypat           2
              occ      2.000000  2.000000  2.000000  2.000000  2.000000  2.000000
                       2.000000  2.000000  2.000000  2.000000  2.000000  2.000000
                       2.000000  2.000000  2.000000  2.000000  2.000000  2.000000
                       2.000000  2.000000  2.000000  2.000000  2.000000  2.000000
                       2.000000  2.000000  2.000000  2.000000  2.000000  2.000000
                       2.000000  2.000000  2.000000  2.000000  2.000000  2.000000
                       2.000000  2.000000  2.000000  2.000000  2.000000  2.000000
                       2.000000  2.000000  2.000000  2.000000  2.000000  2.000000
                       2.000000  2.000000  2.000000  2.000000  0.000000  0.000000
                       0.000000  0.000000  0.000000  0.000000  0.000000  0.000000
                       0.000000
        optdriver           1
            prtwf          -1
            rfdir           1       1       1
           rfelfd           2
            rprim      9.8661405200E+00  0.0000000000E+00  6.4356602106E+00
                       3.4858247936E+00  9.2298295905E+00  6.4356602106E+00
                       0.0000000000E+00  0.0000000000E+00  1.1779577713E+01
          spgroup         167
           strten      0.0000000000E+00  0.0000000000E+00  0.0000000000E+00
                       0.0000000000E+00  0.0000000000E+00  0.0000000000E+00
           symrel      1  0  0   0  1  0   0  0  1      -1  0  0   0 -1  0   0  0 -1
                       0  1  0   1  0  0   0  0  1       0 -1  0  -1  0  0   0  0 -1
                       0  0  1   1  0  0   0  1  0       0  0 -1  -1  0  0   0 -1  0
                       1  0  0   0  0  1   0  1  0      -1  0  0   0  0 -1   0 -1  0
                       0  1  0   0  0  1   1  0  0       0 -1  0   0  0 -1  -1  0  0
                       0  0  1   0  1  0   1  0  0       0  0 -1   0 -1  0  -1  0  0
            tnons      0.0000000  0.0000000  0.0000000     0.0000000  0.0000000  0.0000000
                       0.5000000  0.5000000  0.5000000     0.5000000  0.5000000  0.5000000
                       0.0000000 -0.0000000  0.0000000     0.0000000  0.0000000  0.0000000
                       0.5000000  0.5000000  0.5000000     0.5000000  0.5000000  0.5000000
                      -0.0000000 -0.0000000  0.0000000     0.0000000  0.0000000  0.0000000
                       0.5000000  0.5000000  0.5000000     0.5000000  0.5000000  0.5000000
           tolwfr      1.00000000E-20
            typat      1  1  1  1  2  2  2  2  2  2
           useylm           1
              wtk        0.50000    0.50000
           xangst      2.4776925603E+00  1.7127576032E+00  4.5744087464E+00
                       1.0550853066E+00  7.2935012598E-01  1.9479379856E+00
                       6.0104704272E+00  4.1548653325E+00  1.1096755478E+01
                       4.5878631735E+00  3.1714578552E+00  8.4702847177E+00
                       4.7470409650E+00  2.2012328755E+00  4.3964684079E+00
                       1.6409452107E+00  3.6631615938E+00  5.5314830299E+00
                       2.4439584916E+00  2.4087485376E-01  6.3779153924E+00
                       4.6215972422E+00  4.6433406047E+00  6.6667780717E+00
                       5.4246105232E+00  1.2210538646E+00  7.5132104342E+00
                       2.3185147688E+00  2.6829825830E+00  8.6482250562E+00
            xcart      4.6821603805E+00  3.2366428022E+00  8.6443797507E+00
                       1.9938222763E+00  1.3782719931E+00  3.6810693166E+00
                       1.1358143037E+01  7.8515575974E+00  2.0969828818E+01
                       8.6698049331E+00  5.9931867883E+00  1.6006518384E+01
                       8.9706073655E+00  4.1597272893E+00  8.3081212427E+00
                       3.1009370472E+00  6.9223721929E+00  1.0452988035E+01
                       4.6184122293E+00  4.5518750591E-01  1.2052513390E+01
                       8.7335530843E+00  8.7746420846E+00  1.2598384744E+01
                       1.0251028266E+01  2.3074573976E+00  1.4197910099E+01
                       4.3813579481E+00  5.0701023012E+00  1.6342776892E+01
             xred      3.5067200000E-01  3.5067200000E-01  3.5067200000E-01
                       1.4932800000E-01  1.4932800000E-01  1.4932800000E-01
                       8.5067200000E-01  8.5067200000E-01  8.5067200000E-01
                       6.4932800000E-01  6.4932800000E-01  6.4932800000E-01
                       7.5000000000E-01  4.5068300000E-01  4.9317000000E-02
                       4.9317000000E-02  7.5000000000E-01  4.5068300000E-01
                       4.5068300000E-01  4.9317000000E-02  7.5000000000E-01
                       5.4931700000E-01  9.5068300000E-01  2.5000000000E-01
                       9.5068300000E-01  2.5000000000E-01  5.4931700000E-01
                       2.5000000000E-01  5.4931700000E-01  9.5068300000E-01
            znucl       45.00000   16.00000

- Timing analysis has been suppressed with timopt=0

 Suggested references for the acknowledgment of ABINIT usage.

 Calculation completed.
.Delivered   2 WARNINGs and   5 COMMENTs to log file.