.Version 9.5.2 of ABINIT

 ABINIT is a project of the Universite Catholique de Louvain,
 Corning Inc. and other collaborators, see ~abinit/doc/developers/contributors.txt .
 acknowledgments of the ABINIT effort.

.Starting date : Mon 24 May 2021.
- ( at 22h51 )

- input  file    -> /scratch/users/j/a/jabreu/flow_simple_10atoms/flow/w454/t1/run.abi
- output file    -> /scratch/users/j/a/jabreu/flow_simple_10atoms/flow/w454/t1/run.abo
- root for input  files -> /scratch/users/j/a/jabreu/flow_simple_10atoms/flow/w454/t1/indata/in
- root for output files -> /scratch/users/j/a/jabreu/flow_simple_10atoms/flow/w454/t1/outdata/out

 Symmetries : space group Cm c m (# 63); Bravais oC (1-face-center ortho.)
     intxc =       0      iscf =       7    lmnmax =      18     lnmax =       6
     mgfft =      96  mpssoang =       3    mqgrid =    4775     natom =      10
  nloc_mem =       1    nspden =       1   nspinor =       1    nsppol =       1
      nsym =       8    n1xccc =    2501    ntypat =       3    occopt =       1
   xclevel =       2
-    mband =          53        mffmem =           1         mkmem =           2
-   mkqmem =           2        mk1mem =           2           mpw =       14930
      nfft =      497664          nkpt =           2
  Rough estimation (10% accuracy) of disk space for files :

------------- Echo of variables that govern the present computation ------------
-
- outvars: echo of selected default values
-   iomode0 =  0 , fftalg0 =512 , wfoptalg0 =  0
-
- outvars: echo of global parameters not present in the input file
-  max_nthreads =    0
-
 -outvars: echo values of preprocessed input variables --------
            acell      1.0000000000E+00  1.0000000000E+00  1.0000000000E+00 Bohr
              amu      8.54678000E+01  2.07200000E+02  3.54527000E+01
             ecut      2.80000000E+01 Hartree
-          fftalg         512
           irdden           1
           irdwfk           1
              ixc     -116133
              kpt      1.42016715E-01  1.42016715E-01  0.00000000E+00
                      -5.00000000E-01  5.00000000E-01  0.00000000E+00
           kptopt           0
P           mkmem           2
P          mkqmem           2
P          mk1mem           2
            natom          10
            nband          53
           nbdbuf           4
            ngfft          72      72      96
             nkpt           2
            nstep        2000
             nsym           8
           ntypat           3
              occ      2.000000  2.000000  2.000000  2.000000  2.000000  2.000000
                       2.000000  2.000000  2.000000  2.000000  2.000000  2.000000
                       2.000000  2.000000  2.000000  2.000000  2.000000  2.000000
                       2.000000  2.000000  2.000000  2.000000  2.000000  2.000000
                       2.000000  2.000000  2.000000  2.000000  2.000000  2.000000
                       2.000000  2.000000  2.000000  2.000000  2.000000  2.000000
                       2.000000  2.000000  2.000000  2.000000  2.000000  2.000000
                       2.000000  2.000000  0.000000  0.000000  0.000000  0.000000
                       0.000000  0.000000  0.000000  0.000000  0.000000
        optdriver           1
            prtwf          -1
            rfdir           1       1       1
           rfelfd           2
            rprim      1.3741578171E+01  0.0000000000E+00  0.0000000000E+00
                      -1.1416096631E+01  7.6487716888E+00  0.0000000000E+00
                       0.0000000000E+00  0.0000000000E+00  2.0045616424E+01
          spgroup          63
           symrel      1  0  0   0  1  0   0  0  1      -1  0  0   0 -1  0   0  0 -1
                       0  1  0   1  0  0   0  0 -1       0 -1  0  -1  0  0   0  0  1
                      -1  0  0   0 -1  0   0  0  1       1  0  0   0  1  0   0  0 -1
                       0 -1  0  -1  0  0   0  0 -1       0  1  0   1  0  0   0  0  1
            tnons      0.0000000  0.0000000  0.0000000     0.0000000  0.0000000 -0.0000000
                      -0.0000000  0.0000000 -0.0000000     0.0000000  0.0000000  0.0000000
                       0.0000000  0.0000000  0.5000000     0.0000000  0.0000000  0.5000000
                       0.0000000  0.0000000  0.5000000    -0.0000000  0.0000000  0.5000000
           tolwfr      1.00000000E-20
            typat      1  1  2  2  3  3  3  3  3  3
           useylm           1
              wtk        0.50000    0.50000
           xangst      3.9129599143E+00  1.0211780531E+00  2.6519208359E+00
                      -2.6823680842E+00  3.0263775983E+00  7.9557625077E+00
                       0.0000000000E+00  0.0000000000E+00  5.3038416718E+00
                       0.0000000000E+00  0.0000000000E+00  0.0000000000E+00
                       2.4345126574E+00  1.4706752984E+00  5.8708859926E+00
                      -1.2039208273E+00  2.5768803530E+00  5.6704432082E-01
                       2.4345126574E+00  1.4706752984E+00  1.0040639023E+01
                      -1.2039208273E+00  2.5768803530E+00  4.7367973510E+00
                      -5.0738650887E+00  3.7534724005E+00  2.6519208359E+00
                       6.3044569187E+00  2.9408325097E-01  7.9557625077E+00
            xcart      7.3944226069E+00  1.9297468532E+00  5.0114041059E+00
                      -5.0689410667E+00  5.7190248356E+00  1.5034212318E+01
                       0.0000000000E+00  0.0000000000E+00  1.0022808212E+01
                       0.0000000000E+00  0.0000000000E+00  0.0000000000E+00
                       4.6005621895E+00  2.7791735444E+00  1.1094366683E+01
                      -2.2750806493E+00  4.8695981444E+00  1.0715584716E+00
                       4.6005621895E+00  2.7791735444E+00  1.8974057952E+01
                      -2.2750806493E+00  4.8695981444E+00  8.9512497403E+00
                      -9.5882154528E+00  7.0930348842E+00  5.0114041059E+00
                       1.1913696993E+01  5.5573680459E-01  1.5034212318E+01
             xred      7.4770500000E-01  2.5229500000E-01  2.5000000000E-01
                       2.5229500000E-01  7.4770500000E-01  7.5000000000E-01
                       0.0000000000E+00  0.0000000000E+00  5.0000000000E-01
                       0.0000000000E+00  0.0000000000E+00  0.0000000000E+00
                       6.3665100000E-01  3.6334900000E-01  5.5345600000E-01
                       3.6334900000E-01  6.3665100000E-01  5.3456000000E-02
                       6.3665100000E-01  3.6334900000E-01  9.4654400000E-01
                       3.6334900000E-01  6.3665100000E-01  4.4654400000E-01
                       7.2657000000E-02  9.2734300000E-01  2.5000000000E-01
                       9.2734300000E-01  7.2657000000E-02  7.5000000000E-01
            znucl       37.00000   82.00000   17.00000

 chkinp: Checking input parameters for consistency.

== DATASET  1 ==================================================================
-   mpi_nproc: 1, omp_nthreads: -1 (-1 if OMP is not activated)

--- !DatasetInfo
iteration_state: {dtset: 1, }
dimensions: {natom: 10, nkpt: 2, mband: 53, nsppol: 1, nspinor: 1, nspden: 1, mpw: 14930, }
cutoff_energies: {ecut:  28.0, pawecutdg:  -1.0, }
electrons: {nelect:   8.80000000E+01, charge:   0.00000000E+00, occopt:   1.00000000E+00, tsmear:   1.00000000E-02, }
meta: {optdriver: 1, rfelfd: 2, }
...

 Real(R)+Recip(G) space primitive vectors, cartesian coordinates (Bohr,Bohr^-1):
 R(1)= 13.7415782  0.0000000  0.0000000  G(1)=  0.0727718  0.1086149  0.0000000
 R(2)=-11.4160966  7.6487717  0.0000000  G(2)=  0.0000000  0.1307399  0.0000000
 R(3)=  0.0000000  0.0000000 20.0456164  G(3)=  0.0000000  0.0000000  0.0498862
 Unit cell volume ucvol=  2.1069185E+03 bohr^3
 Angles (23,13,12)=  9.00000000E+01  9.00000000E+01  1.46177960E+02 degrees

 getcut: wavevector=  0.0000  0.0000  0.0000  ngfft=  72  72  96
         ecut(hartree)=     28.000   => boxcut(ratio)=   2.01052

--- Pseudopotential description ------------------------------------------------
- pspini: atom type   1  psp file is /scratch/users/j/a/jabreu/pseudos/PBEsol/Rb.psp8
- pspatm: opening atomic psp file    /scratch/users/j/a/jabreu/pseudos/PBEsol/Rb.psp8
- Rb    ONCVPSP-3.3.0  r_core=   1.71227   1.75361   1.90633
- 37.00000   9.00000    180112                znucl, zion, pspdat
    8 -116133    2    4       600   0.00000   pspcod,pspxc,lmax,lloc,mmax,r2well
    5.99000000000000    7.00000000000000    0.00000000000000   rchrg,fchrg,qchrg
     nproj     2     2     2
     extension_switch     1
  pspatm : epsatm=   34.48400912
         --- l  ekb(1:nproj) -->
             0    8.196957   -0.477221
             1    3.231347   -0.378736
             2   -1.047201    0.996637
 pspatm: atomic psp has been read  and splines computed

- pspini: atom type   2  psp file is /scratch/users/j/a/jabreu/pseudos/PBEsol/Pb.psp8
- pspatm: opening atomic psp file    /scratch/users/j/a/jabreu/pseudos/PBEsol/Pb.psp8
- Pb    ONCVPSP-3.3.0  r_core=   2.42823   2.42823   2.10438
- 82.00000  14.00000    180112                znucl, zion, pspdat
    8 -116133    2    4       600   0.00000   pspcod,pspxc,lmax,lloc,mmax,r2well
    5.99000000000000    6.00000000000000    0.00000000000000   rchrg,fchrg,qchrg
     nproj     2     2     2
     extension_switch     1
  pspatm : epsatm=   44.32675151
         --- l  ekb(1:nproj) -->
             0    6.256780    1.206521
             1    4.272336    0.573876
             2   -3.251371   -0.847363
 pspatm: atomic psp has been read  and splines computed

- pspini: atom type   3  psp file is /scratch/users/j/a/jabreu/pseudos/PBEsol/Cl.psp8
- pspatm: opening atomic psp file    /scratch/users/j/a/jabreu/pseudos/PBEsol/Cl.psp8
- Cl    ONCVPSP-3.3.0  r_core=   1.56009   1.35202   1.75774
- 17.00000   7.00000    180112                znucl, zion, pspdat
    8 -116133    2    4       600   0.00000   pspcod,pspxc,lmax,lloc,mmax,r2well
    5.99000000000000    8.00000000000000    0.00000000000000   rchrg,fchrg,qchrg
     nproj     2     2     2
     extension_switch     1
  pspatm : epsatm=    8.95520722
         --- l  ekb(1:nproj) -->
             0    8.193503    0.707970
             1    3.869736    1.114731
             2   -2.915303   -0.810552
 pspatm: atomic psp has been read  and splines computed

   1.85990433E+04                                ecore*ucvol(ha*bohr**3)

 ==>  initialize data related to q vector <==

 The list of irreducible perturbations for this q vector is:
    1)    idir= 1    ipert=  11
    2)    idir= 2    ipert=  11
    3)    idir= 3    ipert=  11

 Perturbation wavevector (in red.coord.)   0.000000  0.000000  0.000000
 Perturbation : derivative vs k along direction   1

 dfpt_looppert : COMMENT -
  In a d/dk calculation, iscf is set to -3 automatically.
 The set of symmetries contains only one element for this perturbation.
 symkpt : not enough symmetry to change the number of k points.

 Initialisation of the first-order wave-functions :
  ireadwf=   0

--- !BeginCycle
iteration_state: {dtset: 1, }
solver: {iscf: 7, nstep: 2000, nline: 4, wfoptalg: 0, }
tolerances: {tolwfr: 1.00E-20, }
...

     iter   2DEtotal(Ha)        deltaE(Ha) residm    vres2
[...]
 ETOT  3  -87.046085892310     -1.010E-03 3.129E-04 0.000E+00
 ETOT  4  -87.046096765658     -1.087E-05 3.716E-05 0.000E+00
 ETOT  5  -87.046096903762     -1.381E-07 1.285E-06 0.000E+00
 ETOT  6  -87.046096905674     -1.913E-09 2.086E-07 0.000E+00
 ETOT  7  -87.046096905703     -2.817E-11 6.486E-09 0.000E+00
 ETOT  8  -87.046096905703     -4.832E-13 1.076E-09 0.000E+00
 ETOT  9  -87.046096905703      2.842E-14 3.411E-11 0.000E+00
 ETOT 10  -87.046096905703      0.000E+00 5.640E-12 0.000E+00
 ETOT 11  -87.046096905703     -8.527E-14 1.830E-13 0.000E+00
 ETOT 12  -87.046096905703      4.263E-14 2.955E-14 0.000E+00
 ETOT 13  -87.046096905703     -4.263E-14 9.936E-16 0.000E+00
 ETOT 14  -87.046096905703      2.842E-14 1.544E-16 0.000E+00
 ETOT 15  -87.046096905703     -2.842E-14 5.436E-18 0.000E+00
 ETOT 16  -87.046096905703      2.842E-14 8.117E-19 0.000E+00
 ETOT 17  -87.046096905703      0.000E+00 2.992E-20 0.000E+00
 ETOT 18  -87.046096905703      0.000E+00 9.690E-21 0.000E+00

 At SCF step   18   max residual=  9.69E-21 < tolwfr=  1.00E-20 =>converged.

 ----iterations are completed or convergence reached----

 dfpt_looppert: DFPT cycle converged with prtwf=-1. Will skip output of the 1st-order WFK file.
 dfpt_looppert : ek2=    1.1876514660E+02
          f-sum rule ratio=    1.0616590766E+00
 prteigrs : about to open file /scratch/users/j/a/jabreu/flow_simple_10atoms/flow/w454/t1/tmpdata/tmp_1WF1_EIG
 Expectation of eigenvalue derivatives (hartree) for nkpt=   2  k points:
  (in case of degenerate eigenvalues, averaged derivative)
 kpt#   1, nband= 53, wtk=  0.50000, kpt=  0.1420  0.1420  0.0000 (reduced coord)
   0.00183    0.00174    0.00493   -0.01547   -0.01529    0.00551    0.00238    0.00314
   0.00225    0.00257   -0.00155   -0.00150    0.03568    0.01850    0.00592    0.02655
  -0.01766    0.02806   -0.02551   -0.02459   -0.00421    0.00191   -0.00606   -0.00303
  -0.02889   -0.02608    0.00934   -0.05515   -0.06601   -0.10904   -0.08214   -0.01175
   0.00056    0.01188    0.02699   -0.04959   -0.00984   -0.00598   -0.01128   -0.01246
  -0.02488   -0.00197    0.01352    0.00145   -0.02151   -0.07419   -0.01331    0.14780
   0.15116    0.04057    0.09614    0.20866   -0.03714
 prteigrs : prtvol=0 or 1, do not print more k-points.

 Eight components of 2nd-order total energy (hartree) are
 1,2,3: 0th-order hamiltonian combined with 1st-order wavefunctions
     kin0=   1.04123255E+02 eigvalue=   1.32761767E+01  local=  -5.70568133E+01
 4,5,6: 1st-order hamiltonian combined with 1st and 0th-order wfs
     kin1=  -1.26088096E+02  Hartree=   0.00000000E+00     xc=   0.00000000E+00
 7,8,9: eventually, occupation + non-local contributions
    edocc=   1.75309782E+01     enl0=   9.17250066E+00   enl1=  -4.80040979E+01
 1-9 gives the relaxation energy (to be shifted if some occ is /=2.0)
   erelax=  -8.70460969E+01
  No Ewald or frozen-wf contrib.: the relaxation energy is the total one
 2DEtotal=   -0.8704609691E+02 Ha. Also 2DEtotal=   -0.236864475642E+04 eV
    (  non-var. 2DEtotal :   -8.7046096905E+01 Ha)

 Perturbation wavevector (in red.coord.)   0.000000  0.000000  0.000000
 Perturbation : derivative vs k along direction   2
 The set of symmetries contains only one element for this perturbation.
 symkpt : not enough symmetry to change the number of k points.

[...]

 Perturbation wavevector (in red.coord.)   0.000000  0.000000  0.000000
 Perturbation : derivative vs k along direction   3
 The set of symmetries contains only one element for this perturbation.
 symkpt : not enough symmetry to change the number of k points.

 Initialisation of the first-order wave-functions :
  ireadwf=   0

--- !BeginCycle
iteration_state: {dtset: 1, }
solver: {iscf: 7, nstep: 2000, nline: 4, wfoptalg: 0, }
tolerances: {tolwfr: 1.00E-20, }
...

     iter   2DEtotal(Ha)        deltaE(Ha) residm    vres2
-ETOT  1  -12.389268836774     -1.239E+01 8.843E-03 0.000E+00
 ETOT  2  -12.406441207112     -1.717E-02 1.518E-04 0.000E+00
 ETOT  3  -12.406546131151     -1.049E-04 3.568E-06 0.000E+00
 ETOT  4  -12.406547224198     -1.093E-06 1.553E-07 0.000E+00
 ETOT  5  -12.406547238450     -1.425E-08 2.758E-09 0.000E+00
 ETOT  6  -12.406547238651     -2.006E-10 1.174E-10 0.000E+00
 ETOT  7  -12.406547238654     -2.995E-12 4.730E-12 0.000E+00
 ETOT  8  -12.406547238654     -4.619E-14 1.205E-13 0.000E+00
 ETOT  9  -12.406547238654     -7.105E-15 6.871E-15 0.000E+00
 ETOT 10  -12.406547238654      3.553E-15 2.336E-16 0.000E+00
 ETOT 11  -12.406547238654      3.553E-15 1.097E-17 0.000E+00
 ETOT 12  -12.406547238654     -7.105E-15 4.891E-19 0.000E+00
 ETOT 13  -12.406547238654      3.553E-15 2.094E-20 0.000E+00
 ETOT 14  -12.406547238654      0.000E+00 9.962E-21 0.000E+00

 At SCF step   14   max residual=  9.96E-21 < tolwfr=  1.00E-20 =>converged.

 ----iterations are completed or convergence reached----

 dfpt_looppert: DFPT cycle converged with prtwf=-1. Will skip output of the 1st-order WFK file.
 dfpt_looppert : ek2=    1.7291535989E+01
          f-sum rule ratio=    1.0301211796E+00
 prteigrs : about to open file /scratch/users/j/a/jabreu/flow_simple_10atoms/flow/w454/t1/tmpdata/tmp_1WF1_EIG
 Expectation of eigenvalue derivatives (hartree) for nkpt=   2  k points:
  (in case of degenerate eigenvalues, averaged derivative)
 kpt#   1, nband= 53, wtk=  0.50000, kpt=  0.1420  0.1420  0.0000 (reduced coord)
  -0.00000    0.00000   -0.00000   -0.00000    0.00000   -0.00000    0.00000   -0.00000
  -0.00000    0.00000   -0.00000   -0.00000    0.00000    0.00000    0.00000   -0.00000
   0.00000   -0.00000   -0.00000   -0.00000    0.00000    0.00000   -0.00000    0.00000
   0.00000   -0.00000   -0.00000   -0.00000   -0.00000   -0.00000   -0.00000    0.00000
  -0.00000    0.00000   -0.00000    0.00000   -0.00000   -0.00000   -0.00000    0.00000
   0.00000   -0.00000    0.00000   -0.00000   -0.00000   -0.00000    0.00000    0.00000
  -0.00000   -0.00000   -0.00000    0.00001   -0.00005
 prteigrs : prtvol=0 or 1, do not print more k-points.

 Eight components of 2nd-order total energy (hartree) are
 1,2,3: 0th-order hamiltonian combined with 1st-order wavefunctions
     kin0=   1.52740108E+01 eigvalue=   1.99715661E+00  local=  -8.38977786E+00
 4,5,6: 1st-order hamiltonian combined with 1st and 0th-order wfs
     kin1=  -1.78123774E+01  Hartree=   0.00000000E+00     xc=   0.00000000E+00
 7,8,9: eventually, occupation + non-local contributions
    edocc=   2.14642154E+00     enl0=   1.37873615E+00   enl1=  -7.00071703E+00
 1-9 gives the relaxation energy (to be shifted if some occ is /=2.0)
   erelax=  -1.24065472E+01
  No Ewald or frozen-wf contrib.: the relaxation energy is the total one
 2DEtotal=   -0.1240654724E+02 Ha. Also 2DEtotal=   -0.337599319288E+03 eV
    (  non-var. 2DEtotal :   -1.2406547238E+01 Ha)

 CALCULATION OF EFFECTIVE MASSES
 NOTE : Additional infos (eff. mass eigenvalues, eigenvectors and, if degenerate, average mass) are available in stdout.

 K-point ( 0.142, 0.142, 0.000) | band =    44
 Effective mass tensor:
             -1.2452090156              0.0105232607             -0.0000061920
              0.0105232607             -1.2137982803              0.0000064405
             -0.0000061920              0.0000064405             -0.5103866322
 Effective mass tensor eigenvalues:
             -1.2484086101             -1.2105986859             -0.5103866321
 Angular average effective mass 1/(<1/m>)=  -0.8365036064
 Angular average effective mass for Frohlich model (<m**0.5>)**2=  -0.8858956935
 Effective masses along directions: (cart. coord. / red. coord. -> eff. mass)
    1:   1.000000  0.000000  0.000000 /   0.769190 -0.639020  0.000000 ->  -1.2451177821
    2:   0.000000  1.000000  0.000000 /   0.000000  1.000000  0.000000 ->  -1.2137093481
    3:   0.000000  0.000000  1.000000 /   0.000000  0.000000  1.000000 ->  -0.5103866321
    4:   0.577350  0.577350  0.577350 /   0.558744 -0.153182  0.815071 ->  -0.8332677038
    5:   0.000000  0.707107  0.707107 /   0.000000  0.356498  0.934296 ->  -0.7185869501
    6:   0.707107  0.000000  0.707107 /   0.511768 -0.425162  0.746546 ->  -0.7240037779
    7:   0.707107  0.707107  0.000000 /   0.964413 -0.264399  0.000000 ->  -1.2187814734

 K-point (-0.500, 0.500, 0.000) | band =    45
 Effective mass tensor:
              1.8702705548             -0.4521347244              0.0000043622
             -0.4521347244              0.5206109123             -0.0000013253
              0.0000043622             -0.0000013253              0.4686016621
 Effective mass tensor eigenvalues:
              0.3831470079              0.4686016620              2.0077344592
 Angular average effective mass 1/(<1/m>)=   0.5722955445
 Angular average effective mass for Frohlich model (<m**0.5>)**2=   0.6412797330
 Effective masses along directions: (cart. coord. / red. coord. -> eff. mass)
    1:   1.000000  0.000000  0.000000 /   0.769190 -0.639020  0.000000 ->   1.4776053143
    2:   0.000000  1.000000  0.000000 /   0.000000  1.000000  0.000000 ->   0.4113081119
    3:   0.000000  0.000000  1.000000 /   0.000000  0.000000  1.000000 ->   0.4686016620
    4:   0.577350  0.577350  0.577350 /   0.558744 -0.153182  0.815071 ->   0.4674681297
    5:   0.000000  0.707107  0.707107 /   0.000000  0.356498  0.934296 ->   0.4380893404
    6:   0.707107  0.000000  0.707107 /   0.511768 -0.425162  0.746546 ->   0.7115487710
    7:   0.707107  0.707107  0.000000 /   0.964413 -0.264399  0.000000 ->   0.4669027127

 END OF EFFECTIVE MASSES SECTION

 ---- first-order wavefunction calculations are completed ----

 Total localisation tensor (bohr^2) in cartesian coordinates
  WARNING : still subject to testing - especially symmetries.
      direction              matrix element
   alpha     beta       real part   imaginary part
     1        1       6.5933519228    0.0000000000
     1        2      -1.8038872091    0.0000000000
     1        3       0.0000000000    0.0000000000
     2        1      -1.8038872091    0.0000000000
     2        2       1.2086023674    0.0000000000
     2        3       0.0000000000    0.0000000000
     3        1       0.0000000000    0.0000000000
     3        2       0.0000000000    0.0000000000
     3        3       1.1563299539    0.0000000000

 respfn : d/dk was computed, but no 2DTE, so no DDB output.

== END DATASET(S) ==============================================================

 -outvars: echo values of variables after computation  --------
            acell      1.0000000000E+00  1.0000000000E+00  1.0000000000E+00 Bohr
              amu      8.54678000E+01  2.07200000E+02  3.54527000E+01
             ecut      2.80000000E+01 Hartree
           etotal     -1.2406547239E+01
            fcart      0.0000000000E+00  0.0000000000E+00  0.0000000000E+00
                       0.0000000000E+00  0.0000000000E+00  0.0000000000E+00
                       0.0000000000E+00  0.0000000000E+00  0.0000000000E+00
                       0.0000000000E+00  0.0000000000E+00  0.0000000000E+00
                       0.0000000000E+00  0.0000000000E+00  0.0000000000E+00
                       0.0000000000E+00  0.0000000000E+00  0.0000000000E+00
                       0.0000000000E+00  0.0000000000E+00  0.0000000000E+00
                       0.0000000000E+00  0.0000000000E+00  0.0000000000E+00
                       0.0000000000E+00  0.0000000000E+00  0.0000000000E+00
                       0.0000000000E+00  0.0000000000E+00  0.0000000000E+00
-          fftalg         512
           irdden           1
           irdwfk           1
              ixc     -116133
              kpt      1.42016715E-01  1.42016715E-01  0.00000000E+00
                      -5.00000000E-01  5.00000000E-01  0.00000000E+00
           kptopt           0
P           mkmem           2
P          mkqmem           2
P          mk1mem           2
            natom          10
            nband          53
           nbdbuf           4
            ngfft          72      72      96
             nkpt           2
            nstep        2000
             nsym           8
           ntypat           3
              occ      2.000000  2.000000  2.000000  2.000000  2.000000  2.000000
                       2.000000  2.000000  2.000000  2.000000  2.000000  2.000000
                       2.000000  2.000000  2.000000  2.000000  2.000000  2.000000
                       2.000000  2.000000  2.000000  2.000000  2.000000  2.000000
                       2.000000  2.000000  2.000000  2.000000  2.000000  2.000000
                       2.000000  2.000000  2.000000  2.000000  2.000000  2.000000
                       2.000000  2.000000  2.000000  2.000000  2.000000  2.000000
                       2.000000  2.000000  0.000000  0.000000  0.000000  0.000000
                       0.000000  0.000000  0.000000  0.000000  0.000000
        optdriver           1
            prtwf          -1
            rfdir           1       1       1
           rfelfd           2
            rprim      1.3741578171E+01  0.0000000000E+00  0.0000000000E+00
                      -1.1416096631E+01  7.6487716888E+00  0.0000000000E+00
                       0.0000000000E+00  0.0000000000E+00  2.0045616424E+01
          spgroup          63
           strten      0.0000000000E+00  0.0000000000E+00  0.0000000000E+00
                       0.0000000000E+00  0.0000000000E+00  0.0000000000E+00
           symrel      1  0  0   0  1  0   0  0  1      -1  0  0   0 -1  0   0  0 -1
                       0  1  0   1  0  0   0  0 -1       0 -1  0  -1  0  0   0  0  1
                      -1  0  0   0 -1  0   0  0  1       1  0  0   0  1  0   0  0 -1
                       0 -1  0  -1  0  0   0  0 -1       0  1  0   1  0  0   0  0  1
            tnons      0.0000000  0.0000000  0.0000000     0.0000000  0.0000000 -0.0000000
                      -0.0000000  0.0000000 -0.0000000     0.0000000  0.0000000  0.0000000
                       0.0000000  0.0000000  0.5000000     0.0000000  0.0000000  0.5000000
                       0.0000000  0.0000000  0.5000000    -0.0000000  0.0000000  0.5000000
           tolwfr      1.00000000E-20
            typat      1  1  2  2  3  3  3  3  3  3
           useylm           1
              wtk        0.50000    0.50000
           xangst      3.9129599143E+00  1.0211780531E+00  2.6519208359E+00
                      -2.6823680842E+00  3.0263775983E+00  7.9557625077E+00
                       0.0000000000E+00  0.0000000000E+00  5.3038416718E+00
                       0.0000000000E+00  0.0000000000E+00  0.0000000000E+00
                       2.4345126574E+00  1.4706752984E+00  5.8708859926E+00
                      -1.2039208273E+00  2.5768803530E+00  5.6704432082E-01
                       2.4345126574E+00  1.4706752984E+00  1.0040639023E+01
                      -1.2039208273E+00  2.5768803530E+00  4.7367973510E+00
                      -5.0738650887E+00  3.7534724005E+00  2.6519208359E+00
                       6.3044569187E+00  2.9408325097E-01  7.9557625077E+00
            xcart      7.3944226069E+00  1.9297468532E+00  5.0114041059E+00
                      -5.0689410667E+00  5.7190248356E+00  1.5034212318E+01
                       0.0000000000E+00  0.0000000000E+00  1.0022808212E+01
                       0.0000000000E+00  0.0000000000E+00  0.0000000000E+00
                       4.6005621895E+00  2.7791735444E+00  1.1094366683E+01
                      -2.2750806493E+00  4.8695981444E+00  1.0715584716E+00
                       4.6005621895E+00  2.7791735444E+00  1.8974057952E+01
                      -2.2750806493E+00  4.8695981444E+00  8.9512497403E+00
                      -9.5882154528E+00  7.0930348842E+00  5.0114041059E+00
                       1.1913696993E+01  5.5573680459E-01  1.5034212318E+01
             xred      7.4770500000E-01  2.5229500000E-01  2.5000000000E-01
                       2.5229500000E-01  7.4770500000E-01  7.5000000000E-01
                       0.0000000000E+00  0.0000000000E+00  5.0000000000E-01
                       0.0000000000E+00  0.0000000000E+00  0.0000000000E+00
                       6.3665100000E-01  3.6334900000E-01  5.5345600000E-01
                       3.6334900000E-01  6.3665100000E-01  5.3456000000E-02
                       6.3665100000E-01  3.6334900000E-01  9.4654400000E-01
                       3.6334900000E-01  6.3665100000E-01  4.4654400000E-01
                       7.2657000000E-02  9.2734300000E-01  2.5000000000E-01
                       9.2734300000E-01  7.2657000000E-02  7.5000000000E-01
            znucl       37.00000   82.00000   17.00000

- Timing analysis has been suppressed with timopt=0

 Suggested references for the acknowledgment of ABINIT usage.

 Calculation completed.
.Delivered   2 WARNINGs and   5 COMMENTs to log file.