.Version 9.5.1 of ABINIT

 ABINIT is a project of the Universite Catholique de Louvain,
 Corning Inc. and other collaborators, see ~abinit/doc/developers/contributors.txt .
 acknowledgments of the ABINIT effort.

.Starting date : Tue  4 May 2021.
- ( at 21h50 )

- input  file    -> /scratch/users/j/a/jabreu/flow_simple_6atoms/flow/w264/t1/run.abi
- output file    -> /scratch/users/j/a/jabreu/flow_simple_6atoms/flow/w264/t1/run.abo
- root for input  files -> /scratch/users/j/a/jabreu/flow_simple_6atoms/flow/w264/t1/indata/in
- root for output files -> /scratch/users/j/a/jabreu/flow_simple_6atoms/flow/w264/t1/outdata/out

 Symmetries : space group P-3 m 1 (#164); Bravais hP (primitive hexag.)
     intxc =       0      iscf =       7    lmnmax =      25     lnmax =       7
     mgfft =      72  mpssoang =       4    mqgrid =    3004     natom =       6
  nloc_mem =       1    nspden =       1   nspinor =       1    nsppol =       1
      nsym =      12    n1xccc =    2501    ntypat =       3    occopt =       1
   xclevel =       2
-    mband =          58        mffmem =           1         mkmem =           2
-   mkqmem =           2        mk1mem =           2           mpw =       15294
      nfft =      331776          nkpt =           2
  Rough estimation (10% accuracy) of disk space for files :

------------- Echo of variables that govern the present computation ------------
-
- outvars: echo of selected default values
-   iomode0 =  0 , fftalg0 =512 , wfoptalg0 =  0
-
- outvars: echo of global parameters not present in the input file
-  max_nthreads =    0
-
 -outvars: echo values of preprocessed input variables --------
            acell      1.0000000000E+00  1.0000000000E+00  1.0000000000E+00 Bohr
              amu      8.54678000E+01  1.96966540E+02  7.89600000E+01
             ecut      4.30000000E+01 Hartree
-          fftalg         512
           irdden           1
           irdwfk           1
           istwfk        1    0
              ixc     -116133
              kpt      0.00000000E+00  0.00000000E+00  5.00000000E-01
                       0.00000000E+00  0.00000000E+00  1.11111111E-01
           kptopt           0
P           mkmem           2
P          mkqmem           2
P          mk1mem           2
            natom           6
            nband          58
           nbdbuf           4
            ngfft          72      72      64
             nkpt           2
            nstep        1000
             nsym          12
           ntypat           3
              occ      2.000000  2.000000  2.000000  2.000000  2.000000  2.000000
                       2.000000  2.000000  2.000000  2.000000  2.000000  2.000000
                       2.000000  2.000000  2.000000  2.000000  2.000000  2.000000
                       2.000000  2.000000  2.000000  2.000000  2.000000  2.000000
                       2.000000  2.000000  2.000000  2.000000  2.000000  2.000000
                       2.000000  2.000000  2.000000  2.000000  2.000000  2.000000
                       2.000000  2.000000  2.000000  2.000000  2.000000  2.000000
                       2.000000  2.000000  2.000000  2.000000  2.000000  2.000000
                       2.000000  0.000000  0.000000  0.000000  0.000000  0.000000
                       0.000000  0.000000  0.000000  0.000000
        optdriver           1
            prtwf          -1
            rfdir           1       1       1
           rfelfd           2
            rprim      1.1340370704E+01  0.0000000000E+00  0.0000000000E+00
                      -5.6701853522E+00  9.8210491184E+00  0.0000000000E+00
                       0.0000000000E+00  0.0000000000E+00  1.0175420481E+01
          spgroup         164
           symrel      1  0  0   0  1  0   0  0  1      -1  0  0   0 -1  0   0  0 -1
                      -1  0  0   1  1  0   0  0  1       1  0  0  -1 -1  0   0  0 -1
                       0  1  0  -1 -1  0   0  0  1       0 -1  0   1  1  0   0  0 -1
                       0 -1  0  -1  0  0   0  0  1       0  1  0   1  0  0   0  0 -1
                      -1 -1  0   1  0  0   0  0  1       1  1  0  -1  0  0   0  0 -1
                       1  1  0   0 -1  0   0  0  1      -1 -1  0   0  1  0   0  0 -1
           tolwfr      1.00000000E-20
            typat      1  2  2  2  3  3
           useylm           1
              wtk        0.50000    0.50000
           xangst      0.0000000000E+00  0.0000000000E+00  2.6923003032E+00
                       3.0005328569E+00  0.0000000000E+00 -2.9890537859E-16
                      -1.5002664284E+00  2.5985376790E+00 -2.9890537859E-16
                       1.5002664285E+00  2.5985376790E+00 -2.9890537859E-16
                       1.7638536740E-11  3.4647169053E+00  1.7415575280E+00
                       3.0005328569E+00  1.7323584526E+00  3.6430430785E+00
            xcart      0.0000000000E+00  0.0000000000E+00  5.0877102406E+00
                       5.6701853522E+00  0.0000000000E+00 -5.6484930517E-16
                      -2.8350926761E+00  4.9105245592E+00 -5.6484930517E-16
                       2.8350926761E+00  4.9105245592E+00 -5.6484930517E-16
                       3.3332003824E-11  6.5473660789E+00  3.2910667725E+00
                       5.6701853523E+00  3.2736830395E+00  6.8843537087E+00
             xred      0.0000000000E+00  0.0000000000E+00  5.0000000000E-01
                       5.0000000000E-01  0.0000000000E+00 -5.5511151231E-17
                       0.0000000000E+00  5.0000000000E-01 -5.5511151231E-17
                       5.0000000000E-01  5.0000000000E-01 -5.5511151231E-17
                       3.3333333333E-01  6.6666666667E-01  3.2343300000E-01
                       6.6666666667E-01  3.3333333333E-01  6.7656700000E-01
            znucl       37.00000   79.00000   34.00000

 chkinp: Checking input parameters for consistency.

== DATASET  1 ==================================================================
-   mpi_nproc: 1, omp_nthreads: -1 (-1 if OMP is not activated)

--- !DatasetInfo
iteration_state: {dtset: 1, }
dimensions: {natom: 6, nkpt: 2, mband: 58, nsppol: 1, nspinor: 1, nspden: 1, mpw: 15294, }
cutoff_energies: {ecut:  43.0, pawecutdg:  -1.0, }
electrons: {nelect:   9.80000000E+01, charge:   0.00000000E+00, occopt:   1.00000000E+00, tsmear:   1.00000000E-02, }
meta: {optdriver: 1, rfelfd: 2, }
...

 Real(R)+Recip(G) space primitive vectors, cartesian coordinates (Bohr,Bohr^-1):
 R(1)= 11.3403707  0.0000000  0.0000000  G(1)=  0.0881805  0.0509111  0.0000000
 R(2)= -5.6701854  9.8210491  0.0000000  G(2)=  0.0000000  0.1018221  0.0000000
 R(3)=  0.0000000  0.0000000 10.1754205  G(3)=  0.0000000  0.0000000  0.0982760
 Unit cell volume ucvol=  1.1332807E+03 bohr^3
 Angles (23,13,12)=  9.00000000E+01  9.00000000E+01  1.20000000E+02 degrees

 getcut: wavevector=  0.0000  0.0000  0.0000  ngfft=  72  72  64
         ecut(hartree)=     43.000   => boxcut(ratio)=   2.13073

--- Pseudopotential description ------------------------------------------------
- pspini: atom type   1  psp file is /scratch/users/j/a/jabreu/pseudos/PBEsol/Rb.psp8
- pspatm: opening atomic psp file    /scratch/users/j/a/jabreu/pseudos/PBEsol/Rb.psp8
- Rb    ONCVPSP-3.3.0  r_core=   1.71227   1.75361   1.90633
- 37.00000   9.00000    180112                znucl, zion, pspdat
    8 -116133    2    4       600   0.00000   pspcod,pspxc,lmax,lloc,mmax,r2well
    5.99000000000000    7.00000000000000    0.00000000000000   rchrg,fchrg,qchrg
     nproj     2     2     2
     extension_switch     1
  pspatm : epsatm=   34.48400912
         --- l  ekb(1:nproj) -->
             0    8.196957   -0.477221
             1    3.231347   -0.378736
             2   -1.047201    0.996637
 pspatm: atomic psp has been read  and splines computed

- pspini: atom type   2  psp file is /scratch/users/j/a/jabreu/pseudos/PBEsol/Au.psp8
- pspatm: opening atomic psp file    /scratch/users/j/a/jabreu/pseudos/PBEsol/Au.psp8
- Au    ONCVPSP-3.3.0  r_core=   1.45604   1.56407   1.56407   1.60183
- 79.00000  19.00000    180112                znucl, zion, pspdat
    8 -116133    3    4       500   0.00000   pspcod,pspxc,lmax,lloc,mmax,r2well
    4.99000000000000    5.00000000000000    0.00000000000000   rchrg,fchrg,qchrg
     nproj     2     2     2     1
     extension_switch     1
  pspatm : epsatm=   32.21965837
         --- l  ekb(1:nproj) -->
             0    9.413866   -0.196587
             1    2.474292   -1.517497
             2    1.503483    0.298081
             3    1.177996
 pspatm: atomic psp has been read  and splines computed

- pspini: atom type   3  psp file is /scratch/users/j/a/jabreu/pseudos/PBEsol/Se.psp8
- pspatm: opening atomic psp file    /scratch/users/j/a/jabreu/pseudos/PBEsol/Se.psp8
- Se    ONCVPSP-3.3.0  r_core=   1.81943   1.50330   1.90835
- 34.00000  16.00000    180112                znucl, zion, pspdat
    8 -116133    2    4       600   0.00000   pspcod,pspxc,lmax,lloc,mmax,r2well
    5.99000000000000    5.00000000000000    0.00000000000000   rchrg,fchrg,qchrg
     nproj     2     2     2
     extension_switch     1
  pspatm : epsatm=   29.17862020
         --- l  ekb(1:nproj) -->
             0    8.973804    1.019550
             1    6.849857    1.297308
             2   -9.203962   -3.731027
 pspatm: atomic psp has been read  and splines computed

   1.85710220E+04                                ecore*ucvol(ha*bohr**3)

-inwffil : will read wavefunctions from disk file /scratch/users/j/a/jabreu/flow_simple_6atoms/flow/w264/t1/indata/in_WFK

 ==>  initialize data related to q vector <==

 The list of irreducible perturbations for this q vector is:
    1)    idir= 1    ipert=   7
    2)    idir= 2    ipert=   7
    3)    idir= 3    ipert=   7

 Perturbation wavevector (in red.coord.)   0.000000  0.000000  0.000000
 Perturbation : derivative vs k along direction   1

 dfpt_looppert : COMMENT -
  In a d/dk calculation, iscf is set to -3 automatically.
 The set of symmetries contains only one element for this perturbation.
 symkpt : not enough symmetry to change the number of k points.

[...]

 Initialisation of the first-order wave-functions :
  ireadwf=   0

--- !BeginCycle
iteration_state: {dtset: 1, }
solver: {iscf: 7, nstep: 1000, nline: 4, wfoptalg: 0, }
tolerances: {tolwfr: 1.00E-20, }
...

     iter   2DEtotal(Ha)        deltaE(Ha) residm    vres2
-ETOT  1  -67.225606601563     -6.723E+01 6.474E-02 0.000E+00
 ETOT  2  -67.294912186617     -6.931E-02 1.583E-03 0.000E+00
 ETOT  3  -67.295314435949     -4.022E-04 9.928E-05 0.000E+00
 ETOT  4  -67.295320386007     -5.950E-06 2.360E-06 0.000E+00
 ETOT  5  -67.295320501571     -1.156E-07 3.436E-07 0.000E+00
 ETOT  6  -67.295320504211     -2.640E-09 1.112E-08 0.000E+00
 ETOT  7  -67.295320504277     -6.617E-11 1.858E-09 0.000E+00
 ETOT  8  -67.295320504279     -1.876E-12 7.213E-11 0.000E+00
 ETOT  9  -67.295320504279     -4.263E-14 1.199E-11 0.000E+00
 ETOT 10  -67.295320504279      1.421E-14 5.046E-13 0.000E+00
 ETOT 11  -67.295320504279      2.842E-14 8.260E-14 0.000E+00
 ETOT 12  -67.295320504279     -1.421E-14 3.584E-15 0.000E+00
 ETOT 13  -67.295320504279      1.421E-14 5.822E-16 0.000E+00
[...]

 ----iterations are completed or convergence reached----

 dfpt_looppert: DFPT cycle converged with prtwf=-1. Will skip output of the 1st-order WFK file.
 dfpt_looppert : ek2=    8.0223211162E+01
          f-sum rule ratio=    1.1253074946E+00
 prteigrs : about to open file /scratch/users/j/a/jabreu/flow_simple_6atoms/flow/w264/t1/tmpdata/tmp_1WF1_EIG
 Expectation of eigenvalue derivatives (hartree) for nkpt=   2  k points:
  (in case of degenerate eigenvalues, averaged derivative)
 kpt#   1, nband= 58, wtk=  0.50000, kpt=  0.0000  0.0000  0.5000 (reduced coord)
  -0.00000   -0.00000   -0.00000    0.00000   -0.00000   -0.00000    0.00000    0.00000
  -0.00000    0.00000   -0.00000   -0.00000    0.00000    0.00000    0.00000    0.00000
   0.00000    0.00000    0.00000    0.00000    0.00000    0.00000    0.00000   -0.00000
   0.00000    0.00000    0.00000    0.00000   -0.00000    0.00000    0.00000    0.00000
   0.00000    0.00000   -0.00000    0.00000    0.00000    0.00000   -0.00000    0.00000
   0.00000   -0.00000   -0.00000    0.00000    0.00000    0.00000   -0.00000   -0.00000
  -0.00000   -0.00000   -0.00000   -0.00000   -0.00000   -0.00000   -0.00000   -0.00000
   0.00118   -0.00000
 prteigrs : prtvol=0 or 1, do not print more k-points.

 Eight components of 2nd-order total energy (hartree) are
 1,2,3: 0th-order hamiltonian combined with 1st-order wavefunctions
     kin0=   8.10415364E+01 eigvalue=   6.54382682E+00  local=  -3.83091857E+01
 4,5,6: 1st-order hamiltonian combined with 1st and 0th-order wfs
     kin1=  -9.02757808E+01  Hartree=   0.00000000E+00     xc=   0.00000000E+00
 7,8,9: eventually, occupation + non-local contributions
    edocc=   1.28218866E+01     enl0=   5.19725627E+00   enl1=  -4.43148602E+01
 1-9 gives the relaxation energy (to be shifted if some occ is /=2.0)
   erelax=  -6.72953205E+01
  No Ewald or frozen-wf contrib.: the relaxation energy is the total one
 2DEtotal=   -0.6729532050E+02 Ha. Also 2DEtotal=   -0.183119879822E+04 eV
    (  non-var. 2DEtotal :   -6.7295320504E+01 Ha)

 Perturbation wavevector (in red.coord.)   0.000000  0.000000  0.000000
 Perturbation : derivative vs k along direction   2
 The set of symmetries contains only one element for this perturbation.
 symkpt : not enough symmetry to change the number of k points.

[...]

 Perturbation wavevector (in red.coord.)   0.000000  0.000000  0.000000
 Perturbation : derivative vs k along direction   3
 The set of symmetries contains only one element for this perturbation.
 symkpt : not enough symmetry to change the number of k points.

-inwffil : will read wavefunctions from disk file /scratch/users/j/a/jabreu/flow_simple_6atoms/flow/w264/t1/indata/in_WFK

 Initialisation of the first-order wave-functions :
  ireadwf=   0

--- !BeginCycle
iteration_state: {dtset: 1, }
solver: {iscf: 7, nstep: 1000, nline: 4, wfoptalg: 0, }
tolerances: {tolwfr: 1.00E-20, }
...

     iter   2DEtotal(Ha)        deltaE(Ha) residm    vres2
-ETOT  1  -57.979875321045     -5.798E+01 8.953E-02 0.000E+00
 ETOT  2  -58.030369640129     -5.049E-02 1.080E-03 0.000E+00
 ETOT  3  -58.030716957884     -3.473E-04 7.747E-05 0.000E+00
 ETOT  4  -58.030724461575     -7.504E-06 9.563E-07 0.000E+00
 ETOT  5  -58.030724662563     -2.010E-07 1.910E-07 0.000E+00
 ETOT  6  -58.030724668333     -5.769E-09 2.987E-09 0.000E+00
 ETOT  7  -58.030724668503     -1.702E-10 7.886E-10 0.000E+00
 ETOT  8  -58.030724668508     -5.109E-12 1.547E-11 0.000E+00
 ETOT  9  -58.030724668508     -1.563E-13 4.184E-12 0.000E+00
 ETOT 10  -58.030724668508     -2.132E-14 9.077E-14 0.000E+00
 ETOT 11  -58.030724668508      4.974E-14 2.429E-14 0.000E+00
 ETOT 12  -58.030724668508     -2.132E-14 5.477E-16 0.000E+00
 ETOT 13  -58.030724668508     -2.132E-14 1.449E-16 0.000E+00
 ETOT 14  -58.030724668508      1.421E-14 3.318E-18 0.000E+00
 ETOT 15  -58.030724668508     -1.421E-14 8.737E-19 0.000E+00
 ETOT 16  -58.030724668508      7.105E-15 2.017E-20 0.000E+00
 ETOT 17  -58.030724668508      1.421E-14 9.956E-21 0.000E+00

 At SCF step   17   max residual=  9.96E-21 < tolwfr=  1.00E-20 =>converged.

 ----iterations are completed or convergence reached----

 dfpt_looppert: DFPT cycle converged with prtwf=-1. Will skip output of the 1st-order WFK file.
 dfpt_looppert : ek2=    7.4732769791E+01
          f-sum rule ratio=    1.0044639459E+00
 prteigrs : about to open file /scratch/users/j/a/jabreu/flow_simple_6atoms/flow/w264/t1/tmpdata/tmp_1WF1_EIG
 Expectation of eigenvalue derivatives (hartree) for nkpt=   2  k points:
  (in case of degenerate eigenvalues, averaged derivative)
 kpt#   1, nband= 58, wtk=  0.50000, kpt=  0.0000  0.0000  0.5000 (reduced coord)
   0.00000   -0.00000   -0.00000    0.00000    0.00000    0.00000    0.00000    0.00000
   0.00000   -0.00000    0.00000    0.00000   -0.00000    0.00000   -0.00000   -0.00000
  -0.00000   -0.00000    0.00000    0.00000    0.00000    0.00000    0.00000    0.00000
   0.00000   -0.00000   -0.00000   -0.00000    0.00000   -0.00000   -0.00000    0.00000
   0.00000    0.00000    0.00000    0.00000   -0.00000   -0.00000   -0.00000    0.00000
   0.00000    0.00000    0.00000    0.00000    0.00000    0.00000    0.00000    0.00000
   0.00000    0.00000    0.00000    0.00000   -0.00000   -0.00000    0.00000    0.00000
   0.00003    0.00046
 prteigrs : prtvol=0 or 1, do not print more k-points.

 Eight components of 2nd-order total energy (hartree) are
 1,2,3: 0th-order hamiltonian combined with 1st-order wavefunctions
     kin0=   7.45156438E+01 eigvalue=   6.41208855E+00  local=  -3.54930147E+01
 4,5,6: 1st-order hamiltonian combined with 1st and 0th-order wfs
     kin1=  -7.50663728E+01  Hartree=   0.00000000E+00     xc=   0.00000000E+00
 7,8,9: eventually, occupation + non-local contributions
    edocc=   7.81848234E+00     enl0=   4.77752461E+00   enl1=  -4.09950765E+01
 1-9 gives the relaxation energy (to be shifted if some occ is /=2.0)
   erelax=  -5.80307247E+01
  No Ewald or frozen-wf contrib.: the relaxation energy is the total one
 2DEtotal=   -0.5803072467E+02 Ha. Also 2DEtotal=   -0.157909632463E+04 eV
    (  non-var. 2DEtotal :   -5.8030724668E+01 Ha)

 CALCULATION OF EFFECTIVE MASSES
 NOTE : Additional infos (eff. mass eigenvalues, eigenvectors and, if degenerate, average mass) are available in stdout.

 COMMENTS:
 - At k-point ( 0.000, 0.000, 0.500), bands    48 through    49
   are DEGENERATE (effective mass tensor is therefore not defined).
   See Section IIIB Eqs. (67)-(70) and Appendix E of PRB 93 205147 (2016).
 - Angular average effective mass for Frohlich model is to be averaged over degenerate bands. See later.
 - Associated theta integrals calculated with ntheta=   1000 points.

 K-point ( 0.000, 0.000, 0.500) | band =    48
 Transport equivalent effective mass tensor:
             -0.2300889171             -0.0000003136             -0.0000179192
             -0.0000003136             -0.2300987604              0.0000085120
             -0.0000179192              0.0000085120             -0.6349312206
 Transport equivalent effective mass tensor eigenvalues:
             -0.6349312216             -0.2300987702             -0.2300889063
 Angular average effective mass 1/(<1/m>)=  -0.2569744587
 Angular average effective mass for Frohlich model (<m**0.5>)**2=  -0.2711466995
 Effective masses along directions: (cart. coord. / red. coord. -> eff. mass)
    1:   1.000000  0.000000  0.000000 /   0.894427 -0.447214  0.000000 ->  -0.2106059179
    2:   0.000000  1.000000  0.000000 /   0.000000  1.000000  0.000000 ->  -0.2105887706
    3:   0.000000  0.000000  1.000000 /   0.000000  0.000000  1.000000 ->  -0.7925712632
    4:   0.577350  0.577350  0.577350 /   0.718129  0.262854  0.644359 ->  -0.2813548455
    5:   0.000000  0.707107  0.707107 /   0.000000  0.694467  0.719525 ->  -0.2464915694
    6:   0.707107  0.000000  0.707107 /   0.697563 -0.348782  0.625905 ->  -0.2745807542
    7:   0.707107  0.707107  0.000000 /   0.939071  0.343724  0.000000 ->  -0.2105915292

 K-point ( 0.000, 0.000, 0.500) | band =    49
 Transport equivalent effective mass tensor:
             -0.8313497933             -0.0002385926              0.0011928394
             -0.0002385926             -0.8315430401             -0.0006887083
              0.0011928394             -0.0006887083             -2.4495119288
 Transport equivalent effective mass tensor eigenvalues:
             -2.4495131011             -0.8317038262             -0.8311878349
 Angular average effective mass 1/(<1/m>)=  -0.5518340220
 Angular average effective mass for Frohlich model (<m**0.5>)**2=  -0.6322180544
 Effective masses along directions: (cart. coord. / red. coord. -> eff. mass)
    1:   1.000000  0.000000  0.000000 /   0.894427 -0.447214  0.000000 ->  -0.3927770339
    2:   0.000000  1.000000  0.000000 /   0.000000  1.000000  0.000000 ->  -0.3927570566
    3:   0.000000  0.000000  1.000000 /   0.000000  0.000000  1.000000 ->  -0.7935625012
    4:   0.577350  0.577350  0.577350 /   0.718129  0.262854  0.644359 ->  -0.4651851257
    5:   0.000000  0.707107  0.707107 /   0.000000  0.694467  0.719525 ->  -1.1752889031
    6:   0.707107  0.000000  0.707107 /   0.697563 -0.348782  0.625905 ->  -0.7893204316
    7:   0.707107  0.707107  0.000000 /   0.939071  0.343724  0.000000 ->  -0.3927595285

 Angular average effective mass for Frohlich model, averaged over degenerate bands.
 Value of     (<<m**0.5>>)**2 =     4.328580E-01
 Absolute Value of <<m**0.5>> =     6.579194E-01

 K-point ( 0.000, 0.000, 0.111) | band =    50
 Effective mass tensor:
              0.2395803923             -0.0000091644              0.0000258184
             -0.0000091644              0.2395548263              0.0001334722
              0.0000258184              0.0001334722              0.4300962357
 Effective mass tensor eigenvalues:
              0.2395517850              0.2395833366              0.4300963327
 Angular average effective mass 1/(<1/m>)=   0.2810716187
 Angular average effective mass for Frohlich model (<m**0.5>)**2=   0.2868216076
 Effective masses along directions: (cart. coord. / red. coord. -> eff. mass)
    1:   1.000000  0.000000  0.000000 /   0.894427 -0.447214  0.000000 ->   0.2395803904
    2:   0.000000  1.000000  0.000000 /   0.000000  1.000000  0.000000 ->   0.2395547845
    3:   0.000000  0.000000  1.000000 /   0.000000  0.000000  1.000000 ->   0.4300961586
    4:   0.577350  0.577350  0.577350 /   0.718129  0.262854  0.644359 ->   0.2811446480
    5:   0.000000  0.707107  0.707107 /   0.000000  0.694467  0.719525 ->   0.3078400233
    6:   0.707107  0.000000  0.707107 /   0.697563 -0.348782  0.625905 ->   0.3077621674
    7:   0.707107  0.707107  0.000000 /   0.939071  0.343724  0.000000 ->   0.2395584147

 END OF EFFECTIVE MASSES SECTION

 ---- first-order wavefunction calculations are completed ----

 Total localisation tensor (bohr^2) in cartesian coordinates
  WARNING : still subject to testing - especially symmetries.
      direction              matrix element
   alpha     beta       real part   imaginary part
     1        1       2.8148043670    0.0000000000
     1        2      -0.9750736237    0.0000000000
     1        3       0.0000000000    0.0000000000
     2        1      -0.9750736237    0.0000000000
     2        2       1.6888770574    0.0000000000
     2        3       0.0000000000    0.0000000000
     3        1       0.0000000000    0.0000000000
     3        2       0.0000000000    0.0000000000
     3        3       0.8505804146    0.0000000000

 respfn : d/dk was computed, but no 2DTE, so no DDB output.

== END DATASET(S) ==============================================================

 -outvars: echo values of variables after computation  --------
            acell      1.0000000000E+00  1.0000000000E+00  1.0000000000E+00 Bohr
              amu      8.54678000E+01  1.96966540E+02  7.89600000E+01
             ecut      4.30000000E+01 Hartree
           etotal     -5.8030724669E+01
            fcart      0.0000000000E+00  0.0000000000E+00  0.0000000000E+00
                       0.0000000000E+00  0.0000000000E+00  0.0000000000E+00
                       0.0000000000E+00  0.0000000000E+00  0.0000000000E+00
                       0.0000000000E+00  0.0000000000E+00  0.0000000000E+00
                       0.0000000000E+00  0.0000000000E+00  0.0000000000E+00
                       0.0000000000E+00  0.0000000000E+00  0.0000000000E+00
-          fftalg         512
           irdden           1
           irdwfk           1
           istwfk        1    0
              ixc     -116133
              kpt      0.00000000E+00  0.00000000E+00  5.00000000E-01
                       0.00000000E+00  0.00000000E+00  1.11111111E-01
           kptopt           0
P           mkmem           2
P          mkqmem           2
P          mk1mem           2
            natom           6
            nband          58
           nbdbuf           4
            ngfft          72      72      64
             nkpt           2
            nstep        1000
             nsym          12
           ntypat           3
              occ      2.000000  2.000000  2.000000  2.000000  2.000000  2.000000
                       2.000000  2.000000  2.000000  2.000000  2.000000  2.000000
                       2.000000  2.000000  2.000000  2.000000  2.000000  2.000000
                       2.000000  2.000000  2.000000  2.000000  2.000000  2.000000
                       2.000000  2.000000  2.000000  2.000000  2.000000  2.000000
                       2.000000  2.000000  2.000000  2.000000  2.000000  2.000000
                       2.000000  2.000000  2.000000  2.000000  2.000000  2.000000
                       2.000000  2.000000  2.000000  2.000000  2.000000  2.000000
                       2.000000  0.000000  0.000000  0.000000  0.000000  0.000000
                       0.000000  0.000000  0.000000  0.000000
        optdriver           1
            prtwf          -1
            rfdir           1       1       1
           rfelfd           2
            rprim      1.1340370704E+01  0.0000000000E+00  0.0000000000E+00
                      -5.6701853522E+00  9.8210491184E+00  0.0000000000E+00
                       0.0000000000E+00  0.0000000000E+00  1.0175420481E+01
          spgroup         164
           strten      0.0000000000E+00  0.0000000000E+00  0.0000000000E+00
                       0.0000000000E+00  0.0000000000E+00  0.0000000000E+00
           symrel      1  0  0   0  1  0   0  0  1      -1  0  0   0 -1  0   0  0 -1
                      -1  0  0   1  1  0   0  0  1       1  0  0  -1 -1  0   0  0 -1
                       0  1  0  -1 -1  0   0  0  1       0 -1  0   1  1  0   0  0 -1
                       0 -1  0  -1  0  0   0  0  1       0  1  0   1  0  0   0  0 -1
                      -1 -1  0   1  0  0   0  0  1       1  1  0  -1  0  0   0  0 -1
                       1  1  0   0 -1  0   0  0  1      -1 -1  0   0  1  0   0  0 -1
           tolwfr      1.00000000E-20
            typat      1  2  2  2  3  3
           useylm           1
              wtk        0.50000    0.50000
           xangst      0.0000000000E+00  0.0000000000E+00  2.6923003032E+00
                       3.0005328569E+00  0.0000000000E+00 -2.9890537859E-16
                      -1.5002664284E+00  2.5985376790E+00 -2.9890537859E-16
                       1.5002664285E+00  2.5985376790E+00 -2.9890537859E-16
                       1.7638536740E-11  3.4647169053E+00  1.7415575280E+00
                       3.0005328569E+00  1.7323584526E+00  3.6430430785E+00
            xcart      0.0000000000E+00  0.0000000000E+00  5.0877102406E+00
                       5.6701853522E+00  0.0000000000E+00 -5.6484930517E-16
                      -2.8350926761E+00  4.9105245592E+00 -5.6484930517E-16
                       2.8350926761E+00  4.9105245592E+00 -5.6484930517E-16
                       3.3332003824E-11  6.5473660789E+00  3.2910667725E+00
                       5.6701853523E+00  3.2736830395E+00  6.8843537087E+00
             xred      0.0000000000E+00  0.0000000000E+00  5.0000000000E-01
                       5.0000000000E-01  0.0000000000E+00 -5.5511151231E-17
                       0.0000000000E+00  5.0000000000E-01 -5.5511151231E-17
                       5.0000000000E-01  5.0000000000E-01 -5.5511151231E-17
                       3.3333333333E-01  6.6666666667E-01  3.2343300000E-01
                       6.6666666667E-01  3.3333333333E-01  6.7656700000E-01
            znucl       37.00000   79.00000   34.00000

- Timing analysis has been suppressed with timopt=0

 Suggested references for the acknowledgment of ABINIT usage.

 Calculation completed.
.Delivered  14 WARNINGs and   9 COMMENTs to log file.