.Version 9.5.1 of ABINIT

 ABINIT is a project of the Universite Catholique de Louvain,
 Corning Inc. and other collaborators, see ~abinit/doc/developers/contributors.txt .
 acknowledgments of the ABINIT effort.

.Starting date : Tue 11 May 2021.
- ( at 21h23 )

- input  file    -> /scratch/users/j/a/jabreu/flow_simple_8atoms/flow/w299/t1/run.abi
- output file    -> /scratch/users/j/a/jabreu/flow_simple_8atoms/flow/w299/t1/run.abo
- root for input  files -> /scratch/users/j/a/jabreu/flow_simple_8atoms/flow/w299/t1/indata/in
- root for output files -> /scratch/users/j/a/jabreu/flow_simple_8atoms/flow/w299/t1/outdata/out

 Symmetries : space group P-1 (#  2); Bravais aP (primitive triclinic)
     intxc =       0      iscf =       7    lmnmax =      25     lnmax =       7
     mgfft =      75  mpssoang =       4    mqgrid =    3131     natom =       8
  nloc_mem =       1    nspden =       1   nspinor =       1    nsppol =       1
      nsym =       2    n1xccc =    2501    ntypat =       3    occopt =       1
   xclevel =       2
-    mband =          60        mffmem =           1         mkmem =           2
-   mkqmem =           2        mk1mem =           2           mpw =       13370
      nfft =      270000          nkpt =           2
  Rough estimation (10% accuracy) of disk space for files :

------------- Echo of variables that govern the present computation ------------
-
- outvars: echo of selected default values
-   iomode0 =  0 , fftalg0 =512 , wfoptalg0 =  0
-
- outvars: echo of global parameters not present in the input file
-  max_nthreads =    0
-
 -outvars: echo values of preprocessed input variables --------
            acell      1.0000000000E+00  1.0000000000E+00  1.0000000000E+00 Bohr
              amu      1.12411000E+02  1.96966540E+02  1.59994000E+01
             ecut      5.10000000E+01 Hartree
-          fftalg         512
           irdden           1
           irdwfk           1
              ixc     -116133
              kpt      5.00000000E-01 -5.00000000E-01  1.38777878E-17
                       0.00000000E+00 -5.00000000E-01  5.00000000E-01
           kptopt           0
P           mkmem           2
P          mkqmem           2
P          mk1mem           2
            natom           8
            nband          60
           nbdbuf           4
            ngfft          50      72      75
             nkpt           2
            nstep        2000
             nsym           2
           ntypat           3
              occ      2.000000  2.000000  2.000000  2.000000  2.000000  2.000000
                       2.000000  2.000000  2.000000  2.000000  2.000000  2.000000
                       2.000000  2.000000  2.000000  2.000000  2.000000  2.000000
                       2.000000  2.000000  2.000000  2.000000  2.000000  2.000000
                       2.000000  2.000000  2.000000  2.000000  2.000000  2.000000
                       2.000000  2.000000  2.000000  2.000000  2.000000  2.000000
                       2.000000  2.000000  2.000000  2.000000  2.000000  2.000000
                       2.000000  2.000000  2.000000  2.000000  2.000000  2.000000
                       2.000000  2.000000  2.000000  0.000000  0.000000  0.000000
                       0.000000  0.000000  0.000000  0.000000  0.000000  0.000000
        optdriver           1
            prtwf          -1
            rfdir           1       1       1
           rfelfd           2
            rprim      7.3352110892E+00  0.0000000000E+00 -2.0969851119E+00
                      -6.6359330770E-01  9.2778177509E+00 -4.5249985186E+00
                       0.0000000000E+00  0.0000000000E+00  1.1272387391E+01
          spgroup           2
           symrel      1  0  0   0  1  0   0  0  1      -1  0  0   0 -1  0   0  0 -1
           tolwfr      1.00000000E-20
            typat      1  1  2  2  3  3  3  3
           useylm           1
              wtk        0.50000    0.50000
           xangst      9.6389709272E-01  1.3319967498E+00  2.2338144226E+00
                       2.5665709817E+00  3.5776129494E+00  2.2707325836E-01
                       1.9408132643E+00  0.0000000000E+00 -5.5483836399E-01
                      -1.7557922710E-01  2.4548048496E+00 -1.1972630425E+00
                       2.5893124612E+00  7.9348130037E-01  3.6848095021E+00
                       9.4115561316E-01  4.1161283989E+00 -1.2239218211E+00
                       2.6888633755E+00  1.3734780422E+00  6.8197521715E-01
                       8.4160469886E-01  3.5361316570E+00  1.7789124639E+00
            xcart      1.8215015255E+00  2.5171090671E+00  4.2212974905E+00
                       4.8501162560E+00  6.7607086838E+00  4.2910627040E-01
                       3.6676055446E+00  0.0000000000E+00 -1.0484925560E+00
                      -3.3179665385E-01  4.6389088755E+00 -2.2624992593E+00
                       4.8930914242E+00  1.4994623493E+00  6.9632808108E+00
                       1.7785263573E+00  7.7783554016E+00 -2.3128770499E+00
                       5.0812153885E+00  2.5954973493E+00  1.2887463898E+00
                       1.5904023930E+00  6.6823204016E+00  3.3616573711E+00
             xred      2.7286700000E-01  2.7130400000E-01  5.3415000000E-01
                       7.2713300000E-01  7.2869600000E-01  4.6585000000E-01
                       5.0000000000E-01  0.0000000000E+00 -1.3877787808E-17
                      -6.9388939039E-18  5.0000000000E-01  2.9490299092E-17
                       6.8169000000E-01  1.6161800000E-01  8.0942000000E-01
                       3.1831000000E-01  8.3838200000E-01  1.9058000000E-01
                       7.1802400000E-01  2.7975300000E-01  3.6020000000E-01
                       2.8197600000E-01  7.2024700000E-01  6.3980000000E-01
            znucl       48.00000   79.00000    8.00000

 chkinp: Checking input parameters for consistency.

== DATASET  1 ==================================================================
-   mpi_nproc: 1, omp_nthreads: -1 (-1 if OMP is not activated)

--- !DatasetInfo
iteration_state: {dtset: 1, }
dimensions: {natom: 8, nkpt: 2, mband: 60, nsppol: 1, nspinor: 1, nspden: 1, mpw: 13370, }
cutoff_energies: {ecut:  51.0, pawecutdg:  -1.0, }
electrons: {nelect:   1.02000000E+02, charge:   0.00000000E+00, occopt:   1.00000000E+00, tsmear:   1.00000000E-02, }
meta: {optdriver: 1, rfelfd: 2, }
...

 Real(R)+Recip(G) space primitive vectors, cartesian coordinates (Bohr,Bohr^-1):
 R(1)=  7.3352111  0.0000000 -2.0969851  G(1)=  0.1363287  0.0097509  0.0000000
 R(2)= -0.6635933  9.2778178 -4.5249985  G(2)=  0.0000000  0.1077840  0.0000000
 R(3)=  0.0000000  0.0000000 11.2723874  G(3)=  0.0253610  0.0450809  0.0887124
 Unit cell volume ucvol=  7.6713952E+02 bohr^3
 Angles (23,13,12)=  1.15941972E+02  1.05954137E+02  8.66427750E+01 degrees

 getcut: wavevector=  0.0000  0.0000  0.0000  ngfft=  50  72  75
         ecut(hartree)=     51.000   => boxcut(ratio)=   2.03870

--- Pseudopotential description ------------------------------------------------
- pspini: atom type   1  psp file is /scratch/users/j/a/jabreu/pseudos/PBEsol/Cd.psp8
- pspatm: opening atomic psp file    /scratch/users/j/a/jabreu/pseudos/PBEsol/Cd.psp8
- Cd    ONCVPSP-3.3.0  r_core=   1.25838   1.30423   1.35174
- 48.00000  20.00000    180112                znucl, zion, pspdat
    8 -116133    2    4       600   0.00000   pspcod,pspxc,lmax,lloc,mmax,r2well
    5.99000000000000    6.00000000000000    0.00000000000000   rchrg,fchrg,qchrg
     nproj     2     2     2
     extension_switch     1
  pspatm : epsatm=   23.26728021
         --- l  ekb(1:nproj) -->
             0   63.701523    3.700425
             1    8.703569    1.290373
             2    0.983656   -0.721725
 pspatm: atomic psp has been read  and splines computed

- pspini: atom type   2  psp file is /scratch/users/j/a/jabreu/pseudos/PBEsol/Au.psp8
- pspatm: opening atomic psp file    /scratch/users/j/a/jabreu/pseudos/PBEsol/Au.psp8
- Au    ONCVPSP-3.3.0  r_core=   1.45604   1.56407   1.56407   1.60183
- 79.00000  19.00000    180112                znucl, zion, pspdat
    8 -116133    3    4       500   0.00000   pspcod,pspxc,lmax,lloc,mmax,r2well
    4.99000000000000    5.00000000000000    0.00000000000000   rchrg,fchrg,qchrg
     nproj     2     2     2     1
     extension_switch     1
  pspatm : epsatm=   32.21965837
         --- l  ekb(1:nproj) -->
             0    9.413866   -0.196587
             1    2.474292   -1.517497
             2    1.503483    0.298081
             3    1.177996
 pspatm: atomic psp has been read  and splines computed

- pspini: atom type   3  psp file is /scratch/users/j/a/jabreu/pseudos/PBEsol/O.psp8
- pspatm: opening atomic psp file    /scratch/users/j/a/jabreu/pseudos/PBEsol/O.psp8
- O     ONCVPSP-3.3.0  r_core=   1.35509   1.45563   1.26150
-  8.00000   6.00000    180112                znucl, zion, pspdat
    8 -116133    2    4       600   0.00000   pspcod,pspxc,lmax,lloc,mmax,r2well
    5.99000000000000    4.00000000000000    0.00000000000000   rchrg,fchrg,qchrg
     nproj     2     2     1
     extension_switch     1
  pspatm : epsatm=    6.22910522
         --- l  ekb(1:nproj) -->
             0    6.050032    0.820363
             1   -4.739617   -1.153841
             2   -1.335834
 pspatm: atomic psp has been read  and splines computed

   1.38608104E+04                                ecore*ucvol(ha*bohr**3)

-inwffil : will read wavefunctions from disk file /scratch/users/j/a/jabreu/flow_simple_8atoms/flow/w299/t1/indata/in_WFK

 ==>  initialize data related to q vector <==

 The list of irreducible perturbations for this q vector is:
    1)    idir= 1    ipert=   9
    2)    idir= 2    ipert=   9
    3)    idir= 3    ipert=   9

 Perturbation wavevector (in red.coord.)   0.000000  0.000000  0.000000
 Perturbation : derivative vs k along direction   1

 dfpt_looppert : COMMENT -
  In a d/dk calculation, iscf is set to -3 automatically.
 The set of symmetries contains only one element for this perturbation.
 symkpt : not enough symmetry to change the number of k points.

[...]

 Initialisation of the first-order wave-functions :
  ireadwf=   0

--- !BeginCycle
iteration_state: {dtset: 1, }
solver: {iscf: 7, nstep: 2000, nline: 4, wfoptalg: 0, }
tolerances: {tolwfr: 1.00E-20, }
...

     iter   2DEtotal(Ha)        deltaE(Ha) residm    vres2
-ETOT  1  -79.003557932636     -7.900E+01 2.408E-01 0.000E+00
 ETOT  2  -79.199062697214     -1.955E-01 2.241E-02 0.000E+00
 ETOT  3  -79.200486419194     -1.424E-03 1.830E-04 0.000E+00
 ETOT  4  -79.200505748617     -1.933E-05 5.473E-05 0.000E+00
 ETOT  5  -79.200506079180     -3.306E-07 5.065E-07 0.000E+00
 ETOT  6  -79.200506085786     -6.606E-09 1.800E-07 0.000E+00
 ETOT  7  -79.200506085931     -1.457E-10 1.804E-09 0.000E+00
 ETOT  8  -79.200506085935     -3.439E-12 6.537E-10 0.000E+00
 ETOT  9  -79.200506085935     -4.263E-14 6.987E-12 0.000E+00
 ETOT 10  -79.200506085935     -7.105E-14 2.485E-12 0.000E+00
 ETOT 11  -79.200506085935      8.527E-14 2.807E-14 0.000E+00
 ETOT 12  -79.200506085935      0.000E+00 9.699E-15 0.000E+00
 ETOT 13  -79.200506085935      1.421E-14 1.153E-16 0.000E+00
 ETOT 14  -79.200506085935      0.000E+00 3.843E-17 0.000E+00
 ETOT 15  -79.200506085935      0.000E+00 4.811E-19 0.000E+00
 ETOT 16  -79.200506085935      0.000E+00 1.537E-19 0.000E+00
 ETOT 17  -79.200506085935      0.000E+00 9.511E-21 0.000E+00

 At SCF step   17   max residual=  9.51E-21 < tolwfr=  1.00E-20 =>converged.

 ----iterations are completed or convergence reached----

 dfpt_looppert: DFPT cycle converged with prtwf=-1. Will skip output of the 1st-order WFK file.
 dfpt_looppert : ek2=    1.5044604153E+02
          f-sum rule ratio=    1.0200890144E+00
 prteigrs : about to open file /scratch/users/j/a/jabreu/flow_simple_8atoms/flow/w299/t1/tmpdata/tmp_1WF1_EIG
 Expectation of eigenvalue derivatives (hartree) for nkpt=   2  k points:
  (in case of degenerate eigenvalues, averaged derivative)
 kpt#   1, nband= 60, wtk=  0.50000, kpt=  0.5000 -0.5000  0.0000 (reduced coord)
   0.00000    0.00000    0.00000    0.00000   -0.00000   -0.00000   -0.00000    0.00000
   0.00000   -0.00000    0.00000    0.00000   -0.00000    0.00000   -0.00000   -0.00000
  -0.00000   -0.00000   -0.00000    0.00000    0.00000   -0.00000    0.00000   -0.00000
  -0.00000    0.00000    0.00000   -0.00000   -0.00000   -0.00000    0.00000   -0.00000
  -0.00000    0.00000   -0.00000    0.00000    0.00000   -0.00000    0.00000    0.00000
   0.00000    0.00000    0.00000    0.00000   -0.00000    0.00000    0.00000    0.00000
   0.00000    0.00000   -0.00000   -0.00000    0.00000    0.00000   -0.00000   -0.00000
  -0.00000   -0.00000   -0.00000    0.05152
 prteigrs : prtvol=0 or 1, do not print more k-points.

 Eight components of 2nd-order total energy (hartree) are
 1,2,3: 0th-order hamiltonian combined with 1st-order wavefunctions
     kin0=   1.27948489E+02 eigvalue=  -3.45209734E+00  local=  -6.03445552E+01
 4,5,6: 1st-order hamiltonian combined with 1st and 0th-order wfs
     kin1=  -1.53468354E+02  Hartree=   0.00000000E+00     xc=   0.00000000E+00
 7,8,9: eventually, occupation + non-local contributions
    edocc=   1.30036795E+01     enl0=   2.04499064E+00   enl1=  -4.93265795E+00
 1-9 gives the relaxation energy (to be shifted if some occ is /=2.0)
   erelax=  -7.92005061E+01
  No Ewald or frozen-wf contrib.: the relaxation energy is the total one
 2DEtotal=   -0.7920050609E+02 Ha. Also 2DEtotal=   -0.215515537301E+04 eV
    (  non-var. 2DEtotal :   -7.9200506086E+01 Ha)

 Perturbation wavevector (in red.coord.)   0.000000  0.000000  0.000000
 Perturbation : derivative vs k along direction   2
 The set of symmetries contains only one element for this perturbation.
 symkpt : not enough symmetry to change the number of k points.

[...]

 Perturbation wavevector (in red.coord.)   0.000000  0.000000  0.000000
 Perturbation : derivative vs k along direction   3
 The set of symmetries contains only one element for this perturbation.
 symkpt : not enough symmetry to change the number of k points.

-inwffil : will read wavefunctions from disk file /scratch/users/j/a/jabreu/flow_simple_8atoms/flow/w299/t1/indata/in_WFK

 Initialisation of the first-order wave-functions :
  ireadwf=   0

--- !BeginCycle
iteration_state: {dtset: 1, }
solver: {iscf: 7, nstep: 2000, nline: 4, wfoptalg: 0, }
tolerances: {tolwfr: 1.00E-20, }
...

     iter   2DEtotal(Ha)        deltaE(Ha) residm    vres2
-ETOT  1  -45.079980213448     -4.508E+01 1.063E-01 0.000E+00
 ETOT  2  -45.212982809986     -1.330E-01 9.534E-03 0.000E+00
 ETOT  3  -45.213921962253     -9.392E-04 8.230E-05 0.000E+00
 ETOT  4  -45.213936927466     -1.497E-05 2.487E-05 0.000E+00
 ETOT  5  -45.213937246382     -3.189E-07 2.585E-07 0.000E+00
 ETOT  6  -45.213937254301     -7.919E-09 9.302E-08 0.000E+00
 ETOT  7  -45.213937254517     -2.166E-10 8.725E-10 0.000E+00
 ETOT  8  -45.213937254524     -6.366E-12 3.780E-10 0.000E+00
 ETOT  9  -45.213937254524     -1.421E-13 3.218E-12 0.000E+00
 ETOT 10  -45.213937254524     -4.263E-14 1.592E-12 0.000E+00
 ETOT 11  -45.213937254524      7.105E-15 1.408E-14 0.000E+00
 ETOT 12  -45.213937254524      1.421E-14 5.962E-15 0.000E+00
 ETOT 13  -45.213937254524      7.105E-15 6.282E-17 0.000E+00
 ETOT 14  -45.213937254524     -7.105E-15 1.787E-17 0.000E+00
 ETOT 15  -45.213937254524      0.000E+00 2.829E-19 0.000E+00
 ETOT 16  -45.213937254524      0.000E+00 7.976E-20 0.000E+00
 ETOT 17  -45.213937254524      0.000E+00 9.970E-21 0.000E+00

 At SCF step   17   max residual=  9.97E-21 < tolwfr=  1.00E-20 =>converged.

 ----iterations are completed or convergence reached----

 dfpt_looppert: DFPT cycle converged with prtwf=-1. Will skip output of the 1st-order WFK file.
 dfpt_looppert : ek2=    8.4928029314E+01
          f-sum rule ratio=    1.0354821864E+00
 prteigrs : about to open file /scratch/users/j/a/jabreu/flow_simple_8atoms/flow/w299/t1/tmpdata/tmp_1WF1_EIG
 Expectation of eigenvalue derivatives (hartree) for nkpt=   2  k points:
  (in case of degenerate eigenvalues, averaged derivative)
 kpt#   1, nband= 60, wtk=  0.50000, kpt=  0.5000 -0.5000  0.0000 (reduced coord)
   0.00000   -0.00000    0.00000   -0.00000    0.00000    0.00000    0.00000   -0.00000
  -0.00000   -0.00000    0.00000    0.00000    0.00000    0.00000   -0.00000   -0.00000
   0.00000   -0.00000    0.00000    0.00000    0.00000   -0.00000    0.00000    0.00000
  -0.00000   -0.00000    0.00000    0.00000   -0.00000    0.00000    0.00000    0.00000
  -0.00000    0.00000   -0.00000   -0.00000    0.00000    0.00000   -0.00000   -0.00000
   0.00000    0.00000    0.00000   -0.00000   -0.00000   -0.00000    0.00000    0.00000
  -0.00000   -0.00000    0.00000   -0.00000   -0.00000   -0.00000   -0.00000    0.00000
  -0.00000   -0.00000   -0.00000    0.00450
 prteigrs : prtvol=0 or 1, do not print more k-points.

 Eight components of 2nd-order total energy (hartree) are
 1,2,3: 0th-order hamiltonian combined with 1st-order wavefunctions
     kin0=   7.09979675E+01 eigvalue=  -1.94663804E+00  local=  -3.34740308E+01
 4,5,6: 1st-order hamiltonian combined with 1st and 0th-order wfs
     kin1=  -8.79414615E+01  Hartree=   0.00000000E+00     xc=   0.00000000E+00
 7,8,9: eventually, occupation + non-local contributions
    edocc=   8.66303080E+00     enl0=   9.73607806E-01   enl1=  -2.48641303E+00
 1-9 gives the relaxation energy (to be shifted if some occ is /=2.0)
   erelax=  -4.52139373E+01
  No Ewald or frozen-wf contrib.: the relaxation energy is the total one
 2DEtotal=   -0.4521393725E+02 Ha. Also 2DEtotal=   -0.123033380245E+04 eV
    (  non-var. 2DEtotal :   -4.5213937254E+01 Ha)

 CALCULATION OF EFFECTIVE MASSES
 NOTE : Additional infos (eff. mass eigenvalues, eigenvectors and, if degenerate, average mass) are available in stdout.

 K-point ( 0.500,-0.500, 0.000) | band =    51
 Effective mass tensor:
             -1.4656097584              0.0748099772             -0.2788176516
              0.0748099772             -0.8151262458              0.2179401362
             -0.2788176516              0.2179401362             -2.7542758670
 Effective mass tensor eigenvalues:
             -2.8378532336             -1.4092091097             -0.7879495278
 Angular average effective mass 1/(<1/m>)=  -1.2869384830
 Angular average effective mass for Frohlich model (<m**0.5>)**2=  -1.3887853467
 Effective masses along directions: (cart. coord. / red. coord. -> eff. mass)
    1:   1.000000  0.000000  0.000000 /   0.995933 -0.090099  0.000000 ->  -1.4338976763
    2:   0.000000  1.000000  0.000000 /   0.000000  1.000000  0.000000 ->  -0.7959454119
    3:   0.000000  0.000000  1.000000 /  -0.170122 -0.367099  0.914493 ->  -2.6500852178
    4:   0.577350  0.577350  0.577350 /   0.400311  0.312503  0.861448 ->  -1.2102062605
    5:   0.000000  0.707107  0.707107 /  -0.168951  0.382927  0.908198 ->  -1.0969681680
    6:   0.707107  0.000000  0.707107 /   0.388896 -0.385211  0.836883 ->  -2.1257467974
    7:   0.707107  0.707107  0.000000 /   0.648321  0.761367  0.000000 ->  -0.9775279769

--- !WARNING
src_file: m_efmas.F90
src_line: 0
message: |

    Band(s)    52,
    are not band extrema, but saddle points;
    the transport equivalent formalism breaks down in these conditions.
    The associated tensor(s) will therefore not be printed.
...

 K-point ( 0.000,-0.500, 0.500) | band =    52
 Effective mass tensor:
     *** SADDLE POINT: TRANSPORT EQV. EFF. MASS NOT DEFINED (see WARNING above) ***
 Angular average effective mass 1/(<1/m>)=   0.5322399494
 Angular average effective mass for Frohlich model (<m**0.5>)**2=   1.0671985218
 Effective masses along directions: (cart. coord. / red. coord. -> eff. mass)
    1:   1.000000  0.000000  0.000000 /   0.995933 -0.090099  0.000000 ->   3.1059220836
    2:   0.000000  1.000000  0.000000 /   0.000000  1.000000  0.000000 ->   0.5366568436
    3:   0.000000  0.000000  1.000000 /  -0.170122 -0.367099  0.914493 ->   0.2897541414
    4:   0.577350  0.577350  0.577350 /   0.400311  0.312503  0.861448 ->   0.2773395288
    5:   0.000000  0.707107  0.707107 /  -0.168951  0.382927  0.908198 ->   0.3279895176
    6:   0.707107  0.000000  0.707107 /   0.388896 -0.385211  0.836883 ->   0.4150420023
    7:   0.707107  0.707107  0.000000 /   0.648321  0.761367  0.000000 ->   0.3612014540

 END OF EFFECTIVE MASSES SECTION

 ---- first-order wavefunction calculations are completed ----

 Total localisation tensor (bohr^2) in cartesian coordinates
  WARNING : still subject to testing - especially symmetries.
      direction              matrix element
   alpha     beta       real part   imaginary part
     1        1       0.6634361950    0.0000000000
     1        2      -0.0519291058    0.0000000000
     1        3      -0.1632738846    0.0000000000
     2        1      -0.0519291058    0.0000000000
     2        2       0.7260301966    0.0000000000
     2        3      -0.3541011100    0.0000000000
     3        1      -0.1632738846    0.0000000000
     3        2      -0.3541011100    0.0000000000
     3        3       1.3029313102    0.0000000000

 respfn : d/dk was computed, but no 2DTE, so no DDB output.

== END DATASET(S) ==============================================================

 -outvars: echo values of variables after computation  --------
            acell      1.0000000000E+00  1.0000000000E+00  1.0000000000E+00 Bohr
              amu      1.12411000E+02  1.96966540E+02  1.59994000E+01
             ecut      5.10000000E+01 Hartree
           etotal     -4.5213937255E+01
            fcart      0.0000000000E+00  0.0000000000E+00  0.0000000000E+00
                       0.0000000000E+00  0.0000000000E+00  0.0000000000E+00
                       0.0000000000E+00  0.0000000000E+00  0.0000000000E+00
                       0.0000000000E+00  0.0000000000E+00  0.0000000000E+00
                       0.0000000000E+00  0.0000000000E+00  0.0000000000E+00
                       0.0000000000E+00  0.0000000000E+00  0.0000000000E+00
                       0.0000000000E+00  0.0000000000E+00  0.0000000000E+00
                       0.0000000000E+00  0.0000000000E+00  0.0000000000E+00
-          fftalg         512
           irdden           1
           irdwfk           1
              ixc     -116133
              kpt      5.00000000E-01 -5.00000000E-01  1.38777878E-17
                       0.00000000E+00 -5.00000000E-01  5.00000000E-01
           kptopt           0
P           mkmem           2
P          mkqmem           2
P          mk1mem           2
            natom           8
            nband          60
           nbdbuf           4
            ngfft          50      72      75
             nkpt           2
            nstep        2000
             nsym           2
           ntypat           3
              occ      2.000000  2.000000  2.000000  2.000000  2.000000  2.000000
                       2.000000  2.000000  2.000000  2.000000  2.000000  2.000000
                       2.000000  2.000000  2.000000  2.000000  2.000000  2.000000
                       2.000000  2.000000  2.000000  2.000000  2.000000  2.000000
                       2.000000  2.000000  2.000000  2.000000  2.000000  2.000000
                       2.000000  2.000000  2.000000  2.000000  2.000000  2.000000
                       2.000000  2.000000  2.000000  2.000000  2.000000  2.000000
                       2.000000  2.000000  2.000000  2.000000  2.000000  2.000000
                       2.000000  2.000000  2.000000  0.000000  0.000000  0.000000
                       0.000000  0.000000  0.000000  0.000000  0.000000  0.000000
        optdriver           1
            prtwf          -1
            rfdir           1       1       1
           rfelfd           2
            rprim      7.3352110892E+00  0.0000000000E+00 -2.0969851119E+00
                      -6.6359330770E-01  9.2778177509E+00 -4.5249985186E+00
                       0.0000000000E+00  0.0000000000E+00  1.1272387391E+01
          spgroup           2
           strten      0.0000000000E+00  0.0000000000E+00  0.0000000000E+00
                       0.0000000000E+00  0.0000000000E+00  0.0000000000E+00
           symrel      1  0  0   0  1  0   0  0  1      -1  0  0   0 -1  0   0  0 -1
           tolwfr      1.00000000E-20
            typat      1  1  2  2  3  3  3  3
           useylm           1
              wtk        0.50000    0.50000
           xangst      9.6389709272E-01  1.3319967498E+00  2.2338144226E+00
                       2.5665709817E+00  3.5776129494E+00  2.2707325836E-01
                       1.9408132643E+00  0.0000000000E+00 -5.5483836399E-01
                      -1.7557922710E-01  2.4548048496E+00 -1.1972630425E+00
                       2.5893124612E+00  7.9348130037E-01  3.6848095021E+00
                       9.4115561316E-01  4.1161283989E+00 -1.2239218211E+00
                       2.6888633755E+00  1.3734780422E+00  6.8197521715E-01
                       8.4160469886E-01  3.5361316570E+00  1.7789124639E+00
            xcart      1.8215015255E+00  2.5171090671E+00  4.2212974905E+00
                       4.8501162560E+00  6.7607086838E+00  4.2910627040E-01
                       3.6676055446E+00  0.0000000000E+00 -1.0484925560E+00
                      -3.3179665385E-01  4.6389088755E+00 -2.2624992593E+00
                       4.8930914242E+00  1.4994623493E+00  6.9632808108E+00
                       1.7785263573E+00  7.7783554016E+00 -2.3128770499E+00
                       5.0812153885E+00  2.5954973493E+00  1.2887463898E+00
                       1.5904023930E+00  6.6823204016E+00  3.3616573711E+00
             xred      2.7286700000E-01  2.7130400000E-01  5.3415000000E-01
                       7.2713300000E-01  7.2869600000E-01  4.6585000000E-01
                       5.0000000000E-01  0.0000000000E+00 -1.3877787808E-17
                      -6.9388939039E-18  5.0000000000E-01  2.9490299092E-17
                       6.8169000000E-01  1.6161800000E-01  8.0942000000E-01
                       3.1831000000E-01  8.3838200000E-01  1.9058000000E-01
                       7.1802400000E-01  2.7975300000E-01  3.6020000000E-01
                       2.8197600000E-01  7.2024700000E-01  6.3980000000E-01
            znucl       48.00000   79.00000    8.00000

- Timing analysis has been suppressed with timopt=0

 Suggested references for the acknowledgment of ABINIT usage.

 Calculation completed.
.Delivered  15 WARNINGs and   9 COMMENTs to log file.