.Version 9.7.2 of ABINIT

 ABINIT is a project of the Universite Catholique de Louvain,
 Corning Inc. and other collaborators, see ~abinit/doc/developers/contributors.txt .
 acknowledgments of the ABINIT effort.

.Starting date : Wed  1 Dec 2021.
- ( at 21h29 )

- input  file    -> /scratch/users/j/a/jabreu/flow_simple_remain_atoms/flow/w207/t1/run.abi
- output file    -> /scratch/users/j/a/jabreu/flow_simple_remain_atoms/flow/w207/t1/run.abo
- root for input  files -> /scratch/users/j/a/jabreu/flow_simple_remain_atoms/flow/w207/t1/indata/in
- root for output files -> /scratch/users/j/a/jabreu/flow_simple_remain_atoms/flow/w207/t1/outdata/out

 Symmetries : space group P-3 m 1 (#164); Bravais hP (primitive hexag.)
     intxc =       0      iscf =       7    lmnmax =      18     lnmax =       6
     mgfft =      64  mpssoang =       3    mqgrid =    3183     natom =       5
  nloc_mem =       1    nspden =       1   nspinor =       1    nsppol =       1
      nsym =      12    n1xccc =    2501    ntypat =       3    occopt =       1
   xclevel =       2
-    mband =          21        mffmem =           1         mkmem =           2
-   mkqmem =           2        mk1mem =           2           mpw =        5008
      nfft =      102400          nkpt =           2
  Rough estimation (10% accuracy) of disk space for files :

------------- Echo of variables that govern the present computation ------------
-
- outvars: echo of selected default values
-   iomode0 =  0 , fftalg0 =512 , wfoptalg0 =  0
-
- outvars: echo of global parameters not present in the input file
-  max_nthreads =    0
-
 -outvars: echo values of preprocessed input variables --------
            acell      1.0000000000E+00  1.0000000000E+00  1.0000000000E+00 Bohr
              amu      2.43050000E+01  2.69815390E+01  1.20110000E+01
             ecut      4.20000000E+01 Hartree
-          fftalg         512
           irdden           1
           irdwfk           1
              ixc     -116133
              kpt      7.89473684E-02  7.89473684E-02  0.00000000E+00
                       5.00000000E-01  0.00000000E+00  3.23529412E-01
           kptopt           0
P           mkmem           2
P          mkqmem           2
P          mk1mem           2
            natom           5
            nband          21
           nbdbuf           4
            ngfft          40      40      64
             nkpt           2
            nstep        2000
             nsym          12
           ntypat           3
              occ      2.000000  2.000000  2.000000  2.000000  2.000000  2.000000
                       2.000000  2.000000  2.000000  2.000000  2.000000  2.000000
                       0.000000  0.000000  0.000000  0.000000  0.000000  0.000000
                       0.000000  0.000000  0.000000
        optdriver           1
            prtwf          -1
            rfdir           1       1       1
           rfelfd           2
            rprim      6.3830875941E+00  0.0000000000E+00  0.0000000000E+00
                      -3.1915437971E+00  5.5279160111E+00  0.0000000000E+00
                       0.0000000000E+00  0.0000000000E+00  1.0909834761E+01
          spgroup         164
           symrel      1  0  0   0  1  0   0  0  1      -1  0  0   0 -1  0   0  0 -1
                      -1  0  0   1  1  0   0  0  1       1  0  0  -1 -1  0   0  0 -1
                       0  1  0  -1 -1  0   0  0  1       0 -1  0   1  1  0   0  0 -1
                       0 -1  0  -1  0  0   0  0  1       0  1  0   1  0  0   0  0 -1
                      -1 -1  0   1  0  0   0  0  1       1  1  0  -1  0  0   0  0 -1
                       1  1  0   0 -1  0   0  0  1      -1 -1  0   0  1  0   0  0 -1
           tolwfr      1.00000000E-20
            typat      1  2  2  3  3
           useylm           1
              wtk        0.50000    0.50000
           xangst      0.0000000000E+00  0.0000000000E+00  0.0000000000E+00
                       1.6888922376E+00  9.7508238802E-01  3.7513216797E+00
                      -1.7639711750E-11  1.9501647760E+00  2.0219142250E+00
                      -1.7639711750E-11  1.9501647760E+00  4.2172449102E+00
                       1.6888922376E+00  9.7508238802E-01  1.5559909946E+00
            xcart      0.0000000000E+00  0.0000000000E+00  0.0000000000E+00
                       3.1915437970E+00  1.8426386704E+00  7.0889706110E+00
                      -3.3334224270E-11  3.6852773407E+00  3.8208641495E+00
                      -3.3334224270E-11  3.6852773407E+00  7.9694379155E+00
                       3.1915437970E+00  1.8426386704E+00  2.9403968450E+00
             xred      0.0000000000E+00  0.0000000000E+00  0.0000000000E+00
                       6.6666666667E-01  3.3333333333E-01  6.4977800000E-01
                       3.3333333333E-01  6.6666666667E-01  3.5022200000E-01
                       3.3333333333E-01  6.6666666667E-01  7.3048200000E-01
                       6.6666666667E-01  3.3333333333E-01  2.6951800000E-01
            znucl       12.00000   13.00000    6.00000

 chkinp: Checking input parameters for consistency.

== DATASET  1 ==================================================================
-   mpi_nproc: 1, omp_nthreads: -1 (-1 if OMP is not activated)

--- !DatasetInfo
iteration_state: {dtset: 1, }
dimensions: {natom: 5, nkpt: 2, mband: 21, nsppol: 1, nspinor: 1, nspden: 1, mpw: 5008, }
cutoff_energies: {ecut:  42.0, pawecutdg:  -1.0, }
electrons: {nelect:   2.40000000E+01, charge:   0.00000000E+00, occopt:   1.00000000E+00, tsmear:   1.00000000E-02, }
meta: {optdriver: 1, rfelfd: 2, }
...

 Real(R)+Recip(G) space primitive vectors, cartesian coordinates (Bohr,Bohr^-1):
 R(1)=  6.3830876  0.0000000  0.0000000  G(1)=  0.1566640  0.0904500  0.0000000
 R(2)= -3.1915438  5.5279160  0.0000000  G(2)=  0.0000000  0.1809000  0.0000000
 R(3)=  0.0000000  0.0000000 10.9098348  G(3)=  0.0000000  0.0000000  0.0916604
 Unit cell volume ucvol=  3.8495540E+02 bohr^3
 Angles (23,13,12)=  9.00000000E+01  9.00000000E+01  1.20000000E+02 degrees

 getcut: wavevector=  0.0000  0.0000  0.0000  ngfft=  40  40  64
         ecut(hartree)=     42.000   => boxcut(ratio)=   2.01081

--- Pseudopotential description ------------------------------------------------
- pspini: atom type   1  psp file is /scratch/users/j/a/jabreu/pseudos/PBEsol/Mg.psp8
- pspatm: opening atomic psp file    /scratch/users/j/a/jabreu/pseudos/PBEsol/Mg.psp8
- Mg    ONCVPSP-3.3.0  r_core=   1.16056   1.56380
- 12.00000  10.00000    180112                znucl, zion, pspdat
    8 -116133    1    4       400   0.00000   pspcod,pspxc,lmax,lloc,mmax,r2well
    3.99000000000000    0.00000000000000    0.00000000000000   rchrg,fchrg,qchrg
     nproj     2     2
     extension_switch     1
  pspatm : epsatm=    9.18164846
         --- l  ekb(1:nproj) -->
             0    2.230603   -0.826587
             1   -6.503151   -2.501445
 pspatm: atomic psp has been read  and splines computed

- pspini: atom type   2  psp file is /scratch/users/j/a/jabreu/pseudos/PBEsol/Al.psp8
- pspatm: opening atomic psp file    /scratch/users/j/a/jabreu/pseudos/PBEsol/Al.psp8
- Al    ONCVPSP-3.3.0  r_core=   1.76802   1.76802   1.70587
- 13.00000   3.00000    180112                znucl, zion, pspdat
    8 -116133    2    4       600   0.00000   pspcod,pspxc,lmax,lloc,mmax,r2well
    5.99000000000000    5.00000000000000    0.00000000000000   rchrg,fchrg,qchrg
     nproj     2     2     2
     extension_switch     1
  pspatm : epsatm=    0.68509324
         --- l  ekb(1:nproj) -->
             0    5.834965    0.726662
             1    6.225605    0.924840
             2   -2.432733   -0.548689
 pspatm: atomic psp has been read  and splines computed

- pspini: atom type   3  psp file is /scratch/users/j/a/jabreu/pseudos/PBEsol/C.psp8
- pspatm: opening atomic psp file    /scratch/users/j/a/jabreu/pseudos/PBEsol/C.psp8
- C     ONCVPSP-3.3.0  r_core=   1.20440   1.26326
-  6.00000   4.00000    180112                znucl, zion, pspdat
    8 -116133    1    4       600   0.00000   pspcod,pspxc,lmax,lloc,mmax,r2well
    5.99000000000000    4.00000000000000    0.00000000000000   rchrg,fchrg,qchrg
     nproj     2     2
     extension_switch     1
  pspatm : epsatm=    4.34909529
         --- l  ekb(1:nproj) -->
             0    6.468939    0.390031
             1   -4.179695   -0.878453
 pspatm: atomic psp has been read  and splines computed

   4.62000612E+02                                ecore*ucvol(ha*bohr**3)

 ==>  initialize data related to q vector <==

 The list of irreducible perturbations for this q vector is:
    1)    idir= 1    ipert=   6
    2)    idir= 2    ipert=   6
    3)    idir= 3    ipert=   6

 Perturbation wavevector (in red.coord.)   0.000000  0.000000  0.000000
 Perturbation : derivative vs k along direction   1

 dfpt_looppert : COMMENT -
  In a d/dk calculation, iscf is set to -3 automatically.
 The set of symmetries contains only one element for this perturbation.
 symkpt : not enough symmetry to change the number of k points.

 Initialisation of the first-order wave-functions :
  ireadwf=   0

--- !BeginCycle
iteration_state: {dtset: 1, }
solver: {iscf: 7, nstep: 2000, nline: 4, wfoptalg: 0, }
tolerances: {tolwfr: 1.00E-20, }
...

     iter   2DEtotal(Ha)        deltaE(Ha) residm    vres2
-ETOT  1  -34.636145150045     -3.464E+01 1.800E-01 0.000E+00
 ETOT  2  -34.644526518192     -8.381E-03 4.895E-02 0.000E+00
 ETOT  3  -34.644544772731     -1.825E-05 1.412E-03 0.000E+00
 ETOT  4  -34.644544839985     -6.725E-08 3.781E-04 0.000E+00
 ETOT  5  -34.644544840285     -2.998E-10 1.495E-05 0.000E+00
 ETOT  6  -34.644544840286     -1.457E-12 4.367E-06 0.000E+00
 ETOT  7  -34.644544840286      1.421E-14 1.775E-07 0.000E+00
 ETOT  8  -34.644544840286     -4.974E-14 5.609E-08 0.000E+00
 ETOT  9  -34.644544840286      2.132E-14 2.312E-09 0.000E+00
 ETOT 10  -34.644544840286      0.000E+00 7.526E-10 0.000E+00
 ETOT 11  -34.644544840286      0.000E+00 3.049E-11 0.000E+00
 ETOT 12  -34.644544840286      0.000E+00 1.033E-11 0.000E+00
 ETOT 13  -34.644544840286      0.000E+00 4.164E-13 0.000E+00
 ETOT 14  -34.644544840286     -7.105E-15 1.443E-13 0.000E+00
 ETOT 15  -34.644544840286      7.105E-15 5.743E-15 0.000E+00
 ETOT 16  -34.644544840286      0.000E+00 2.043E-15 0.000E+00
 ETOT 17  -34.644544840286      7.105E-15 8.058E-17 0.000E+00
 ETOT 18  -34.644544840286     -7.105E-15 2.923E-17 0.000E+00
 ETOT 19  -34.644544840286      0.000E+00 1.142E-18 0.000E+00
 ETOT 20  -34.644544840286      0.000E+00 4.220E-19 0.000E+00
 ETOT 21  -34.644544840286      0.000E+00 1.637E-20 0.000E+00
 ETOT 22  -34.644544840286      7.105E-15 9.029E-21 0.000E+00

 At SCF step   22   max residual=  9.03E-21 < tolwfr=  1.00E-20 =>converged.

 ----iterations are completed or convergence reached----

 dfpt_looppert: DFPT cycle converged with prtwf=-1. Will skip output of the 1st-order WFK file.
 dfpt_looppert : ek2=    6.2012337536E+01
          f-sum rule ratio=    1.0248567255E+00
 prteigrs : about to open file /scratch/users/j/a/jabreu/flow_simple_remain_atoms/flow/w207/t1/tmpdata/tmp_1WF1_EIG
 Expectation of eigenvalue derivatives (hartree) for nkpt=   2  k points:
  (in case of degenerate eigenvalues, averaged derivative)
 kpt#   1, nband= 21, wtk=  0.50000, kpt=  0.0789  0.0789  0.0000 (reduced coord)
   0.00007    0.00016   -0.00102   -0.00030    0.11996    0.08602    0.12784   -0.43379
  -0.33757   -0.22880   -0.11167    0.00249    0.22674    0.08274   -0.26205    0.01964
   0.06370   -0.41861   -0.20586    0.23838    0.23464
 prteigrs : prtvol=0 or 1, do not print more k-points.

 Eight components of 2nd-order total energy (hartree) are
 1,2,3: 0th-order hamiltonian combined with 1st-order wavefunctions
     kin0=   2.67915440E+01 eigvalue=   2.52249464E+00  local=  -1.00706671E+01
 4,5,6: 1st-order hamiltonian combined with 1st and 0th-order wfs
     kin1=  -6.35537612E+01  Hartree=   0.00000000E+00     xc=   0.00000000E+00
 7,8,9: eventually, occupation + non-local contributions
    edocc=   1.57478391E+01     enl0=  -3.46665809E-01   enl1=  -5.73532850E+00
 1-9 gives the relaxation energy (to be shifted if some occ is /=2.0)
   erelax=  -3.46445448E+01
  No Ewald or frozen-wf contrib.: the relaxation energy is the total one
 2DEtotal=   -0.3464454484E+02 Ha. Also 2DEtotal=   -0.942726008304E+03 eV
    (  non-var. 2DEtotal :   -3.4644544840E+01 Ha)

 Perturbation wavevector (in red.coord.)   0.000000  0.000000  0.000000
 Perturbation : derivative vs k along direction   2
 The set of symmetries contains only one element for this perturbation.
 symkpt : not enough symmetry to change the number of k points.

[...]

 Perturbation wavevector (in red.coord.)   0.000000  0.000000  0.000000
 Perturbation : derivative vs k along direction   3
 The set of symmetries contains only one element for this perturbation.
 symkpt : not enough symmetry to change the number of k points.

 Initialisation of the first-order wave-functions :
  ireadwf=   0

--- !BeginCycle
iteration_state: {dtset: 1, }
solver: {iscf: 7, nstep: 2000, nline: 4, wfoptalg: 0, }
tolerances: {tolwfr: 1.00E-20, }
...

     iter   2DEtotal(Ha)        deltaE(Ha) residm    vres2
-ETOT  1  -10.217353295456     -1.022E+01 3.499E-02 0.000E+00
 ETOT  2  -10.219409732174     -2.056E-03 5.646E-03 0.000E+00
 ETOT  3  -10.219413410983     -3.679E-06 2.041E-04 0.000E+00
 ETOT  4  -10.219413426584     -1.560E-08 2.462E-05 0.000E+00
 ETOT  5  -10.219413426674     -9.017E-11 1.452E-06 0.000E+00
 ETOT  6  -10.219413426675     -5.596E-13 2.839E-07 0.000E+00
 ETOT  7  -10.219413426675     -1.243E-14 1.858E-08 0.000E+00
 ETOT  8  -10.219413426675      1.421E-14 3.230E-09 0.000E+00
 ETOT  9  -10.219413426675      1.776E-15 2.312E-10 0.000E+00
 ETOT 10  -10.219413426675      1.776E-15 4.488E-11 0.000E+00
 ETOT 11  -10.219413426675      1.776E-15 3.058E-12 0.000E+00
 ETOT 12  -10.219413426675      0.000E+00 7.558E-13 0.000E+00
 ETOT 13  -10.219413426675     -3.553E-15 4.297E-14 0.000E+00
 ETOT 14  -10.219413426675      0.000E+00 1.291E-14 0.000E+00
 ETOT 15  -10.219413426675      0.000E+00 6.145E-16 0.000E+00
 ETOT 16  -10.219413426675      0.000E+00 1.938E-16 0.000E+00
 ETOT 17  -10.219413426675      0.000E+00 9.210E-18 0.000E+00
 ETOT 18  -10.219413426675      0.000E+00 2.973E-18 0.000E+00
 ETOT 19  -10.219413426675      5.329E-15 1.393E-19 0.000E+00
 ETOT 20  -10.219413426675     -5.329E-15 4.582E-20 0.000E+00
 ETOT 21  -10.219413426675      0.000E+00 9.115E-21 0.000E+00

 At SCF step   21   max residual=  9.12E-21 < tolwfr=  1.00E-20 =>converged.

 ----iterations are completed or convergence reached----

 dfpt_looppert: DFPT cycle converged with prtwf=-1. Will skip output of the 1st-order WFK file.
 dfpt_looppert : ek2=    1.5920790531E+01
          f-sum rule ratio=    1.2225114223E+00
 prteigrs : about to open file /scratch/users/j/a/jabreu/flow_simple_remain_atoms/flow/w207/t1/tmpdata/tmp_1WF1_EIG
 Expectation of eigenvalue derivatives (hartree) for nkpt=   2  k points:
  (in case of degenerate eigenvalues, averaged derivative)
 kpt#   1, nband= 21, wtk=  0.50000, kpt=  0.0789  0.0789  0.0000 (reduced coord)
  -0.00000    0.00000   -0.00000   -0.00000   -0.00000   -0.00000    0.00000   -0.00000
  -0.00000   -0.00000   -0.00000   -0.00000    0.00000   -0.00000   -0.00000    0.00000
  -0.00000   -0.00000    0.00000   -0.00000    0.00000
 prteigrs : prtvol=0 or 1, do not print more k-points.

 Eight components of 2nd-order total energy (hartree) are
 1,2,3: 0th-order hamiltonian combined with 1st-order wavefunctions
     kin0=   7.04237791E+00 eigvalue=   6.16175682E-01  local=  -2.61290382E+00
 4,5,6: 1st-order hamiltonian combined with 1st and 0th-order wfs
     kin1=  -1.94633483E+01  Hartree=   0.00000000E+00     xc=   0.00000000E+00
 7,8,9: eventually, occupation + non-local contributions
    edocc=   5.33035726E+00     enl0=  -1.56593608E-01   enl1=  -9.75478577E-01
 1-9 gives the relaxation energy (to be shifted if some occ is /=2.0)
   erelax=  -1.02194134E+01
  No Ewald or frozen-wf contrib.: the relaxation energy is the total one
 2DEtotal=   -0.1021941343E+02 Ha. Also 2DEtotal=   -0.278084381577E+03 eV
    (  non-var. 2DEtotal :   -1.0219413427E+01 Ha)

 CALCULATION OF EFFECTIVE MASSES
 NOTE : Additional infos (eff. mass eigenvalues, eigenvectors and, if degenerate, average mass) are available in stdout.

 K-point ( 0.079, 0.079, 0.000) | band =    12
 Effective mass tensor:
             -4.6259748486              2.1127916322              0.7503364371
              2.1127916322             -2.1863187361             -0.4332051418
              0.7503364371             -0.4332051418             -0.4031763018
 Effective mass tensor eigenvalues:
             -5.9803882345             -0.9665015378             -0.2685801142
 Angular average effective mass 1/(<1/m>)=  -0.6091176913
 Angular average effective mass for Frohlich model (<m**0.5>)**2=  -0.8559731943
 Effective masses along directions: (cart. coord. / red. coord. -> eff. mass)
    1:   1.000000  0.000000  0.000000 /   0.894427 -0.447214  0.000000 ->  -2.2375267009
    2:   0.000000  1.000000  0.000000 /   0.000000  1.000000  0.000000 ->  -1.1922533729
    3:   0.000000  0.000000  1.000000 /   0.000000  0.000000  1.000000 ->  -0.2747640255
    4:   0.577350  0.577350  0.577350 /   0.496581  0.181761  0.848746 ->  -0.5001083298
    5:   0.000000  0.707107  0.707107 /   0.000000  0.451982  0.892027 ->  -0.5077656070
    6:   0.707107  0.000000  0.707107 /   0.489626 -0.244813  0.836859 ->  -0.3983506329
    7:   0.707107  0.707107  0.000000 /   0.939071  0.343724  0.000000 ->  -1.0181592888

 K-point ( 0.500, 0.000, 0.324) | band =    13
 Effective mass tensor:
              0.4569996921              0.1146563253              0.0310974205
              0.1146563253              0.3246062982              0.0179545754
              0.0310974205              0.0179545754              0.4903020220
 Effective mass tensor eigenvalues:
              0.2584093562              0.4672533762              0.5462452799
 Angular average effective mass 1/(<1/m>)=   0.3826201283
 Angular average effective mass for Frohlich model (<m**0.5>)**2=   0.3956792034
 Effective masses along directions: (cart. coord. / red. coord. -> eff. mass)
    1:   1.000000  0.000000  0.000000 /   0.894427 -0.447214  0.000000 ->   0.4152487210
    2:   0.000000  1.000000  0.000000 /   0.000000  1.000000  0.000000 ->   0.2956291169
    3:   0.000000  0.000000  1.000000 /   0.000000  0.000000  1.000000 ->   0.4878375254
    4:   0.577350  0.577350  0.577350 /   0.496581  0.181761  0.848746 ->   0.5200608771
    5:   0.000000  0.707107  0.707107 /   0.000000  0.451982  0.892027 ->   0.3779442131
    6:   0.707107  0.000000  0.707107 /   0.489626 -0.244813  0.836859 ->   0.4745653376
    7:   0.707107  0.707107  0.000000 /   0.939071  0.343724  0.000000 ->   0.4874409428

 END OF EFFECTIVE MASSES SECTION

 ---- first-order wavefunction calculations are completed ----

 Total localisation tensor (bohr^2) in cartesian coordinates
  WARNING : still subject to testing - especially symmetries.
      direction              matrix element
   alpha     beta       real part   imaginary part
     1        1       2.1294892652    0.0000000000
     1        2      -1.0716815796    0.0000000000
     1        3       0.0000000000    0.0000000000
     2        1      -1.0716815796    0.0000000000
     2        2       1.8562069454    0.0000000000
     2        3       0.0000000000    0.0000000000
     3        1       0.0000000000    0.0000000000
     3        2       0.0000000000    0.0000000000
     3        3       1.8790974875    0.0000000000

 respfn : d/dk was computed, but no 2DTE, so no DDB output.

== END DATASET(S) ==============================================================

 -outvars: echo values of variables after computation  --------
            acell      1.0000000000E+00  1.0000000000E+00  1.0000000000E+00 Bohr
              amu      2.43050000E+01  2.69815390E+01  1.20110000E+01
             ecut      4.20000000E+01 Hartree
           etotal     -1.0219413427E+01
            fcart      0.0000000000E+00  0.0000000000E+00  0.0000000000E+00
                       0.0000000000E+00  0.0000000000E+00  0.0000000000E+00
                       0.0000000000E+00  0.0000000000E+00  0.0000000000E+00
                       0.0000000000E+00  0.0000000000E+00  0.0000000000E+00
                       0.0000000000E+00  0.0000000000E+00  0.0000000000E+00
-          fftalg         512
           irdden           1
           irdwfk           1
              ixc     -116133
              kpt      7.89473684E-02  7.89473684E-02  0.00000000E+00
                       5.00000000E-01  0.00000000E+00  3.23529412E-01
           kptopt           0
P           mkmem           2
P          mkqmem           2
P          mk1mem           2
            natom           5
            nband          21
           nbdbuf           4
            ngfft          40      40      64
             nkpt           2
            nstep        2000
             nsym          12
           ntypat           3
              occ      2.000000  2.000000  2.000000  2.000000  2.000000  2.000000
                       2.000000  2.000000  2.000000  2.000000  2.000000  2.000000
                       0.000000  0.000000  0.000000  0.000000  0.000000  0.000000
                       0.000000  0.000000  0.000000
        optdriver           1
            prtwf          -1
            rfdir           1       1       1
           rfelfd           2
            rprim      6.3830875941E+00  0.0000000000E+00  0.0000000000E+00
                      -3.1915437971E+00  5.5279160111E+00  0.0000000000E+00
                       0.0000000000E+00  0.0000000000E+00  1.0909834761E+01
          spgroup         164
           strten      0.0000000000E+00  0.0000000000E+00  0.0000000000E+00
                       0.0000000000E+00  0.0000000000E+00  0.0000000000E+00
           symrel      1  0  0   0  1  0   0  0  1      -1  0  0   0 -1  0   0  0 -1
                      -1  0  0   1  1  0   0  0  1       1  0  0  -1 -1  0   0  0 -1
                       0  1  0  -1 -1  0   0  0  1       0 -1  0   1  1  0   0  0 -1
                       0 -1  0  -1  0  0   0  0  1       0  1  0   1  0  0   0  0 -1
                      -1 -1  0   1  0  0   0  0  1       1  1  0  -1  0  0   0  0 -1
                       1  1  0   0 -1  0   0  0  1      -1 -1  0   0  1  0   0  0 -1
           tolwfr      1.00000000E-20
            typat      1  2  2  3  3
           useylm           1
              wtk        0.50000    0.50000
           xangst      0.0000000000E+00  0.0000000000E+00  0.0000000000E+00
                       1.6888922376E+00  9.7508238802E-01  3.7513216797E+00
                      -1.7639711750E-11  1.9501647760E+00  2.0219142250E+00
                      -1.7639711750E-11  1.9501647760E+00  4.2172449102E+00
                       1.6888922376E+00  9.7508238802E-01  1.5559909946E+00
            xcart      0.0000000000E+00  0.0000000000E+00  0.0000000000E+00
                       3.1915437970E+00  1.8426386704E+00  7.0889706110E+00
                      -3.3334224270E-11  3.6852773407E+00  3.8208641495E+00
                      -3.3334224270E-11  3.6852773407E+00  7.9694379155E+00
                       3.1915437970E+00  1.8426386704E+00  2.9403968450E+00
             xred      0.0000000000E+00  0.0000000000E+00  0.0000000000E+00
                       6.6666666667E-01  3.3333333333E-01  6.4977800000E-01
                       3.3333333333E-01  6.6666666667E-01  3.5022200000E-01
                       3.3333333333E-01  6.6666666667E-01  7.3048200000E-01
                       6.6666666667E-01  3.3333333333E-01  2.6951800000E-01
            znucl       12.00000   13.00000    6.00000

- Timing analysis has been suppressed with timopt=0

 Suggested references for the acknowledgment of ABINIT usage.

 Calculation completed.
.Delivered   2 WARNINGs and   5 COMMENTs to log file.