.Version 9.5.1 of ABINIT

 ABINIT is a project of the Universite Catholique de Louvain,
 Corning Inc. and other collaborators, see ~abinit/doc/developers/contributors.txt .
 acknowledgments of the ABINIT effort.

.Starting date : Tue 27 Apr 2021.
- ( at 18h44 )

- input  file    -> /scratch/users/j/a/jabreu/flow_simple_4atoms/flow/w247/t1/run.abi
- output file    -> /scratch/users/j/a/jabreu/flow_simple_4atoms/flow/w247/t1/run.abo
- root for input  files -> /scratch/users/j/a/jabreu/flow_simple_4atoms/flow/w247/t1/indata/in
- root for output files -> /scratch/users/j/a/jabreu/flow_simple_4atoms/flow/w247/t1/outdata/out

 Symmetries : space group P3 m 1 (#156); Bravais hP (primitive hexag.)
     intxc =       0      iscf =       7    lmnmax =      18     lnmax =       6
     mgfft =      54  mpssoang =       3    mqgrid =    3001     natom =       4
  nloc_mem =       1    nspden =       1   nspinor =       1    nsppol =       1
      nsym =       6    n1xccc =    2501    ntypat =       4    occopt =       1
   xclevel =       2
-    mband =          23        mffmem =           1         mkmem =           2
-   mkqmem =           2        mk1mem =           2           mpw =        6338
      nfft =      124416          nkpt =           2
  Rough estimation (10% accuracy) of disk space for files :

------------- Echo of variables that govern the present computation ------------
-
- outvars: echo of selected default values
-   iomode0 =  0 , fftalg0 =512 , wfoptalg0 =  0
-
- outvars: echo of global parameters not present in the input file
-  max_nthreads =    0
-
 -outvars: echo values of preprocessed input variables --------
            acell      1.0000000000E+00  1.0000000000E+00  1.0000000000E+00 Bohr
              amu      8.76200000E+01  2.69815390E+01  7.26100000E+01
                       1.00794000E+00
             ecut      4.10000000E+01 Hartree
-          fftalg         512
           irdden           1
           irdwfk           1
           istwfk        1    0
              ixc     -116133
              kpt      0.00000000E+00  0.00000000E+00  5.00000000E-01
                       5.00000000E-01 -2.77555756E-17  1.50000000E-01
           kptopt           0
P           mkmem           2
P          mkqmem           2
P          mk1mem           2
            natom           4
            nband          23
           nbdbuf           4
            ngfft          48      48      54
             nkpt           2
            nstep         100
             nsym           6
           ntypat           4
              occ      2.000000  2.000000  2.000000  2.000000  2.000000  2.000000
                       2.000000  2.000000  2.000000  2.000000  2.000000  2.000000
                       2.000000  2.000000  0.000000  0.000000  0.000000  0.000000
                       0.000000  0.000000  0.000000  0.000000  0.000000
        optdriver           1
            prtwf          -1
            rfdir           1       1       1
           rfelfd           2
            rprim      7.9939071503E+00  0.0000000000E+00  0.0000000000E+00
                      -3.9969535751E+00  6.9229266676E+00  0.0000000000E+00
                       0.0000000000E+00  0.0000000000E+00  9.1377238671E+00
          spgroup         156
           symrel      1  0  0   0  1  0   0  0  1      -1  0  0   1  1  0   0  0  1
                       0  1  0  -1 -1  0   0  0  1       0 -1  0  -1  0  0   0  0  1
                      -1 -1  0   1  0  0   0  0  1       1  1  0   0 -1  0   0  0  1
            tnons      0.0000000  0.0000000  0.0000000     0.0000000  0.0000000  0.0000000
                       0.0000000 -0.0000000  0.0000000     0.0000000  0.0000000  0.0000000
                       0.0000000  0.0000000  0.0000000     0.0000000 -0.0000000  0.0000000
           tolwfr      1.00000000E-20
            typat      1  2  3  4
           useylm           1
              wtk        0.50000    0.50000
           xangst      2.1150967360E+00  1.2211516696E+00  2.5879463318E-02
                       2.2914893140E-10  2.4423033394E+00  2.2350146672E+00
                       2.1150969108E-10 -1.2211517708E-10  2.7194905994E+00
                       2.2914893140E-10  2.4423033394E+00  4.7982420497E-01
            xcart      3.9969535756E+00  2.3076422223E+00  4.8905098137E-02
                       4.3302872399E-10  4.6152844448E+00  4.2235656241E+00
                       3.9969539058E-10 -2.3076424135E-10  5.1390924538E+00
                       4.3302872399E-10  4.6152844448E+00  9.0673633933E-01
             xred      6.6666666670E-01  3.3333333330E-01  5.3520000000E-03
                       3.3333333337E-01  6.6666666663E-01  4.6221200000E-01
                       3.3333336091E-11 -3.3333336091E-11  5.6240400000E-01
                       3.3333333337E-01  6.6666666663E-01  9.9230000000E-02
            znucl       38.00000   13.00000   32.00000    1.00000

 chkinp: Checking input parameters for consistency.

== DATASET  1 ==================================================================
-   mpi_nproc: 1, omp_nthreads: -1 (-1 if OMP is not activated)

--- !DatasetInfo
iteration_state: {dtset: 1, }
dimensions: {natom: 4, nkpt: 2, mband: 23, nsppol: 1, nspinor: 1, nspden: 1, mpw: 6338, }
cutoff_energies: {ecut:  41.0, pawecutdg:  -1.0, }
electrons: {nelect:   2.80000000E+01, charge:   0.00000000E+00, occopt:   1.00000000E+00, tsmear:   1.00000000E-02, }
meta: {optdriver: 1, rfelfd: 2, }
...

 Real(R)+Recip(G) space primitive vectors, cartesian coordinates (Bohr,Bohr^-1):
 R(1)=  7.9939072  0.0000000  0.0000000  G(1)=  0.1250953  0.0722238  0.0000000
 R(2)= -3.9969536  6.9229267  0.0000000  G(2)=  0.0000000  0.1444476  0.0000000
 R(3)=  0.0000000  0.0000000  9.1377239  G(3)=  0.0000000  0.0000000  0.1094364
 Unit cell volume ucvol=  5.0569291E+02 bohr^3
 Angles (23,13,12)=  9.00000000E+01  9.00000000E+01  1.20000000E+02 degrees

 getcut: wavevector=  0.0000  0.0000  0.0000  ngfft=  48  48  54
         ecut(hartree)=     41.000   => boxcut(ratio)=   2.05021

--- Pseudopotential description ------------------------------------------------
- pspini: atom type   1  psp file is /scratch/users/j/a/jabreu/pseudos/PBEsol/Sr.psp8
- pspatm: opening atomic psp file    /scratch/users/j/a/jabreu/pseudos/PBEsol/Sr.psp8
- Sr    ONCVPSP-3.3.0  r_core=   1.66721   1.31335   1.51547
- 38.00000  10.00000    180112                znucl, zion, pspdat
    8 -116133    2    4       600   0.00000   pspcod,pspxc,lmax,lloc,mmax,r2well
    5.99000000000000    6.00000000000000    0.00000000000000   rchrg,fchrg,qchrg
     nproj     2     2     2
     extension_switch     1
  pspatm : epsatm=   12.46450977
         --- l  ekb(1:nproj) -->
             0   10.029206    1.044171
             1    7.472414    1.670829
             2    4.142950    0.968140
 pspatm: atomic psp has been read  and splines computed

- pspini: atom type   2  psp file is /scratch/users/j/a/jabreu/pseudos/PBEsol/Al.psp8
- pspatm: opening atomic psp file    /scratch/users/j/a/jabreu/pseudos/PBEsol/Al.psp8
- Al    ONCVPSP-3.3.0  r_core=   1.76802   1.76802   1.70587
- 13.00000   3.00000    180112                znucl, zion, pspdat
    8 -116133    2    4       600   0.00000   pspcod,pspxc,lmax,lloc,mmax,r2well
    5.99000000000000    5.00000000000000    0.00000000000000   rchrg,fchrg,qchrg
     nproj     2     2     2
     extension_switch     1
  pspatm : epsatm=    0.68509324
         --- l  ekb(1:nproj) -->
             0    5.834965    0.726662
             1    6.225605    0.924840
             2   -2.432733   -0.548689
 pspatm: atomic psp has been read  and splines computed

[...]

- pspini: atom type   4  psp file is /scratch/users/j/a/jabreu/pseudos/PBEsol/H.psp8
- pspatm: opening atomic psp file    /scratch/users/j/a/jabreu/pseudos/PBEsol/H.psp8
- H     ONCVPSP-3.3.0  r_core=   1.00957   0.70586
-  1.00000   1.00000    180112                znucl, zion, pspdat
    8 -116133    1    4       300   0.00000   pspcod,pspxc,lmax,lloc,mmax,r2well
    2.99000000000000    0.00000000000000    0.00000000000000   rchrg,fchrg,qchrg
     nproj     2     1
     extension_switch     1
  pspatm : epsatm=    0.35627032
         --- l  ekb(1:nproj) -->
             0   -1.674911   -0.523609
             1   -0.494138
 pspatm: atomic psp has been read  and splines computed

   1.24245488E+03                                ecore*ucvol(ha*bohr**3)

-inwffil : will read wavefunctions from disk file /scratch/users/j/a/jabreu/flow_simple_4atoms/flow/w247/t1/indata/in_WFK

 ==>  initialize data related to q vector <==

 The list of irreducible perturbations for this q vector is:
    1)    idir= 1    ipert=   5
    2)    idir= 2    ipert=   5
    3)    idir= 3    ipert=   5

 Perturbation wavevector (in red.coord.)   0.000000  0.000000  0.000000
 Perturbation : derivative vs k along direction   1

 dfpt_looppert : COMMENT -
  In a d/dk calculation, iscf is set to -3 automatically.
 The set of symmetries contains only one element for this perturbation.
 symkpt : not enough symmetry to change the number of k points.

[...]

 Initialisation of the first-order wave-functions :
  ireadwf=   0

--- !BeginCycle
iteration_state: {dtset: 1, }
solver: {iscf: 7, nstep: 100, nline: 4, wfoptalg: 0, }
tolerances: {tolwfr: 1.00E-20, }
...

     iter   2DEtotal(Ha)        deltaE(Ha) residm    vres2
-ETOT  1  -55.178413480450     -5.518E+01 6.732E-02 0.000E+00
 ETOT  2  -55.206757222045     -2.834E-02 1.519E-04 0.000E+00
 ETOT  3  -55.206791576349     -3.435E-05 3.991E-06 0.000E+00
 ETOT  4  -55.206791690103     -1.138E-07 1.443E-07 0.000E+00
 ETOT  5  -55.206791690687     -5.844E-10 4.350E-09 0.000E+00
 ETOT  6  -55.206791690691     -3.809E-12 2.108E-10 0.000E+00
 ETOT  7  -55.206791690691      7.105E-14 6.888E-12 0.000E+00
 ETOT  8  -55.206791690691     -4.974E-14 3.544E-13 0.000E+00
 ETOT  9  -55.206791690691     -2.132E-14 1.167E-14 0.000E+00
 ETOT 10  -55.206791690691     -2.842E-14 6.242E-16 0.000E+00
 ETOT 11  -55.206791690691      0.000E+00 2.055E-17 0.000E+00
 ETOT 12  -55.206791690691     -1.421E-14 1.130E-18 0.000E+00
 ETOT 13  -55.206791690691      0.000E+00 3.722E-20 0.000E+00
 ETOT 14  -55.206791690691      0.000E+00 9.437E-21 0.000E+00

 At SCF step   14   max residual=  9.44E-21 < tolwfr=  1.00E-20 =>converged.

 ----iterations are completed or convergence reached----

 dfpt_looppert: DFPT cycle converged with prtwf=-1. Will skip output of the 1st-order WFK file.
 dfpt_looppert : ek2=    4.6128390453E+01
          f-sum rule ratio=    1.5861439372E+00
 prteigrs : about to open file /scratch/users/j/a/jabreu/flow_simple_4atoms/flow/w247/t1/tmpdata/tmp_1WF1_EIG
 Expectation of eigenvalue derivatives (hartree) for nkpt=   2  k points:
  (in case of degenerate eigenvalues, averaged derivative)
 kpt#   1, nband= 23, wtk=  0.50000, kpt=  0.0000  0.0000  0.5000 (reduced coord)
  -0.00000   -0.00000   -0.00000    0.00000    0.00000   -0.00000    0.00000   -0.00000
  -0.00000    0.00000   -0.00000   -0.00000   -0.00000    0.00000   -0.00000   -0.00000
  -0.00000    0.00000    0.00000   -0.00000    0.00000    0.00019    0.10800
 prteigrs : prtvol=0 or 1, do not print more k-points.

 Eight components of 2nd-order total energy (hartree) are
 1,2,3: 0th-order hamiltonian combined with 1st-order wavefunctions
     kin0=   3.40796427E+01 eigvalue=   3.49568710E+00  local=  -1.21066774E+01
 4,5,6: 1st-order hamiltonian combined with 1st and 0th-order wfs
     kin1=  -7.31662669E+01  Hartree=   0.00000000E+00     xc=   0.00000000E+00
 7,8,9: eventually, occupation + non-local contributions
    edocc=   2.56331293E+01     enl0=   4.10500999E+00   enl1=  -3.72473165E+01
 1-9 gives the relaxation energy (to be shifted if some occ is /=2.0)
   erelax=  -5.52067917E+01
  No Ewald or frozen-wf contrib.: the relaxation energy is the total one
 2DEtotal=   -0.5520679169E+02 Ha. Also 2DEtotal=   -0.150225320037E+04 eV
    (  non-var. 2DEtotal :   -5.5206791691E+01 Ha)

 Perturbation wavevector (in red.coord.)   0.000000  0.000000  0.000000
 Perturbation : derivative vs k along direction   2
 The set of symmetries contains only one element for this perturbation.
 symkpt : not enough symmetry to change the number of k points.

[...]

 Perturbation wavevector (in red.coord.)   0.000000  0.000000  0.000000
 Perturbation : derivative vs k along direction   3
 The set of symmetries contains only one element for this perturbation.
 symkpt : not enough symmetry to change the number of k points.

-inwffil : will read wavefunctions from disk file /scratch/users/j/a/jabreu/flow_simple_4atoms/flow/w247/t1/indata/in_WFK

 Initialisation of the first-order wave-functions :
  ireadwf=   0

--- !BeginCycle
iteration_state: {dtset: 1, }
solver: {iscf: 7, nstep: 100, nline: 4, wfoptalg: 0, }
tolerances: {tolwfr: 1.00E-20, }
...

     iter   2DEtotal(Ha)        deltaE(Ha) residm    vres2
-ETOT  1  -26.394285370343     -2.639E+01 3.919E-02 0.000E+00
 ETOT  2  -26.407284410749     -1.300E-02 3.965E-04 0.000E+00
 ETOT  3  -26.407307574288     -2.316E-05 7.219E-06 0.000E+00
 ETOT  4  -26.407307663281     -8.899E-08 2.762E-07 0.000E+00
 ETOT  5  -26.407307663724     -4.431E-10 5.004E-09 0.000E+00
 ETOT  6  -26.407307663727     -2.416E-12 2.195E-10 0.000E+00
 ETOT  7  -26.407307663727      3.553E-15 3.869E-12 0.000E+00
 ETOT  8  -26.407307663727     -4.974E-14 1.756E-13 0.000E+00
 ETOT  9  -26.407307663727      4.263E-14 3.039E-15 0.000E+00
 ETOT 10  -26.407307663727     -1.421E-14 1.399E-16 0.000E+00
 ETOT 11  -26.407307663727      0.000E+00 2.391E-18 0.000E+00
 ETOT 12  -26.407307663727      3.553E-15 1.110E-19 0.000E+00
 ETOT 13  -26.407307663727     -3.553E-15 9.763E-21 0.000E+00

 At SCF step   13   max residual=  9.76E-21 < tolwfr=  1.00E-20 =>converged.

 ----iterations are completed or convergence reached----

 dfpt_looppert: DFPT cycle converged with prtwf=-1. Will skip output of the 1st-order WFK file.
 dfpt_looppert : ek2=    2.6477178529E+01
          f-sum rule ratio=    1.1908905824E+00
 prteigrs : about to open file /scratch/users/j/a/jabreu/flow_simple_4atoms/flow/w247/t1/tmpdata/tmp_1WF1_EIG
 Expectation of eigenvalue derivatives (hartree) for nkpt=   2  k points:
  (in case of degenerate eigenvalues, averaged derivative)
 kpt#   1, nband= 23, wtk=  0.50000, kpt=  0.0000  0.0000  0.5000 (reduced coord)
  -0.00000   -0.00000   -0.00000   -0.00000   -0.00000    0.00000    0.00000   -0.00000
  -0.00000   -0.00000   -0.00000   -0.00000   -0.00000    0.00000    0.00000    0.00000
   0.00000   -0.00000   -0.00000    0.00000    0.00000    0.00008   -0.00025
 prteigrs : prtvol=0 or 1, do not print more k-points.

 Eight components of 2nd-order total energy (hartree) are
 1,2,3: 0th-order hamiltonian combined with 1st-order wavefunctions
     kin0=   2.11002355E+01 eigvalue=   1.78572369E+00  local=  -7.87940648E+00
 4,5,6: 1st-order hamiltonian combined with 1st and 0th-order wfs
     kin1=  -3.15314226E+01  Hartree=   0.00000000E+00     xc=   0.00000000E+00
 7,8,9: eventually, occupation + non-local contributions
    edocc=   8.91142291E+00     enl0=   2.48933206E+00   enl1=  -2.12831928E+01
 1-9 gives the relaxation energy (to be shifted if some occ is /=2.0)
   erelax=  -2.64073077E+01
  No Ewald or frozen-wf contrib.: the relaxation energy is the total one
 2DEtotal=   -0.2640730766E+02 Ha. Also 2DEtotal=   -0.718579385547E+03 eV
    (  non-var. 2DEtotal :   -2.6407307664E+01 Ha)

 CALCULATION OF EFFECTIVE MASSES
 NOTE : Additional infos (eff. mass eigenvalues, eigenvectors and, if degenerate, average mass) are available in stdout.

 K-point ( 0.000, 0.000, 0.500) | band =    14
 Effective mass tensor:
             -1.2611897994              0.0000030781              0.0000603563
              0.0000030781             -1.2611694130              0.0000158166
              0.0000603563              0.0000158166             -0.3272656549
 Effective mass tensor eigenvalues:
             -1.2611902576             -1.2611689590             -0.3272656507
 Angular average effective mass 1/(<1/m>)=  -0.6463513306
 Angular average effective mass for Frohlich model (<m**0.5>)**2=  -0.7415866137
 Effective masses along directions: (cart. coord. / red. coord. -> eff. mass)
    1:   1.000000  0.000000  0.000000 /   0.894427 -0.447214  0.000000 ->  -1.2611897883
    2:   0.000000  1.000000  0.000000 /   0.000000  1.000000  0.000000 ->  -1.2611694122
    3:   0.000000  0.000000  1.000000 /   0.000000  0.000000  1.000000 ->  -0.3272656518
    4:   0.577350  0.577350  0.577350 /   0.640103  0.234294  0.731693 ->  -0.6462993947
    5:   0.000000  0.707107  0.707107 /   0.000000  0.603880  0.797075 ->  -0.5196677153
    6:   0.707107  0.000000  0.707107 /   0.625410 -0.312705  0.714897 ->  -0.5196403048
    7:   0.707107  0.707107  0.000000 /   0.939071  0.343724  0.000000 ->  -1.2611765191

 K-point ( 0.500,-0.000, 0.150) | band =    15
 Effective mass tensor:
              0.5296799217              0.2385759168              0.3809299159
              0.2385759168              0.2541961888              0.2199300230
              0.3809299159              0.2199300230              1.2991280529
 Effective mass tensor eigenvalues:
              0.1164543173              0.4417585193              1.5247913267
 Angular average effective mass 1/(<1/m>)=   0.2607207093
 Angular average effective mass for Frohlich model (<m**0.5>)**2=   0.3461829012
 Effective masses along directions: (cart. coord. / red. coord. -> eff. mass)
    1:   1.000000  0.000000  0.000000 /   0.894427 -0.447214  0.000000 ->   0.2782986149
    2:   0.000000  1.000000  0.000000 /   0.000000  1.000000  0.000000 ->   0.1444573216
    3:   0.000000  0.000000  1.000000 /   0.000000  0.000000  1.000000 ->   1.0092411810
    4:   0.577350  0.577350  0.577350 /   0.640103  0.234294  0.731693 ->   0.7583084406
    5:   0.000000  0.707107  0.707107 /   0.000000  0.603880  0.797075 ->   0.2754709420
    6:   0.707107  0.000000  0.707107 /   0.625410 -0.312705  0.714897 ->   0.5791961529
    7:   0.707107  0.707107  0.000000 /   0.939071  0.343724  0.000000 ->   0.4211072317

 END OF EFFECTIVE MASSES SECTION

 ---- first-order wavefunction calculations are completed ----

 Total localisation tensor (bohr^2) in cartesian coordinates
  WARNING : still subject to testing - especially symmetries.
      direction              matrix element
   alpha     beta       real part   imaginary part
     1        1      10.6414183649    0.0000000000
     1        2      -4.2276994757    0.0000000000
     1        3       0.0000000000    0.0000000000
     2        1      -4.2276994757    0.0000000000
     2        2       7.3225902911    0.0000000000
     2        3       0.0000000000    0.0000000000
     3        1       0.0000000000    0.0000000000
     3        2       0.0000000000    0.0000000000
     3        3       2.7293194368    0.0000000000

 respfn : d/dk was computed, but no 2DTE, so no DDB output.

== END DATASET(S) ==============================================================

 -outvars: echo values of variables after computation  --------
            acell      1.0000000000E+00  1.0000000000E+00  1.0000000000E+00 Bohr
              amu      8.76200000E+01  2.69815390E+01  7.26100000E+01
                       1.00794000E+00
             ecut      4.10000000E+01 Hartree
           etotal     -2.6407307664E+01
            fcart      0.0000000000E+00  0.0000000000E+00  0.0000000000E+00
                       0.0000000000E+00  0.0000000000E+00  0.0000000000E+00
                       0.0000000000E+00  0.0000000000E+00  0.0000000000E+00
                       0.0000000000E+00  0.0000000000E+00  0.0000000000E+00
-          fftalg         512
           irdden           1
           irdwfk           1
           istwfk        1    0
              ixc     -116133
              kpt      0.00000000E+00  0.00000000E+00  5.00000000E-01
                       5.00000000E-01 -2.77555756E-17  1.50000000E-01
           kptopt           0
P           mkmem           2
P          mkqmem           2
P          mk1mem           2
            natom           4
            nband          23
           nbdbuf           4
            ngfft          48      48      54
             nkpt           2
            nstep         100
             nsym           6
           ntypat           4
              occ      2.000000  2.000000  2.000000  2.000000  2.000000  2.000000
                       2.000000  2.000000  2.000000  2.000000  2.000000  2.000000
                       2.000000  2.000000  0.000000  0.000000  0.000000  0.000000
                       0.000000  0.000000  0.000000  0.000000  0.000000
        optdriver           1
            prtwf          -1
            rfdir           1       1       1
           rfelfd           2
            rprim      7.9939071503E+00  0.0000000000E+00  0.0000000000E+00
                      -3.9969535751E+00  6.9229266676E+00  0.0000000000E+00
                       0.0000000000E+00  0.0000000000E+00  9.1377238671E+00
          spgroup         156
           strten      0.0000000000E+00  0.0000000000E+00  0.0000000000E+00
                       0.0000000000E+00  0.0000000000E+00  0.0000000000E+00
           symrel      1  0  0   0  1  0   0  0  1      -1  0  0   1  1  0   0  0  1
                       0  1  0  -1 -1  0   0  0  1       0 -1  0  -1  0  0   0  0  1
                      -1 -1  0   1  0  0   0  0  1       1  1  0   0 -1  0   0  0  1
            tnons      0.0000000  0.0000000  0.0000000     0.0000000  0.0000000  0.0000000
                       0.0000000 -0.0000000  0.0000000     0.0000000  0.0000000  0.0000000
                       0.0000000  0.0000000  0.0000000     0.0000000 -0.0000000  0.0000000
           tolwfr      1.00000000E-20
            typat      1  2  3  4
           useylm           1
              wtk        0.50000    0.50000
           xangst      2.1150967360E+00  1.2211516696E+00  2.5879463318E-02
                       2.2914893140E-10  2.4423033394E+00  2.2350146672E+00
                       2.1150969108E-10 -1.2211517708E-10  2.7194905994E+00
                       2.2914893140E-10  2.4423033394E+00  4.7982420497E-01
            xcart      3.9969535756E+00  2.3076422223E+00  4.8905098137E-02
                       4.3302872399E-10  4.6152844448E+00  4.2235656241E+00
                       3.9969539058E-10 -2.3076424135E-10  5.1390924538E+00
                       4.3302872399E-10  4.6152844448E+00  9.0673633933E-01
             xred      6.6666666670E-01  3.3333333330E-01  5.3520000000E-03
                       3.3333333337E-01  6.6666666663E-01  4.6221200000E-01
                       3.3333336091E-11 -3.3333336091E-11  5.6240400000E-01
                       3.3333333337E-01  6.6666666663E-01  9.9230000000E-02
            znucl       38.00000   13.00000   32.00000    1.00000

- Timing analysis has been suppressed with timopt=0

 Suggested references for the acknowledgment of ABINIT usage.

 Calculation completed.
.Delivered  14 WARNINGs and   9 COMMENTs to log file.