.Version 9.5.1 of ABINIT

 ABINIT is a project of the Universite Catholique de Louvain,
 Corning Inc. and other collaborators, see ~abinit/doc/developers/contributors.txt .
 acknowledgments of the ABINIT effort.

.Starting date : Tue 27 Apr 2021.
- ( at 18h28 )

- input  file    -> /scratch/users/j/a/jabreu/flow_simple_4atoms/flow/w166/t1/run.abi
- output file    -> /scratch/users/j/a/jabreu/flow_simple_4atoms/flow/w166/t1/run.abo
- root for input  files -> /scratch/users/j/a/jabreu/flow_simple_4atoms/flow/w166/t1/indata/in
- root for output files -> /scratch/users/j/a/jabreu/flow_simple_4atoms/flow/w166/t1/outdata/out

 Symmetries : space group P6_3 m c (#186); Bravais hP (primitive hexag.)
     intxc =       0      iscf =       7    lmnmax =      18     lnmax =       6
     mgfft =      72  mpssoang =       3    mqgrid =    3430     natom =       4
  nloc_mem =       1    nspden =       1   nspinor =       1    nsppol =       1
      nsym =      12    n1xccc =    2501    ntypat =       2    occopt =       1
   xclevel =       2
-    mband =          27        mffmem =           1         mkmem =           1
-   mkqmem =           1        mk1mem =           1           mpw =        6803
      nfft =      145800          nkpt =           1
  Rough estimation (10% accuracy) of disk space for files :

------------- Echo of variables that govern the present computation ------------
-
- outvars: echo of selected default values
-   iomode0 =  0 , fftalg0 =512 , wfoptalg0 =  0
-
- outvars: echo of global parameters not present in the input file
-  max_nthreads =    0
-
 -outvars: echo values of preprocessed input variables --------
            acell      1.0000000000E+00  1.0000000000E+00  1.0000000000E+00 Bohr
              amu      1.14820000E+02  3.09737620E+01
             ecut      3.50000000E+01 Hartree
-          fftalg         512
           irdden           1
           irdwfk           1
           istwfk        1
              ixc     -116133
           kptopt           0
P           mkmem           1
P          mkqmem           1
P          mk1mem           1
            natom           4
            nband          27
           nbdbuf           4
            ngfft          45      45      72
             nkpt           1
            nstep         100
             nsym          12
           ntypat           2
              occ      2.000000  2.000000  2.000000  2.000000  2.000000  2.000000
                       2.000000  2.000000  2.000000  2.000000  2.000000  2.000000
                       2.000000  2.000000  2.000000  2.000000  2.000000  2.000000
                       0.000000  0.000000  0.000000  0.000000  0.000000  0.000000
                       0.000000  0.000000  0.000000
        optdriver           1
            prtwf          -1
            rfdir           1       1       1
           rfelfd           2
            rprim      7.8445759652E+00  0.0000000000E+00  0.0000000000E+00
                      -3.9222879826E+00  6.7936020678E+00  0.0000000000E+00
                       0.0000000000E+00  0.0000000000E+00  1.2876899665E+01
          spgroup         186
           symrel      1  0  0   0  1  0   0  0  1       0  1  0   1  0  0   0  0  1
                       1  1  0  -1  0  0   0  0  1      -1  0  0   1  1  0   0  0  1
                       0  1  0  -1 -1  0   0  0  1      -1 -1  0   0  1  0   0  0  1
                      -1  0  0   0 -1  0   0  0  1       0 -1  0  -1  0  0   0  0  1
                      -1 -1  0   1  0  0   0  0  1       1  0  0  -1 -1  0   0  0  1
                       0 -1  0   1  1  0   0  0  1       1  1  0   0 -1  0   0  0  1
            tnons      0.0000000  0.0000000  0.0000000     0.0000000  0.0000000  0.5000000
                       0.0000000  0.0000000  0.5000000     0.0000000  0.0000000  0.0000000
                       0.0000000  0.0000000  0.0000000     0.0000000  0.0000000  0.5000000
                       0.0000000  0.0000000  0.5000000     0.0000000  0.0000000  0.0000000
                       0.0000000  0.0000000  0.0000000     0.0000000  0.0000000  0.5000000
                       0.0000000  0.0000000  0.5000000     0.0000000  0.0000000  0.0000000
           tolwfr      1.00000000E-20
            typat      1  1  2  2
           useylm           1
           xangst      0.0000000000E+00  2.3966795857E+00  1.3696465259E-03
                       2.0755854059E+00  1.1983397928E+00  3.4084505566E+00
                       0.0000000000E+00  2.3966795857E+00  2.5539478502E+00
                       2.0755854059E+00  1.1983397928E+00  5.9610287603E+00
            xcart      0.0000000000E+00  4.5290680452E+00  2.5882568327E-03
                       3.9222879826E+00  2.2645340226E+00  6.4410380895E+00
                       0.0000000000E+00  4.5290680452E+00  4.8262619946E+00
                       3.9222879826E+00  2.2645340226E+00  1.1264711827E+01
             xred      3.3333333333E-01  6.6666666667E-01  2.0100000000E-04
                       6.6666666667E-01  3.3333333333E-01  5.0020100000E-01
                       3.3333333333E-01  6.6666666667E-01  3.7480000000E-01
                       6.6666666667E-01  3.3333333333E-01  8.7480000000E-01
            znucl       49.00000   15.00000

 chkinp: Checking input parameters for consistency.

== DATASET  1 ==================================================================
-   mpi_nproc: 1, omp_nthreads: -1 (-1 if OMP is not activated)

--- !DatasetInfo
iteration_state: {dtset: 1, }
dimensions: {natom: 4, nkpt: 1, mband: 27, nsppol: 1, nspinor: 1, nspden: 1, mpw: 6803, }
cutoff_energies: {ecut:  35.0, pawecutdg:  -1.0, }
electrons: {nelect:   3.60000000E+01, charge:   0.00000000E+00, occopt:   1.00000000E+00, tsmear:   1.00000000E-02, }
meta: {optdriver: 1, rfelfd: 2, }
...

 Real(R)+Recip(G) space primitive vectors, cartesian coordinates (Bohr,Bohr^-1):
 R(1)=  7.8445760  0.0000000  0.0000000  G(1)=  0.1274766  0.0735987  0.0000000
 R(2)= -3.9222880  6.7936021  0.0000000  G(2)=  0.0000000  0.1471973  0.0000000
 R(3)=  0.0000000  0.0000000 12.8768997  G(3)=  0.0000000  0.0000000  0.0776584
 Unit cell volume ucvol=  6.8624768E+02 bohr^3
 Angles (23,13,12)=  9.00000000E+01  9.00000000E+01  1.20000000E+02 degrees

 getcut: wavevector=  0.0000  0.0000  0.0000  ngfft=  45  45  72
         ecut(hartree)=     35.000   => boxcut(ratio)=   2.09953

--- Pseudopotential description ------------------------------------------------
- pspini: atom type   1  psp file is /scratch/users/j/a/jabreu/pseudos/PBEsol/In.psp8
- pspatm: opening atomic psp file    /scratch/users/j/a/jabreu/pseudos/PBEsol/In.psp8
- In    ONCVPSP-3.3.0  r_core=   2.10853   2.37566   1.87143
- 49.00000  13.00000    180112                znucl, zion, pspdat
    8 -116133    2    4       600   0.00000   pspcod,pspxc,lmax,lloc,mmax,r2well
    5.99000000000000    5.00000000000000    0.00000000000000   rchrg,fchrg,qchrg
     nproj     2     2     2
     extension_switch     1
  pspatm : epsatm=   25.17984752
         --- l  ekb(1:nproj) -->
             0   12.999887    1.931740
             1    5.981707    1.012544
             2   -4.048011   -1.239028
 pspatm: atomic psp has been read  and splines computed

- pspini: atom type   2  psp file is /scratch/users/j/a/jabreu/pseudos/PBEsol/P.psp8
- pspatm: opening atomic psp file    /scratch/users/j/a/jabreu/pseudos/PBEsol/P.psp8
- P     ONCVPSP-3.3.0  r_core=   1.46089   1.55067   1.70594
- 15.00000   5.00000    180112                znucl, zion, pspdat
    8 -116133    2    4       600   0.00000   pspcod,pspxc,lmax,lloc,mmax,r2well
    5.99000000000000    5.00000000000000    0.00000000000000   rchrg,fchrg,qchrg
     nproj     2     2     2
     extension_switch     1
  pspatm : epsatm=    7.31221086
         --- l  ekb(1:nproj) -->
             0    6.742364    1.063650
             1    3.449117    0.910422
             2   -3.077645   -0.799176
 pspatm: atomic psp has been read  and splines computed

   2.33942820E+03                                ecore*ucvol(ha*bohr**3)

-inwffil : will read wavefunctions from disk file /scratch/users/j/a/jabreu/flow_simple_4atoms/flow/w166/t1/indata/in_WFK

 ==>  initialize data related to q vector <==

 The list of irreducible perturbations for this q vector is:
    1)    idir= 1    ipert=   5
    2)    idir= 2    ipert=   5
    3)    idir= 3    ipert=   5

 Perturbation wavevector (in red.coord.)   0.000000  0.000000  0.000000
 Perturbation : derivative vs k along direction   1

 dfpt_looppert : COMMENT -
  In a d/dk calculation, iscf is set to -3 automatically.
 The set of symmetries contains only one element for this perturbation.
 symkpt : not enough symmetry to change the number of k points.

[...]

 Initialisation of the first-order wave-functions :
  ireadwf=   0

--- !BeginCycle
iteration_state: {dtset: 1, }
solver: {iscf: 7, nstep: 100, nline: 4, wfoptalg: 0, }
tolerances: {tolwfr: 1.00E-20, }
...

     iter   2DEtotal(Ha)        deltaE(Ha) residm    vres2
-ETOT  1  -110.00339684450     -1.100E+02 1.137E-01 0.000E+00
 ETOT  2  -110.03650744028     -3.311E-02 1.664E-03 0.000E+00
 ETOT  3  -110.03675343215     -2.460E-04 1.453E-04 0.000E+00
 ETOT  4  -110.03675705500     -3.623E-06 8.291E-06 0.000E+00
 ETOT  5  -110.03675719378     -1.388E-07 7.548E-07 0.000E+00
 ETOT  6  -110.03675720250     -8.715E-09 6.360E-08 0.000E+00
 ETOT  7  -110.03675720309     -5.958E-10 5.864E-09 0.000E+00
 ETOT  8  -110.03675720313     -4.177E-11 5.360E-10 0.000E+00
 ETOT  9  -110.03675720314     -2.970E-12 4.839E-11 0.000E+00
 ETOT 10  -110.03675720314     -3.268E-13 4.425E-12 0.000E+00
 ETOT 11  -110.03675720314      4.263E-14 4.002E-13 0.000E+00
 ETOT 12  -110.03675720314     -8.527E-14 3.622E-14 0.000E+00
 ETOT 13  -110.03675720314      0.000E+00 3.308E-15 0.000E+00
 ETOT 14  -110.03675720314      1.137E-13 2.962E-16 0.000E+00
 ETOT 15  -110.03675720314      1.421E-13 2.732E-17 0.000E+00
 ETOT 16  -110.03675720314      8.527E-14 2.423E-18 0.000E+00
 ETOT 17  -110.03675720314     -5.684E-14 2.254E-19 0.000E+00
 ETOT 18  -110.03675720314      0.000E+00 1.983E-20 0.000E+00
 ETOT 19  -110.03675720314      2.842E-14 9.157E-21 0.000E+00

 At SCF step   19   max residual=  9.16E-21 < tolwfr=  1.00E-20 =>converged.

 ----iterations are completed or convergence reached----

 dfpt_looppert: DFPT cycle converged with prtwf=-1. Will skip output of the 1st-order WFK file.
 dfpt_looppert : ek2=    6.1587421794E+01
          f-sum rule ratio=    2.6578105605E+00
 prteigrs : about to open file /scratch/users/j/a/jabreu/flow_simple_4atoms/flow/w166/t1/tmpdata/tmp_1WF1_EIG
 Expectation of eigenvalue derivatives (hartree) for nkpt=   1  k points:
  (in case of degenerate eigenvalues, averaged derivative)
 kpt#   1, nband= 27, wtk=  1.00000, kpt=  0.0000  0.0000  0.0000 (reduced coord)
  -0.00000   -0.00000   -0.00000   -0.00000    0.00000    0.00000    0.00000    0.00000
  -0.00000   -0.00000   -0.00000    0.00000    0.00000    0.00000    0.00000    0.00000
   0.00000    0.00000   -0.00000    0.00000    0.00000    0.00000   -0.00000   -0.00000
  -0.00000    0.00006    0.00624

 Eight components of 2nd-order total energy (hartree) are
 1,2,3: 0th-order hamiltonian combined with 1st-order wavefunctions
     kin0=   6.51491749E+01 eigvalue=   4.41996813E+00  local=  -3.41692386E+01
 4,5,6: 1st-order hamiltonian combined with 1st and 0th-order wfs
     kin1=  -1.63687700E+02  Hartree=   0.00000000E+00     xc=   0.00000000E+00
 7,8,9: eventually, occupation + non-local contributions
    edocc=   6.39152578E+01     enl0=   1.07215950E+01   enl1=  -5.63858144E+01
 1-9 gives the relaxation energy (to be shifted if some occ is /=2.0)
   erelax=  -1.10036757E+02
  No Ewald or frozen-wf contrib.: the relaxation energy is the total one
 2DEtotal=   -0.1100367572E+03 Ha. Also 2DEtotal=   -0.299425243896E+04 eV
    (  non-var. 2DEtotal :   -1.1003675720E+02 Ha)

 Perturbation wavevector (in red.coord.)   0.000000  0.000000  0.000000
 Perturbation : derivative vs k along direction   2
 The set of symmetries contains only one element for this perturbation.
 symkpt : not enough symmetry to change the number of k points.

[...]

 Perturbation wavevector (in red.coord.)   0.000000  0.000000  0.000000
 Perturbation : derivative vs k along direction   3
 The set of symmetries contains only one element for this perturbation.
 symkpt : not enough symmetry to change the number of k points.

-inwffil : will read wavefunctions from disk file /scratch/users/j/a/jabreu/flow_simple_4atoms/flow/w166/t1/indata/in_WFK

 Initialisation of the first-order wave-functions :
  ireadwf=   0

--- !BeginCycle
iteration_state: {dtset: 1, }
solver: {iscf: 7, nstep: 100, nline: 4, wfoptalg: 0, }
tolerances: {tolwfr: 1.00E-20, }
...

     iter   2DEtotal(Ha)        deltaE(Ha) residm    vres2
-ETOT  1  -25.940528166557     -2.594E+01 3.218E-02 0.000E+00
 ETOT  2  -25.949122754431     -8.595E-03 4.624E-04 0.000E+00
 ETOT  3  -25.949171980322     -4.923E-05 6.338E-05 0.000E+00
 ETOT  4  -25.949172597287     -6.170E-07 2.465E-06 0.000E+00
 ETOT  5  -25.949172616309     -1.902E-08 3.627E-07 0.000E+00
 ETOT  6  -25.949172617241     -9.321E-10 1.938E-08 0.000E+00
 ETOT  7  -25.949172617296     -5.477E-11 3.106E-09 0.000E+00
 ETOT  8  -25.949172617299     -3.336E-12 1.635E-10 0.000E+00
 ETOT  9  -25.949172617299     -2.167E-13 2.648E-11 0.000E+00
 ETOT 10  -25.949172617299      7.461E-14 1.380E-12 0.000E+00
 ETOT 11  -25.949172617299     -1.030E-13 2.261E-13 0.000E+00
 ETOT 12  -25.949172617299     -3.553E-15 1.175E-14 0.000E+00
 ETOT 13  -25.949172617299      1.172E-13 1.938E-15 0.000E+00
 ETOT 14  -25.949172617299     -4.974E-14 1.009E-16 0.000E+00
 ETOT 15  -25.949172617299     -2.842E-14 1.669E-17 0.000E+00
 ETOT 16  -25.949172617299     -1.421E-14 8.708E-19 0.000E+00
 ETOT 17  -25.949172617299      3.553E-15 1.442E-19 0.000E+00
 ETOT 18  -25.949172617299      1.066E-14 9.767E-21 0.000E+00

 At SCF step   18   max residual=  9.77E-21 < tolwfr=  1.00E-20 =>converged.

 ----iterations are completed or convergence reached----

 dfpt_looppert: DFPT cycle converged with prtwf=-1. Will skip output of the 1st-order WFK file.
 dfpt_looppert : ek2=    1.7142320462E+01
          f-sum rule ratio=    2.1364395135E+00
 prteigrs : about to open file /scratch/users/j/a/jabreu/flow_simple_4atoms/flow/w166/t1/tmpdata/tmp_1WF1_EIG
 Expectation of eigenvalue derivatives (hartree) for nkpt=   1  k points:
  (in case of degenerate eigenvalues, averaged derivative)
 kpt#   1, nband= 27, wtk=  1.00000, kpt=  0.0000  0.0000  0.0000 (reduced coord)
   0.00000    0.00000    0.00000    0.00000    0.00000    0.00000    0.00000    0.00000
   0.00000    0.00000    0.00000    0.00000    0.00000    0.00000    0.00000   -0.00000
  -0.00000   -0.00000    0.00000    0.00000   -0.00000   -0.00000    0.00000   -0.00000
  -0.00000   -0.00002   -0.00002

 Eight components of 2nd-order total energy (hartree) are
 1,2,3: 0th-order hamiltonian combined with 1st-order wavefunctions
     kin0=   1.88128651E+01 eigvalue=   1.10816418E+00  local=  -9.81252745E+00
 4,5,6: 1st-order hamiltonian combined with 1st and 0th-order wfs
     kin1=  -3.66235308E+01  Hartree=   0.00000000E+00     xc=   0.00000000E+00
 7,8,9: eventually, occupation + non-local contributions
    edocc=   1.28956632E+01     enl0=   2.94500760E+00   enl1=  -1.52748144E+01
 1-9 gives the relaxation energy (to be shifted if some occ is /=2.0)
   erelax=  -2.59491726E+01
  No Ewald or frozen-wf contrib.: the relaxation energy is the total one
 2DEtotal=   -0.2594917262E+02 Ha. Also 2DEtotal=   -0.706112896939E+03 eV
    (  non-var. 2DEtotal :   -2.5949172617E+01 Ha)

 CALCULATION OF EFFECTIVE MASSES
 NOTE : Additional infos (eff. mass eigenvalues, eigenvectors and, if degenerate, average mass) are available in stdout.

 COMMENTS:
 - At k-point ( 0.000, 0.000, 0.000), bands    17 through    18
   are DEGENERATE (effective mass tensor is therefore not defined).
   See Section IIIB Eqs. (67)-(70) and Appendix E of PRB 93 205147 (2016).
 - Angular average effective mass for Frohlich model is to be averaged over degenerate bands. See later.
 - Associated theta integrals calculated with ntheta=   1000 points.

 K-point ( 0.000, 0.000, 0.000) | band =    17
 Transport equivalent effective mass tensor:
             -0.0509109752             -0.0000001839              0.0000023238
             -0.0000001839             -0.0509095777             -0.0000051098
              0.0000023238             -0.0000051098             -1.0138749653
 Transport equivalent effective mass tensor eigenvalues:
             -1.0138749653             -0.0509109990             -0.0509095539
 Angular average effective mass 1/(<1/m>)=  -0.0744950745
 Angular average effective mass for Frohlich model (<m**0.5>)**2=  -0.0969372379
 Effective masses along directions: (cart. coord. / red. coord. -> eff. mass)
    1:   1.000000  0.000000  0.000000 /   0.894427 -0.447214  0.000000 ->  -0.0509102701
    2:   0.000000  1.000000  0.000000 /   0.000000  1.000000  0.000000 ->  -0.0509102701
    3:   0.000000  0.000000  1.000000 /   0.000000  0.000000  1.000000 ->  -1.0137257267
    4:   0.577350  0.577350  0.577350 /   0.511076  0.187067  0.838933 ->  -0.0744953014
    5:   0.000000  0.707107  0.707107 /   0.000000  0.466622  0.884457 ->  -0.0969528276
    6:   0.707107  0.000000  0.707107 /   0.503503 -0.251752  0.826502 ->  -0.0969521309
    7:   0.707107  0.707107  0.000000 /   0.939071  0.343724  0.000000 ->  -0.0509102704

 K-point ( 0.000, 0.000, 0.000) | band =    18
 Transport equivalent effective mass tensor:
             -1.0471661370              0.0000037763             -0.0000161449
              0.0000037763             -1.0471949019              0.0000024636
             -0.0000161449              0.0000024636             -1.0138755000
 Transport equivalent effective mass tensor eigenvalues:
             -1.0471953900             -1.0471656569             -1.0138754920
 Angular average effective mass 1/(<1/m>)=  -1.0358383356
 Angular average effective mass for Frohlich model (<m**0.5>)**2=  -1.0359108826
 Effective masses along directions: (cart. coord. / red. coord. -> eff. mass)
    1:   1.000000  0.000000  0.000000 /   0.894427 -0.447214  0.000000 ->  -1.0471805061
    2:   0.000000  1.000000  0.000000 /   0.000000  1.000000  0.000000 ->  -1.0471805072
    3:   0.000000  0.000000  1.000000 /   0.000000  0.000000  1.000000 ->  -1.0140251818
    4:   0.577350  0.577350  0.577350 /   0.511076  0.187067  0.838933 ->  -1.0358423945
    5:   0.000000  0.707107  0.707107 /   0.000000  0.466622  0.884457 ->  -1.0302935877
    6:   0.707107  0.000000  0.707107 /   0.503503 -0.251752  0.826502 ->  -1.0302379505
    7:   0.707107  0.707107  0.000000 /   0.939071  0.343724  0.000000 ->  -1.0471805155

 Angular average effective mass for Frohlich model, averaged over degenerate bands.
 Value of     (<<m**0.5>>)**2 =     4.416563E-01
 Absolute Value of <<m**0.5>> =     6.645723E-01

 K-point ( 0.000, 0.000, 0.000) | band =    19
 Effective mass tensor:
              0.0527602538              0.0000000200              0.0000000166
              0.0000000200              0.0527601607              0.0000000263
              0.0000000166              0.0000000263              0.0482288282
 Effective mass tensor eigenvalues:
              0.0482288282              0.0527601565              0.0527602580
 Angular average effective mass 1/(<1/m>)=   0.0511580097
 Angular average effective mass for Frohlich model (<m**0.5>)**2=   0.0511859421
 Effective masses along directions: (cart. coord. / red. coord. -> eff. mass)
    1:   1.000000  0.000000  0.000000 /   0.894427 -0.447214  0.000000 ->   0.0527602538
    2:   0.000000  1.000000  0.000000 /   0.000000  1.000000  0.000000 ->   0.0527601607
    3:   0.000000  0.000000  1.000000 /   0.000000  0.000000  1.000000 ->   0.0482288282
    4:   0.577350  0.577350  0.577350 /   0.511076  0.187067  0.838933 ->   0.0511580517
    5:   0.000000  0.707107  0.707107 /   0.000000  0.466622  0.884457 ->   0.0503928612
    6:   0.707107  0.000000  0.707107 /   0.503503 -0.251752  0.826502 ->   0.0503928940
    7:   0.707107  0.707107  0.000000 /   0.939071  0.343724  0.000000 ->   0.0527602273

 END OF EFFECTIVE MASSES SECTION

 ---- first-order wavefunction calculations are completed ----

 Total localisation tensor (bohr^2) in cartesian coordinates
  WARNING : still subject to testing - especially symmetries.
      direction              matrix element
   alpha     beta       real part   imaginary part
     1        1      44.6358470060    0.0000000000
     1        2     -15.4623182245    0.0000000000
     1        3       0.0000000000    0.0000000000
     2        1     -15.4623182245    0.0000000000
     2        2      26.7815207677    0.0000000000
     2        3       0.0000000000    0.0000000000
     3        1       0.0000000000    0.0000000000
     3        2       0.0000000000    0.0000000000
     3        3      22.0364611934    0.0000000000

 respfn : d/dk was computed, but no 2DTE, so no DDB output.

== END DATASET(S) ==============================================================

 -outvars: echo values of variables after computation  --------
            acell      1.0000000000E+00  1.0000000000E+00  1.0000000000E+00 Bohr
              amu      1.14820000E+02  3.09737620E+01
             ecut      3.50000000E+01 Hartree
           etotal     -2.5949172617E+01
            fcart      0.0000000000E+00  0.0000000000E+00  0.0000000000E+00
                       0.0000000000E+00  0.0000000000E+00  0.0000000000E+00
                       0.0000000000E+00  0.0000000000E+00  0.0000000000E+00
                       0.0000000000E+00  0.0000000000E+00  0.0000000000E+00
-          fftalg         512
           irdden           1
           irdwfk           1
           istwfk        1
              ixc     -116133
           kptopt           0
P           mkmem           1
P          mkqmem           1
P          mk1mem           1
            natom           4
            nband          27
           nbdbuf           4
            ngfft          45      45      72
             nkpt           1
            nstep         100
             nsym          12
           ntypat           2
              occ      2.000000  2.000000  2.000000  2.000000  2.000000  2.000000
                       2.000000  2.000000  2.000000  2.000000  2.000000  2.000000
                       2.000000  2.000000  2.000000  2.000000  2.000000  2.000000
                       0.000000  0.000000  0.000000  0.000000  0.000000  0.000000
                       0.000000  0.000000  0.000000
        optdriver           1
            prtwf          -1
            rfdir           1       1       1
           rfelfd           2
            rprim      7.8445759652E+00  0.0000000000E+00  0.0000000000E+00
                      -3.9222879826E+00  6.7936020678E+00  0.0000000000E+00
                       0.0000000000E+00  0.0000000000E+00  1.2876899665E+01
          spgroup         186
           strten      0.0000000000E+00  0.0000000000E+00  0.0000000000E+00
                       0.0000000000E+00  0.0000000000E+00  0.0000000000E+00
           symrel      1  0  0   0  1  0   0  0  1       0  1  0   1  0  0   0  0  1
                       1  1  0  -1  0  0   0  0  1      -1  0  0   1  1  0   0  0  1
                       0  1  0  -1 -1  0   0  0  1      -1 -1  0   0  1  0   0  0  1
                      -1  0  0   0 -1  0   0  0  1       0 -1  0  -1  0  0   0  0  1
                      -1 -1  0   1  0  0   0  0  1       1  0  0  -1 -1  0   0  0  1
                       0 -1  0   1  1  0   0  0  1       1  1  0   0 -1  0   0  0  1
            tnons      0.0000000  0.0000000  0.0000000     0.0000000  0.0000000  0.5000000
                       0.0000000  0.0000000  0.5000000     0.0000000  0.0000000  0.0000000
                       0.0000000  0.0000000  0.0000000     0.0000000  0.0000000  0.5000000
                       0.0000000  0.0000000  0.5000000     0.0000000  0.0000000  0.0000000
                       0.0000000  0.0000000  0.0000000     0.0000000  0.0000000  0.5000000
                       0.0000000  0.0000000  0.5000000     0.0000000  0.0000000  0.0000000
           tolwfr      1.00000000E-20
            typat      1  1  2  2
           useylm           1
           xangst      0.0000000000E+00  2.3966795857E+00  1.3696465259E-03
                       2.0755854059E+00  1.1983397928E+00  3.4084505566E+00
                       0.0000000000E+00  2.3966795857E+00  2.5539478502E+00
                       2.0755854059E+00  1.1983397928E+00  5.9610287603E+00
            xcart      0.0000000000E+00  4.5290680452E+00  2.5882568327E-03
                       3.9222879826E+00  2.2645340226E+00  6.4410380895E+00
                       0.0000000000E+00  4.5290680452E+00  4.8262619946E+00
                       3.9222879826E+00  2.2645340226E+00  1.1264711827E+01
             xred      3.3333333333E-01  6.6666666667E-01  2.0100000000E-04
                       6.6666666667E-01  3.3333333333E-01  5.0020100000E-01
                       3.3333333333E-01  6.6666666667E-01  3.7480000000E-01
                       6.6666666667E-01  3.3333333333E-01  8.7480000000E-01
            znucl       49.00000   15.00000

- Timing analysis has been suppressed with timopt=0

 Suggested references for the acknowledgment of ABINIT usage.

 Calculation completed.
.Delivered   6 WARNINGs and   5 COMMENTs to log file.