.Version 9.5.1 of ABINIT

 ABINIT is a project of the Universite Catholique de Louvain,
 Corning Inc. and other collaborators, see ~abinit/doc/developers/contributors.txt .
 acknowledgments of the ABINIT effort.

.Starting date : Mon 26 Apr 2021.
- ( at 00h47 )

- input  file    -> /scratch/users/j/a/jabreu/flow_simple/flow/w95/t1/run.abi
- output file    -> /scratch/users/j/a/jabreu/flow_simple/flow/w95/t1/run.abo
- root for input  files -> /scratch/users/j/a/jabreu/flow_simple/flow/w95/t1/indata/in
- root for output files -> /scratch/users/j/a/jabreu/flow_simple/flow/w95/t1/outdata/out

 Symmetries : space group F-4 3 m (#216); Bravais cF (face-center cubic)
     intxc =       0      iscf =       7    lmnmax =      18     lnmax =       6
     mgfft =      48  mpssoang =       3    mqgrid =    3001     natom =       3
  nloc_mem =       1    nspden =       1   nspinor =       1    nsppol =       1
      nsym =      24    n1xccc =    2501    ntypat =       3    occopt =       1
   xclevel =       2
-    mband =          31        mffmem =           1         mkmem =           2
-   mkqmem =           2        mk1mem =           2           mpw =        5120
      nfft =      110592          nkpt =           2
  Rough estimation (10% accuracy) of disk space for files :

------------- Echo of variables that govern the present computation ------------
-
- outvars: echo of selected default values
-   iomode0 =  0 , fftalg0 =512 , wfoptalg0 =  0
-
- outvars: echo of global parameters not present in the input file
-  max_nthreads =    0
-
 -outvars: echo values of preprocessed input variables --------
            acell      1.0000000000E+00  1.0000000000E+00  1.0000000000E+00 Bohr
              amu      4.78800000E+01  5.58470000E+01  1.27600000E+02
             ecut      4.70000000E+01 Hartree
-          fftalg         512
           irdden           1
           irdwfk           1
           istwfk        1    1
              ixc     -116133
              kpt      5.00000000E-01  5.00000000E-01  5.00000000E-01
                       5.00000000E-01  0.00000000E+00  5.00000000E-01
           kptopt           0
P           mkmem           2
P          mkqmem           2
P          mk1mem           2
            natom           3
            nband          31
           nbdbuf           4
            ngfft          48      48      48
             nkpt           2
            nstep         100
             nsym          24
           ntypat           3
              occ      2.000000  2.000000  2.000000  2.000000  2.000000  2.000000
                       2.000000  2.000000  2.000000  2.000000  2.000000  2.000000
                       2.000000  2.000000  2.000000  2.000000  2.000000  2.000000
                       2.000000  2.000000  2.000000  2.000000  0.000000  0.000000
                       0.000000  0.000000  0.000000  0.000000  0.000000  0.000000
                       0.000000
        optdriver           1
            prtwf          -1
            rfdir           1       1       1
           rfelfd           2
            rprim      6.7270488152E+00  0.0000000000E+00  3.8838634443E+00
                       2.2423496051E+00  6.3423224462E+00  3.8838634443E+00
                       0.0000000000E+00  0.0000000000E+00  7.7677268887E+00
          spgroup         216
           symrel      1  0  0   0  1  0   0  0  1       0 -1  1   0 -1  0   1 -1  0
                      -1  0  0  -1  0  1  -1  1  0       0  1 -1   1  0 -1   0  0 -1
                      -1  0  0  -1  1  0  -1  0  1       0 -1  1   1 -1  0   0 -1  0
                       1  0  0   0  0  1   0  1  0       0  1 -1   0  0 -1   1  0 -1
                      -1  0  1  -1  1  0  -1  0  0       0 -1  0   1 -1  0   0 -1  1
                       1  0 -1   0  0 -1   0  1 -1       0  1  0   0  0  1   1  0  0
                       1  0 -1   0  1 -1   0  0 -1       0 -1  0   0 -1  1   1 -1  0
                      -1  0  1  -1  0  0  -1  1  0       0  1  0   1  0  0   0  0  1
                       0  0 -1   0  1 -1   1  0 -1       1 -1  0   0 -1  1   0 -1  0
                       0  0  1   1  0  0   0  1  0      -1  1  0  -1  0  0  -1  0  1
                       0  0  1   0  1  0   1  0  0       1 -1  0   0 -1  0   0 -1  1
                       0  0 -1   1  0 -1   0  1 -1      -1  1  0  -1  0  1  -1  0  0
           tolwfr      1.00000000E-20
            typat      1  2  3
           useylm           1
              wtk        0.50000    0.50000
           xangst      2.3732006094E+00  1.6781062440E+00  4.1105040320E+00
                       1.1866003047E+00  8.3905312201E-01  2.0552520160E+00
                       0.0000000000E+00  0.0000000000E+00  0.0000000000E+00
            xcart      4.4846992101E+00  3.1711612231E+00  7.7677268886E+00
                       2.2423496051E+00  1.5855806115E+00  3.8838634443E+00
                       0.0000000000E+00  0.0000000000E+00  0.0000000000E+00
             xred      5.0000000000E-01  5.0000000000E-01  5.0000000000E-01
                       2.5000000000E-01  2.5000000000E-01  2.5000000000E-01
                       0.0000000000E+00  0.0000000000E+00  0.0000000000E+00
            znucl       22.00000   26.00000   52.00000

 chkinp: Checking input parameters for consistency.

== DATASET  1 ==================================================================
-   mpi_nproc: 1, omp_nthreads: -1 (-1 if OMP is not activated)

--- !DatasetInfo
iteration_state: {dtset: 1, }
dimensions: {natom: 3, nkpt: 2, mband: 31, nsppol: 1, nspinor: 1, nspden: 1, mpw: 5120, }
cutoff_energies: {ecut:  47.0, pawecutdg:  -1.0, }
electrons: {nelect:   4.40000000E+01, charge:   0.00000000E+00, occopt:   1.00000000E+00, tsmear:   1.00000000E-02, }
meta: {optdriver: 1, rfelfd: 2, }
...

 Real(R)+Recip(G) space primitive vectors, cartesian coordinates (Bohr,Bohr^-1):
 R(1)=  6.7270488  0.0000000  3.8838634  G(1)=  0.1486536 -0.0525570  0.0000000
 R(2)=  2.2423496  6.3423224  3.8838634  G(2)=  0.0000000  0.1576709  0.0000000
 R(3)=  0.0000000  0.0000000  7.7677269  G(3)= -0.0743268 -0.0525570  0.1287378
 Unit cell volume ucvol=  3.3141094E+02 bohr^3
 Angles (23,13,12)=  6.00000000E+01  6.00000000E+01  6.00000000E+01 degrees

 getcut: wavevector=  0.0000  0.0000  0.0000  ngfft=  48  48  48
         ecut(hartree)=     47.000   => boxcut(ratio)=   2.00232

--- Pseudopotential description ------------------------------------------------
- pspini: atom type   1  psp file is /scratch/users/j/a/jabreu/pseudos/PBEsol/Ti.psp8
- pspatm: opening atomic psp file    /scratch/users/j/a/jabreu/pseudos/PBEsol/Ti.psp8
- Ti    ONCVPSP-3.3.0  r_core=   1.35825   1.31050   1.66360
- 22.00000  12.00000    180112                znucl, zion, pspdat
    8 -116133    2    4       600   0.00000   pspcod,pspxc,lmax,lloc,mmax,r2well
    5.99000000000000    2.50000000000000    0.00000000000000   rchrg,fchrg,qchrg
     nproj     2     2     2
     extension_switch     1
  pspatm : epsatm=   14.76919902
         --- l  ekb(1:nproj) -->
             0   11.321950    1.254474
             1    1.946894   -0.084268
             2   -5.237105   -1.488377
 pspatm: atomic psp has been read  and splines computed

- pspini: atom type   2  psp file is /scratch/users/j/a/jabreu/pseudos/PBEsol/Fe.psp8
- pspatm: opening atomic psp file    /scratch/users/j/a/jabreu/pseudos/PBEsol/Fe.psp8
- Fe    ONCVPSP-3.3.0  r_core=   1.26437   1.20546   1.56719
- 26.00000  16.00000    180112                znucl, zion, pspdat
    8 -116133    2    4       600   0.00000   pspcod,pspxc,lmax,lloc,mmax,r2well
    5.99000000000000    3.00000000000000    0.00000000000000   rchrg,fchrg,qchrg
     nproj     2     2     2
     extension_switch     1
  pspatm : epsatm=   15.04792780
         --- l  ekb(1:nproj) -->
             0   10.133364    1.456638
             1    1.580231   -0.508538
             2   -5.545701   -2.037616
 pspatm: atomic psp has been read  and splines computed

- pspini: atom type   3  psp file is /scratch/users/j/a/jabreu/pseudos/PBEsol/Te.psp8
- pspatm: opening atomic psp file    /scratch/users/j/a/jabreu/pseudos/PBEsol/Te.psp8
- Te    ONCVPSP-3.3.0  r_core=   2.26547   1.91704   1.80604
- 52.00000  16.00000    180112                znucl, zion, pspdat
    8 -116133    2    4       600   0.00000   pspcod,pspxc,lmax,lloc,mmax,r2well
    5.99000000000000    5.00000000000000    0.00000000000000   rchrg,fchrg,qchrg
     nproj     2     2     2
     extension_switch     1
  pspatm : epsatm=   36.82679836
         --- l  ekb(1:nproj) -->
             0    6.345999    0.785432
             1    5.709019    1.070069
             2   -6.035173   -1.870937
 pspatm: atomic psp has been read  and splines computed

   2.93233271E+03                                ecore*ucvol(ha*bohr**3)

-inwffil : will read wavefunctions from disk file /scratch/users/j/a/jabreu/flow_simple/flow/w95/t1/indata/in_WFK

 ==>  initialize data related to q vector <==

 The list of irreducible perturbations for this q vector is:
    1)    idir= 1    ipert=   4
    2)    idir= 2    ipert=   4
    3)    idir= 3    ipert=   4

 Perturbation wavevector (in red.coord.)   0.000000  0.000000  0.000000
 Perturbation : derivative vs k along direction   1

 dfpt_looppert : COMMENT -
  In a d/dk calculation, iscf is set to -3 automatically.
 The set of symmetries contains only one element for this perturbation.
 symkpt : not enough symmetry to change the number of k points.

[...]

 Initialisation of the first-order wave-functions :
  ireadwf=   0

--- !BeginCycle
iteration_state: {dtset: 1, }
solver: {iscf: 7, nstep: 100, nline: 4, wfoptalg: 0, }
tolerances: {tolwfr: 1.00E-20, }
...

     iter   2DEtotal(Ha)        deltaE(Ha) residm    vres2
-ETOT  1  -64.800972678073     -6.480E+01 8.877E-02 0.000E+00
 ETOT  2  -64.863673330283     -6.270E-02 1.535E-03 0.000E+00
 ETOT  3  -64.864090836352     -4.175E-04 5.309E-05 0.000E+00
 ETOT  4  -64.864096478509     -5.642E-06 1.841E-06 0.000E+00
 ETOT  5  -64.864096567958     -8.945E-08 9.198E-08 0.000E+00
 ETOT  6  -64.864096569495     -1.536E-09 4.197E-09 0.000E+00
 ETOT  7  -64.864096569523     -2.798E-11 2.227E-10 0.000E+00
 ETOT  8  -64.864096569523     -5.400E-13 1.068E-11 0.000E+00
 ETOT  9  -64.864096569523      1.421E-14 5.856E-13 0.000E+00
 ETOT 10  -64.864096569523     -1.421E-14 2.781E-14 0.000E+00
 ETOT 11  -64.864096569523     -1.421E-14 1.574E-15 0.000E+00
 ETOT 12  -64.864096569523      0.000E+00 7.416E-17 0.000E+00
 ETOT 13  -64.864096569523      0.000E+00 4.300E-18 0.000E+00
 ETOT 14  -64.864096569523      1.421E-14 2.024E-19 0.000E+00
 ETOT 15  -64.864096569523      0.000E+00 1.190E-20 0.000E+00
 ETOT 16  -64.864096569523     -1.421E-14 9.943E-21 0.000E+00

 At SCF step   16   max residual=  9.94E-21 < tolwfr=  1.00E-20 =>converged.

 ----iterations are completed or convergence reached----

 dfpt_looppert: DFPT cycle converged with prtwf=-1. Will skip output of the 1st-order WFK file.
 dfpt_looppert : ek2=    8.6366590043E+01
          f-sum rule ratio=    1.0369482531E+00
 prteigrs : about to open file /scratch/users/j/a/jabreu/flow_simple/flow/w95/t1/tmpdata/tmp_1WF1_EIG
 Expectation of eigenvalue derivatives (hartree) for nkpt=   2  k points:
  (in case of degenerate eigenvalues, averaged derivative)
 kpt#   1, nband= 31, wtk=  0.50000, kpt=  0.5000  0.5000  0.5000 (reduced coord)
  -0.00000    0.00000   -0.00000   -0.00000   -0.00000    0.00000    0.00000   -0.00000
   0.00000    0.00000    0.00000    0.00000    0.00000    0.00000   -0.00000    0.00000
   0.00000    0.00000    0.00000   -0.00000    0.00000    0.00000   -0.00000   -0.00000
  -0.00000   -0.00000   -0.00000   -0.00000   -0.00000   -0.00000   -0.00000
 prteigrs : prtvol=0 or 1, do not print more k-points.

 Eight components of 2nd-order total energy (hartree) are
 1,2,3: 0th-order hamiltonian combined with 1st-order wavefunctions
     kin0=   6.64208113E+01 eigvalue=   4.20658626E+00  local=  -2.92065380E+01
 4,5,6: 1st-order hamiltonian combined with 1st and 0th-order wfs
     kin1=  -8.95576847E+01  Hartree=   0.00000000E+00     xc=   0.00000000E+00
 7,8,9: eventually, occupation + non-local contributions
    edocc=   1.77942858E+01     enl0=   5.64895127E+00   enl1=  -4.01705085E+01
 1-9 gives the relaxation energy (to be shifted if some occ is /=2.0)
   erelax=  -6.48640966E+01
  No Ewald or frozen-wf contrib.: the relaxation energy is the total one
 2DEtotal=   -0.6486409657E+02 Ha. Also 2DEtotal=   -0.176504183049E+04 eV
    (  non-var. 2DEtotal :   -6.4864096569E+01 Ha)

 Perturbation wavevector (in red.coord.)   0.000000  0.000000  0.000000
 Perturbation : derivative vs k along direction   2
 The set of symmetries contains only one element for this perturbation.
 symkpt : not enough symmetry to change the number of k points.

[...]

 Perturbation wavevector (in red.coord.)   0.000000  0.000000  0.000000
 Perturbation : derivative vs k along direction   3
 The set of symmetries contains only one element for this perturbation.
 symkpt : not enough symmetry to change the number of k points.

-inwffil : will read wavefunctions from disk file /scratch/users/j/a/jabreu/flow_simple/flow/w95/t1/indata/in_WFK

 Initialisation of the first-order wave-functions :
  ireadwf=   0

--- !BeginCycle
iteration_state: {dtset: 1, }
solver: {iscf: 7, nstep: 100, nline: 4, wfoptalg: 0, }
tolerances: {tolwfr: 1.00E-20, }
...

     iter   2DEtotal(Ha)        deltaE(Ha) residm    vres2
-ETOT  1  -64.801734912089     -6.480E+01 9.024E-02 0.000E+00
 ETOT  2  -64.863636069113     -6.190E-02 3.454E-03 0.000E+00
 ETOT  3  -64.864048818168     -4.127E-04 1.195E-04 0.000E+00
 ETOT  4  -64.864054422638     -5.604E-06 5.040E-06 0.000E+00
 ETOT  5  -64.864054511902     -8.926E-08 1.944E-07 0.000E+00
 ETOT  6  -64.864054513441     -1.539E-09 1.048E-08 0.000E+00
 ETOT  7  -64.864054513469     -2.814E-11 4.412E-10 0.000E+00
 ETOT  8  -64.864054513469     -4.690E-13 2.646E-11 0.000E+00
 ETOT  9  -64.864054513470     -4.263E-14 1.098E-12 0.000E+00
 ETOT 10  -64.864054513470     -2.842E-14 6.666E-14 0.000E+00
 ETOT 11  -64.864054513470      0.000E+00 2.753E-15 0.000E+00
 ETOT 12  -64.864054513470      5.684E-14 1.681E-16 0.000E+00
 ETOT 13  -64.864054513470      0.000E+00 6.965E-18 0.000E+00
 ETOT 14  -64.864054513470      0.000E+00 4.280E-19 0.000E+00
 ETOT 15  -64.864054513470      0.000E+00 1.779E-20 0.000E+00
 ETOT 16  -64.864054513470      0.000E+00 9.943E-21 0.000E+00

 At SCF step   16   max residual=  9.94E-21 < tolwfr=  1.00E-20 =>converged.

 ----iterations are completed or convergence reached----

 dfpt_looppert: DFPT cycle converged with prtwf=-1. Will skip output of the 1st-order WFK file.
 dfpt_looppert : ek2=    8.6366590040E+01
          f-sum rule ratio=    1.0369480316E+00
 prteigrs : about to open file /scratch/users/j/a/jabreu/flow_simple/flow/w95/t1/tmpdata/tmp_1WF1_EIG
 Expectation of eigenvalue derivatives (hartree) for nkpt=   2  k points:
  (in case of degenerate eigenvalues, averaged derivative)
 kpt#   1, nband= 31, wtk=  0.50000, kpt=  0.5000  0.5000  0.5000 (reduced coord)
   0.00000    0.00000    0.00000    0.00000   -0.00000   -0.00000   -0.00000   -0.00000
  -0.00000   -0.00000    0.00000   -0.00000   -0.00000    0.00000    0.00000   -0.00000
  -0.00000    0.00000    0.00000    0.00000   -0.00000   -0.00000   -0.00000   -0.00000
  -0.00000    0.00000   -0.00000   -0.00000    0.00000    0.00000    0.00000
 prteigrs : prtvol=0 or 1, do not print more k-points.

 Eight components of 2nd-order total energy (hartree) are
 1,2,3: 0th-order hamiltonian combined with 1st-order wavefunctions
     kin0=   6.64279089E+01 eigvalue=   4.21147981E+00  local=  -2.92140899E+01
 4,5,6: 1st-order hamiltonian combined with 1st and 0th-order wfs
     kin1=  -8.95576655E+01  Hartree=   0.00000000E+00     xc=   0.00000000E+00
 7,8,9: eventually, occupation + non-local contributions
    edocc=   1.77893454E+01     enl0=   5.64941042E+00   enl1=  -4.01704435E+01
 1-9 gives the relaxation energy (to be shifted if some occ is /=2.0)
   erelax=  -6.48640545E+01
  No Ewald or frozen-wf contrib.: the relaxation energy is the total one
 2DEtotal=   -0.6486405451E+02 Ha. Also 2DEtotal=   -0.176504068608E+04 eV
    (  non-var. 2DEtotal :   -6.4864054513E+01 Ha)

 CALCULATION OF EFFECTIVE MASSES
 NOTE : Additional infos (eff. mass eigenvalues, eigenvectors and, if degenerate, average mass) are available in stdout.

 COMMENTS:
 - At k-point ( 0.500, 0.500, 0.500), bands    21 through    22
   are DEGENERATE (effective mass tensor is therefore not defined).
   See Section IIIB Eqs. (67)-(70) and Appendix E of PRB 93 205147 (2016).
 - Angular average effective mass for Frohlich model is to be averaged over degenerate bands. See later.
 - Associated theta integrals calculated with ntheta=   1000 points.

 K-point ( 0.500, 0.500, 0.500) | band =    21
 Transport equivalent effective mass tensor:
             -1.0082010062             -0.0524990439             -0.1285951472
             -0.0524990439             -0.9710796176             -0.0909307185
             -0.1285951472             -0.0909307185             -1.1566905520
 Transport equivalent effective mass tensor eigenvalues:
             -1.2680573000             -0.9339572515             -0.9339566243
 Angular average effective mass 1/(<1/m>)=  -1.0126985983
 Angular average effective mass for Frohlich model (<m**0.5>)**2=  -1.0191335006
 Effective masses along directions: (cart. coord. / red. coord. -> eff. mass)
    1:   1.000000  0.000000  0.000000 /   0.948683  0.316228  0.000000 ->  -0.9563321417
    2:   0.000000  1.000000  0.000000 /   0.000000  1.000000  0.000000 ->  -0.9221335440
    3:   0.000000  0.000000  1.000000 /   0.408248  0.408248  0.816497 ->  -1.0696166537
    4:   0.577350  0.577350  0.577350 /   0.585539  0.688047  0.428644 ->  -1.2011943406
    5:   0.000000  0.707107  0.707107 /   0.289489  0.762222  0.578977 ->  -1.1267277425
    6:   0.707107  0.000000  0.707107 /   0.731423  0.422287  0.535439 ->  -1.1571833701
    7:   0.707107  0.707107  0.000000 /   0.616798  0.787122  0.000000 ->  -1.0577335058

 K-point ( 0.500, 0.500, 0.500) | band =    22
 Transport equivalent effective mass tensor:
             -1.3489846677             -0.0006205870             -0.0015209109
             -0.0006205870             -1.3485446142             -0.0010752144
             -0.0015209109             -0.0010752144             -1.3507399318
 Transport equivalent effective mass tensor eigenvalues:
             -1.3520570511             -1.3481064661             -1.3481056965
 Angular average effective mass 1/(<1/m>)=  -1.3264241606
 Angular average effective mass for Frohlich model (<m**0.5>)**2=  -1.3277956428
 Effective masses along directions: (cart. coord. / red. coord. -> eff. mass)
    1:   1.000000  0.000000  0.000000 /   0.948683  0.316228  0.000000 ->  -1.3764911555
    2:   0.000000  1.000000  0.000000 /   0.000000  1.000000  0.000000 ->  -1.3918185500
    3:   0.000000  0.000000  1.000000 /   0.408248  0.408248  0.816497 ->  -1.4003352604
    4:   0.577350  0.577350  0.577350 /   0.585539  0.688047  0.428644 ->  -1.3183934630
    5:   0.000000  0.707107  0.707107 /   0.289489  0.762222  0.578977 ->  -1.3105164987
    6:   0.707107  0.000000  0.707107 /   0.731423  0.422287  0.535439 ->  -1.3517209899
    7:   0.707107  0.707107  0.000000 /   0.616798  0.787122  0.000000 ->  -1.2522070007

 Angular average effective mass for Frohlich model, averaged over degenerate bands.
 Value of     (<<m**0.5>>)**2 =     1.168368E+00
 Absolute Value of <<m**0.5>> =     1.080911E+00

 K-point ( 0.500, 0.000, 0.500) | band =    23
 Effective mass tensor:
              0.6297157818             -0.0545137320              0.0667710053
             -0.0545137320              0.6682637174             -0.0944281821
              0.0667710053             -0.0944281821              0.7068104136
 Effective mass tensor eigenvalues:
              0.5911598647              0.5911690730              0.8224609750
 Angular average effective mass 1/(<1/m>)=   0.6523133918
 Angular average effective mass for Frohlich model (<m**0.5>)**2=   0.6567786810
 Effective masses along directions: (cart. coord. / red. coord. -> eff. mass)
    1:   1.000000  0.000000  0.000000 /   0.948683  0.316228  0.000000 ->   0.6202375324
    2:   0.000000  1.000000  0.000000 /   0.000000  1.000000  0.000000 ->   0.6523138483
    3:   0.000000  0.000000  1.000000 /   0.408248  0.408248  0.816497 ->   0.6878873079
    4:   0.577350  0.577350  0.577350 /   0.585539  0.688047  0.428644 ->   0.6076543413
    5:   0.000000  0.707107  0.707107 /   0.289489  0.762222  0.578977 ->   0.5925646118
    6:   0.707107  0.000000  0.707107 /   0.731423  0.422287  0.535439 ->   0.7164991294
    7:   0.707107  0.707107  0.000000 /   0.616798  0.787122  0.000000 ->   0.5935556221

 END OF EFFECTIVE MASSES SECTION

 ---- first-order wavefunction calculations are completed ----

 Total localisation tensor (bohr^2) in cartesian coordinates
  WARNING : still subject to testing - especially symmetries.
      direction              matrix element
   alpha     beta       real part   imaginary part
     1        1       1.3394394290    0.0000000000
     1        2       0.3788503709    0.0000000000
     1        3       0.9279907311    0.0000000000
     2        1       0.3788503709    0.0000000000
     2        2       1.0715506653    0.0000000000
     2        3       0.6561880909    0.0000000000
     3        1       0.9279907311    0.0000000000
     3        2       0.6561880909    0.0000000000
     3        3       2.4109930809    0.0000000000

 respfn : d/dk was computed, but no 2DTE, so no DDB output.

== END DATASET(S) ==============================================================

 -outvars: echo values of variables after computation  --------
            acell      1.0000000000E+00  1.0000000000E+00  1.0000000000E+00 Bohr
              amu      4.78800000E+01  5.58470000E+01  1.27600000E+02
             ecut      4.70000000E+01 Hartree
           etotal     -6.4864054513E+01
            fcart      0.0000000000E+00  0.0000000000E+00  0.0000000000E+00
                       0.0000000000E+00  0.0000000000E+00  0.0000000000E+00
                       0.0000000000E+00  0.0000000000E+00  0.0000000000E+00
-          fftalg         512
           irdden           1
           irdwfk           1
           istwfk        1    1
              ixc     -116133
              kpt      5.00000000E-01  5.00000000E-01  5.00000000E-01
                       5.00000000E-01  0.00000000E+00  5.00000000E-01
           kptopt           0
P           mkmem           2
P          mkqmem           2
P          mk1mem           2
            natom           3
            nband          31
           nbdbuf           4
            ngfft          48      48      48
             nkpt           2
            nstep         100
             nsym          24
           ntypat           3
              occ      2.000000  2.000000  2.000000  2.000000  2.000000  2.000000
                       2.000000  2.000000  2.000000  2.000000  2.000000  2.000000
                       2.000000  2.000000  2.000000  2.000000  2.000000  2.000000
                       2.000000  2.000000  2.000000  2.000000  0.000000  0.000000
                       0.000000  0.000000  0.000000  0.000000  0.000000  0.000000
                       0.000000
        optdriver           1
            prtwf          -1
            rfdir           1       1       1
           rfelfd           2
            rprim      6.7270488152E+00  0.0000000000E+00  3.8838634443E+00
                       2.2423496051E+00  6.3423224462E+00  3.8838634443E+00
                       0.0000000000E+00  0.0000000000E+00  7.7677268887E+00
          spgroup         216
           strten      0.0000000000E+00  0.0000000000E+00  0.0000000000E+00
                       0.0000000000E+00  0.0000000000E+00  0.0000000000E+00
           symrel      1  0  0   0  1  0   0  0  1       0 -1  1   0 -1  0   1 -1  0
                      -1  0  0  -1  0  1  -1  1  0       0  1 -1   1  0 -1   0  0 -1
                      -1  0  0  -1  1  0  -1  0  1       0 -1  1   1 -1  0   0 -1  0
                       1  0  0   0  0  1   0  1  0       0  1 -1   0  0 -1   1  0 -1
                      -1  0  1  -1  1  0  -1  0  0       0 -1  0   1 -1  0   0 -1  1
                       1  0 -1   0  0 -1   0  1 -1       0  1  0   0  0  1   1  0  0
                       1  0 -1   0  1 -1   0  0 -1       0 -1  0   0 -1  1   1 -1  0
                      -1  0  1  -1  0  0  -1  1  0       0  1  0   1  0  0   0  0  1
                       0  0 -1   0  1 -1   1  0 -1       1 -1  0   0 -1  1   0 -1  0
                       0  0  1   1  0  0   0  1  0      -1  1  0  -1  0  0  -1  0  1
                       0  0  1   0  1  0   1  0  0       1 -1  0   0 -1  0   0 -1  1
                       0  0 -1   1  0 -1   0  1 -1      -1  1  0  -1  0  1  -1  0  0
           tolwfr      1.00000000E-20
            typat      1  2  3
           useylm           1
              wtk        0.50000    0.50000
           xangst      2.3732006094E+00  1.6781062440E+00  4.1105040320E+00
                       1.1866003047E+00  8.3905312201E-01  2.0552520160E+00
                       0.0000000000E+00  0.0000000000E+00  0.0000000000E+00
            xcart      4.4846992101E+00  3.1711612231E+00  7.7677268886E+00
                       2.2423496051E+00  1.5855806115E+00  3.8838634443E+00
                       0.0000000000E+00  0.0000000000E+00  0.0000000000E+00
             xred      5.0000000000E-01  5.0000000000E-01  5.0000000000E-01
                       2.5000000000E-01  2.5000000000E-01  2.5000000000E-01
                       0.0000000000E+00  0.0000000000E+00  0.0000000000E+00
            znucl       22.00000   26.00000   52.00000

- Timing analysis has been suppressed with timopt=0

 Suggested references for the acknowledgment of ABINIT usage.

 Calculation completed.
.Delivered  14 WARNINGs and   9 COMMENTs to log file.