.Version 9.5.1 of ABINIT

 ABINIT is a project of the Universite Catholique de Louvain,
 Corning Inc. and other collaborators, see ~abinit/doc/developers/contributors.txt .
 acknowledgments of the ABINIT effort.

.Starting date : Mon 26 Apr 2021.
- ( at 00h47 )

- input  file    -> /scratch/users/j/a/jabreu/flow_simple/flow/w110/t1/run.abi
- output file    -> /scratch/users/j/a/jabreu/flow_simple/flow/w110/t1/run.abo
- root for input  files -> /scratch/users/j/a/jabreu/flow_simple/flow/w110/t1/indata/in
- root for output files -> /scratch/users/j/a/jabreu/flow_simple/flow/w110/t1/outdata/out

 Symmetries : space group F-4 3 m (#216); Bravais cF (face-center cubic)
     intxc =       0      iscf =       7    lmnmax =      18     lnmax =       6
     mgfft =      48  mpssoang =       3    mqgrid =    3001     natom =       3
  nloc_mem =       1    nspden =       1   nspinor =       1    nsppol =       1
      nsym =      24    n1xccc =    2501    ntypat =       3    occopt =       1
   xclevel =       2
-    mband =          31        mffmem =           1         mkmem =           2
-   mkqmem =           2        mk1mem =           2           mpw =        5056
      nfft =      110592          nkpt =           2
  Rough estimation (10% accuracy) of disk space for files :

------------- Echo of variables that govern the present computation ------------
-
- outvars: echo of selected default values
-   iomode0 =  0 , fftalg0 =512 , wfoptalg0 =  0
-
- outvars: echo of global parameters not present in the input file
-  max_nthreads =    0
-
 -outvars: echo values of preprocessed input variables --------
            acell      1.0000000000E+00  1.0000000000E+00  1.0000000000E+00 Bohr
              amu      4.78800000E+01  1.18710000E+02  1.06420000E+02
             ecut      4.20000000E+01 Hartree
-          fftalg         512
           irdden           1
           irdwfk           1
           istwfk        1    1
              ixc     -116133
              kpt      0.00000000E+00  0.00000000E+00  0.00000000E+00
                       5.00000000E-01  1.23259516E-32  5.00000000E-01
           kptopt           0
P           mkmem           2
P          mkqmem           2
P          mk1mem           2
            natom           3
            nband          31
           nbdbuf           4
            ngfft          48      48      48
             nkpt           2
            nstep         100
             nsym          24
           ntypat           3
              occ      2.000000  2.000000  2.000000  2.000000  2.000000  2.000000
                       2.000000  2.000000  2.000000  2.000000  2.000000  2.000000
                       2.000000  2.000000  2.000000  2.000000  2.000000  2.000000
                       2.000000  2.000000  2.000000  2.000000  0.000000  0.000000
                       0.000000  0.000000  0.000000  0.000000  0.000000  0.000000
                       0.000000
        optdriver           1
            prtwf          -1
            rfdir           1       1       1
           rfelfd           2
            rprim      7.0990012076E+00  0.0000000000E+00  4.0986102582E+00
                       2.3663337359E+00  6.6930025247E+00  4.0986102582E+00
                       0.0000000000E+00  0.0000000000E+00  8.1972205164E+00
          spgroup         216
           symrel      1  0  0   0  1  0   0  0  1       0 -1  1   0 -1  0   1 -1  0
                      -1  0  0  -1  0  1  -1  1  0       0  1 -1   1  0 -1   0  0 -1
                      -1  0  0  -1  1  0  -1  0  1       0 -1  1   1 -1  0   0 -1  0
                       1  0  0   0  0  1   0  1  0       0  1 -1   0  0 -1   1  0 -1
                      -1  0  1  -1  1  0  -1  0  0       0 -1  0   1 -1  0   0 -1  1
                       1  0 -1   0  0 -1   0  1 -1       0  1  0   0  0  1   1  0  0
                       1  0 -1   0  1 -1   0  0 -1       0 -1  0   0 -1  1   1 -1  0
                      -1  0  1  -1  0  0  -1  1  0       0  1  0   1  0  0   0  0  1
                       0  0 -1   0  1 -1   1  0 -1       1 -1  0   0 -1  1   0 -1  0
                       0  0  1   1  0  0   0  1  0      -1  1  0  -1  0  0  -1  0  1
                       0  0  1   0  1  0   1  0  0       1 -1  0   0 -1  0   0 -1  1
                       0  0 -1   1  0 -1   0  1 -1      -1  1  0  -1  0  1  -1  0  0
           tolwfr      1.00000000E-20
            typat      1  2  3
           useylm           1
              wtk        0.50000    0.50000
           xangst      1.2522098809E+00  8.8544609828E-01  2.1688911355E+00
                       3.7566296428E+00  2.6563382948E+00  6.5066734066E+00
                       2.5044197619E+00  1.7708921966E+00  4.3377822711E+00
            xcart      2.3663337359E+00  1.6732506312E+00  4.0986102582E+00
                       7.0990012076E+00  5.0197518935E+00  1.2295830775E+01
                       4.7326674718E+00  3.3465012623E+00  8.1972205164E+00
             xred      2.5000000000E-01  2.5000000000E-01  2.5000000000E-01
                       7.5000000000E-01  7.5000000000E-01  7.5000000000E-01
                       5.0000000000E-01  5.0000000000E-01  5.0000000000E-01
            znucl       22.00000   50.00000   46.00000

 chkinp: Checking input parameters for consistency.

== DATASET  1 ==================================================================
-   mpi_nproc: 1, omp_nthreads: -1 (-1 if OMP is not activated)

--- !DatasetInfo
iteration_state: {dtset: 1, }
dimensions: {natom: 3, nkpt: 2, mband: 31, nsppol: 1, nspinor: 1, nspden: 1, mpw: 5056, }
cutoff_energies: {ecut:  42.0, pawecutdg:  -1.0, }
electrons: {nelect:   4.40000000E+01, charge:   0.00000000E+00, occopt:   1.00000000E+00, tsmear:   1.00000000E-02, }
meta: {optdriver: 1, rfelfd: 2, }
...

 Real(R)+Recip(G) space primitive vectors, cartesian coordinates (Bohr,Bohr^-1):
 R(1)=  7.0990012  0.0000000  4.0986103  G(1)=  0.1408649 -0.0498033  0.0000000
 R(2)=  2.3663337  6.6930025  4.0986103  G(2)=  0.0000000  0.1494098  0.0000000
 R(3)=  0.0000000  0.0000000  8.1972205  G(3)= -0.0704324 -0.0498033  0.1219926
 Unit cell volume ucvol=  3.8947973E+02 bohr^3
 Angles (23,13,12)=  6.00000000E+01  6.00000000E+01  6.00000000E+01 degrees

 getcut: wavevector=  0.0000  0.0000  0.0000  ngfft=  48  48  48
         ecut(hartree)=     42.000   => boxcut(ratio)=   2.00717

--- Pseudopotential description ------------------------------------------------
- pspini: atom type   1  psp file is /scratch/users/j/a/jabreu/pseudos/PBEsol/Ti.psp8
- pspatm: opening atomic psp file    /scratch/users/j/a/jabreu/pseudos/PBEsol/Ti.psp8
- Ti    ONCVPSP-3.3.0  r_core=   1.35825   1.31050   1.66360
- 22.00000  12.00000    180112                znucl, zion, pspdat
    8 -116133    2    4       600   0.00000   pspcod,pspxc,lmax,lloc,mmax,r2well
    5.99000000000000    2.50000000000000    0.00000000000000   rchrg,fchrg,qchrg
     nproj     2     2     2
     extension_switch     1
  pspatm : epsatm=   14.76919902
         --- l  ekb(1:nproj) -->
             0   11.321950    1.254474
             1    1.946894   -0.084268
             2   -5.237105   -1.488377
 pspatm: atomic psp has been read  and splines computed

- pspini: atom type   2  psp file is /scratch/users/j/a/jabreu/pseudos/PBEsol/Sn.psp8
- pspatm: opening atomic psp file    /scratch/users/j/a/jabreu/pseudos/PBEsol/Sn.psp8
- Sn    ONCVPSP-3.3.0  r_core=   2.27326   2.62311   1.85601
- 50.00000  14.00000    180112                znucl, zion, pspdat
    8 -116133    2    4       600   0.00000   pspcod,pspxc,lmax,lloc,mmax,r2well
    5.99000000000000    6.50000000000000    0.00000000000000   rchrg,fchrg,qchrg
     nproj     2     2     2
     extension_switch     1
  pspatm : epsatm=   32.44586081
         --- l  ekb(1:nproj) -->
             0    5.587869    0.749373
             1    4.197111    0.728791
             2   -5.271877   -1.523486
 pspatm: atomic psp has been read  and splines computed

- pspini: atom type   3  psp file is /scratch/users/j/a/jabreu/pseudos/PBEsol/Pd.psp8
- pspatm: opening atomic psp file    /scratch/users/j/a/jabreu/pseudos/PBEsol/Pd.psp8
- Pd    ONCVPSP-3.3.0  r_core=   1.41052   1.46191   1.55175
- 46.00000  18.00000    180112                znucl, zion, pspdat
    8 -116133    2    4       600   0.00000   pspcod,pspxc,lmax,lloc,mmax,r2well
    5.99000000000000    7.00000000000000    0.00000000000000   rchrg,fchrg,qchrg
     nproj     2     2     2
     extension_switch     1
  pspatm : epsatm=   26.17262427
         --- l  ekb(1:nproj) -->
             0    7.952303   -2.096627
             1    3.304793   -0.572651
             2   -1.185452   -0.410427
 pspatm: atomic psp has been read  and splines computed

   3.22905810E+03                                ecore*ucvol(ha*bohr**3)

-inwffil : will read wavefunctions from disk file /scratch/users/j/a/jabreu/flow_simple/flow/w110/t1/indata/in_WFK

 ==>  initialize data related to q vector <==

 The list of irreducible perturbations for this q vector is:
    1)    idir= 1    ipert=   4
    2)    idir= 2    ipert=   4
    3)    idir= 3    ipert=   4

 Perturbation wavevector (in red.coord.)   0.000000  0.000000  0.000000
 Perturbation : derivative vs k along direction   1

 dfpt_looppert : COMMENT -
  In a d/dk calculation, iscf is set to -3 automatically.
 The set of symmetries contains only one element for this perturbation.
 symkpt : not enough symmetry to change the number of k points.

[...]

 Initialisation of the first-order wave-functions :
  ireadwf=   0

--- !BeginCycle
iteration_state: {dtset: 1, }
solver: {iscf: 7, nstep: 100, nline: 4, wfoptalg: 0, }
tolerances: {tolwfr: 1.00E-20, }
...

     iter   2DEtotal(Ha)        deltaE(Ha) residm    vres2
-ETOT  1  -59.466365815904     -5.947E+01 1.300E-01 0.000E+00
 ETOT  2  -59.513668736429     -4.730E-02 1.417E-02 0.000E+00
 ETOT  3  -59.513907295054     -2.386E-04 6.746E-04 0.000E+00
 ETOT  4  -59.513911170465     -3.875E-06 5.757E-05 0.000E+00
 ETOT  5  -59.513911278279     -1.078E-07 4.247E-06 0.000E+00
 ETOT  6  -59.513911282190     -3.911E-09 5.481E-07 0.000E+00
 ETOT  7  -59.513911282356     -1.656E-10 4.667E-08 0.000E+00
 ETOT  8  -59.513911282363     -7.375E-12 5.801E-09 0.000E+00
 ETOT  9  -59.513911282363     -3.837E-13 5.316E-10 0.000E+00
 ETOT 10  -59.513911282363      0.000E+00 6.322E-11 0.000E+00
 ETOT 11  -59.513911282363      2.842E-14 6.192E-12 0.000E+00
 ETOT 12  -59.513911282363     -2.132E-14 7.054E-13 0.000E+00
 ETOT 13  -59.513911282363     -2.132E-14 7.270E-14 0.000E+00
 ETOT 14  -59.513911282363      7.105E-15 7.988E-15 0.000E+00
 ETOT 15  -59.513911282363     -2.132E-14 8.614E-16 0.000E+00
 ETOT 16  -59.513911282363      4.263E-14 9.179E-17 0.000E+00
 ETOT 17  -59.513911282363     -2.842E-14 1.024E-17 0.000E+00
 ETOT 18  -59.513911282363      2.132E-14 1.067E-18 0.000E+00
 ETOT 19  -59.513911282363     -2.132E-14 1.222E-19 0.000E+00
 ETOT 20  -59.513911282363      1.421E-14 1.253E-20 0.000E+00
 ETOT 21  -59.513911282363      0.000E+00 9.772E-21 0.000E+00

 At SCF step   21   max residual=  9.77E-21 < tolwfr=  1.00E-20 =>converged.

 ----iterations are completed or convergence reached----

 dfpt_looppert: DFPT cycle converged with prtwf=-1. Will skip output of the 1st-order WFK file.
 dfpt_looppert : ek2=    7.7553326579E+01
          f-sum rule ratio=    1.1269517981E+00
 prteigrs : about to open file /scratch/users/j/a/jabreu/flow_simple/flow/w110/t1/tmpdata/tmp_1WF1_EIG
 Expectation of eigenvalue derivatives (hartree) for nkpt=   2  k points:
  (in case of degenerate eigenvalues, averaged derivative)
 kpt#   1, nband= 31, wtk=  0.50000, kpt=  0.0000  0.0000  0.0000 (reduced coord)
   0.00000    0.00000    0.00000    0.00000    0.00000   -0.00000   -0.00000   -0.00000
  -0.00000   -0.00000   -0.00000    0.00000    0.00000    0.00000   -0.00000   -0.00000
  -0.00000    0.00000    0.00000    0.00000    0.00000    0.00000   -0.00000   -0.00000
   0.00000    0.00000    0.00000   -0.00000   -0.00125    0.00001    0.00001
 prteigrs : prtvol=0 or 1, do not print more k-points.

 Eight components of 2nd-order total energy (hartree) are
 1,2,3: 0th-order hamiltonian combined with 1st-order wavefunctions
     kin0=   6.15365504E+01 eigvalue=   1.61369555E+00  local=  -2.78891902E+01
 4,5,6: 1st-order hamiltonian combined with 1st and 0th-order wfs
     kin1=  -8.73988608E+01  Hartree=   0.00000000E+00     xc=   0.00000000E+00
 7,8,9: eventually, occupation + non-local contributions
    edocc=   1.89586738E+01     enl0=   5.29418171E+00   enl1=  -3.16289617E+01
 1-9 gives the relaxation energy (to be shifted if some occ is /=2.0)
   erelax=  -5.95139113E+01
  No Ewald or frozen-wf contrib.: the relaxation energy is the total one
 2DEtotal=   -0.5951391128E+02 Ha. Also 2DEtotal=   -0.161945588491E+04 eV
    (  non-var. 2DEtotal :   -5.9513911282E+01 Ha)

 Perturbation wavevector (in red.coord.)   0.000000  0.000000  0.000000
 Perturbation : derivative vs k along direction   2
 The set of symmetries contains only one element for this perturbation.
 symkpt : not enough symmetry to change the number of k points.

[...]

 Perturbation wavevector (in red.coord.)   0.000000  0.000000  0.000000
 Perturbation : derivative vs k along direction   3
 The set of symmetries contains only one element for this perturbation.
 symkpt : not enough symmetry to change the number of k points.

-inwffil : will read wavefunctions from disk file /scratch/users/j/a/jabreu/flow_simple/flow/w110/t1/indata/in_WFK

 Initialisation of the first-order wave-functions :
  ireadwf=   0

--- !BeginCycle
iteration_state: {dtset: 1, }
solver: {iscf: 7, nstep: 100, nline: 4, wfoptalg: 0, }
tolerances: {tolwfr: 1.00E-20, }
...

     iter   2DEtotal(Ha)        deltaE(Ha) residm    vres2
-ETOT  1  -59.466950883550     -5.947E+01 3.549E-01 0.000E+00
 ETOT  2  -59.513419429076     -4.647E-02 1.302E-02 0.000E+00
 ETOT  3  -59.513679789920     -2.604E-04 1.628E-03 0.000E+00
 ETOT  4  -59.513684449562     -4.660E-06 5.379E-05 0.000E+00
 ETOT  5  -59.513684578989     -1.294E-07 1.020E-05 0.000E+00
 ETOT  6  -59.513684583550     -4.561E-09 5.024E-07 0.000E+00
 ETOT  7  -59.513684583738     -1.881E-10 8.194E-08 0.000E+00
 ETOT  8  -59.513684583747     -8.349E-12 5.086E-09 0.000E+00
 ETOT  9  -59.513684583747     -4.192E-13 6.757E-10 0.000E+00
 ETOT 10  -59.513684583747      0.000E+00 5.281E-11 0.000E+00
 ETOT 11  -59.513684583747     -1.421E-14 5.796E-12 0.000E+00
 ETOT 12  -59.513684583747      3.553E-14 5.615E-13 0.000E+00
 ETOT 13  -59.513684583747     -2.132E-14 5.052E-14 0.000E+00
 ETOT 14  -59.513684583747     -7.105E-15 6.054E-15 0.000E+00
 ETOT 15  -59.513684583747      7.105E-15 5.202E-16 0.000E+00
 ETOT 16  -59.513684583747      0.000E+00 6.630E-17 0.000E+00
 ETOT 17  -59.513684583747      0.000E+00 5.915E-18 0.000E+00
 ETOT 18  -59.513684583747      0.000E+00 7.349E-19 0.000E+00
 ETOT 19  -59.513684583747      0.000E+00 6.759E-20 0.000E+00
 ETOT 20  -59.513684583747      1.421E-14 9.227E-21 0.000E+00

 At SCF step   20   max residual=  9.23E-21 < tolwfr=  1.00E-20 =>converged.

 ----iterations are completed or convergence reached----

 dfpt_looppert: DFPT cycle converged with prtwf=-1. Will skip output of the 1st-order WFK file.
 dfpt_looppert : ek2=    7.7553326578E+01
          f-sum rule ratio=    1.1269477633E+00
 prteigrs : about to open file /scratch/users/j/a/jabreu/flow_simple/flow/w110/t1/tmpdata/tmp_1WF1_EIG
 Expectation of eigenvalue derivatives (hartree) for nkpt=   2  k points:
  (in case of degenerate eigenvalues, averaged derivative)
 kpt#   1, nband= 31, wtk=  0.50000, kpt=  0.0000  0.0000  0.0000 (reduced coord)
  -0.00000   -0.00000   -0.00000   -0.00000   -0.00000   -0.00000   -0.00000   -0.00000
  -0.00000   -0.00000   -0.00000    0.00000    0.00000   -0.00000    0.00000    0.00000
   0.00000   -0.00000   -0.00000    0.00000    0.00000    0.00000    0.00000    0.00000
  -0.00000   -0.00000   -0.00000    0.00000   -0.00438    0.00000    0.00000
 prteigrs : prtvol=0 or 1, do not print more k-points.

 Eight components of 2nd-order total energy (hartree) are
 1,2,3: 0th-order hamiltonian combined with 1st-order wavefunctions
     kin0=   6.13587202E+01 eigvalue=   1.64293327E+00  local=  -2.77478120E+01
 4,5,6: 1st-order hamiltonian combined with 1st and 0th-order wfs
     kin1=  -8.73985479E+01  Hartree=   0.00000000E+00     xc=   0.00000000E+00
 7,8,9: eventually, occupation + non-local contributions
    edocc=   1.89552352E+01     enl0=   5.30460795E+00   enl1=  -3.16288212E+01
 1-9 gives the relaxation energy (to be shifted if some occ is /=2.0)
   erelax=  -5.95136846E+01
  No Ewald or frozen-wf contrib.: the relaxation energy is the total one
 2DEtotal=   -0.5951368458E+02 Ha. Also 2DEtotal=   -0.161944971613E+04 eV
    (  non-var. 2DEtotal :   -5.9513684584E+01 Ha)

 CALCULATION OF EFFECTIVE MASSES
 NOTE : Additional infos (eff. mass eigenvalues, eigenvectors and, if degenerate, average mass) are available in stdout.

 COMMENTS:
 - At k-point ( 0.000, 0.000, 0.000), bands    20 through    22
   are DEGENERATE (effective mass tensor is therefore not defined).
   See Section IIIB Eqs. (67)-(70) and Appendix E of PRB 93 205147 (2016).
 - Angular average effective mass for Frohlich model is to be averaged over degenerate bands. See later.
 - Associated theta integrals calculated with ntheta=   1000 points.

 K-point ( 0.000, 0.000, 0.000) | band =    20
 Transport equivalent effective mass tensor:
             -0.5144218203              0.0000033508              0.0000041654
              0.0000033508             -0.5144279578              0.0000015908
              0.0000041654              0.0000015908             -0.5144275535
 Transport equivalent effective mass tensor eigenvalues:
             -0.5144297909             -0.5144293211             -0.5144182197
 Angular average effective mass 1/(<1/m>)=  -0.4418644466
 Angular average effective mass for Frohlich model (<m**0.5>)**2=  -0.4461904005
 Effective masses along directions: (cart. coord. / red. coord. -> eff. mass)
    1:   1.000000  0.000000  0.000000 /   0.948683  0.316228  0.000000 ->  -0.4121129204
    2:   0.000000  1.000000  0.000000 /   0.000000  1.000000  0.000000 ->  -0.3815566123
    3:   0.000000  0.000000  1.000000 /   0.408248  0.408248  0.816497 ->  -0.4230243154
    4:   0.577350  0.577350  0.577350 /   0.585539  0.688047  0.428644 ->  -0.4125505984
    5:   0.000000  0.707107  0.707107 /   0.289489  0.762222  0.578977 ->  -0.4690991983
    6:   0.707107  0.000000  0.707107 /   0.731423  0.422287  0.535439 ->  -0.4173161409
    7:   0.707107  0.707107  0.000000 /   0.616798  0.787122  0.000000 ->  -0.5742278444

[...]

 K-point ( 0.000, 0.000, 0.000) | band =    22
 Transport equivalent effective mass tensor:
            -84.2568182365              0.0003193154              0.0003007153
              0.0003193154            -84.2572341384              0.0001137041
              0.0003007153              0.0001137041            -84.2570976915
 Transport equivalent effective mass tensor eigenvalues:
            -84.2574172399            -84.2572525891            -84.2564802373
 Angular average effective mass 1/(<1/m>)=  -3.4999951656
 Angular average effective mass for Frohlich model (<m**0.5>)**2=  -4.6377175614
 Effective masses along directions: (cart. coord. / red. coord. -> eff. mass)
    1:   1.000000  0.000000  0.000000 /   0.948683  0.316228  0.000000 ->  -3.9359498937
    2:   0.000000  1.000000  0.000000 /   0.000000  1.000000  0.000000 ->  -3.1582172207
    3:   0.000000  0.000000  1.000000 /   0.408248  0.408248  0.816497 -> -16.7455670965
    4:   0.577350  0.577350  0.577350 /   0.585539  0.688047  0.428644 ->  -4.8955699379
    5:   0.000000  0.707107  0.707107 /   0.289489  0.762222  0.578977 ->  -3.1858829578
    6:   0.707107  0.000000  0.707107 /   0.731423  0.422287  0.535439 ->  -7.3469121511
    7:   0.707107  0.707107  0.000000 /   0.616798  0.787122  0.000000 ->  -1.4199687632

 Angular average effective mass for Frohlich model, averaged over degenerate bands.
 Value of     (<<m**0.5>>)**2 =     1.804268E+00
 Absolute Value of <<m**0.5>> =     1.343230E+00

 K-point ( 0.500, 0.000, 0.500) | band =    23
 Effective mass tensor:
              0.9062311097             -0.3545127058              0.4341680816
             -0.3545127058              1.1569485224             -0.6140370005
              0.4341680816             -0.6140370005              1.4075616968
 Effective mass tensor eigenvalues:
              0.6555615304              0.6555658610              2.1596139376
 Angular average effective mass 1/(<1/m>)=   0.8537631018
 Angular average effective mass for Frohlich model (<m**0.5>)**2=   0.9175129074
 Effective masses along directions: (cart. coord. / red. coord. -> eff. mass)
    1:   1.000000  0.000000  0.000000 /   0.948683  0.316228  0.000000 ->   0.7416476392
    2:   0.000000  1.000000  0.000000 /   0.000000  1.000000  0.000000 ->   0.8537814067
    3:   0.000000  0.000000  1.000000 /   0.408248  0.408248  0.816497 ->   1.0057871855
    4:   0.577350  0.577350  0.577350 /   0.585539  0.688047  0.428644 ->   0.7027816682
    5:   0.000000  0.707107  0.707107 /   0.289489  0.762222  0.578977 ->   0.6594269610
    6:   0.707107  0.000000  0.707107 /   0.731423  0.422287  0.535439 ->   1.1565650171
    7:   0.707107  0.707107  0.000000 /   0.616798  0.787122  0.000000 ->   0.6621614472

 END OF EFFECTIVE MASSES SECTION

 ---- first-order wavefunction calculations are completed ----

 Total localisation tensor (bohr^2) in cartesian coordinates
  WARNING : still subject to testing - especially symmetries.
      direction              matrix element
   alpha     beta       real part   imaginary part
     1        1       2.2197908183    0.0000000000
     1        2       0.6278510367    0.0000000000
     1        3       1.5379159389    0.0000000000
     2        1       0.6278510367    0.0000000000
     2        2       1.7758309026    0.0000000000
     2        3       1.0874698952    0.0000000000
     3        1       1.5379159389    0.0000000000
     3        2       1.0874698952    0.0000000000
     3        3       3.9956153739    0.0000000000

 respfn : d/dk was computed, but no 2DTE, so no DDB output.

== END DATASET(S) ==============================================================

 -outvars: echo values of variables after computation  --------
            acell      1.0000000000E+00  1.0000000000E+00  1.0000000000E+00 Bohr
              amu      4.78800000E+01  1.18710000E+02  1.06420000E+02
             ecut      4.20000000E+01 Hartree
           etotal     -5.9513684584E+01
            fcart      0.0000000000E+00  0.0000000000E+00  0.0000000000E+00
                       0.0000000000E+00  0.0000000000E+00  0.0000000000E+00
                       0.0000000000E+00  0.0000000000E+00  0.0000000000E+00
-          fftalg         512
           irdden           1
           irdwfk           1
           istwfk        1    1
              ixc     -116133
              kpt      0.00000000E+00  0.00000000E+00  0.00000000E+00
                       5.00000000E-01  1.23259516E-32  5.00000000E-01
           kptopt           0
P           mkmem           2
P          mkqmem           2
P          mk1mem           2
            natom           3
            nband          31
           nbdbuf           4
            ngfft          48      48      48
             nkpt           2
            nstep         100
             nsym          24
           ntypat           3
              occ      2.000000  2.000000  2.000000  2.000000  2.000000  2.000000
                       2.000000  2.000000  2.000000  2.000000  2.000000  2.000000
                       2.000000  2.000000  2.000000  2.000000  2.000000  2.000000
                       2.000000  2.000000  2.000000  2.000000  0.000000  0.000000
                       0.000000  0.000000  0.000000  0.000000  0.000000  0.000000
                       0.000000
        optdriver           1
            prtwf          -1
            rfdir           1       1       1
           rfelfd           2
            rprim      7.0990012076E+00  0.0000000000E+00  4.0986102582E+00
                       2.3663337359E+00  6.6930025247E+00  4.0986102582E+00
                       0.0000000000E+00  0.0000000000E+00  8.1972205164E+00
          spgroup         216
           strten      0.0000000000E+00  0.0000000000E+00  0.0000000000E+00
                       0.0000000000E+00  0.0000000000E+00  0.0000000000E+00
           symrel      1  0  0   0  1  0   0  0  1       0 -1  1   0 -1  0   1 -1  0
                      -1  0  0  -1  0  1  -1  1  0       0  1 -1   1  0 -1   0  0 -1
                      -1  0  0  -1  1  0  -1  0  1       0 -1  1   1 -1  0   0 -1  0
                       1  0  0   0  0  1   0  1  0       0  1 -1   0  0 -1   1  0 -1
                      -1  0  1  -1  1  0  -1  0  0       0 -1  0   1 -1  0   0 -1  1
                       1  0 -1   0  0 -1   0  1 -1       0  1  0   0  0  1   1  0  0
                       1  0 -1   0  1 -1   0  0 -1       0 -1  0   0 -1  1   1 -1  0
                      -1  0  1  -1  0  0  -1  1  0       0  1  0   1  0  0   0  0  1
                       0  0 -1   0  1 -1   1  0 -1       1 -1  0   0 -1  1   0 -1  0
                       0  0  1   1  0  0   0  1  0      -1  1  0  -1  0  0  -1  0  1
                       0  0  1   0  1  0   1  0  0       1 -1  0   0 -1  0   0 -1  1
                       0  0 -1   1  0 -1   0  1 -1      -1  1  0  -1  0  1  -1  0  0
           tolwfr      1.00000000E-20
            typat      1  2  3
           useylm           1
              wtk        0.50000    0.50000
           xangst      1.2522098809E+00  8.8544609828E-01  2.1688911355E+00
                       3.7566296428E+00  2.6563382948E+00  6.5066734066E+00
                       2.5044197619E+00  1.7708921966E+00  4.3377822711E+00
            xcart      2.3663337359E+00  1.6732506312E+00  4.0986102582E+00
                       7.0990012076E+00  5.0197518935E+00  1.2295830775E+01
                       4.7326674718E+00  3.3465012623E+00  8.1972205164E+00
             xred      2.5000000000E-01  2.5000000000E-01  2.5000000000E-01
                       7.5000000000E-01  7.5000000000E-01  7.5000000000E-01
                       5.0000000000E-01  5.0000000000E-01  5.0000000000E-01
            znucl       22.00000   50.00000   46.00000

- Timing analysis has been suppressed with timopt=0

 Suggested references for the acknowledgment of ABINIT usage.

 Calculation completed.
.Delivered  14 WARNINGs and   9 COMMENTs to log file.