.Version 9.5.2 of ABINIT

 ABINIT is a project of the Universite Catholique de Louvain,
 Corning Inc. and other collaborators, see ~abinit/doc/developers/contributors.txt .
 acknowledgments of the ABINIT effort.

.Starting date : Wed 26 May 2021.
- ( at 03h23 )

- input  file    -> /scratch/users/j/a/jabreu/flow_simple_11atoms/flow/w292/t1/run.abi
- output file    -> /scratch/users/j/a/jabreu/flow_simple_11atoms/flow/w292/t1/run.abo
- root for input  files -> /scratch/users/j/a/jabreu/flow_simple_11atoms/flow/w292/t1/indata/in
- root for output files -> /scratch/users/j/a/jabreu/flow_simple_11atoms/flow/w292/t1/outdata/out

 Symmetries : space group Pc a 2_1 (# 29); Bravais oP (primitive ortho.)
     intxc =       0      iscf =       7    lmnmax =      32     lnmax =       8
     mgfft =      72  mpssoang =       4    mqgrid =    3326     natom =      12
  nloc_mem =       1    nspden =       1   nspinor =       1    nsppol =       1
      nsym =       4    n1xccc =    2501    ntypat =       3    occopt =       1
   xclevel =       2
-    mband =          85        mffmem =           1         mkmem =           2
-   mkqmem =           2        mk1mem =           2           mpw =       19249
      nfft =      373248          nkpt =           2
  Rough estimation (10% accuracy) of disk space for files :

------------- Echo of variables that govern the present computation ------------
-
- outvars: echo of selected default values
-   iomode0 =  0 , fftalg0 =512 , wfoptalg0 =  0
-
- outvars: echo of global parameters not present in the input file
-  max_nthreads =    0
-
 -outvars: echo values of preprocessed input variables --------
            acell      1.0000000000E+00  1.0000000000E+00  1.0000000000E+00 Bohr
              amu      1.21753000E+02  1.92220000E+02  3.20660000E+01
             ecut      4.20000000E+01 Hartree
-          fftalg         512
           irdden           1
           irdwfk           1
              ixc     -116133
              kpt      5.00000000E-01  0.00000000E+00  2.81250000E-01
                       1.25000000E-01  0.00000000E+00  0.00000000E+00
           kptopt           0
P           mkmem           2
P          mkqmem           2
P          mk1mem           2
            natom          12
            nband          85
           nbdbuf           4
            ngfft          72      72      72
             nkpt           2
            nstep        2000
             nsym           4
           ntypat           3
              occ      2.000000  2.000000  2.000000  2.000000  2.000000  2.000000
                       2.000000  2.000000  2.000000  2.000000  2.000000  2.000000
                       2.000000  2.000000  2.000000  2.000000  2.000000  2.000000
                       2.000000  2.000000  2.000000  2.000000  2.000000  2.000000
                       2.000000  2.000000  2.000000  2.000000  2.000000  2.000000
                       2.000000  2.000000  2.000000  2.000000  2.000000  2.000000
                       2.000000  2.000000  2.000000  2.000000  2.000000  2.000000
                       2.000000  2.000000  2.000000  2.000000  2.000000  2.000000
                       2.000000  2.000000  2.000000  2.000000  2.000000  2.000000
                       2.000000  2.000000  2.000000  2.000000  2.000000  2.000000
                       2.000000  2.000000  2.000000  2.000000  2.000000  2.000000
                       2.000000  2.000000  2.000000  2.000000  2.000000  2.000000
                       2.000000  2.000000  2.000000  2.000000  0.000000  0.000000
                       0.000000  0.000000  0.000000  0.000000  0.000000  0.000000
                       0.000000
        optdriver           1
            prtwf          -1
            rfdir           1       1       1
           rfelfd           2
            rprim      1.1381833204E+01  0.0000000000E+00  0.0000000000E+00
                       0.0000000000E+00  1.1395942410E+01  0.0000000000E+00
                       0.0000000000E+00  0.0000000000E+00  1.1399897682E+01
          spgroup          29
           symrel      1  0  0   0  1  0   0  0  1      -1  0  0   0  1  0   0  0 -1
                       1  0  0   0  1  0   0  0 -1      -1  0  0   0  1  0   0  0  1
            tnons      0.0000000  0.0000000  0.0000000     0.0000000  0.5000000 -0.0000000
                       0.0000000  0.5000000  0.5000000     0.0000000  0.0000000  0.5000000
           tolwfr      1.00000000E-20
            typat      1  1  1  1  2  2  2  2  3  3  3  3
           useylm           1
              wtk        0.50000    0.50000
           xangst      8.0572772446E-01  3.7278574905E+00  5.3002366474E+00
                       5.2172789992E+00  7.1262099366E-01  7.3232938622E-01
                       8.0572772446E-01  7.1262099366E-01  3.7486124030E+00
                       5.2172789992E+00  3.7278574905E+00  2.2839536306E+00
                       1.6240616020E+00  8.5994544889E-03  8.0963068737E-02
                       4.3989451217E+00  3.0238359513E+00  5.9516029649E+00
                       1.6240616020E+00  3.0238359513E+00  2.9353199481E+00
                       4.3989451217E+00  8.5994544889E-03  3.0972460855E+00
                       3.7659210920E+00  2.2807550386E+00  3.7304061187E+00
                       2.2570856317E+00  5.2959915354E+00  2.3021599149E+00
                       3.7659210920E+00  5.2959915354E+00  5.3184429317E+00
                       2.2570856317E+00  2.2807550386E+00  7.1412310193E-01
            xcart      1.5226047369E+00  7.0446297194E+00  1.0015995703E+01
                       9.8592284674E+00  1.3466585146E+00  1.3839019790E+00
                       1.5226047369E+00  1.3466585146E+00  7.0838508201E+00
                       9.8592284674E+00  7.0446297194E+00  4.3160468620E+00
                       3.0690316507E+00  1.6250613876E-02  1.5299802679E-01
                       8.3128015536E+00  5.7142218187E+00  1.1246899655E+01
                       3.0690316507E+00  5.7142218187E+00  5.5469508143E+00
                       8.3128015536E+00  1.6250613876E-02  5.8529468678E+00
                       7.1165595020E+00  4.3100023991E+00  7.0494459289E+00
                       4.2652737023E+00  1.0007973604E+01  4.3504517532E+00
                       7.1165595020E+00  1.0007973604E+01  1.0050400594E+01
                       4.2652737023E+00  4.3100023991E+00  1.3494970878E+00
             xred      1.3377500000E-01  6.1817000000E-01  8.7860400000E-01
                       8.6622500000E-01  1.1817000000E-01  1.2139600000E-01
                       1.3377500000E-01  1.1817000000E-01  6.2139600000E-01
                       8.6622500000E-01  6.1817000000E-01  3.7860400000E-01
                       2.6964300000E-01  1.4260000000E-03  1.3421000000E-02
                       7.3035700000E-01  5.0142600000E-01  9.8657900000E-01
                       2.6964300000E-01  5.0142600000E-01  4.8657900000E-01
                       7.3035700000E-01  1.4260000000E-03  5.1342100000E-01
                       6.2525600000E-01  3.7820500000E-01  6.1837800000E-01
                       3.7474400000E-01  8.7820500000E-01  3.8162200000E-01
                       6.2525600000E-01  8.7820500000E-01  8.8162200000E-01
                       3.7474400000E-01  3.7820500000E-01  1.1837800000E-01
            znucl       51.00000   77.00000   16.00000

 chkinp: Checking input parameters for consistency.

== DATASET  1 ==================================================================
-   mpi_nproc: 1, omp_nthreads: -1 (-1 if OMP is not activated)

--- !DatasetInfo
iteration_state: {dtset: 1, }
dimensions: {natom: 12, nkpt: 2, mband: 85, nsppol: 1, nspinor: 1, nspden: 1, mpw: 19249, }
cutoff_energies: {ecut:  42.0, pawecutdg:  -1.0, }
electrons: {nelect:   1.52000000E+02, charge:   0.00000000E+00, occopt:   1.00000000E+00, tsmear:   1.00000000E-02, }
meta: {optdriver: 1, rfelfd: 2, }
...

 Real(R)+Recip(G) space primitive vectors, cartesian coordinates (Bohr,Bohr^-1):
 R(1)= 11.3818332  0.0000000  0.0000000  G(1)=  0.0878593  0.0000000  0.0000000
 R(2)=  0.0000000 11.3959424  0.0000000  G(2)=  0.0000000  0.0877505  0.0000000
 R(3)=  0.0000000  0.0000000 11.3998977  G(3)=  0.0000000  0.0000000  0.0877201
 Unit cell volume ucvol=  1.4786433E+03 bohr^3
 Angles (23,13,12)=  9.00000000E+01  9.00000000E+01  9.00000000E+01 degrees

 getcut: wavevector=  0.0000  0.0000  0.0000  ngfft=  72  72  72
         ecut(hartree)=     42.000   => boxcut(ratio)=   2.16492

--- Pseudopotential description ------------------------------------------------
- pspini: atom type   1  psp file is /scratch/users/j/a/jabreu/pseudos/PBEsol/Sb.psp8
- pspatm: opening atomic psp file    /scratch/users/j/a/jabreu/pseudos/PBEsol/Sb.psp8
- Sb    ONCVPSP-3.3.0  r_core=   1.81962   2.12485   1.81962
- 51.00000  15.00000    180112                znucl, zion, pspdat
    8 -116133    2    4       600   0.00000   pspcod,pspxc,lmax,lloc,mmax,r2well
    5.99000000000000    5.00000000000000    0.00000000000000   rchrg,fchrg,qchrg
     nproj     2     2     2
     extension_switch     1
  pspatm : epsatm=   26.35641246
         --- l  ekb(1:nproj) -->
             0    9.727814    1.485032
             1    5.505335    0.704623
             2   -4.710637   -1.436443
 pspatm: atomic psp has been read  and splines computed

- pspini: atom type   2  psp file is /scratch/users/j/a/jabreu/pseudos/PBEsol/Ir.psp8
- pspatm: opening atomic psp file    /scratch/users/j/a/jabreu/pseudos/PBEsol/Ir.psp8
- Ir    ONCVPSP-3.3.0  r_core=   1.60470   1.60470   1.51179   2.26792
- 77.00000  17.00000    180112                znucl, zion, pspdat
    8 -116133    3    4       500   0.00000   pspcod,pspxc,lmax,lloc,mmax,r2well
    4.99000000000000    5.00000000000000    0.00000000000000   rchrg,fchrg,qchrg
     nproj     2     2     2     2
     extension_switch     1
  pspatm : epsatm=   27.71114778
         --- l  ekb(1:nproj) -->
             0 -318.624865    3.007395
             1    7.556369    1.126503
             2    2.004414    0.149292
             3    1.163764    0.379649
 pspatm: atomic psp has been read  and splines computed

- pspini: atom type   3  psp file is /scratch/users/j/a/jabreu/pseudos/PBEsol/S.psp8
- pspatm: opening atomic psp file    /scratch/users/j/a/jabreu/pseudos/PBEsol/S.psp8
- S     ONCVPSP-3.3.0  r_core=   1.45376   1.45376   1.61851
- 16.00000   6.00000    180112                znucl, zion, pspdat
    8 -116133    2    4       600   0.00000   pspcod,pspxc,lmax,lloc,mmax,r2well
    5.99000000000000    6.00000000000000    0.00000000000000   rchrg,fchrg,qchrg
     nproj     2     2     2
     extension_switch     1
  pspatm : epsatm=    8.71840985
         --- l  ekb(1:nproj) -->
             0    6.834532    0.579453
             1    3.282851    0.896984
             2   -3.496974   -0.974265
 pspatm: atomic psp has been read  and splines computed

   3.81738698E+04                                ecore*ucvol(ha*bohr**3)

 ==>  initialize data related to q vector <==

 The list of irreducible perturbations for this q vector is:
    1)    idir= 1    ipert=  13
    2)    idir= 2    ipert=  13
    3)    idir= 3    ipert=  13

[...]

[...]

 Perturbation wavevector (in red.coord.)   0.000000  0.000000  0.000000
 Perturbation : derivative vs k along direction   3
 The set of symmetries contains only one element for this perturbation.
 symkpt : not enough symmetry to change the number of k points.

 Initialisation of the first-order wave-functions :
  ireadwf=   0

--- !BeginCycle
iteration_state: {dtset: 1, }
solver: {iscf: 7, nstep: 2000, nline: 4, wfoptalg: 0, }
tolerances: {tolwfr: 1.00E-20, }
...

     iter   2DEtotal(Ha)        deltaE(Ha) residm    vres2
-ETOT  1  -224.63483972269     -2.246E+02 2.140E+01 0.000E+00
 ETOT  2  -225.13482454857     -5.000E-01 2.471E-02 0.000E+00
 ETOT  3  -225.16226547954     -2.744E-02 2.370E-03 0.000E+00
 ETOT  4  -225.16512255582     -2.857E-03 2.088E-03 0.000E+00
 ETOT  5  -225.16546887883     -3.463E-04 2.967E-04 0.000E+00
 ETOT  6  -225.16551399029     -4.511E-05 3.174E-04 0.000E+00
 ETOT  7  -225.16552012713     -6.137E-06 5.271E-05 0.000E+00
 ETOT  8  -225.16552098636     -8.592E-07 5.506E-05 0.000E+00
 ETOT  9  -225.16552110925     -1.229E-07 9.476E-06 0.000E+00
 ETOT 10  -225.16552112711     -1.786E-08 9.753E-06 0.000E+00
 ETOT 11  -225.16552112974     -2.631E-09 1.683E-06 0.000E+00
 ETOT 12  -225.16552113013     -3.912E-10 1.738E-06 0.000E+00
 ETOT 13  -225.16552113019     -5.858E-11 2.998E-07 0.000E+00
 ETOT 14  -225.16552113020     -9.095E-12 3.116E-07 0.000E+00
 ETOT 15  -225.16552113020     -1.137E-12 5.368E-08 0.000E+00
 ETOT 16  -225.16552113020     -3.411E-13 5.610E-08 0.000E+00
 ETOT 17  -225.16552113020      2.842E-14 9.652E-09 0.000E+00
 ETOT 18  -225.16552113020      0.000E+00 1.014E-08 0.000E+00
 ETOT 19  -225.16552113020      5.684E-14 1.742E-09 0.000E+00
 ETOT 20  -225.16552113020      2.842E-14 1.839E-09 0.000E+00
 ETOT 21  -225.16552113020     -2.842E-14 3.155E-10 0.000E+00
 ETOT 22  -225.16552113020     -8.527E-14 3.344E-10 0.000E+00
 ETOT 23  -225.16552113020      2.842E-14 5.731E-11 0.000E+00
 ETOT 24  -225.16552113020     -5.684E-14 6.100E-11 0.000E+00
 ETOT 25  -225.16552113020      1.137E-13 1.044E-11 0.000E+00
 ETOT 26  -225.16552113020     -5.684E-14 1.115E-11 0.000E+00
 ETOT 27  -225.16552113020      0.000E+00 1.907E-12 0.000E+00
 ETOT 28  -225.16552113020      2.842E-14 2.043E-12 0.000E+00
 ETOT 29  -225.16552113020      0.000E+00 3.490E-13 0.000E+00
 ETOT 30  -225.16552113020     -2.842E-14 3.752E-13 0.000E+00
 ETOT 31  -225.16552113020      0.000E+00 6.401E-14 0.000E+00
 ETOT 32  -225.16552113020      0.000E+00 6.902E-14 0.000E+00
 ETOT 33  -225.16552113020      0.000E+00 1.176E-14 0.000E+00
 ETOT 34  -225.16552113020      0.000E+00 1.272E-14 0.000E+00
 ETOT 35  -225.16552113020     -5.684E-14 2.165E-15 0.000E+00
 ETOT 36  -225.16552113020      0.000E+00 2.346E-15 0.000E+00
 ETOT 37  -225.16552113020      0.000E+00 3.992E-16 0.000E+00
 ETOT 38  -225.16552113020      5.684E-14 4.335E-16 0.000E+00
 ETOT 39  -225.16552113020      0.000E+00 7.368E-17 0.000E+00
 ETOT 40  -225.16552113020     -2.842E-14 8.018E-17 0.000E+00
 ETOT 41  -225.16552113020     -2.842E-14 1.362E-17 0.000E+00
 ETOT 42  -225.16552113020      5.684E-14 1.485E-17 0.000E+00
 ETOT 43  -225.16552113020      2.842E-14 2.519E-18 0.000E+00
 ETOT 44  -225.16552113020     -2.842E-14 2.751E-18 0.000E+00
 ETOT 45  -225.16552113020      0.000E+00 4.664E-19 0.000E+00
 ETOT 46  -225.16552113020      0.000E+00 5.102E-19 0.000E+00
 ETOT 47  -225.16552113020      2.842E-14 8.644E-20 0.000E+00
 ETOT 48  -225.16552113020      2.842E-14 9.469E-20 0.000E+00
 ETOT 49  -225.16552113020     -5.684E-14 1.603E-20 0.000E+00
 ETOT 50  -225.16552113020      0.000E+00 1.758E-20 0.000E+00
 ETOT 51  -225.16552113020      1.421E-13 9.995E-21 0.000E+00

 At SCF step   51   max residual=  9.99E-21 < tolwfr=  1.00E-20 =>converged.

 ----iterations are completed or convergence reached----

 dfpt_looppert: DFPT cycle converged with prtwf=-1. Will skip output of the 1st-order WFK file.
 dfpt_looppert : ek2=    9.2348833384E+01
          f-sum rule ratio=    1.0294890560E+00
 prteigrs : about to open file /scratch/users/j/a/jabreu/flow_simple_11atoms/flow/w292/t1/tmpdata/tmp_1WF1_EIG
 Expectation of eigenvalue derivatives (hartree) for nkpt=   2  k points:
  (in case of degenerate eigenvalues, averaged derivative)
 kpt#   1, nband= 85, wtk=  0.50000, kpt=  0.5000  0.0000  0.2813 (reduced coord)
  -0.01575   -0.00853    0.00270    0.01234    0.00001   -0.00000   -0.00000   -0.00000
   0.00010   -0.00017   -0.00003   -0.00008    0.00027    0.00001    0.00007   -0.00017
   0.00014   -0.00022    0.00018   -0.00013    0.00057   -0.00081    0.00030   -0.00075
   0.00029   -0.00064    0.00101   -0.00032   -0.00023   -0.00060    0.00049   -0.00008
   0.00019    0.00030    0.00051    0.00021   -0.00024   -0.00052    0.00080   -0.00056
   0.04569   -0.02054    0.01142   -0.00359    0.01420   -0.14441    0.02773   -0.01044
   0.00861    0.00106   -0.02582   -0.05959    0.03290    0.02826   -0.05415   -0.08085
   0.05058   -0.00211    0.02735    0.14725   -0.00547    0.04443    0.04170    0.05675
   0.01099   -0.02972    0.00542    0.05848    0.00725   -0.03077   -0.02004    0.00773
   0.00844    0.02206    0.00116   -0.02446   -0.01741   -0.03685    0.01925   -0.00340
   0.00622    0.01739   -0.07307   -0.00082   -0.01459
 prteigrs : prtvol=0 or 1, do not print more k-points.

 Eight components of 2nd-order total energy (hartree) are
 1,2,3: 0th-order hamiltonian combined with 1st-order wavefunctions
     kin0=   1.18252005E+02 eigvalue=   1.43477688E+02  local=  -6.59232974E+01
 4,5,6: 1st-order hamiltonian combined with 1st and 0th-order wfs
     kin1=  -9.50721133E+01  Hartree=   0.00000000E+00     xc=   0.00000000E+00
 7,8,9: eventually, occupation + non-local contributions
    edocc=   1.20850757E+01     enl0=   1.72740494E+01   enl1=  -3.55258929E+02
 1-9 gives the relaxation energy (to be shifted if some occ is /=2.0)
   erelax=  -2.25165521E+02
  No Ewald or frozen-wf contrib.: the relaxation energy is the total one
 2DEtotal=   -0.2251655211E+03 Ha. Also 2DEtotal=   -0.612706542751E+04 eV
    (  non-var. 2DEtotal :   -2.2516552113E+02 Ha)

 CALCULATION OF EFFECTIVE MASSES
 NOTE : Additional infos (eff. mass eigenvalues, eigenvectors and, if degenerate, average mass) are available in stdout.

--- !WARNING
src_file: m_efmas.F90
src_line: 0
message: |

    Band(s)    76,
    are not band extrema, but saddle points;
    the transport equivalent formalism breaks down in these conditions.
    The associated tensor(s) will therefore not be printed.
...

 K-point ( 0.500, 0.000, 0.281) | band =    76
 Effective mass tensor:
     *** SADDLE POINT: TRANSPORT EQV. EFF. MASS NOT DEFINED (see WARNING above) ***
 Angular average effective mass 1/(<1/m>)=  -0.3538738060
 Angular average effective mass for Frohlich model (<m**0.5>)**2=  -1.0821449875
 Effective masses along directions: (cart. coord. / red. coord. -> eff. mass)
    1:   1.000000  0.000000  0.000000 /   1.000000  0.000000  0.000000 ->   7.6773782583
    2:   0.000000  1.000000  0.000000 /   0.000000  1.000000  0.000000 ->  -1.3480357122
    3:   0.000000  0.000000  1.000000 /   0.000000  0.000000  1.000000 ->  -0.1271289158
    4:   0.577350  0.577350  0.577350 /   0.576807  0.577522  0.577722 ->  -0.3538443269
    5:   0.000000  0.707107  0.707107 /   0.000000  0.706984  0.707229 ->  -0.2323452763
    6:   0.707107  0.000000  0.707107 /   0.706546  0.000000  0.707667 ->  -0.2585203608
    7:   0.707107  0.707107  0.000000 /   0.706669  0.707545  0.000000 ->  -3.2696323622

--- !WARNING
src_file: m_efmas.F90
src_line: 0
message: |

    Band(s)    77,
    are not band extrema, but saddle points;
    the transport equivalent formalism breaks down in these conditions.
    The associated tensor(s) will therefore not be printed.
...

 K-point ( 0.125, 0.000, 0.000) | band =    77
 Effective mass tensor:
     *** SADDLE POINT: TRANSPORT EQV. EFF. MASS NOT DEFINED (see WARNING above) ***
 Angular average effective mass 1/(<1/m>)=  -1.7298028019
 Angular average effective mass for Frohlich model (<m**0.5>)**2=  -3.1765085164
 Effective masses along directions: (cart. coord. / red. coord. -> eff. mass)
    1:   1.000000  0.000000  0.000000 /   1.000000  0.000000  0.000000 ->  -0.9556470264
    2:   0.000000  1.000000  0.000000 /   0.000000  1.000000  0.000000 ->   2.5061987022
    3:   0.000000  0.000000  1.000000 /   0.000000  0.000000  1.000000 ->  -0.9200470506
    4:   0.577350  0.577350  0.577350 /   0.576807  0.577522  0.577722 ->  -1.7297133377
    5:   0.000000  0.707107  0.707107 /   0.000000  0.706984  0.707229 ->  -2.9078187043
    6:   0.707107  0.000000  0.707107 /   0.706546  0.000000  0.707667 ->  -0.9374369564
    7:   0.707107  0.707107  0.000000 /   0.706669  0.707545  0.000000 ->  -3.0892058574

 END OF EFFECTIVE MASSES SECTION

 ---- first-order wavefunction calculations are completed ----

 Total localisation tensor (bohr^2) in cartesian coordinates
  WARNING : still subject to testing - especially symmetries.
      direction              matrix element
   alpha     beta       real part   imaginary part
     1        1       2.4659874377    0.0000000000
     1        2       0.0000000000    0.0000000000
     1        3       0.0000000000    0.0000000000
     2        1       0.0000000000    0.0000000000
     2        2       2.3259024879    0.0000000000
     2        3       0.0000000000    0.0000000000
     3        1       0.0000000000    0.0000000000
     3        2       0.0000000000    0.0000000000
     3        3       9.3960869133    0.0000000000

 respfn : d/dk was computed, but no 2DTE, so no DDB output.

== END DATASET(S) ==============================================================

 -outvars: echo values of variables after computation  --------
            acell      1.0000000000E+00  1.0000000000E+00  1.0000000000E+00 Bohr
              amu      1.21753000E+02  1.92220000E+02  3.20660000E+01
             ecut      4.20000000E+01 Hartree
           etotal     -2.2516552113E+02
            fcart      0.0000000000E+00  0.0000000000E+00  0.0000000000E+00
                       0.0000000000E+00  0.0000000000E+00  0.0000000000E+00
                       0.0000000000E+00  0.0000000000E+00  0.0000000000E+00
                       0.0000000000E+00  0.0000000000E+00  0.0000000000E+00
                       0.0000000000E+00  0.0000000000E+00  0.0000000000E+00
                       0.0000000000E+00  0.0000000000E+00  0.0000000000E+00
                       0.0000000000E+00  0.0000000000E+00  0.0000000000E+00
                       0.0000000000E+00  0.0000000000E+00  0.0000000000E+00
                       0.0000000000E+00  0.0000000000E+00  0.0000000000E+00
                       0.0000000000E+00  0.0000000000E+00  0.0000000000E+00
                       0.0000000000E+00  0.0000000000E+00  0.0000000000E+00
                       0.0000000000E+00  0.0000000000E+00  0.0000000000E+00
-          fftalg         512
           irdden           1
           irdwfk           1
              ixc     -116133
              kpt      5.00000000E-01  0.00000000E+00  2.81250000E-01
                       1.25000000E-01  0.00000000E+00  0.00000000E+00
           kptopt           0
P           mkmem           2
P          mkqmem           2
P          mk1mem           2
            natom          12
            nband          85
           nbdbuf           4
            ngfft          72      72      72
             nkpt           2
            nstep        2000
             nsym           4
           ntypat           3
              occ      2.000000  2.000000  2.000000  2.000000  2.000000  2.000000
                       2.000000  2.000000  2.000000  2.000000  2.000000  2.000000
                       2.000000  2.000000  2.000000  2.000000  2.000000  2.000000
                       2.000000  2.000000  2.000000  2.000000  2.000000  2.000000
                       2.000000  2.000000  2.000000  2.000000  2.000000  2.000000
                       2.000000  2.000000  2.000000  2.000000  2.000000  2.000000
                       2.000000  2.000000  2.000000  2.000000  2.000000  2.000000
                       2.000000  2.000000  2.000000  2.000000  2.000000  2.000000
                       2.000000  2.000000  2.000000  2.000000  2.000000  2.000000
                       2.000000  2.000000  2.000000  2.000000  2.000000  2.000000
                       2.000000  2.000000  2.000000  2.000000  2.000000  2.000000
                       2.000000  2.000000  2.000000  2.000000  2.000000  2.000000
                       2.000000  2.000000  2.000000  2.000000  0.000000  0.000000
                       0.000000  0.000000  0.000000  0.000000  0.000000  0.000000
                       0.000000
        optdriver           1
            prtwf          -1
            rfdir           1       1       1
           rfelfd           2
            rprim      1.1381833204E+01  0.0000000000E+00  0.0000000000E+00
                       0.0000000000E+00  1.1395942410E+01  0.0000000000E+00
                       0.0000000000E+00  0.0000000000E+00  1.1399897682E+01
          spgroup          29
           strten      0.0000000000E+00  0.0000000000E+00  0.0000000000E+00
                       0.0000000000E+00  0.0000000000E+00  0.0000000000E+00
           symrel      1  0  0   0  1  0   0  0  1      -1  0  0   0  1  0   0  0 -1
                       1  0  0   0  1  0   0  0 -1      -1  0  0   0  1  0   0  0  1
            tnons      0.0000000  0.0000000  0.0000000     0.0000000  0.5000000 -0.0000000
                       0.0000000  0.5000000  0.5000000     0.0000000  0.0000000  0.5000000
           tolwfr      1.00000000E-20
            typat      1  1  1  1  2  2  2  2  3  3  3  3
           useylm           1
              wtk        0.50000    0.50000
           xangst      8.0572772446E-01  3.7278574905E+00  5.3002366474E+00
                       5.2172789992E+00  7.1262099366E-01  7.3232938622E-01
                       8.0572772446E-01  7.1262099366E-01  3.7486124030E+00
                       5.2172789992E+00  3.7278574905E+00  2.2839536306E+00
                       1.6240616020E+00  8.5994544889E-03  8.0963068737E-02
                       4.3989451217E+00  3.0238359513E+00  5.9516029649E+00
                       1.6240616020E+00  3.0238359513E+00  2.9353199481E+00
                       4.3989451217E+00  8.5994544889E-03  3.0972460855E+00
                       3.7659210920E+00  2.2807550386E+00  3.7304061187E+00
                       2.2570856317E+00  5.2959915354E+00  2.3021599149E+00
                       3.7659210920E+00  5.2959915354E+00  5.3184429317E+00
                       2.2570856317E+00  2.2807550386E+00  7.1412310193E-01
            xcart      1.5226047369E+00  7.0446297194E+00  1.0015995703E+01
                       9.8592284674E+00  1.3466585146E+00  1.3839019790E+00
                       1.5226047369E+00  1.3466585146E+00  7.0838508201E+00
                       9.8592284674E+00  7.0446297194E+00  4.3160468620E+00
                       3.0690316507E+00  1.6250613876E-02  1.5299802679E-01
                       8.3128015536E+00  5.7142218187E+00  1.1246899655E+01
                       3.0690316507E+00  5.7142218187E+00  5.5469508143E+00
                       8.3128015536E+00  1.6250613876E-02  5.8529468678E+00
                       7.1165595020E+00  4.3100023991E+00  7.0494459289E+00
                       4.2652737023E+00  1.0007973604E+01  4.3504517532E+00
                       7.1165595020E+00  1.0007973604E+01  1.0050400594E+01
                       4.2652737023E+00  4.3100023991E+00  1.3494970878E+00
             xred      1.3377500000E-01  6.1817000000E-01  8.7860400000E-01
                       8.6622500000E-01  1.1817000000E-01  1.2139600000E-01
                       1.3377500000E-01  1.1817000000E-01  6.2139600000E-01
                       8.6622500000E-01  6.1817000000E-01  3.7860400000E-01
                       2.6964300000E-01  1.4260000000E-03  1.3421000000E-02
                       7.3035700000E-01  5.0142600000E-01  9.8657900000E-01
                       2.6964300000E-01  5.0142600000E-01  4.8657900000E-01
                       7.3035700000E-01  1.4260000000E-03  5.1342100000E-01
                       6.2525600000E-01  3.7820500000E-01  6.1837800000E-01
                       3.7474400000E-01  8.7820500000E-01  3.8162200000E-01
                       6.2525600000E-01  8.7820500000E-01  8.8162200000E-01
                       3.7474400000E-01  3.7820500000E-01  1.1837800000E-01
            znucl       51.00000   77.00000   16.00000

- Timing analysis has been suppressed with timopt=0

 Suggested references for the acknowledgment of ABINIT usage.

 Calculation completed.
.Delivered   4 WARNINGs and   5 COMMENTs to log file.