.Version 9.5.2 of ABINIT

 ABINIT is a project of the Universite Catholique de Louvain,
 Corning Inc. and other collaborators, see ~abinit/doc/developers/contributors.txt .
 acknowledgments of the ABINIT effort.

.Starting date : Tue  1 Jun 2021.
- ( at 20h04 )

- input  file    -> /scratch/users/j/a/jabreu/flow_simple_11atoms/flow/w411/t1/run.abi
- output file    -> /scratch/users/j/a/jabreu/flow_simple_11atoms/flow/w411/t1/run.abo
- root for input  files -> /scratch/users/j/a/jabreu/flow_simple_11atoms/flow/w411/t1/indata/in
- root for output files -> /scratch/users/j/a/jabreu/flow_simple_11atoms/flow/w411/t1/outdata/out

 Symmetries : space group Cm c m (# 63); Bravais oC (1-face-center ortho.)
     intxc =       0      iscf =       7    lmnmax =      32     lnmax =       8
     mgfft =      90  mpssoang =       4    mqgrid =    4262     natom =      12
  nloc_mem =       1    nspden =       1   nspinor =       1    nsppol =       1
      nsym =       8    n1xccc =    2501    ntypat =       3    occopt =       1
   xclevel =       2
-    mband =          87        mffmem =           1         mkmem =           1
-   mkqmem =           1        mk1mem =           1           mpw =       39414
      nfft =      648000          nkpt =           1
  Rough estimation (10% accuracy) of disk space for files :

------------- Echo of variables that govern the present computation ------------
-
- outvars: echo of selected default values
-   iomode0 =  0 , fftalg0 =512 , wfoptalg0 =  0
-
- outvars: echo of global parameters not present in the input file
-  max_nthreads =    0
-
 -outvars: echo values of preprocessed input variables --------
            acell      1.0000000000E+00  1.0000000000E+00  1.0000000000E+00 Bohr
              amu      1.32905430E+02  9.12240000E+01  7.89600000E+01
             ecut      4.30000000E+01 Hartree
-          fftalg         512
           irdden           1
           irdwfk           1
              ixc     -116133
              kpt     -5.00000000E-01  5.00000000E-01  0.00000000E+00
           kptopt           0
P           mkmem           1
P          mkqmem           1
P          mk1mem           1
            natom          12
            nband          87
           nbdbuf           4
            ngfft          90      90      80
             nkpt           1
            nstep        2000
             nsym           8
           ntypat           3
              occ      2.000000  2.000000  2.000000  2.000000  2.000000  2.000000
                       2.000000  2.000000  2.000000  2.000000  2.000000  2.000000
                       2.000000  2.000000  2.000000  2.000000  2.000000  2.000000
                       2.000000  2.000000  2.000000  2.000000  2.000000  2.000000
                       2.000000  2.000000  2.000000  2.000000  2.000000  2.000000
                       2.000000  2.000000  2.000000  2.000000  2.000000  2.000000
                       2.000000  2.000000  2.000000  2.000000  2.000000  2.000000
                       2.000000  2.000000  2.000000  2.000000  2.000000  2.000000
                       2.000000  2.000000  2.000000  2.000000  2.000000  2.000000
                       2.000000  2.000000  2.000000  2.000000  2.000000  2.000000
                       2.000000  2.000000  2.000000  2.000000  2.000000  2.000000
                       2.000000  2.000000  2.000000  2.000000  2.000000  2.000000
                       2.000000  2.000000  2.000000  2.000000  2.000000  2.000000
                       0.000000  0.000000  0.000000  0.000000  0.000000  0.000000
                       0.000000  0.000000  0.000000
        optdriver           1
            prtwf          -1
            rfdir           1       1       1
           rfelfd           2
            rprim      1.5213871599E+01  0.0000000000E+00  0.0000000000E+00
                      -4.7963487102E+00  1.4438037543E+01  0.0000000000E+00
                       0.0000000000E+00  0.0000000000E+00  1.3328703078E+01
          spgroup          63
           symrel      1  0  0   0  1  0   0  0  1      -1  0  0   0 -1  0   0  0 -1
                       0 -1  0  -1  0  0   0  0 -1       0  1  0   1  0  0   0  0  1
                      -1  0  0   0 -1  0   0  0  1       1  0  0   0  1  0   0  0 -1
                       0  1  0   1  0  0   0  0 -1       0 -1  0  -1  0  0   0  0  1
            tnons      0.0000000  0.0000000  0.0000000     0.0000000  0.0000000  0.0000000
                       0.0000000  0.0000000  0.0000000     0.0000000  0.0000000  0.0000000
                       0.0000000  0.0000000  0.5000000     0.0000000  0.0000000  0.5000000
                       0.0000000  0.0000000  0.5000000     0.0000000  0.0000000  0.5000000
           tolwfr      1.00000000E-20
            typat      1  1  1  1  2  2  3  3  3  3  3  3
           useylm           1
           xangst      2.5403433613E+00  6.6478079800E-02  1.7633114723E+00
                       2.9723723216E+00  7.5738023247E+00  5.2899344169E+00
                       6.2505002448E+00  5.2085243171E+00  5.2899344169E+00
                      -7.3778456189E-01  2.4317560874E+00  1.7633114723E+00
                       3.2095416596E+00  4.4482247335E+00  1.7633114723E+00
                       2.3031740233E+00  3.1920556710E+00  5.2899344169E+00
                       8.5539155437E-01  1.1855193895E+00  5.2899344169E+00
                       4.6573241286E+00  6.4547610150E+00  1.7633114723E+00
                       4.2210005771E+00  2.7633518973E+00  3.5266229446E+00
                       4.2210005771E+00  2.7633518973E+00  0.0000000000E+00
                       1.2917151059E+00  4.8769285073E+00  3.5266229446E+00
                       1.2917151059E+00  4.8769285073E+00  0.0000000000E+00
            xcart      4.8005532364E+00  1.2562536466E-01  3.3321757696E+00
                       5.6169696528E+00  1.4312412178E+01  9.9965273088E+00
                       1.1811733656E+01  9.8426845158E+00  9.9965273088E+00
                      -1.3942107670E+00  4.5953530272E+00  3.3321757696E+00
                       6.0651547488E+00  8.4059265238E+00  3.3321757696E+00
                       4.3523681404E+00  6.0321110192E+00  9.9965273088E+00
                       1.6164557741E+00  2.2403069714E+00  9.9965273088E+00
                       8.8010671151E+00  1.2197730572E+01  3.3321757696E+00
                       7.9765350974E+00  5.2219782946E+00  6.6643515392E+00
                       7.9765350974E+00  5.2219782946E+00  0.0000000000E+00
                       2.4409877918E+00  9.2160592484E+00  6.6643515392E+00
                       2.4409877918E+00  9.2160592484E+00  0.0000000000E+00
             xred      3.1828100000E-01  8.7010000000E-03  2.5000000000E-01
                       6.8171900000E-01  9.9129900000E-01  7.5000000000E-01
                       9.9129900000E-01  6.8171900000E-01  7.5000000000E-01
                       8.7010000000E-03  3.1828100000E-01  2.5000000000E-01
                       5.8220700000E-01  5.8220700000E-01  2.5000000000E-01
                       4.1779300000E-01  4.1779300000E-01  7.5000000000E-01
                       1.5516700000E-01  1.5516700000E-01  7.5000000000E-01
                       8.4483300000E-01  8.4483300000E-01  2.5000000000E-01
                       6.3831800000E-01  3.6168200000E-01  5.0000000000E-01
                       6.3831800000E-01  3.6168200000E-01  0.0000000000E+00
                       3.6168200000E-01  6.3831800000E-01  5.0000000000E-01
                       3.6168200000E-01  6.3831800000E-01  0.0000000000E+00
            znucl       55.00000   40.00000   34.00000

 chkinp: Checking input parameters for consistency.

== DATASET  1 ==================================================================
-   mpi_nproc: 1, omp_nthreads: -1 (-1 if OMP is not activated)

--- !DatasetInfo
iteration_state: {dtset: 1, }
dimensions: {natom: 12, nkpt: 1, mband: 87, nsppol: 1, nspinor: 1, nspden: 1, mpw: 39414, }
cutoff_energies: {ecut:  43.0, pawecutdg:  -1.0, }
electrons: {nelect:   1.56000000E+02, charge:   0.00000000E+00, occopt:   1.00000000E+00, tsmear:   1.00000000E-02, }
meta: {optdriver: 1, rfelfd: 2, }
...

 Real(R)+Recip(G) space primitive vectors, cartesian coordinates (Bohr,Bohr^-1):
 R(1)= 15.2138716  0.0000000  0.0000000  G(1)=  0.0657295  0.0218355  0.0000000
 R(2)= -4.7963487 14.4380375  0.0000000  G(2)=  0.0000000  0.0692615  0.0000000
 R(3)=  0.0000000  0.0000000 13.3287031  G(3)=  0.0000000  0.0000000  0.0750261
 Unit cell volume ucvol=  2.9277622E+03 bohr^3
 Angles (23,13,12)=  9.00000000E+01  9.00000000E+01  1.08376604E+02 degrees

 getcut: wavevector=  0.0000  0.0000  0.0000  ngfft=  90  90  80
         ecut(hartree)=     43.000   => boxcut(ratio)=   2.00405

--- Pseudopotential description ------------------------------------------------
- pspini: atom type   1  psp file is /scratch/users/j/a/jabreu/pseudos/PBEsol/Cs.psp8
- pspatm: opening atomic psp file    /scratch/users/j/a/jabreu/pseudos/PBEsol/Cs.psp8
- Cs    ONCVPSP-3.3.0  r_core=   2.27353   1.85623   2.01788   1.90105
- 55.00000   9.00000    180112                znucl, zion, pspdat
    8 -116133    3    4       600   0.00000   pspcod,pspxc,lmax,lloc,mmax,r2well
    5.99000000000000    5.00000000000000    0.00000000000000   rchrg,fchrg,qchrg
     nproj     2     2     2     2
     extension_switch     1
  pspatm : epsatm=   22.12462445
         --- l  ekb(1:nproj) -->
             0    6.214110    0.767882
             1    6.311966    0.793598
             2    3.769790    0.913105
             3   -9.247129   -2.432478
 pspatm: atomic psp has been read  and splines computed

- pspini: atom type   2  psp file is /scratch/users/j/a/jabreu/pseudos/PBEsol/Zr.psp8
- pspatm: opening atomic psp file    /scratch/users/j/a/jabreu/pseudos/PBEsol/Zr.psp8
- Zr    ONCVPSP-3.3.0  r_core=   1.56507   1.56507   1.51006
- 40.00000  12.00000    180112                znucl, zion, pspdat
    8 -116133    2    4       600   0.00000   pspcod,pspxc,lmax,lloc,mmax,r2well
    5.99000000000000    5.00000000000000    0.00000000000000   rchrg,fchrg,qchrg
     nproj     2     2     2
     extension_switch     1
  pspatm : epsatm=   18.88750170
         --- l  ekb(1:nproj) -->
             0   10.584966    0.890424
             1    5.814585    0.741293
             2    1.525459    0.487901
 pspatm: atomic psp has been read  and splines computed

- pspini: atom type   3  psp file is /scratch/users/j/a/jabreu/pseudos/PBEsol/Se.psp8
- pspatm: opening atomic psp file    /scratch/users/j/a/jabreu/pseudos/PBEsol/Se.psp8
- Se    ONCVPSP-3.3.0  r_core=   1.81943   1.50330   1.90835
- 34.00000  16.00000    180112                znucl, zion, pspdat
    8 -116133    2    4       600   0.00000   pspcod,pspxc,lmax,lloc,mmax,r2well
    5.99000000000000    5.00000000000000    0.00000000000000   rchrg,fchrg,qchrg
     nproj     2     2     2
     extension_switch     1
  pspatm : epsatm=   29.17862020
         --- l  ekb(1:nproj) -->
             0    8.973804    1.019550
             1    6.849857    1.297308
             2   -9.203962   -3.731027
 pspatm: atomic psp has been read  and splines computed

[...]
 4,5,6: 1st-order hamiltonian combined with 1st and 0th-order wfs
     kin1=  -5.93134256E+01  Hartree=   0.00000000E+00     xc=   0.00000000E+00
 7,8,9: eventually, occupation + non-local contributions
    edocc=   3.99911041E+00     enl0=   9.62095435E+00   enl1=  -5.91259606E+01
 1-9 gives the relaxation energy (to be shifted if some occ is /=2.0)
   erelax=  -5.92196931E+01
  No Ewald or frozen-wf contrib.: the relaxation energy is the total one
 2DEtotal=   -0.5921969311E+02 Ha. Also 2DEtotal=   -0.161144980117E+04 eV
    (  non-var. 2DEtotal :   -5.9219693105E+01 Ha)

 Perturbation wavevector (in red.coord.)   0.000000  0.000000  0.000000
 Perturbation : derivative vs k along direction   2
 The set of symmetries contains only one element for this perturbation.
 symkpt : not enough symmetry to change the number of k points.

[...]

 Perturbation wavevector (in red.coord.)   0.000000  0.000000  0.000000
 Perturbation : derivative vs k along direction   3
 The set of symmetries contains only one element for this perturbation.
 symkpt : not enough symmetry to change the number of k points.

 Initialisation of the first-order wave-functions :
  ireadwf=   0

--- !BeginCycle
iteration_state: {dtset: 1, }
solver: {iscf: 7, nstep: 2000, nline: 4, wfoptalg: 0, }
tolerances: {tolwfr: 1.00E-20, }
...

     iter   2DEtotal(Ha)        deltaE(Ha) residm    vres2
-ETOT  1  -72.489282466912     -7.249E+01 4.019E-02 0.000E+00
 ETOT  2  -72.588220528415     -9.894E-02 1.145E-02 0.000E+00
 ETOT  3  -72.589814442009     -1.594E-03 1.264E-03 0.000E+00
 ETOT  4  -72.589927593914     -1.132E-04 4.969E-04 0.000E+00
 ETOT  5  -72.589938472809     -1.088E-05 6.485E-05 0.000E+00
 ETOT  6  -72.589939701024     -1.228E-06 3.034E-05 0.000E+00
 ETOT  7  -72.589939845603     -1.446E-07 4.010E-06 0.000E+00
 ETOT  8  -72.589939863232     -1.763E-08 2.045E-06 0.000E+00
 ETOT  9  -72.589939865441     -2.209E-09 2.645E-07 0.000E+00
 ETOT 10  -72.589939865726     -2.855E-10 1.410E-07 0.000E+00
 ETOT 11  -72.589939865764     -3.782E-11 1.792E-08 0.000E+00
 ETOT 12  -72.589939865769     -5.130E-12 9.796E-09 0.000E+00
 ETOT 13  -72.589939865770     -8.100E-13 1.228E-09 0.000E+00
 ETOT 14  -72.589939865770     -1.421E-14 6.820E-10 0.000E+00
 ETOT 15  -72.589939865770     -4.263E-14 8.475E-11 0.000E+00
 ETOT 16  -72.589939865770      1.421E-14 4.753E-11 0.000E+00
 ETOT 17  -72.589939865770     -4.263E-14 5.870E-12 0.000E+00
 ETOT 18  -72.589939865770      2.842E-14 3.314E-12 0.000E+00
 ETOT 19  -72.589939865770      1.421E-14 4.076E-13 0.000E+00
 ETOT 20  -72.589939865770     -4.263E-14 2.312E-13 0.000E+00
 ETOT 21  -72.589939865770     -1.421E-14 2.836E-14 0.000E+00
 ETOT 22  -72.589939865770     -1.421E-14 1.614E-14 0.000E+00
 ETOT 23  -72.589939865770      2.842E-14 1.977E-15 0.000E+00
 ETOT 24  -72.589939865770      0.000E+00 1.127E-15 0.000E+00
 ETOT 25  -72.589939865770     -2.842E-14 1.380E-16 0.000E+00
 ETOT 26  -72.589939865770      1.421E-14 7.873E-17 0.000E+00
 ETOT 27  -72.589939865770      1.421E-14 9.642E-18 0.000E+00
 ETOT 28  -72.589939865770      0.000E+00 5.505E-18 0.000E+00
 ETOT 29  -72.589939865770     -2.842E-14 6.746E-19 0.000E+00
 ETOT 30  -72.589939865770      1.421E-14 3.852E-19 0.000E+00
 ETOT 31  -72.589939865770      2.842E-14 4.725E-20 0.000E+00
 ETOT 32  -72.589939865770     -1.421E-14 2.697E-20 0.000E+00
 ETOT 33  -72.589939865770     -2.842E-14 9.941E-21 0.000E+00

 At SCF step   33   max residual=  9.94E-21 < tolwfr=  1.00E-20 =>converged.

 ----iterations are completed or convergence reached----

 dfpt_looppert: DFPT cycle converged with prtwf=-1. Will skip output of the 1st-order WFK file.
 dfpt_looppert : ek2=    6.9332768794E+01
          f-sum rule ratio=    1.0897883488E+00
 prteigrs : about to open file /scratch/users/j/a/jabreu/flow_simple_11atoms/flow/w411/t1/tmpdata/tmp_1WF1_EIG
 Expectation of eigenvalue derivatives (hartree) for nkpt=   1  k points:
  (in case of degenerate eigenvalues, averaged derivative)
 kpt#   1, nband= 87, wtk=  1.00000, kpt= -0.5000  0.5000  0.0000 (reduced coord)
   0.00000    0.00000    0.00000    0.00000   -0.00000    0.00000   -0.00000    0.00000
   0.00000   -0.00000   -0.00000    0.00000    0.00000    0.00000   -0.00000    0.00000
   0.00000    0.00000    0.00000    0.00000   -0.00000    0.00000   -0.00000   -0.00000
  -0.00000   -0.00000   -0.00000   -0.00000   -0.00000   -0.00000    0.00000    0.00000
  -0.00000   -0.00000   -0.00000    0.00000    0.00000   -0.00000   -0.00000   -0.00000
  -0.00000    0.00000   -0.00000    0.00000   -0.00000   -0.00000   -0.00000    0.00000
   0.00000   -0.00000   -0.00000   -0.00000   -0.00000    0.00000   -0.00000   -0.00000
  -0.00000    0.00000   -0.00000    0.00000   -0.00000   -0.00000    0.00000   -0.00000
  -0.00000    0.00000   -0.00000    0.00000    0.00000    0.00000    0.00000   -0.00000
  -0.00000   -0.00000   -0.00000    0.00000   -0.00000    0.00000   -0.00000    0.00000
   0.00000    0.00000   -0.00000    0.00000    0.00000   -0.00000    0.00000

 Eight components of 2nd-order total energy (hartree) are
 1,2,3: 0th-order hamiltonian combined with 1st-order wavefunctions
     kin0=   9.29492771E+01 eigvalue=   1.08647398E+01  local=  -4.97057864E+01
 4,5,6: 1st-order hamiltonian combined with 1st and 0th-order wfs
     kin1=  -7.55580436E+01  Hartree=   0.00000000E+00     xc=   0.00000000E+00
 7,8,9: eventually, occupation + non-local contributions
    edocc=   6.83340269E+00     enl0=   1.16483067E+01   enl1=  -6.96218361E+01
 1-9 gives the relaxation energy (to be shifted if some occ is /=2.0)
   erelax=  -7.25899399E+01
  No Ewald or frozen-wf contrib.: the relaxation energy is the total one
 2DEtotal=   -0.7258993987E+02 Ha. Also 2DEtotal=   -0.197527271806E+04 eV
    (  non-var. 2DEtotal :   -7.2589939866E+01 Ha)

 CALCULATION OF EFFECTIVE MASSES
 NOTE : Additional infos (eff. mass eigenvalues, eigenvectors and, if degenerate, average mass) are available in stdout.

 K-point (-0.500, 0.500, 0.000) | band =    78
 Effective mass tensor:
             -6.5316419876              3.5825583971              0.0000000082
              3.5825583971             -4.1513739914              0.0000002760
              0.0000000082              0.0000002760             -0.1706209893
 Effective mass tensor eigenvalues:
             -9.1165766780             -1.5664393011             -0.1706209893
 Angular average effective mass 1/(<1/m>)=  -0.4539247851
 Angular average effective mass for Frohlich model (<m**0.5>)**2=  -0.8248591673
 Effective masses along directions: (cart. coord. / red. coord. -> eff. mass)
    1:   1.000000  0.000000  0.000000 /   0.953727 -0.300673  0.000000 ->  -3.4399608489
    2:   0.000000  1.000000  0.000000 /   0.000000  1.000000  0.000000 ->  -2.1863666176
    3:   0.000000  0.000000  1.000000 /   0.000000  0.000000  1.000000 ->  -0.1706209893
    4:   0.577350  0.577350  0.577350 /   0.678975  0.430296  0.594843 ->  -0.4218954840
    5:   0.000000  0.707107  0.707107 /   0.000000  0.734771  0.678315 ->  -0.3165395910
    6:   0.707107  0.000000  0.707107 /   0.731875 -0.230732  0.641188 ->  -0.3251162663
    7:   0.707107  0.707107  0.000000 /   0.844663  0.535299  0.000000 ->  -1.6002305878

 K-point (-0.500, 0.500, 0.000) | band =    79
 Effective mass tensor:
              2.7894916106              1.5770388063             -0.0000000201
              1.5770388063              3.8372823021             -0.0000000315
             -0.0000000201             -0.0000000315              0.2031943392
 Effective mass tensor eigenvalues:
              0.2031943392              1.6516054636              4.9751684492
 Angular average effective mass 1/(<1/m>)=   0.5237552107
 Angular average effective mass for Frohlich model (<m**0.5>)**2=   0.8462202812
 Effective masses along directions: (cart. coord. / red. coord. -> eff. mass)
    1:   1.000000  0.000000  0.000000 /   0.953727 -0.300673  0.000000 ->   2.1413632738
    2:   0.000000  1.000000  0.000000 /   0.000000  1.000000  0.000000 ->   2.9457035689
    3:   0.000000  0.000000  1.000000 /   0.000000  0.000000  1.000000 ->   0.2031943392
    4:   0.577350  0.577350  0.577350 /   0.678975  0.430296  0.594843 ->   0.5613751832
    5:   0.000000  0.707107  0.707107 /   0.000000  0.734771  0.678315 ->   0.3801649338
    6:   0.707107  0.000000  0.707107 /   0.731875 -0.230732  0.641188 ->   0.3711684373
    7:   0.707107  0.707107  0.000000 /   0.844663  0.535299  0.000000 ->   4.7323547368

 END OF EFFECTIVE MASSES SECTION

 ---- first-order wavefunction calculations are completed ----

 Total localisation tensor (bohr^2) in cartesian coordinates
  WARNING : still subject to testing - especially symmetries.
      direction              matrix element
   alpha     beta       real part   imaginary part
     1        1       1.2030317022    0.0000000000
     1        2      -0.3273894374    0.0000000000
     1        3       0.0000000000    0.0000000000
     2        1      -0.3273894374    0.0000000000
     2        2       0.9855123706    0.0000000000
     2        3       0.0000000000    0.0000000000
     3        1       0.0000000000    0.0000000000
     3        2       0.0000000000    0.0000000000
     3        3       1.6815022639    0.0000000000

 respfn : d/dk was computed, but no 2DTE, so no DDB output.

== END DATASET(S) ==============================================================

 -outvars: echo values of variables after computation  --------
            acell      1.0000000000E+00  1.0000000000E+00  1.0000000000E+00 Bohr
              amu      1.32905430E+02  9.12240000E+01  7.89600000E+01
             ecut      4.30000000E+01 Hartree
           etotal     -7.2589939866E+01
            fcart      0.0000000000E+00  0.0000000000E+00  0.0000000000E+00
                       0.0000000000E+00  0.0000000000E+00  0.0000000000E+00
                       0.0000000000E+00  0.0000000000E+00  0.0000000000E+00
                       0.0000000000E+00  0.0000000000E+00  0.0000000000E+00
                       0.0000000000E+00  0.0000000000E+00  0.0000000000E+00
                       0.0000000000E+00  0.0000000000E+00  0.0000000000E+00
                       0.0000000000E+00  0.0000000000E+00  0.0000000000E+00
                       0.0000000000E+00  0.0000000000E+00  0.0000000000E+00
                       0.0000000000E+00  0.0000000000E+00  0.0000000000E+00
                       0.0000000000E+00  0.0000000000E+00  0.0000000000E+00
                       0.0000000000E+00  0.0000000000E+00  0.0000000000E+00
                       0.0000000000E+00  0.0000000000E+00  0.0000000000E+00
-          fftalg         512
           irdden           1
           irdwfk           1
              ixc     -116133
              kpt     -5.00000000E-01  5.00000000E-01  0.00000000E+00
           kptopt           0
P           mkmem           1
P          mkqmem           1
P          mk1mem           1
            natom          12
            nband          87
           nbdbuf           4
            ngfft          90      90      80
             nkpt           1
            nstep        2000
             nsym           8
           ntypat           3
              occ      2.000000  2.000000  2.000000  2.000000  2.000000  2.000000
                       2.000000  2.000000  2.000000  2.000000  2.000000  2.000000
                       2.000000  2.000000  2.000000  2.000000  2.000000  2.000000
                       2.000000  2.000000  2.000000  2.000000  2.000000  2.000000
                       2.000000  2.000000  2.000000  2.000000  2.000000  2.000000
                       2.000000  2.000000  2.000000  2.000000  2.000000  2.000000
                       2.000000  2.000000  2.000000  2.000000  2.000000  2.000000
                       2.000000  2.000000  2.000000  2.000000  2.000000  2.000000
                       2.000000  2.000000  2.000000  2.000000  2.000000  2.000000
                       2.000000  2.000000  2.000000  2.000000  2.000000  2.000000
                       2.000000  2.000000  2.000000  2.000000  2.000000  2.000000
                       2.000000  2.000000  2.000000  2.000000  2.000000  2.000000
                       2.000000  2.000000  2.000000  2.000000  2.000000  2.000000
                       0.000000  0.000000  0.000000  0.000000  0.000000  0.000000
                       0.000000  0.000000  0.000000
        optdriver           1
            prtwf          -1
            rfdir           1       1       1
           rfelfd           2
            rprim      1.5213871599E+01  0.0000000000E+00  0.0000000000E+00
                      -4.7963487102E+00  1.4438037543E+01  0.0000000000E+00
                       0.0000000000E+00  0.0000000000E+00  1.3328703078E+01
          spgroup          63
           strten      0.0000000000E+00  0.0000000000E+00  0.0000000000E+00
                       0.0000000000E+00  0.0000000000E+00  0.0000000000E+00
           symrel      1  0  0   0  1  0   0  0  1      -1  0  0   0 -1  0   0  0 -1
                       0 -1  0  -1  0  0   0  0 -1       0  1  0   1  0  0   0  0  1
                      -1  0  0   0 -1  0   0  0  1       1  0  0   0  1  0   0  0 -1
                       0  1  0   1  0  0   0  0 -1       0 -1  0  -1  0  0   0  0  1
            tnons      0.0000000  0.0000000  0.0000000     0.0000000  0.0000000  0.0000000
                       0.0000000  0.0000000  0.0000000     0.0000000  0.0000000  0.0000000
                       0.0000000  0.0000000  0.5000000     0.0000000  0.0000000  0.5000000
                       0.0000000  0.0000000  0.5000000     0.0000000  0.0000000  0.5000000
           tolwfr      1.00000000E-20
            typat      1  1  1  1  2  2  3  3  3  3  3  3
           useylm           1
           xangst      2.5403433613E+00  6.6478079800E-02  1.7633114723E+00
                       2.9723723216E+00  7.5738023247E+00  5.2899344169E+00
                       6.2505002448E+00  5.2085243171E+00  5.2899344169E+00
                      -7.3778456189E-01  2.4317560874E+00  1.7633114723E+00
                       3.2095416596E+00  4.4482247335E+00  1.7633114723E+00
                       2.3031740233E+00  3.1920556710E+00  5.2899344169E+00
                       8.5539155437E-01  1.1855193895E+00  5.2899344169E+00
                       4.6573241286E+00  6.4547610150E+00  1.7633114723E+00
                       4.2210005771E+00  2.7633518973E+00  3.5266229446E+00
                       4.2210005771E+00  2.7633518973E+00  0.0000000000E+00
                       1.2917151059E+00  4.8769285073E+00  3.5266229446E+00
                       1.2917151059E+00  4.8769285073E+00  0.0000000000E+00
            xcart      4.8005532364E+00  1.2562536466E-01  3.3321757696E+00
                       5.6169696528E+00  1.4312412178E+01  9.9965273088E+00
                       1.1811733656E+01  9.8426845158E+00  9.9965273088E+00
                      -1.3942107670E+00  4.5953530272E+00  3.3321757696E+00
                       6.0651547488E+00  8.4059265238E+00  3.3321757696E+00
                       4.3523681404E+00  6.0321110192E+00  9.9965273088E+00
                       1.6164557741E+00  2.2403069714E+00  9.9965273088E+00
                       8.8010671151E+00  1.2197730572E+01  3.3321757696E+00
                       7.9765350974E+00  5.2219782946E+00  6.6643515392E+00
                       7.9765350974E+00  5.2219782946E+00  0.0000000000E+00
                       2.4409877918E+00  9.2160592484E+00  6.6643515392E+00
                       2.4409877918E+00  9.2160592484E+00  0.0000000000E+00
             xred      3.1828100000E-01  8.7010000000E-03  2.5000000000E-01
                       6.8171900000E-01  9.9129900000E-01  7.5000000000E-01
                       9.9129900000E-01  6.8171900000E-01  7.5000000000E-01
                       8.7010000000E-03  3.1828100000E-01  2.5000000000E-01
                       5.8220700000E-01  5.8220700000E-01  2.5000000000E-01
                       4.1779300000E-01  4.1779300000E-01  7.5000000000E-01
                       1.5516700000E-01  1.5516700000E-01  7.5000000000E-01
                       8.4483300000E-01  8.4483300000E-01  2.5000000000E-01
                       6.3831800000E-01  3.6168200000E-01  5.0000000000E-01
                       6.3831800000E-01  3.6168200000E-01  0.0000000000E+00
                       3.6168200000E-01  6.3831800000E-01  5.0000000000E-01
                       3.6168200000E-01  6.3831800000E-01  0.0000000000E+00
            znucl       55.00000   40.00000   34.00000

- Timing analysis has been suppressed with timopt=0

 Suggested references for the acknowledgment of ABINIT usage.

 Calculation completed.
.Delivered   2 WARNINGs and   5 COMMENTs to log file.