.Version 9.5.2 of ABINIT

 ABINIT is a project of the Universite Catholique de Louvain,
 Corning Inc. and other collaborators, see ~abinit/doc/developers/contributors.txt .
 acknowledgments of the ABINIT effort.

.Starting date : Tue  1 Jun 2021.
- ( at 11h54 )

- input  file    -> /scratch/users/j/a/jabreu/flow_simple_11atoms/flow/w328/t1/run.abi
- output file    -> /scratch/users/j/a/jabreu/flow_simple_11atoms/flow/w328/t1/run.abo
- root for input  files -> /scratch/users/j/a/jabreu/flow_simple_11atoms/flow/w328/t1/indata/in
- root for output files -> /scratch/users/j/a/jabreu/flow_simple_11atoms/flow/w328/t1/outdata/out

 Symmetries : space group P-1 (#  2); Bravais aP (primitive triclinic)
     intxc =       0      iscf =       7    lmnmax =      18     lnmax =       6
     mgfft =      96  mpssoang =       3    mqgrid =    4521     natom =      12
  nloc_mem =       1    nspden =       1   nspinor =       1    nsppol =       1
      nsym =       2    n1xccc =    2501    ntypat =       3    occopt =       1
   xclevel =       2
-    mband =          89        mffmem =           1         mkmem =           2
-   mkqmem =           2        mk1mem =           2           mpw =       33860
      nfft =      691200          nkpt =           2
  Rough estimation (10% accuracy) of disk space for files :

------------- Echo of variables that govern the present computation ------------
-
- outvars: echo of selected default values
-   iomode0 =  0 , fftalg0 =512 , wfoptalg0 =  0
-
- outvars: echo of global parameters not present in the input file
-  max_nthreads =    0
-
 -outvars: echo values of preprocessed input variables --------
            acell      1.0000000000E+00  1.0000000000E+00  1.0000000000E+00 Bohr
              amu      3.90983000E+01  7.26100000E+01  7.89600000E+01
             ecut      4.30000000E+01 Hartree
-          fftalg         512
           irdden           1
           irdwfk           1
           istwfk        0    1
              ixc     -116133
              kpt      0.00000000E+00  3.52941177E-01  3.52941177E-01
                       0.00000000E+00  5.00000000E-01  0.00000000E+00
           kptopt           0
P           mkmem           2
P          mkqmem           2
P          mk1mem           2
            natom          12
            nband          89
           nbdbuf           4
            ngfft          80      90      96
             nkpt           2
            nstep        2000
             nsym           2
           ntypat           3
              occ      2.000000  2.000000  2.000000  2.000000  2.000000  2.000000
                       2.000000  2.000000  2.000000  2.000000  2.000000  2.000000
                       2.000000  2.000000  2.000000  2.000000  2.000000  2.000000
                       2.000000  2.000000  2.000000  2.000000  2.000000  2.000000
                       2.000000  2.000000  2.000000  2.000000  2.000000  2.000000
                       2.000000  2.000000  2.000000  2.000000  2.000000  2.000000
                       2.000000  2.000000  2.000000  2.000000  2.000000  2.000000
                       2.000000  2.000000  2.000000  2.000000  2.000000  2.000000
                       2.000000  2.000000  2.000000  2.000000  2.000000  2.000000
                       2.000000  2.000000  2.000000  2.000000  2.000000  2.000000
                       2.000000  2.000000  2.000000  2.000000  2.000000  2.000000
                       2.000000  2.000000  2.000000  2.000000  2.000000  2.000000
                       2.000000  2.000000  2.000000  2.000000  2.000000  2.000000
                       2.000000  2.000000  0.000000  0.000000  0.000000  0.000000
                       0.000000  0.000000  0.000000  0.000000  0.000000
        optdriver           1
            prtwf          -1
            rfdir           1       1       1
           rfelfd           2
            rprim      1.2237361057E+01  0.0000000000E+00  3.7034341162E+00
                       4.6093703247E+00  1.2654631305E+01  3.6126807074E+00
                       0.0000000000E+00  0.0000000000E+00  1.6224971509E+01
          spgroup           2
           symrel      1  0  0   0  1  0   0  0  1      -1  0  0   0 -1  0   0  0 -1
           tolwfr      1.00000000E-20
            typat      1  1  1  1  2  2  3  3  3  3  3  3
           useylm           1
              wtk        0.50000    0.50000
           xangst      4.4552673639E+00  5.3404926197E+00  9.9396698094E+00
                       4.4596389227E+00  1.3560498501E+00  2.5177365431E+00
                       2.0923561038E+00  3.1142940410E+00  7.0340056206E+00
                       6.8225501829E+00  3.5822484288E+00  5.4234007320E+00
                       5.7089100626E+00  3.9479466131E-01  7.6714089425E+00
                       3.2059962240E+00  6.3017478086E+00  4.7859974101E+00
                       5.2308042267E+00  2.5989214360E+00  8.1728787759E+00
                       3.6841020600E+00  4.0976210339E+00  4.2845275767E+00
                       7.5887623727E+00  5.4449720753E+00  1.1107344382E+01
                       1.3261439139E+00  1.2515703945E+00  1.3500619701E+00
                       1.5743598516E+00  2.6111158399E-01  5.1029981846E+00
                       7.3405464351E+00  6.4354308859E+00  7.3544081679E+00
            xcart      8.4192351666E+00  1.0092068466E+01  1.8783253791E+01
                       8.4274962155E+00  2.5625628393E+00  4.7578325412E+00
                       3.9539800086E+00  5.8851628348E+00  1.3292344240E+01
                       1.2892751374E+01  6.7694684705E+00  1.0248742092E+01
                       1.0788276536E+01  7.4605378860E-01  1.4496861955E+01
                       6.0584548465E+00  1.1908577517E+01  9.0442243778E+00
                       9.8847874431E+00  4.9112497550E+00  1.5444502604E+01
                       6.9619439390E+00  7.7433815503E+00  8.0965837287E+00
                       1.4340682572E+01  1.0289506024E+01  2.0989838946E+01
                       2.5060488101E+00  2.3651252817E+00  2.5512473859E+00
                       2.9751089540E+00  4.9342938386E-01  9.6432690255E+00
                       1.3871622428E+01  1.2161201921E+01  1.3897817307E+01
             xred      3.8760500000E-01  7.9750000000E-01  8.9163000000E-01
                       6.1239500000E-01  2.0250000000E-01  1.0837000000E-01
                       1.4793600000E-01  4.6506000000E-01  6.8193400000E-01
                       8.5206400000E-01  5.3494000000E-01  3.1806600000E-01
                       8.5937900000E-01  5.8955000000E-02  6.8420600000E-01
                       1.4062100000E-01  9.4104500000E-01  3.1579400000E-01
                       6.6157200000E-01  3.8809900000E-01  7.1447500000E-01
                       3.3842800000E-01  6.1190100000E-01  2.8552500000E-01
                       8.6561100000E-01  8.1310200000E-01  9.1504800000E-01
                       1.3438900000E-01  1.8689800000E-01  8.4952000000E-02
                       2.2843000000E-01  3.8992000000E-02  5.3352500000E-01
                       7.7157000000E-01  9.6100800000E-01  4.6647500000E-01
            znucl       19.00000   32.00000   34.00000

 chkinp: Checking input parameters for consistency.

== DATASET  1 ==================================================================
-   mpi_nproc: 1, omp_nthreads: -1 (-1 if OMP is not activated)

--- !DatasetInfo
iteration_state: {dtset: 1, }
dimensions: {natom: 12, nkpt: 2, mband: 89, nsppol: 1, nspinor: 1, nspden: 1, mpw: 33860, }
cutoff_energies: {ecut:  43.0, pawecutdg:  -1.0, }
electrons: {nelect:   1.60000000E+02, charge:   0.00000000E+00, occopt:   1.00000000E+00, tsmear:   1.00000000E-02, }
meta: {optdriver: 1, rfelfd: 2, }
...

 Real(R)+Recip(G) space primitive vectors, cartesian coordinates (Bohr,Bohr^-1):
 R(1)= 12.2373611  0.0000000  3.7034341  G(1)=  0.0817170 -0.0297649  0.0000000
 R(2)=  4.6093703 12.6546313  3.6126807  G(2)=  0.0000000  0.0790225  0.0000000
 R(3)=  0.0000000  0.0000000 16.2249715  G(3)= -0.0186523 -0.0108013  0.0616334
 Unit cell volume ucvol=  2.5125876E+03 bohr^3
 Angles (23,13,12)=  7.49843175E+01  7.31624321E+01  6.69561342E+01 degrees

 getcut: wavevector=  0.0000  0.0000  0.0000  ngfft=  80  90  96
         ecut(hartree)=     43.000   => boxcut(ratio)=   2.00448

--- Pseudopotential description ------------------------------------------------
- pspini: atom type   1  psp file is /scratch/users/j/a/jabreu/pseudos/PBEsol/K.psp8
- pspatm: opening atomic psp file    /scratch/users/j/a/jabreu/pseudos/PBEsol/K.psp8
- K     ONCVPSP-3.3.0  r_core=   1.36296   1.46408   1.61068
- 19.00000   9.00000    180112                znucl, zion, pspdat
    8 -116133    2    4       400   0.00000   pspcod,pspxc,lmax,lloc,mmax,r2well
    3.99000000000000    5.00000000000000    0.00000000000000   rchrg,fchrg,qchrg
     nproj     2     2     2
     extension_switch     1
  pspatm : epsatm=    8.32487830
         --- l  ekb(1:nproj) -->
             0   10.921326    0.816676
             1    4.431000    0.560368
             2   -3.384038   -1.043186
 pspatm: atomic psp has been read  and splines computed

- pspini: atom type   2  psp file is /scratch/users/j/a/jabreu/pseudos/PBEsol/Ge.psp8
- pspatm: opening atomic psp file    /scratch/users/j/a/jabreu/pseudos/PBEsol/Ge.psp8
- Ge    ONCVPSP-3.3.0  r_core=   1.91022   1.82122   1.91022
- 32.00000  14.00000    180112                znucl, zion, pspdat
    8 -116133    2    4       600   0.00000   pspcod,pspxc,lmax,lloc,mmax,r2well
    5.99000000000000    5.00000000000000    0.00000000000000   rchrg,fchrg,qchrg
     nproj     2     2     2
     extension_switch     1
  pspatm : epsatm=   30.86751540
         --- l  ekb(1:nproj) -->
             0    6.339734    0.583066
             1    3.813259    0.738801
             2   -9.332373   -3.602819
 pspatm: atomic psp has been read  and splines computed

- pspini: atom type   3  psp file is /scratch/users/j/a/jabreu/pseudos/PBEsol/Se.psp8
- pspatm: opening atomic psp file    /scratch/users/j/a/jabreu/pseudos/PBEsol/Se.psp8
- Se    ONCVPSP-3.3.0  r_core=   1.81943   1.50330   1.90835
- 34.00000  16.00000    180112                znucl, zion, pspdat
    8 -116133    2    4       600   0.00000   pspcod,pspxc,lmax,lloc,mmax,r2well
    5.99000000000000    5.00000000000000    0.00000000000000   rchrg,fchrg,qchrg
     nproj     2     2     2
     extension_switch     1
  pspatm : epsatm=   29.17862020
         --- l  ekb(1:nproj) -->
             0    8.973804    1.019550
             1    6.849857    1.297308
             2   -9.203962   -3.731027
 pspatm: atomic psp has been read  and splines computed

   4.32170024E+04                                ecore*ucvol(ha*bohr**3)

 ==>  initialize data related to q vector <==

 The list of irreducible perturbations for this q vector is:
    1)    idir= 1    ipert=  13
    2)    idir= 2    ipert=  13
    3)    idir= 3    ipert=  13

 Perturbation wavevector (in red.coord.)   0.000000  0.000000  0.000000
 Perturbation : derivative vs k along direction   1

 dfpt_looppert : COMMENT -
  In a d/dk calculation, iscf is set to -3 automatically.
[...]
   0.00017   -0.00226    0.00204   -0.00342   -0.00032    0.00091    0.00024   -0.00221
  -0.00042   -0.00998    0.00363    0.00232    0.00403    0.00011   -0.00151   -0.00259
   0.00147   -0.00342   -0.01594    0.01218    0.00994    0.01395    0.01247   -0.01230
  -0.01464    0.02227   -0.04333    0.00258    0.01832   -0.02212    0.01765    0.01039
  -0.01578    0.01020    0.01796    0.01772   -0.00505    0.00123   -0.05744    0.02955
   0.00760
 prteigrs : prtvol=0 or 1, do not print more k-points.

 Eight components of 2nd-order total energy (hartree) are
 1,2,3: 0th-order hamiltonian combined with 1st-order wavefunctions
     kin0=   1.27674952E+02 eigvalue=   1.98399992E+01  local=  -5.74317524E+01
 4,5,6: 1st-order hamiltonian combined with 1st and 0th-order wfs
     kin1=  -9.93915084E+01  Hartree=   0.00000000E+00     xc=   0.00000000E+00
 7,8,9: eventually, occupation + non-local contributions
    edocc=   7.27022656E+00     enl0=   9.84930470E+00   enl1=  -1.15013953E+02
 1-9 gives the relaxation energy (to be shifted if some occ is /=2.0)
   erelax=  -1.07202730E+02
  No Ewald or frozen-wf contrib.: the relaxation energy is the total one
 2DEtotal=   -0.1072027305E+03 Ha. Also 2DEtotal=   -0.291713464999E+04 eV
    (  non-var. 2DEtotal :   -1.0720273048E+02 Ha)

 Perturbation wavevector (in red.coord.)   0.000000  0.000000  0.000000
 Perturbation : derivative vs k along direction   2
 The set of symmetries contains only one element for this perturbation.
 symkpt : not enough symmetry to change the number of k points.

[...]

 Perturbation wavevector (in red.coord.)   0.000000  0.000000  0.000000
 Perturbation : derivative vs k along direction   3
 The set of symmetries contains only one element for this perturbation.
 symkpt : not enough symmetry to change the number of k points.

 Initialisation of the first-order wave-functions :
  ireadwf=   0

--- !BeginCycle
iteration_state: {dtset: 1, }
solver: {iscf: 7, nstep: 2000, nline: 4, wfoptalg: 0, }
tolerances: {tolwfr: 1.00E-20, }
...

     iter   2DEtotal(Ha)        deltaE(Ha) residm    vres2
-ETOT  1  -59.294124197349     -5.929E+01 4.129E-02 0.000E+00
 ETOT  2  -59.402828543246     -1.087E-01 3.037E-03 0.000E+00
 ETOT  3  -59.404298633997     -1.470E-03 3.244E-04 0.000E+00
 ETOT  4  -59.404338925641     -4.029E-05 6.219E-05 0.000E+00
 ETOT  5  -59.404340380298     -1.455E-06 9.463E-06 0.000E+00
 ETOT  6  -59.404340439254     -5.896E-08 2.040E-06 0.000E+00
 ETOT  7  -59.404340441845     -2.591E-09 3.179E-07 0.000E+00
 ETOT  8  -59.404340441963     -1.179E-10 7.159E-08 0.000E+00
 ETOT  9  -59.404340441968     -5.549E-12 1.131E-08 0.000E+00
 ETOT 10  -59.404340441969     -2.629E-13 2.576E-09 0.000E+00
 ETOT 11  -59.404340441969     -4.263E-14 4.116E-10 0.000E+00
 ETOT 12  -59.404340441969      1.421E-14 9.398E-11 0.000E+00
 ETOT 13  -59.404340441969      2.132E-14 1.515E-11 0.000E+00
 ETOT 14  -59.404340441969     -1.421E-14 3.457E-12 0.000E+00
 ETOT 15  -59.404340441969      7.105E-15 5.609E-13 0.000E+00
 ETOT 16  -59.404340441969      7.105E-15 1.661E-13 0.000E+00
 ETOT 17  -59.404340441969     -2.132E-14 2.502E-14 0.000E+00
 ETOT 18  -59.404340441969      7.105E-15 8.031E-15 0.000E+00
 ETOT 19  -59.404340441969     -7.105E-15 1.209E-15 0.000E+00
 ETOT 20  -59.404340441969      0.000E+00 3.891E-16 0.000E+00
 ETOT 21  -59.404340441969      1.421E-14 5.859E-17 0.000E+00
 ETOT 22  -59.404340441969     -7.105E-15 1.888E-17 0.000E+00
 ETOT 23  -59.404340441969      0.000E+00 2.847E-18 0.000E+00
 ETOT 24  -59.404340441969      0.000E+00 9.181E-19 0.000E+00
 ETOT 25  -59.404340441969     -7.105E-15 1.387E-19 0.000E+00
 ETOT 26  -59.404340441969      1.421E-14 4.472E-20 0.000E+00
 ETOT 27  -59.404340441969      0.000E+00 9.817E-21 0.000E+00

 At SCF step   27   max residual=  9.82E-21 < tolwfr=  1.00E-20 =>converged.

 ----iterations are completed or convergence reached----

 dfpt_looppert: DFPT cycle converged with prtwf=-1. Will skip output of the 1st-order WFK file.
 dfpt_looppert : ek2=    5.3858057904E+01
          f-sum rule ratio=    1.0015854112E+00
 prteigrs : about to open file /scratch/users/j/a/jabreu/flow_simple_11atoms/flow/w328/t1/tmpdata/tmp_1WF1_EIG
 Expectation of eigenvalue derivatives (hartree) for nkpt=   2  k points:
  (in case of degenerate eigenvalues, averaged derivative)
 kpt#   1, nband= 89, wtk=  0.50000, kpt=  0.0000  0.3529  0.3529 (reduced coord)
   0.00000    0.00000    0.00000    0.00000    0.00000    0.00000    0.00000    0.00000
   0.00000    0.00000   -0.00000    0.00000    0.00000    0.00000    0.00000    0.00000
  -0.00000    0.00000    0.00000    0.00000    0.00000    0.00000   -0.00000    0.00000
  -0.00000    0.00000    0.00000    0.00000    0.00000    0.00000    0.00002   -0.00002
   0.00000   -0.00000   -0.00000    0.00000   -0.00000    0.00000   -0.00000    0.00000
   0.00000    0.00000   -0.00000   -0.00000   -0.00102   -0.00365   -0.00186   -0.00290
   0.00195    0.00044    0.00396    0.00170    0.00023    0.00086   -0.00054    0.00086
   0.00232    0.00298    0.00236   -0.00903   -0.00462    0.00483    0.00198    0.00180
  -0.00046    0.00618    0.00576   -0.01116   -0.00524   -0.02044    0.01222   -0.00349
  -0.01486   -0.01074    0.02839    0.00142   -0.00083    0.00164   -0.00656   -0.00474
   0.02920    0.02888    0.00341    0.02138   -0.01683   -0.00528    0.01123   -0.03383
   0.02330
 prteigrs : prtvol=0 or 1, do not print more k-points.

 Eight components of 2nd-order total energy (hartree) are
 1,2,3: 0th-order hamiltonian combined with 1st-order wavefunctions
     kin0=   6.99917787E+01 eigvalue=   1.12413752E+01  local=  -3.11648411E+01
 4,5,6: 1st-order hamiltonian combined with 1st and 0th-order wfs
     kin1=  -5.39434451E+01  Hartree=   0.00000000E+00     xc=   0.00000000E+00
 7,8,9: eventually, occupation + non-local contributions
    edocc=   3.76967334E+00     enl0=   5.56635428E+00   enl1=  -6.48652358E+01
 1-9 gives the relaxation energy (to be shifted if some occ is /=2.0)
   erelax=  -5.94043404E+01
  No Ewald or frozen-wf contrib.: the relaxation energy is the total one
 2DEtotal=   -0.5940434044E+02 Ha. Also 2DEtotal=   -0.161647431072E+04 eV
    (  non-var. 2DEtotal :   -5.9404340442E+01 Ha)

 CALCULATION OF EFFECTIVE MASSES
 NOTE : Additional infos (eff. mass eigenvalues, eigenvectors and, if degenerate, average mass) are available in stdout.

 K-point ( 0.000, 0.353, 0.353) | band =    80
 Effective mass tensor:
             -1.5194440525              2.1525747879              1.4114837908
              2.1525747879             -8.4868237012             -5.0752106127
              1.4114837908             -5.0752106127             -5.8680362185
 Effective mass tensor eigenvalues:
            -12.9929335760             -1.9738456706             -0.9075247255
 Angular average effective mass 1/(<1/m>)=  -1.7798994317
 Angular average effective mass for Frohlich model (<m**0.5>)**2=  -2.2621837593
 Effective masses along directions: (cart. coord. / red. coord. -> eff. mass)
    1:   1.000000  0.000000  0.000000 /   0.935816  0.352488  0.000000 ->  -0.9680240281
    2:   0.000000  1.000000  0.000000 /   0.000000  1.000000  0.000000 ->  -3.3614774990
    3:   0.000000  0.000000  1.000000 /   0.217467  0.212138  0.952736 ->  -2.8171549885
    4:   0.577350  0.577350  0.577350 /   0.516320  0.676193  0.525525 ->  -1.6265761273
    5:   0.000000  0.707107  0.707107 /   0.159136  0.699005  0.697186 ->  -7.9717928732
    6:   0.707107  0.000000  0.707107 /   0.659093  0.339951  0.670843 ->  -1.3526375183
    7:   0.707107  0.707107  0.000000 /   0.578291  0.815831  0.000000 ->  -1.1108789884

--- !WARNING
src_file: m_efmas.F90
src_line: 0
message: |

    Band(s)    81,
    are not band extrema, but saddle points;
    the transport equivalent formalism breaks down in these conditions.
    The associated tensor(s) will therefore not be printed.
...

 K-point ( 0.000, 0.500, 0.000) | band =    81
 Effective mass tensor:
     *** SADDLE POINT: TRANSPORT EQV. EFF. MASS NOT DEFINED (see WARNING above) ***
 Angular average effective mass 1/(<1/m>)=   2.1986544108
 Angular average effective mass for Frohlich model (<m**0.5>)**2=   2.9127815141
 Effective masses along directions: (cart. coord. / red. coord. -> eff. mass)
    1:   1.000000  0.000000  0.000000 /   0.935816  0.352488  0.000000 ->  -1.2080113658
    2:   0.000000  1.000000  0.000000 /   0.000000  1.000000  0.000000 ->   1.5634092009
    3:   0.000000  0.000000  1.000000 /   0.217467  0.212138  0.952736 ->   0.6440602008
    4:   0.577350  0.577350  0.577350 /   0.516320  0.676193  0.525525 ->   1.9678505191
    5:   0.000000  0.707107  0.707107 /   0.159136  0.699005  0.697186 ->   0.8905557808
    6:   0.707107  0.000000  0.707107 /   0.659093  0.339951  0.670843 ->   5.7413468460
    7:   0.707107  0.707107  0.000000 /   0.578291  0.815831  0.000000 ->   6.7833847391

 END OF EFFECTIVE MASSES SECTION

 ---- first-order wavefunction calculations are completed ----

 Total localisation tensor (bohr^2) in cartesian coordinates
  WARNING : still subject to testing - especially symmetries.
      direction              matrix element
   alpha     beta       real part   imaginary part
     1        1       1.1282086904    0.0000000000
     1        2       0.2957793099    0.0000000000
     1        3       0.3932691176    0.0000000000
     2        1       0.2957793099    0.0000000000
     2        2       0.8120367537    0.0000000000
     2        3       0.2318225986    0.0000000000
     3        1       0.3932691176    0.0000000000
     3        2       0.2318225986    0.0000000000
     3        3       1.0744385543    0.0000000000

 respfn : d/dk was computed, but no 2DTE, so no DDB output.

== END DATASET(S) ==============================================================

 -outvars: echo values of variables after computation  --------
            acell      1.0000000000E+00  1.0000000000E+00  1.0000000000E+00 Bohr
              amu      3.90983000E+01  7.26100000E+01  7.89600000E+01
             ecut      4.30000000E+01 Hartree
           etotal     -5.9404340442E+01
            fcart      0.0000000000E+00  0.0000000000E+00  0.0000000000E+00
                       0.0000000000E+00  0.0000000000E+00  0.0000000000E+00
                       0.0000000000E+00  0.0000000000E+00  0.0000000000E+00
                       0.0000000000E+00  0.0000000000E+00  0.0000000000E+00
                       0.0000000000E+00  0.0000000000E+00  0.0000000000E+00
                       0.0000000000E+00  0.0000000000E+00  0.0000000000E+00
                       0.0000000000E+00  0.0000000000E+00  0.0000000000E+00
                       0.0000000000E+00  0.0000000000E+00  0.0000000000E+00
                       0.0000000000E+00  0.0000000000E+00  0.0000000000E+00
                       0.0000000000E+00  0.0000000000E+00  0.0000000000E+00
                       0.0000000000E+00  0.0000000000E+00  0.0000000000E+00
                       0.0000000000E+00  0.0000000000E+00  0.0000000000E+00
-          fftalg         512
           irdden           1
           irdwfk           1
           istwfk        0    1
              ixc     -116133
              kpt      0.00000000E+00  3.52941177E-01  3.52941177E-01
                       0.00000000E+00  5.00000000E-01  0.00000000E+00
           kptopt           0
P           mkmem           2
P          mkqmem           2
P          mk1mem           2
            natom          12
            nband          89
           nbdbuf           4
            ngfft          80      90      96
             nkpt           2
            nstep        2000
             nsym           2
           ntypat           3
              occ      2.000000  2.000000  2.000000  2.000000  2.000000  2.000000
                       2.000000  2.000000  2.000000  2.000000  2.000000  2.000000
                       2.000000  2.000000  2.000000  2.000000  2.000000  2.000000
                       2.000000  2.000000  2.000000  2.000000  2.000000  2.000000
                       2.000000  2.000000  2.000000  2.000000  2.000000  2.000000
                       2.000000  2.000000  2.000000  2.000000  2.000000  2.000000
                       2.000000  2.000000  2.000000  2.000000  2.000000  2.000000
                       2.000000  2.000000  2.000000  2.000000  2.000000  2.000000
                       2.000000  2.000000  2.000000  2.000000  2.000000  2.000000
                       2.000000  2.000000  2.000000  2.000000  2.000000  2.000000
                       2.000000  2.000000  2.000000  2.000000  2.000000  2.000000
                       2.000000  2.000000  2.000000  2.000000  2.000000  2.000000
                       2.000000  2.000000  2.000000  2.000000  2.000000  2.000000
                       2.000000  2.000000  0.000000  0.000000  0.000000  0.000000
                       0.000000  0.000000  0.000000  0.000000  0.000000
        optdriver           1
            prtwf          -1
            rfdir           1       1       1
           rfelfd           2
            rprim      1.2237361057E+01  0.0000000000E+00  3.7034341162E+00
                       4.6093703247E+00  1.2654631305E+01  3.6126807074E+00
                       0.0000000000E+00  0.0000000000E+00  1.6224971509E+01
          spgroup           2
           strten      0.0000000000E+00  0.0000000000E+00  0.0000000000E+00
                       0.0000000000E+00  0.0000000000E+00  0.0000000000E+00
           symrel      1  0  0   0  1  0   0  0  1      -1  0  0   0 -1  0   0  0 -1
           tolwfr      1.00000000E-20
            typat      1  1  1  1  2  2  3  3  3  3  3  3
           useylm           1
              wtk        0.50000    0.50000
           xangst      4.4552673639E+00  5.3404926197E+00  9.9396698094E+00
                       4.4596389227E+00  1.3560498501E+00  2.5177365431E+00
                       2.0923561038E+00  3.1142940410E+00  7.0340056206E+00
                       6.8225501829E+00  3.5822484288E+00  5.4234007320E+00
                       5.7089100626E+00  3.9479466131E-01  7.6714089425E+00
                       3.2059962240E+00  6.3017478086E+00  4.7859974101E+00
                       5.2308042267E+00  2.5989214360E+00  8.1728787759E+00
                       3.6841020600E+00  4.0976210339E+00  4.2845275767E+00
                       7.5887623727E+00  5.4449720753E+00  1.1107344382E+01
                       1.3261439139E+00  1.2515703945E+00  1.3500619701E+00
                       1.5743598516E+00  2.6111158399E-01  5.1029981846E+00
                       7.3405464351E+00  6.4354308859E+00  7.3544081679E+00
            xcart      8.4192351666E+00  1.0092068466E+01  1.8783253791E+01
                       8.4274962155E+00  2.5625628393E+00  4.7578325412E+00
                       3.9539800086E+00  5.8851628348E+00  1.3292344240E+01
                       1.2892751374E+01  6.7694684705E+00  1.0248742092E+01
                       1.0788276536E+01  7.4605378860E-01  1.4496861955E+01
                       6.0584548465E+00  1.1908577517E+01  9.0442243778E+00
                       9.8847874431E+00  4.9112497550E+00  1.5444502604E+01
                       6.9619439390E+00  7.7433815503E+00  8.0965837287E+00
                       1.4340682572E+01  1.0289506024E+01  2.0989838946E+01
                       2.5060488101E+00  2.3651252817E+00  2.5512473859E+00
                       2.9751089540E+00  4.9342938386E-01  9.6432690255E+00
                       1.3871622428E+01  1.2161201921E+01  1.3897817307E+01
             xred      3.8760500000E-01  7.9750000000E-01  8.9163000000E-01
                       6.1239500000E-01  2.0250000000E-01  1.0837000000E-01
                       1.4793600000E-01  4.6506000000E-01  6.8193400000E-01
                       8.5206400000E-01  5.3494000000E-01  3.1806600000E-01
                       8.5937900000E-01  5.8955000000E-02  6.8420600000E-01
                       1.4062100000E-01  9.4104500000E-01  3.1579400000E-01
                       6.6157200000E-01  3.8809900000E-01  7.1447500000E-01
                       3.3842800000E-01  6.1190100000E-01  2.8552500000E-01
                       8.6561100000E-01  8.1310200000E-01  9.1504800000E-01
                       1.3438900000E-01  1.8689800000E-01  8.4952000000E-02
                       2.2843000000E-01  3.8992000000E-02  5.3352500000E-01
                       7.7157000000E-01  9.6100800000E-01  4.6647500000E-01
            znucl       19.00000   32.00000   34.00000

- Timing analysis has been suppressed with timopt=0

 Suggested references for the acknowledgment of ABINIT usage.

 Calculation completed.
.Delivered   3 WARNINGs and   7 COMMENTs to log file.