.Version 9.5.1 of ABINIT

 ABINIT is a project of the Universite Catholique de Louvain,
 Corning Inc. and other collaborators, see ~abinit/doc/developers/contributors.txt .
 acknowledgments of the ABINIT effort.

.Starting date : Wed 19 May 2021.
- ( at 13h45 )

- input  file    -> /scratch/users/j/a/jabreu/flow_simple_9atoms/flow/w187/t1/run.abi
- output file    -> /scratch/users/j/a/jabreu/flow_simple_9atoms/flow/w187/t1/run.abo
- root for input  files -> /scratch/users/j/a/jabreu/flow_simple_9atoms/flow/w187/t1/indata/in
- root for output files -> /scratch/users/j/a/jabreu/flow_simple_9atoms/flow/w187/t1/outdata/out

 Symmetries : space group P-3 1 m (#162); Bravais hP (primitive hexag.)
     intxc =       0      iscf =       7    lmnmax =      18     lnmax =       6
     mgfft =      64  mpssoang =       3    mqgrid =    3029     natom =       9
  nloc_mem =       1    nspden =       1   nspinor =       1    nsppol =       1
      nsym =      12    n1xccc =    2501    ntypat =       3    occopt =       1
   xclevel =       2
-    mband =          47        mffmem =           1         mkmem =           2
-   mkqmem =           2        mk1mem =           2           mpw =       12327
      nfft =      230400          nkpt =           2
  Rough estimation (10% accuracy) of disk space for files :

------------- Echo of variables that govern the present computation ------------
-
- outvars: echo of selected default values
-   iomode0 =  0 , fftalg0 =512 , wfoptalg0 =  0
-
- outvars: echo of global parameters not present in the input file
-  max_nthreads =    0
-
 -outvars: echo values of preprocessed input variables --------
            acell      1.0000000000E+00  1.0000000000E+00  1.0000000000E+00 Bohr
              amu      8.76200000E+01  1.21753000E+02  1.59994000E+01
             ecut      4.40000000E+01 Hartree
-          fftalg         512
           irdden           1
           irdwfk           1
           istwfk        0    1
              ixc     -116133
              kpt      1.80555556E-01  1.80555556E-01  0.00000000E+00
                       0.00000000E+00  0.00000000E+00  0.00000000E+00
           kptopt           0
P           mkmem           2
P          mkqmem           2
P          mk1mem           2
            natom           9
            nband          47
           nbdbuf           4
            ngfft          60      60      64
             nkpt           2
            nstep        2000
             nsym          12
           ntypat           3
              occ      2.000000  2.000000  2.000000  2.000000  2.000000  2.000000
                       2.000000  2.000000  2.000000  2.000000  2.000000  2.000000
                       2.000000  2.000000  2.000000  2.000000  2.000000  2.000000
                       2.000000  2.000000  2.000000  2.000000  2.000000  2.000000
                       2.000000  2.000000  2.000000  2.000000  2.000000  2.000000
                       2.000000  2.000000  2.000000  2.000000  2.000000  2.000000
                       2.000000  2.000000  0.000000  0.000000  0.000000  0.000000
                       0.000000  0.000000  0.000000  0.000000  0.000000
        optdriver           1
            prtwf          -1
            rfdir           1       1       1
           rfelfd           2
            rprim      1.0036421752E+01  0.0000000000E+00  0.0000000000E+00
                      -5.0182108758E+00  8.6917962000E+00  0.0000000000E+00
                       0.0000000000E+00  0.0000000000E+00  1.0140841649E+01
          spgroup         162
           symrel      1  0  0   0  1  0   0  0  1      -1  0  0   0 -1  0   0  0 -1
                       0  1  0   1  0  0   0  0  1       0 -1  0  -1  0  0   0  0 -1
                       0  1  0  -1 -1  0   0  0  1       0 -1  0   1  1  0   0  0 -1
                      -1 -1  0   0  1  0   0  0  1       1  1  0   0 -1  0   0  0 -1
                      -1 -1  0   1  0  0   0  0  1       1  1  0  -1  0  0   0  0 -1
                       1  0  0  -1 -1  0   0  0  1      -1  0  0   1  1  0   0  0 -1
           tolwfr      1.00000000E-20
            typat      1  2  2  3  3  3  3  3  3
           useylm           1
              wtk        0.50000    0.50000
           xangst      0.0000000000E+00  0.0000000000E+00  0.0000000000E+00
                       2.6555228234E+00  1.5331668169E+00  2.6831511383E+00
                       1.7639241746E-11  3.0663336338E+00  2.6831511383E+00
                       1.6571922956E+00  2.8703412538E+00  3.8018749064E+00
                       1.9966610557E+00  0.0000000000E+00  3.8018749064E+00
                      -9.9833052783E-01  1.7291591970E+00  3.8018749064E+00
                       3.3143845911E+00  0.0000000000E+00  1.5644273701E+00
                      -1.6571922955E+00  2.8703412538E+00  1.5644273701E+00
                       9.9833052785E-01  1.7291591970E+00  1.5644273701E+00
            xcart      0.0000000000E+00  0.0000000000E+00  0.0000000000E+00
                       5.0182108759E+00  2.8972654000E+00  5.0704208245E+00
                       3.3333336091E-11  5.7945308000E+00  5.0704208245E+00
                       3.1316395882E+00  5.4241588776E+00  7.1845023647E+00
                       3.7731425754E+00  0.0000000000E+00  7.1845023647E+00
                      -1.8865712877E+00  3.2676373224E+00  7.1845023647E+00
                       6.2632791763E+00  0.0000000000E+00  2.9563392842E+00
                      -3.1316395881E+00  5.4241588776E+00  2.9563392842E+00
                       1.8865712877E+00  3.2676373224E+00  2.9563392842E+00
             xred      0.0000000000E+00  0.0000000000E+00  0.0000000000E+00
                       6.6666666667E-01  3.3333333333E-01  5.0000000000E-01
                       3.3333333333E-01  6.6666666667E-01  5.0000000000E-01
                       6.2405500000E-01  6.2405500000E-01  7.0847200000E-01
                       3.7594500000E-01  0.0000000000E+00  7.0847200000E-01
                       0.0000000000E+00  3.7594500000E-01  7.0847200000E-01
                       6.2405500000E-01  0.0000000000E+00  2.9152800000E-01
                       0.0000000000E+00  6.2405500000E-01  2.9152800000E-01
                       3.7594500000E-01  3.7594500000E-01  2.9152800000E-01
            znucl       38.00000   51.00000    8.00000

 chkinp: Checking input parameters for consistency.

== DATASET  1 ==================================================================
-   mpi_nproc: 1, omp_nthreads: -1 (-1 if OMP is not activated)

--- !DatasetInfo
iteration_state: {dtset: 1, }
dimensions: {natom: 9, nkpt: 2, mband: 47, nsppol: 1, nspinor: 1, nspden: 1, mpw: 12327, }
cutoff_energies: {ecut:  44.0, pawecutdg:  -1.0, }
electrons: {nelect:   7.60000000E+01, charge:   0.00000000E+00, occopt:   1.00000000E+00, tsmear:   1.00000000E-02, }
meta: {optdriver: 1, rfelfd: 2, }
...

 Real(R)+Recip(G) space primitive vectors, cartesian coordinates (Bohr,Bohr^-1):
 R(1)= 10.0364218  0.0000000  0.0000000  G(1)=  0.0996371  0.0575255  0.0000000
 R(2)= -5.0182109  8.6917962  0.0000000  G(2)=  0.0000000  0.1150510  0.0000000
 R(3)=  0.0000000  0.0000000 10.1408416  G(3)=  0.0000000  0.0000000  0.0986111
 Unit cell volume ucvol=  8.8463158E+02 bohr^3
 Angles (23,13,12)=  9.00000000E+01  9.00000000E+01  1.20000000E+02 degrees

 getcut: wavevector=  0.0000  0.0000  0.0000  ngfft=  60  60  64
         ecut(hartree)=     44.000   => boxcut(ratio)=   2.00208

--- Pseudopotential description ------------------------------------------------
- pspini: atom type   1  psp file is /scratch/users/j/a/jabreu/pseudos/PBEsol/Sr.psp8
- pspatm: opening atomic psp file    /scratch/users/j/a/jabreu/pseudos/PBEsol/Sr.psp8
- Sr    ONCVPSP-3.3.0  r_core=   1.66721   1.31335   1.51547
- 38.00000  10.00000    180112                znucl, zion, pspdat
    8 -116133    2    4       600   0.00000   pspcod,pspxc,lmax,lloc,mmax,r2well
    5.99000000000000    6.00000000000000    0.00000000000000   rchrg,fchrg,qchrg
     nproj     2     2     2
     extension_switch     1
  pspatm : epsatm=   12.46450977
         --- l  ekb(1:nproj) -->
             0   10.029206    1.044171
             1    7.472414    1.670829
             2    4.142950    0.968140
 pspatm: atomic psp has been read  and splines computed

- pspini: atom type   2  psp file is /scratch/users/j/a/jabreu/pseudos/PBEsol/Sb.psp8
- pspatm: opening atomic psp file    /scratch/users/j/a/jabreu/pseudos/PBEsol/Sb.psp8
- Sb    ONCVPSP-3.3.0  r_core=   1.81962   2.12485   1.81962
- 51.00000  15.00000    180112                znucl, zion, pspdat
    8 -116133    2    4       600   0.00000   pspcod,pspxc,lmax,lloc,mmax,r2well
    5.99000000000000    5.00000000000000    0.00000000000000   rchrg,fchrg,qchrg
     nproj     2     2     2
     extension_switch     1
  pspatm : epsatm=   26.35641246
         --- l  ekb(1:nproj) -->
             0    9.727814    1.485032
             1    5.505335    0.704623
             2   -4.710637   -1.436443
 pspatm: atomic psp has been read  and splines computed

- pspini: atom type   3  psp file is /scratch/users/j/a/jabreu/pseudos/PBEsol/O.psp8
- pspatm: opening atomic psp file    /scratch/users/j/a/jabreu/pseudos/PBEsol/O.psp8
- O     ONCVPSP-3.3.0  r_core=   1.35509   1.45563   1.26150
-  8.00000   6.00000    180112                znucl, zion, pspdat
    8 -116133    2    4       600   0.00000   pspcod,pspxc,lmax,lloc,mmax,r2well
    5.99000000000000    4.00000000000000    0.00000000000000   rchrg,fchrg,qchrg
     nproj     2     2     1
     extension_switch     1
  pspatm : epsatm=    6.22910522
         --- l  ekb(1:nproj) -->
             0    6.050032    0.820363
             1   -4.739617   -1.153841
             2   -1.335834
 pspatm: atomic psp has been read  and splines computed

   7.79394942E+03                                ecore*ucvol(ha*bohr**3)

-inwffil : will read wavefunctions from disk file /scratch/users/j/a/jabreu/flow_simple_9atoms/flow/w187/t1/indata/in_WFK

 ==>  initialize data related to q vector <==

 The list of irreducible perturbations for this q vector is:
    1)    idir= 1    ipert=  10
    2)    idir= 2    ipert=  10
    3)    idir= 3    ipert=  10

 Perturbation wavevector (in red.coord.)   0.000000  0.000000  0.000000
 Perturbation : derivative vs k along direction   1

 dfpt_looppert : COMMENT -
  In a d/dk calculation, iscf is set to -3 automatically.
 The set of symmetries contains only one element for this perturbation.
 symkpt : not enough symmetry to change the number of k points.

[...]

 Initialisation of the first-order wave-functions :
  ireadwf=   0

--- !BeginCycle
iteration_state: {dtset: 1, }
solver: {iscf: 7, nstep: 2000, nline: 4, wfoptalg: 0, }
tolerances: {tolwfr: 1.00E-20, }
...

     iter   2DEtotal(Ha)        deltaE(Ha) residm    vres2
-ETOT  1  -59.447790299654     -5.945E+01 1.074E-01 0.000E+00
 ETOT  2  -59.557130683789     -1.093E-01 2.880E-02 0.000E+00
 ETOT  3  -59.558003638001     -8.730E-04 2.473E-03 0.000E+00
 ETOT  4  -59.558018261540     -1.462E-05 1.101E-03 0.000E+00
 ETOT  5  -59.558018553510     -2.920E-07 1.472E-04 0.000E+00
 ETOT  6  -59.558018559895     -6.386E-09 6.897E-05 0.000E+00
[...]
 ETOT 31  -59.558018560046      7.105E-15 1.331E-18 0.000E+00
 ETOT 32  -59.558018560046      7.105E-15 4.735E-19 0.000E+00
 ETOT 33  -59.558018560046      0.000E+00 1.189E-19 0.000E+00
 ETOT 34  -59.558018560046     -7.105E-15 4.225E-20 0.000E+00
 ETOT 35  -59.558018560046      0.000E+00 1.062E-20 0.000E+00
 ETOT 36  -59.558018560046      0.000E+00 9.953E-21 0.000E+00

 At SCF step   36   max residual=  9.95E-21 < tolwfr=  1.00E-20 =>converged.

 ----iterations are completed or convergence reached----

 dfpt_looppert: DFPT cycle converged with prtwf=-1. Will skip output of the 1st-order WFK file.
 dfpt_looppert : ek2=    7.9429943800E+01
          f-sum rule ratio=    1.0230163751E+00
 prteigrs : about to open file /scratch/users/j/a/jabreu/flow_simple_9atoms/flow/w187/t1/tmpdata/tmp_1WF1_EIG
 Expectation of eigenvalue derivatives (hartree) for nkpt=   2  k points:
  (in case of degenerate eigenvalues, averaged derivative)
 kpt#   1, nband= 47, wtk=  0.50000, kpt=  0.1806  0.1806  0.0000 (reduced coord)
   0.00008   -0.00704    0.00162   -0.00061    0.00844   -0.00318   -0.00138   -0.00189
   0.00169    0.00147    0.00133    0.05916   -0.09474   -0.02128    0.04812   -0.02486
   0.01460   -0.01387   -0.01107    0.00346    0.12627   -0.07937    0.01714    0.01134
   0.09209   -0.01949    0.06278   -0.09230   -0.12048    0.03616    0.05986   -0.03258
  -0.03610   -0.03195   -0.00593    0.02554   -0.01196    0.00055    0.15854   -0.04508
  -0.02299   -0.08383    0.04016   -0.01210    0.02457   -0.03670   -0.00849
 prteigrs : prtvol=0 or 1, do not print more k-points.

 Eight components of 2nd-order total energy (hartree) are
 1,2,3: 0th-order hamiltonian combined with 1st-order wavefunctions
     kin0=   7.91209972E+01 eigvalue=   6.42755691E+00  local=  -4.14424793E+01
 4,5,6: 1st-order hamiltonian combined with 1st and 0th-order wfs
     kin1=  -8.12581332E+01  Hartree=   0.00000000E+00     xc=   0.00000000E+00
 7,8,9: eventually, occupation + non-local contributions
    edocc=   8.97278692E+00     enl0=   6.47915675E+00   enl1=  -3.78579039E+01
 1-9 gives the relaxation energy (to be shifted if some occ is /=2.0)
   erelax=  -5.95580186E+01
  No Ewald or frozen-wf contrib.: the relaxation energy is the total one
 2DEtotal=   -0.5955801856E+02 Ha. Also 2DEtotal=   -0.162065610498E+04 eV
    (  non-var. 2DEtotal :   -5.9558018560E+01 Ha)

 Perturbation wavevector (in red.coord.)   0.000000  0.000000  0.000000
 Perturbation : derivative vs k along direction   2
 The set of symmetries contains only one element for this perturbation.
 symkpt : not enough symmetry to change the number of k points.

[...]

 Perturbation wavevector (in red.coord.)   0.000000  0.000000  0.000000
 Perturbation : derivative vs k along direction   3
 The set of symmetries contains only one element for this perturbation.
 symkpt : not enough symmetry to change the number of k points.

-inwffil : will read wavefunctions from disk file /scratch/users/j/a/jabreu/flow_simple_9atoms/flow/w187/t1/indata/in_WFK

 Initialisation of the first-order wave-functions :
  ireadwf=   0

--- !BeginCycle
iteration_state: {dtset: 1, }
solver: {iscf: 7, nstep: 2000, nline: 4, wfoptalg: 0, }
tolerances: {tolwfr: 1.00E-20, }
...

     iter   2DEtotal(Ha)        deltaE(Ha) residm    vres2
-ETOT  1  -43.772135728749     -4.377E+01 7.241E-02 0.000E+00
 ETOT  2  -43.829149793665     -5.701E-02 8.895E-03 0.000E+00
 ETOT  3  -43.829513767615     -3.640E-04 7.290E-04 0.000E+00
 ETOT  4  -43.829519055102     -5.287E-06 1.809E-04 0.000E+00
 ETOT  5  -43.829519147048     -9.195E-08 1.743E-05 0.000E+00
 ETOT  6  -43.829519148777     -1.729E-09 6.065E-06 0.000E+00
 ETOT  7  -43.829519148811     -3.432E-11 4.895E-07 0.000E+00
 ETOT  8  -43.829519148812     -6.466E-13 2.890E-07 0.000E+00
 ETOT  9  -43.829519148812     -6.395E-14 2.825E-08 0.000E+00
 ETOT 10  -43.829519148812      0.000E+00 1.797E-08 0.000E+00
 ETOT 11  -43.829519148812      0.000E+00 2.540E-09 0.000E+00
 ETOT 12  -43.829519148812      2.132E-14 1.357E-09 0.000E+00
 ETOT 13  -43.829519148812     -2.132E-14 1.854E-10 0.000E+00
 ETOT 14  -43.829519148812      7.105E-15 1.023E-10 0.000E+00
 ETOT 15  -43.829519148812     -7.105E-15 1.384E-11 0.000E+00
 ETOT 16  -43.829519148812      0.000E+00 7.920E-12 0.000E+00
 ETOT 17  -43.829519148812      0.000E+00 1.054E-12 0.000E+00
 ETOT 18  -43.829519148812      1.421E-14 6.236E-13 0.000E+00
 ETOT 19  -43.829519148812      0.000E+00 8.189E-14 0.000E+00
 ETOT 20  -43.829519148812     -7.105E-15 4.973E-14 0.000E+00
 ETOT 21  -43.829519148812      7.105E-15 6.443E-15 0.000E+00
 ETOT 22  -43.829519148812     -7.105E-15 4.001E-15 0.000E+00
 ETOT 23  -43.829519148812      7.105E-15 5.126E-16 0.000E+00
 ETOT 24  -43.829519148812     -1.421E-14 3.237E-16 0.000E+00
 ETOT 25  -43.829519148812      1.421E-14 4.113E-17 0.000E+00
 ETOT 26  -43.829519148812      0.000E+00 2.628E-17 0.000E+00
 ETOT 27  -43.829519148812      0.000E+00 3.319E-18 0.000E+00
 ETOT 28  -43.829519148812      0.000E+00 2.138E-18 0.000E+00
 ETOT 29  -43.829519148812     -1.421E-14 2.688E-19 0.000E+00
 ETOT 30  -43.829519148812      1.421E-14 1.742E-19 0.000E+00
 ETOT 31  -43.829519148812     -7.105E-15 2.182E-20 0.000E+00
 ETOT 32  -43.829519148812      7.105E-15 1.420E-20 0.000E+00
 ETOT 33  -43.829519148812      0.000E+00 9.974E-21 0.000E+00

 At SCF step   33   max residual=  9.97E-21 < tolwfr=  1.00E-20 =>converged.

 ----iterations are completed or convergence reached----

 dfpt_looppert: DFPT cycle converged with prtwf=-1. Will skip output of the 1st-order WFK file.
 dfpt_looppert : ek2=    5.8351943075E+01
          f-sum rule ratio=    1.0259934714E+00
 prteigrs : about to open file /scratch/users/j/a/jabreu/flow_simple_9atoms/flow/w187/t1/tmpdata/tmp_1WF1_EIG
 Expectation of eigenvalue derivatives (hartree) for nkpt=   2  k points:
  (in case of degenerate eigenvalues, averaged derivative)
 kpt#   1, nband= 47, wtk=  0.50000, kpt=  0.1806  0.1806  0.0000 (reduced coord)
   0.00000   -0.00003    0.00000    0.00001   -0.00000    0.00000    0.00000    0.00000
  -0.00000   -0.00000    0.00000    0.00046    0.00612   -0.00248    0.00377   -0.01685
  -0.00273   -0.01124    0.01696    0.01304   -0.00421   -0.00456   -0.00804    0.00271
  -0.01895   -0.00450   -0.01004    0.01499   -0.01196    0.01598   -0.01308    0.01457
  -0.02648    0.02296    0.04507   -0.01304    0.02359   -0.00796   -0.00607    0.00800
   0.00253   -0.06129    0.06049    0.00196   -0.09878   -0.05108    0.02130
 prteigrs : prtvol=0 or 1, do not print more k-points.

 Eight components of 2nd-order total energy (hartree) are
 1,2,3: 0th-order hamiltonian combined with 1st-order wavefunctions
     kin0=   5.80451355E+01 eigvalue=   4.82351906E+00  local=  -3.02005522E+01
 4,5,6: 1st-order hamiltonian combined with 1st and 0th-order wfs
     kin1=  -5.98687126E+01  Hartree=   0.00000000E+00     xc=   0.00000000E+00
 7,8,9: eventually, occupation + non-local contributions
    edocc=   6.59364023E+00     enl0=   4.56777653E+00   enl1=  -2.77903257E+01
 1-9 gives the relaxation energy (to be shifted if some occ is /=2.0)
   erelax=  -4.38295191E+01
  No Ewald or frozen-wf contrib.: the relaxation energy is the total one
 2DEtotal=   -0.4382951915E+02 Ha. Also 2DEtotal=   -0.119266186996E+04 eV
    (  non-var. 2DEtotal :   -4.3829519149E+01 Ha)

 CALCULATION OF EFFECTIVE MASSES
 NOTE : Additional infos (eff. mass eigenvalues, eigenvectors and, if degenerate, average mass) are available in stdout.

 K-point ( 0.181, 0.181, 0.000) | band =    38
 Effective mass tensor:
             -7.5461862729              2.9136309895             -0.1165392326
              2.9136309895             -4.1817961178             -0.2017983633
             -0.1165392326             -0.2017983633             -5.6774151417
 Effective mass tensor eigenvalues:
             -9.2283671885             -5.6944127667             -2.4826175772
 Angular average effective mass 1/(<1/m>)=  -4.3682560733
 Angular average effective mass for Frohlich model (<m**0.5>)**2=  -4.7830979733
 Effective masses along directions: (cart. coord. / red. coord. -> eff. mass)
    1:   1.000000  0.000000  0.000000 /   0.894427 -0.447214  0.000000 ->  -5.5044722081
    2:   0.000000  1.000000  0.000000 /   0.000000  1.000000  0.000000 ->  -3.0460930028
    3:   0.000000  0.000000  1.000000 /   0.000000  0.000000  1.000000 ->  -5.6556902092
    4:   0.577350  0.577350  0.577350 /   0.681220  0.249344  0.688307 ->  -3.3493798065
    5:   0.000000  0.707107  0.707107 /   0.000000  0.650776  0.759270 ->  -4.1968119837
    6:   0.707107  0.000000  0.707107 /   0.663589 -0.331795  0.670493 ->  -5.8479722203
    7:   0.707107  0.707107  0.000000 /   0.939071  0.343724  0.000000 ->  -2.6181093214

 K-point ( 0.000, 0.000, 0.000) | band =    39
 Effective mass tensor:
              0.3596381954             -0.0000000004              0.0000000000
             -0.0000000004              0.3596381957             -0.0000000001
              0.0000000000             -0.0000000001              0.5209651405
 Effective mass tensor eigenvalues:
              0.3596381951              0.3596381960              0.5209651405
 Angular average effective mass 1/(<1/m>)=   0.4010341975
 Angular average effective mass for Frohlich model (<m**0.5>)**2=   0.4044653963
 Effective masses along directions: (cart. coord. / red. coord. -> eff. mass)
    1:   1.000000  0.000000  0.000000 /   0.894427 -0.447214  0.000000 ->   0.3596381954
    2:   0.000000  1.000000  0.000000 /   0.000000  1.000000  0.000000 ->   0.3596381957
    3:   0.000000  0.000000  1.000000 /   0.000000  0.000000  1.000000 ->   0.5209651405
    4:   0.577350  0.577350  0.577350 /   0.681220  0.249344  0.688307 ->   0.4010341971
    5:   0.000000  0.707107  0.707107 /   0.000000  0.650776  0.759270 ->   0.4255240820
    6:   0.707107  0.000000  0.707107 /   0.663589 -0.331795  0.670493 ->   0.4255240819
    7:   0.707107  0.707107  0.000000 /   0.939071  0.343724  0.000000 ->   0.3596381951

 END OF EFFECTIVE MASSES SECTION

 ---- first-order wavefunction calculations are completed ----

 Total localisation tensor (bohr^2) in cartesian coordinates
  WARNING : still subject to testing - especially symmetries.
      direction              matrix element
   alpha     beta       real part   imaginary part
     1        1       1.2347701557    0.0000000000
     1        2      -0.4277370677    0.0000000000
     1        3       0.0000000000    0.0000000000
     2        1      -0.4277370677    0.0000000000
     2        2       0.7408623336    0.0000000000
     2        3       0.0000000000    0.0000000000
     3        1       0.0000000000    0.0000000000
     3        2       0.0000000000    0.0000000000
     3        3       0.7126614079    0.0000000000

 respfn : d/dk was computed, but no 2DTE, so no DDB output.

== END DATASET(S) ==============================================================

 -outvars: echo values of variables after computation  --------
            acell      1.0000000000E+00  1.0000000000E+00  1.0000000000E+00 Bohr
              amu      8.76200000E+01  1.21753000E+02  1.59994000E+01
             ecut      4.40000000E+01 Hartree
           etotal     -4.3829519149E+01
            fcart      0.0000000000E+00  0.0000000000E+00  0.0000000000E+00
                       0.0000000000E+00  0.0000000000E+00  0.0000000000E+00
                       0.0000000000E+00  0.0000000000E+00  0.0000000000E+00
                       0.0000000000E+00  0.0000000000E+00  0.0000000000E+00
                       0.0000000000E+00  0.0000000000E+00  0.0000000000E+00
                       0.0000000000E+00  0.0000000000E+00  0.0000000000E+00
                       0.0000000000E+00  0.0000000000E+00  0.0000000000E+00
                       0.0000000000E+00  0.0000000000E+00  0.0000000000E+00
                       0.0000000000E+00  0.0000000000E+00  0.0000000000E+00
-          fftalg         512
           irdden           1
           irdwfk           1
           istwfk        0    1
              ixc     -116133
              kpt      1.80555556E-01  1.80555556E-01  0.00000000E+00
                       0.00000000E+00  0.00000000E+00  0.00000000E+00
           kptopt           0
P           mkmem           2
P          mkqmem           2
P          mk1mem           2
            natom           9
            nband          47
           nbdbuf           4
            ngfft          60      60      64
             nkpt           2
            nstep        2000
             nsym          12
           ntypat           3
              occ      2.000000  2.000000  2.000000  2.000000  2.000000  2.000000
                       2.000000  2.000000  2.000000  2.000000  2.000000  2.000000
                       2.000000  2.000000  2.000000  2.000000  2.000000  2.000000
                       2.000000  2.000000  2.000000  2.000000  2.000000  2.000000
                       2.000000  2.000000  2.000000  2.000000  2.000000  2.000000
                       2.000000  2.000000  2.000000  2.000000  2.000000  2.000000
                       2.000000  2.000000  0.000000  0.000000  0.000000  0.000000
                       0.000000  0.000000  0.000000  0.000000  0.000000
        optdriver           1
            prtwf          -1
            rfdir           1       1       1
           rfelfd           2
            rprim      1.0036421752E+01  0.0000000000E+00  0.0000000000E+00
                      -5.0182108758E+00  8.6917962000E+00  0.0000000000E+00
                       0.0000000000E+00  0.0000000000E+00  1.0140841649E+01
          spgroup         162
           strten      0.0000000000E+00  0.0000000000E+00  0.0000000000E+00
                       0.0000000000E+00  0.0000000000E+00  0.0000000000E+00
           symrel      1  0  0   0  1  0   0  0  1      -1  0  0   0 -1  0   0  0 -1
                       0  1  0   1  0  0   0  0  1       0 -1  0  -1  0  0   0  0 -1
                       0  1  0  -1 -1  0   0  0  1       0 -1  0   1  1  0   0  0 -1
                      -1 -1  0   0  1  0   0  0  1       1  1  0   0 -1  0   0  0 -1
                      -1 -1  0   1  0  0   0  0  1       1  1  0  -1  0  0   0  0 -1
                       1  0  0  -1 -1  0   0  0  1      -1  0  0   1  1  0   0  0 -1
           tolwfr      1.00000000E-20
            typat      1  2  2  3  3  3  3  3  3
           useylm           1
              wtk        0.50000    0.50000
           xangst      0.0000000000E+00  0.0000000000E+00  0.0000000000E+00
                       2.6555228234E+00  1.5331668169E+00  2.6831511383E+00
                       1.7639241746E-11  3.0663336338E+00  2.6831511383E+00
                       1.6571922956E+00  2.8703412538E+00  3.8018749064E+00
                       1.9966610557E+00  0.0000000000E+00  3.8018749064E+00
                      -9.9833052783E-01  1.7291591970E+00  3.8018749064E+00
                       3.3143845911E+00  0.0000000000E+00  1.5644273701E+00
                      -1.6571922955E+00  2.8703412538E+00  1.5644273701E+00
                       9.9833052785E-01  1.7291591970E+00  1.5644273701E+00
            xcart      0.0000000000E+00  0.0000000000E+00  0.0000000000E+00
                       5.0182108759E+00  2.8972654000E+00  5.0704208245E+00
                       3.3333336091E-11  5.7945308000E+00  5.0704208245E+00
                       3.1316395882E+00  5.4241588776E+00  7.1845023647E+00
                       3.7731425754E+00  0.0000000000E+00  7.1845023647E+00
                      -1.8865712877E+00  3.2676373224E+00  7.1845023647E+00
                       6.2632791763E+00  0.0000000000E+00  2.9563392842E+00
                      -3.1316395881E+00  5.4241588776E+00  2.9563392842E+00
                       1.8865712877E+00  3.2676373224E+00  2.9563392842E+00
             xred      0.0000000000E+00  0.0000000000E+00  0.0000000000E+00
                       6.6666666667E-01  3.3333333333E-01  5.0000000000E-01
                       3.3333333333E-01  6.6666666667E-01  5.0000000000E-01
                       6.2405500000E-01  6.2405500000E-01  7.0847200000E-01
                       3.7594500000E-01  0.0000000000E+00  7.0847200000E-01
                       0.0000000000E+00  3.7594500000E-01  7.0847200000E-01
                       6.2405500000E-01  0.0000000000E+00  2.9152800000E-01
                       0.0000000000E+00  6.2405500000E-01  2.9152800000E-01
                       3.7594500000E-01  3.7594500000E-01  2.9152800000E-01
            znucl       38.00000   51.00000    8.00000

- Timing analysis has been suppressed with timopt=0

 Suggested references for the acknowledgment of ABINIT usage.

 Calculation completed.
.Delivered  14 WARNINGs and   9 COMMENTs to log file.