.Version 9.5.1 of ABINIT

 ABINIT is a project of the Universite Catholique de Louvain,
 Corning Inc. and other collaborators, see ~abinit/doc/developers/contributors.txt .
 acknowledgments of the ABINIT effort.

.Starting date : Tue 27 Apr 2021.
- ( at 18h46 )

- input  file    -> /scratch/users/j/a/jabreu/flow_simple_4atoms/flow/w260/t1/run.abi
- output file    -> /scratch/users/j/a/jabreu/flow_simple_4atoms/flow/w260/t1/run.abo
- root for input  files -> /scratch/users/j/a/jabreu/flow_simple_4atoms/flow/w260/t1/indata/in
- root for output files -> /scratch/users/j/a/jabreu/flow_simple_4atoms/flow/w260/t1/outdata/out

 Symmetries : space group P3 m 1 (#156); Bravais hP (primitive hexag.)
     intxc =       0      iscf =       7    lmnmax =      18     lnmax =       6
     mgfft =      54  mpssoang =       3    mqgrid =    3001     natom =       4
  nloc_mem =       1    nspden =       1   nspinor =       1    nsppol =       1
      nsym =       6    n1xccc =    2501    ntypat =       4    occopt =       1
   xclevel =       2
-    mband =          28        mffmem =           1         mkmem =           2
-   mkqmem =           2        mk1mem =           2           mpw =        6278
      nfft =      124416          nkpt =           2
  Rough estimation (10% accuracy) of disk space for files :

------------- Echo of variables that govern the present computation ------------
-
- outvars: echo of selected default values
-   iomode0 =  0 , fftalg0 =512 , wfoptalg0 =  0
-
- outvars: echo of global parameters not present in the input file
-  max_nthreads =    0
-
 -outvars: echo values of preprocessed input variables --------
            acell      1.0000000000E+00  1.0000000000E+00  1.0000000000E+00 Bohr
              amu      8.76200000E+01  6.97230000E+01  7.26100000E+01
                       1.00794000E+00
             ecut      4.10000000E+01 Hartree
-          fftalg         512
           irdden           1
           irdwfk           1
           istwfk        1    1
              ixc     -116133
              kpt      0.00000000E+00  0.00000000E+00  5.00000000E-01
                       5.00000000E-01 -2.77555756E-17  0.00000000E+00
           kptopt           0
P           mkmem           2
P          mkqmem           2
P          mk1mem           2
            natom           4
            nband          28
           nbdbuf           4
            ngfft          48      48      54
             nkpt           2
            nstep         100
             nsym           6
           ntypat           4
              occ      2.000000  2.000000  2.000000  2.000000  2.000000  2.000000
                       2.000000  2.000000  2.000000  2.000000  2.000000  2.000000
                       2.000000  2.000000  2.000000  2.000000  2.000000  2.000000
                       2.000000  0.000000  0.000000  0.000000  0.000000  0.000000
                       0.000000  0.000000  0.000000  0.000000
        optdriver           1
            prtwf          -1
            rfdir           1       1       1
           rfelfd           2
            rprim      7.9360222691E+00  0.0000000000E+00  0.0000000000E+00
                      -3.9680111345E+00  6.8727968900E+00  0.0000000000E+00
                       0.0000000000E+00  0.0000000000E+00  9.1866450025E+00
          spgroup         156
           symrel      1  0  0   0  1  0   0  0  1      -1  0  0   1  1  0   0  0  1
                       0  1  0  -1 -1  0   0  0  1       0 -1  0  -1  0  0   0  0  1
                      -1 -1  0   1  0  0   0  0  1       1  1  0   0 -1  0   0  0  1
           tolwfr      1.00000000E-20
            typat      1  2  3  4
           useylm           1
              wtk        0.50000    0.50000
           xangst      0.0000000000E+00  0.0000000000E+00  4.8544114094E+00
                       2.0997810558E+00  1.2123091578E+00  2.7019602277E+00
                       1.7639241746E-11  2.4246183156E+00  2.1209057962E+00
                       2.0997810558E+00  1.2123091578E+00  4.4479188062E+00
            xcart      0.0000000000E+00  0.0000000000E+00  9.1735081001E+00
                       3.9680111346E+00  2.2909322967E+00  5.1059648523E+00
                       3.3333336091E-11  4.5818645933E+00  4.0079311084E+00
                       3.9680111346E+00  2.2909322967E+00  8.4053484050E+00
             xred      0.0000000000E+00  0.0000000000E+00  9.9857000000E-01
                       6.6666666667E-01  3.3333333333E-01  5.5580300000E-01
                       3.3333333333E-01  6.6666666667E-01  4.3627800000E-01
                       6.6666666667E-01  3.3333333333E-01  9.1495300000E-01
            znucl       38.00000   31.00000   32.00000    1.00000

 chkinp: Checking input parameters for consistency.

== DATASET  1 ==================================================================
-   mpi_nproc: 1, omp_nthreads: -1 (-1 if OMP is not activated)

--- !DatasetInfo
iteration_state: {dtset: 1, }
dimensions: {natom: 4, nkpt: 2, mband: 28, nsppol: 1, nspinor: 1, nspden: 1, mpw: 6278, }
cutoff_energies: {ecut:  41.0, pawecutdg:  -1.0, }
electrons: {nelect:   3.80000000E+01, charge:   0.00000000E+00, occopt:   1.00000000E+00, tsmear:   1.00000000E-02, }
meta: {optdriver: 1, rfelfd: 2, }
...

 Real(R)+Recip(G) space primitive vectors, cartesian coordinates (Bohr,Bohr^-1):
 R(1)=  7.9360223  0.0000000  0.0000000  G(1)=  0.1260077  0.0727506  0.0000000
 R(2)= -3.9680111  6.8727969  0.0000000  G(2)=  0.0000000  0.1455012  0.0000000
 R(3)=  0.0000000  0.0000000  9.1866450  G(3)=  0.0000000  0.0000000  0.1088537
 Unit cell volume ucvol=  5.0106414E+02 bohr^3
 Angles (23,13,12)=  9.00000000E+01  9.00000000E+01  1.20000000E+02 degrees

 getcut: wavevector=  0.0000  0.0000  0.0000  ngfft=  48  48  54
         ecut(hartree)=     41.000   => boxcut(ratio)=   2.03929

--- Pseudopotential description ------------------------------------------------
- pspini: atom type   1  psp file is /scratch/users/j/a/jabreu/pseudos/PBEsol/Sr.psp8
- pspatm: opening atomic psp file    /scratch/users/j/a/jabreu/pseudos/PBEsol/Sr.psp8
- Sr    ONCVPSP-3.3.0  r_core=   1.66721   1.31335   1.51547
- 38.00000  10.00000    180112                znucl, zion, pspdat
    8 -116133    2    4       600   0.00000   pspcod,pspxc,lmax,lloc,mmax,r2well
    5.99000000000000    6.00000000000000    0.00000000000000   rchrg,fchrg,qchrg
     nproj     2     2     2
     extension_switch     1
  pspatm : epsatm=   12.46450977
         --- l  ekb(1:nproj) -->
             0   10.029206    1.044171
             1    7.472414    1.670829
             2    4.142950    0.968140
 pspatm: atomic psp has been read  and splines computed

- pspini: atom type   2  psp file is /scratch/users/j/a/jabreu/pseudos/PBEsol/Ga.psp8
- pspatm: opening atomic psp file    /scratch/users/j/a/jabreu/pseudos/PBEsol/Ga.psp8
- Ga    ONCVPSP-3.3.0  r_core=   1.66857   1.75011   1.90252
- 31.00000  13.00000    180112                znucl, zion, pspdat
    8 -116133    2    4       600   0.00000   pspcod,pspxc,lmax,lloc,mmax,r2well
    5.99000000000000    5.00000000000000    0.00000000000000   rchrg,fchrg,qchrg
     nproj     2     2     2
     extension_switch     1
  pspatm : epsatm=   24.50969055
         --- l  ekb(1:nproj) -->
             0    7.053021    1.156713
             1    6.846070    1.293139
             2   -8.368667   -2.819170
 pspatm: atomic psp has been read  and splines computed

[...]

- pspini: atom type   4  psp file is /scratch/users/j/a/jabreu/pseudos/PBEsol/H.psp8
- pspatm: opening atomic psp file    /scratch/users/j/a/jabreu/pseudos/PBEsol/H.psp8
- H     ONCVPSP-3.3.0  r_core=   1.00957   0.70586
-  1.00000   1.00000    180112                znucl, zion, pspdat
    8 -116133    1    4       300   0.00000   pspcod,pspxc,lmax,lloc,mmax,r2well
    2.99000000000000    0.00000000000000    0.00000000000000   rchrg,fchrg,qchrg
     nproj     2     1
     extension_switch     1
  pspatm : epsatm=    0.35627032
         --- l  ekb(1:nproj) -->
             0   -1.674911   -0.523609
             1   -0.494138
 pspatm: atomic psp has been read  and splines computed

   2.59152347E+03                                ecore*ucvol(ha*bohr**3)

-inwffil : will read wavefunctions from disk file /scratch/users/j/a/jabreu/flow_simple_4atoms/flow/w260/t1/indata/in_WFK

 ==>  initialize data related to q vector <==

 The list of irreducible perturbations for this q vector is:
    1)    idir= 1    ipert=   5
    2)    idir= 2    ipert=   5
    3)    idir= 3    ipert=   5

 Perturbation wavevector (in red.coord.)   0.000000  0.000000  0.000000
 Perturbation : derivative vs k along direction   1

 dfpt_looppert : COMMENT -
  In a d/dk calculation, iscf is set to -3 automatically.
 The set of symmetries contains only one element for this perturbation.
 symkpt : not enough symmetry to change the number of k points.

[...]

 Initialisation of the first-order wave-functions :
  ireadwf=   0

--- !BeginCycle
iteration_state: {dtset: 1, }
solver: {iscf: 7, nstep: 100, nline: 4, wfoptalg: 0, }
tolerances: {tolwfr: 1.00E-20, }
...

     iter   2DEtotal(Ha)        deltaE(Ha) residm    vres2
-ETOT  1  -102.40912967565     -1.024E+02 1.280E-01 0.000E+00
 ETOT  2  -102.46464351083     -5.551E-02 8.438E-03 0.000E+00
 ETOT  3  -102.46476177438     -1.183E-04 2.815E-04 0.000E+00
 ETOT  4  -102.46476242258     -6.482E-07 2.867E-05 0.000E+00
 ETOT  5  -102.46476242796     -5.384E-09 1.508E-06 0.000E+00
 ETOT  6  -102.46476242802     -5.488E-11 1.923E-07 0.000E+00
 ETOT  7  -102.46476242802     -4.121E-13 1.033E-08 0.000E+00
 ETOT  8  -102.46476242802     -1.279E-13 1.351E-09 0.000E+00
 ETOT  9  -102.46476242802      8.527E-14 7.295E-11 0.000E+00
 ETOT 10  -102.46476242802      9.948E-14 9.653E-12 0.000E+00
 ETOT 11  -102.46476242802      2.842E-14 5.235E-13 0.000E+00
 ETOT 12  -102.46476242802     -4.263E-14 6.968E-14 0.000E+00
 ETOT 13  -102.46476242802      0.000E+00 3.795E-15 0.000E+00
 ETOT 14  -102.46476242802      0.000E+00 5.068E-16 0.000E+00
 ETOT 15  -102.46476242802     -2.842E-14 2.774E-17 0.000E+00
 ETOT 16  -102.46476242802      2.842E-14 3.708E-18 0.000E+00
 ETOT 17  -102.46476242802     -2.842E-14 2.040E-19 0.000E+00
 ETOT 18  -102.46476242802      2.842E-14 2.726E-20 0.000E+00
 ETOT 19  -102.46476242802      0.000E+00 9.898E-21 0.000E+00

 At SCF step   19   max residual=  9.90E-21 < tolwfr=  1.00E-20 =>converged.

 ----iterations are completed or convergence reached----

 dfpt_looppert: DFPT cycle converged with prtwf=-1. Will skip output of the 1st-order WFK file.
 dfpt_looppert : ek2=    6.3519388717E+01
          f-sum rule ratio=    2.0399957632E+00
 prteigrs : about to open file /scratch/users/j/a/jabreu/flow_simple_4atoms/flow/w260/t1/tmpdata/tmp_1WF1_EIG
 Expectation of eigenvalue derivatives (hartree) for nkpt=   2  k points:
  (in case of degenerate eigenvalues, averaged derivative)
 kpt#   1, nband= 28, wtk=  0.50000, kpt=  0.0000  0.0000  0.5000 (reduced coord)
  -0.00000    0.00000    0.00000   -0.00000   -0.00000    0.00000   -0.00000   -0.00000
  -0.00000    0.00000   -0.00000   -0.00000   -0.00000   -0.00000    0.00000    0.00000
   0.00000    0.00000   -0.00000    0.00000    0.00000    0.00000    0.00000    0.00000
   0.00000    0.00000    0.00141    0.00009
 prteigrs : prtvol=0 or 1, do not print more k-points.

 Eight components of 2nd-order total energy (hartree) are
 1,2,3: 0th-order hamiltonian combined with 1st-order wavefunctions
     kin0=   6.47056484E+01 eigvalue=   5.19193108E+00  local=  -2.33899119E+01
 4,5,6: 1st-order hamiltonian combined with 1st and 0th-order wfs
     kin1=  -1.29579284E+02  Hartree=   0.00000000E+00     xc=   0.00000000E+00
 7,8,9: eventually, occupation + non-local contributions
    edocc=   4.78909515E+01     enl0=   8.06614336E+00   enl1=  -7.53502410E+01
 1-9 gives the relaxation energy (to be shifted if some occ is /=2.0)
   erelax=  -1.02464762E+02
  No Ewald or frozen-wf contrib.: the relaxation energy is the total one
 2DEtotal=   -0.1024647624E+03 Ha. Also 2DEtotal=   -0.278820798255E+04 eV
    (  non-var. 2DEtotal :   -1.0246476243E+02 Ha)

 Perturbation wavevector (in red.coord.)   0.000000  0.000000  0.000000
 Perturbation : derivative vs k along direction   2
 The set of symmetries contains only one element for this perturbation.
 symkpt : not enough symmetry to change the number of k points.

[...]

 Perturbation wavevector (in red.coord.)   0.000000  0.000000  0.000000
 Perturbation : derivative vs k along direction   3
 The set of symmetries contains only one element for this perturbation.
 symkpt : not enough symmetry to change the number of k points.

-inwffil : will read wavefunctions from disk file /scratch/users/j/a/jabreu/flow_simple_4atoms/flow/w260/t1/indata/in_WFK

 Initialisation of the first-order wave-functions :
  ireadwf=   0

--- !BeginCycle
iteration_state: {dtset: 1, }
solver: {iscf: 7, nstep: 100, nline: 4, wfoptalg: 0, }
tolerances: {tolwfr: 1.00E-20, }
...

     iter   2DEtotal(Ha)        deltaE(Ha) residm    vres2
-ETOT  1  -44.004546313093     -4.400E+01 3.689E-02 0.000E+00
 ETOT  2  -44.024214243642     -1.967E-02 1.843E-04 0.000E+00
 ETOT  3  -44.024249211600     -3.497E-05 4.077E-06 0.000E+00
 ETOT  4  -44.024249348922     -1.373E-07 1.667E-07 0.000E+00
 ETOT  5  -44.024249349641     -7.194E-10 1.517E-08 0.000E+00
 ETOT  6  -44.024249349646     -4.590E-12 8.969E-10 0.000E+00
 ETOT  7  -44.024249349646     -7.105E-15 8.953E-11 0.000E+00
 ETOT  8  -44.024249349646     -4.974E-14 5.485E-12 0.000E+00
 ETOT  9  -44.024249349646      3.553E-14 5.539E-13 0.000E+00
 ETOT 10  -44.024249349646     -7.105E-15 3.475E-14 0.000E+00
 ETOT 11  -44.024249349646      1.421E-14 3.508E-15 0.000E+00
 ETOT 12  -44.024249349646      0.000E+00 2.246E-16 0.000E+00
 ETOT 13  -44.024249349646     -7.105E-15 2.259E-17 0.000E+00
 ETOT 14  -44.024249349646     -7.105E-15 1.471E-18 0.000E+00
 ETOT 15  -44.024249349646     -7.105E-15 1.475E-19 0.000E+00
 ETOT 16  -44.024249349646      0.000E+00 9.714E-21 0.000E+00

 At SCF step   16   max residual=  9.71E-21 < tolwfr=  1.00E-20 =>converged.

 ----iterations are completed or convergence reached----

 dfpt_looppert: DFPT cycle converged with prtwf=-1. Will skip output of the 1st-order WFK file.
 dfpt_looppert : ek2=    3.5551625324E+01
          f-sum rule ratio=    1.3505786470E+00
 prteigrs : about to open file /scratch/users/j/a/jabreu/flow_simple_4atoms/flow/w260/t1/tmpdata/tmp_1WF1_EIG
 Expectation of eigenvalue derivatives (hartree) for nkpt=   2  k points:
  (in case of degenerate eigenvalues, averaged derivative)
 kpt#   1, nband= 28, wtk=  0.50000, kpt=  0.0000  0.0000  0.5000 (reduced coord)
  -0.00000   -0.00000   -0.00000    0.00000    0.00000    0.00000   -0.00000    0.00000
   0.00000   -0.00000    0.00000    0.00000   -0.00000   -0.00000   -0.00000    0.00000
   0.00000    0.00000    0.00000    0.00000    0.00000    0.00000    0.00000    0.00000
   0.00000    0.00000   -0.00000   -0.00002
 prteigrs : prtvol=0 or 1, do not print more k-points.

 Eight components of 2nd-order total energy (hartree) are
 1,2,3: 0th-order hamiltonian combined with 1st-order wavefunctions
     kin0=   3.69899831E+01 eigvalue=   2.94229582E+00  local=  -1.35374646E+01
 4,5,6: 1st-order hamiltonian combined with 1st and 0th-order wfs
     kin1=  -4.80152660E+01  Hartree=   0.00000000E+00     xc=   0.00000000E+00
 7,8,9: eventually, occupation + non-local contributions
    edocc=   1.30678727E+01     enl0=   4.56156238E+00   enl1=  -4.00332327E+01
 1-9 gives the relaxation energy (to be shifted if some occ is /=2.0)
   erelax=  -4.40242493E+01
  No Ewald or frozen-wf contrib.: the relaxation energy is the total one
 2DEtotal=   -0.4402424935E+02 Ha. Also 2DEtotal=   -0.119796074820E+04 eV
    (  non-var. 2DEtotal :   -4.4024249350E+01 Ha)

 CALCULATION OF EFFECTIVE MASSES
 NOTE : Additional infos (eff. mass eigenvalues, eigenvectors and, if degenerate, average mass) are available in stdout.

 K-point ( 0.000, 0.000, 0.500) | band =    19
 Effective mass tensor:
             -0.2743406844              0.0000003706              0.0000006934
              0.0000003706             -0.2743405819             -0.0000010077
              0.0000006934             -0.0000010077             -0.1134381272
 Effective mass tensor eigenvalues:
             -0.2743410073             -0.2743402590             -0.1134381272
 Angular average effective mass 1/(<1/m>)=  -0.1862707846
 Angular average effective mass for Frohlich model (<m**0.5>)**2=  -0.1973717553
 Effective masses along directions: (cart. coord. / red. coord. -> eff. mass)
    1:   1.000000  0.000000  0.000000 /   0.894427 -0.447214  0.000000 ->  -0.2743406844
    2:   0.000000  1.000000  0.000000 /   0.000000  1.000000  0.000000 ->  -0.2743405819
    3:   0.000000  0.000000  1.000000 /   0.000000  0.000000  1.000000 ->  -0.1134381272
    4:   0.577350  0.577350  0.577350 /   0.635772  0.232709  0.735962 ->  -0.1862709043
    5:   0.000000  0.707107  0.707107 /   0.000000  0.599041  0.800718 ->  -0.1605082633
    6:   0.707107  0.000000  0.707107 /   0.621369 -0.310684  0.719289 ->  -0.1605068726
    7:   0.707107  0.707107  0.000000 /   0.939071  0.343724  0.000000 ->  -0.2743402625

 K-point ( 0.500,-0.000, 0.000) | band =    20
 Effective mass tensor:
              3.3753934205              1.8823197995             -3.9742301692
              1.8823197995              1.2018784204             -2.2945234298
             -3.9742301692             -2.2945234298              5.4314817585
 Effective mass tensor eigenvalues:
              0.1151204060              0.3322479791              9.5613852143
 Angular average effective mass 1/(<1/m>)=   0.2542169352
 Angular average effective mass for Frohlich model (<m**0.5>)**2=   0.3919101585
 Effective masses along directions: (cart. coord. / red. coord. -> eff. mass)
    1:   1.000000  0.000000  0.000000 /   0.894427 -0.447214  0.000000 ->   0.2895229366
    2:   0.000000  1.000000  0.000000 /   0.000000  1.000000  0.000000 ->   0.1440432459
    3:   0.000000  0.000000  1.000000 /   0.000000  0.000000  1.000000 ->   0.7119325647
    4:   0.577350  0.577350  0.577350 /   0.635772  0.232709  0.735962 ->   0.3091027936
    5:   0.000000  0.707107  0.707107 /   0.000000  0.599041  0.800718 ->   0.2042574788
    6:   0.707107  0.000000  0.707107 /   0.621369 -0.310684  0.719289 ->   0.2717149382
    7:   0.707107  0.707107  0.000000 /   0.939071  0.343724  0.000000 ->   0.4593228857

 END OF EFFECTIVE MASSES SECTION

 ---- first-order wavefunction calculations are completed ----

 Total localisation tensor (bohr^2) in cartesian coordinates
  WARNING : still subject to testing - especially symmetries.
      direction              matrix element
   alpha     beta       real part   imaginary part
     1        1      36.4756844213    0.0000000000
     1        2     -13.0593651101    0.0000000000
     1        3       0.0000000000    0.0000000000
     2        1     -13.0593651101    0.0000000000
     2        2      22.6194838855    0.0000000000
     2        3       0.0000000000    0.0000000000
     3        1       0.0000000000    0.0000000000
     3        2       0.0000000000    0.0000000000
     3        3       8.5652547223    0.0000000000

 respfn : d/dk was computed, but no 2DTE, so no DDB output.

== END DATASET(S) ==============================================================

 -outvars: echo values of variables after computation  --------
            acell      1.0000000000E+00  1.0000000000E+00  1.0000000000E+00 Bohr
              amu      8.76200000E+01  6.97230000E+01  7.26100000E+01
                       1.00794000E+00
             ecut      4.10000000E+01 Hartree
           etotal     -4.4024249350E+01
            fcart      0.0000000000E+00  0.0000000000E+00  0.0000000000E+00
                       0.0000000000E+00  0.0000000000E+00  0.0000000000E+00
                       0.0000000000E+00  0.0000000000E+00  0.0000000000E+00
                       0.0000000000E+00  0.0000000000E+00  0.0000000000E+00
-          fftalg         512
           irdden           1
           irdwfk           1
           istwfk        1    1
              ixc     -116133
              kpt      0.00000000E+00  0.00000000E+00  5.00000000E-01
                       5.00000000E-01 -2.77555756E-17  0.00000000E+00
           kptopt           0
P           mkmem           2
P          mkqmem           2
P          mk1mem           2
            natom           4
            nband          28
           nbdbuf           4
            ngfft          48      48      54
             nkpt           2
            nstep         100
             nsym           6
           ntypat           4
              occ      2.000000  2.000000  2.000000  2.000000  2.000000  2.000000
                       2.000000  2.000000  2.000000  2.000000  2.000000  2.000000
                       2.000000  2.000000  2.000000  2.000000  2.000000  2.000000
                       2.000000  0.000000  0.000000  0.000000  0.000000  0.000000
                       0.000000  0.000000  0.000000  0.000000
        optdriver           1
            prtwf          -1
            rfdir           1       1       1
           rfelfd           2
            rprim      7.9360222691E+00  0.0000000000E+00  0.0000000000E+00
                      -3.9680111345E+00  6.8727968900E+00  0.0000000000E+00
                       0.0000000000E+00  0.0000000000E+00  9.1866450025E+00
          spgroup         156
           strten      0.0000000000E+00  0.0000000000E+00  0.0000000000E+00
                       0.0000000000E+00  0.0000000000E+00  0.0000000000E+00
           symrel      1  0  0   0  1  0   0  0  1      -1  0  0   1  1  0   0  0  1
                       0  1  0  -1 -1  0   0  0  1       0 -1  0  -1  0  0   0  0  1
                      -1 -1  0   1  0  0   0  0  1       1  1  0   0 -1  0   0  0  1
           tolwfr      1.00000000E-20
            typat      1  2  3  4
           useylm           1
              wtk        0.50000    0.50000
           xangst      0.0000000000E+00  0.0000000000E+00  4.8544114094E+00
                       2.0997810558E+00  1.2123091578E+00  2.7019602277E+00
                       1.7639241746E-11  2.4246183156E+00  2.1209057962E+00
                       2.0997810558E+00  1.2123091578E+00  4.4479188062E+00
            xcart      0.0000000000E+00  0.0000000000E+00  9.1735081001E+00
                       3.9680111346E+00  2.2909322967E+00  5.1059648523E+00
                       3.3333336091E-11  4.5818645933E+00  4.0079311084E+00
                       3.9680111346E+00  2.2909322967E+00  8.4053484050E+00
             xred      0.0000000000E+00  0.0000000000E+00  9.9857000000E-01
                       6.6666666667E-01  3.3333333333E-01  5.5580300000E-01
                       3.3333333333E-01  6.6666666667E-01  4.3627800000E-01
                       6.6666666667E-01  3.3333333333E-01  9.1495300000E-01
            znucl       38.00000   31.00000   32.00000    1.00000

- Timing analysis has been suppressed with timopt=0

 Suggested references for the acknowledgment of ABINIT usage.

 Calculation completed.
.Delivered  14 WARNINGs and   9 COMMENTs to log file.