.Version 9.7.2 of ABINIT

 ABINIT is a project of the Universite Catholique de Louvain,
 Corning Inc. and other collaborators, see ~abinit/doc/developers/contributors.txt .
 acknowledgments of the ABINIT effort.

.Starting date : Wed  1 Dec 2021.
- ( at 21h39 )

- input  file    -> /scratch/users/j/a/jabreu/flow_simple_remain_atoms/flow/w208/t1/run.abi
- output file    -> /scratch/users/j/a/jabreu/flow_simple_remain_atoms/flow/w208/t1/run.abo
- root for input  files -> /scratch/users/j/a/jabreu/flow_simple_remain_atoms/flow/w208/t1/indata/in
- root for output files -> /scratch/users/j/a/jabreu/flow_simple_remain_atoms/flow/w208/t1/outdata/out

 Symmetries : space group R-3 m (#166); Bravais hR (rhombohedral)
     intxc =       0      iscf =       7    lmnmax =      32     lnmax =       8
     mgfft =     100  mpssoang =       4    mqgrid =    3001     natom =       4
  nloc_mem =       1    nspden =       1   nspinor =       1    nsppol =       1
      nsym =      12    n1xccc =    2501    ntypat =       3    occopt =       1
   xclevel =       2
-    mband =          25        mffmem =           1         mkmem =           2
-   mkqmem =           2        mk1mem =           2           mpw =       14363
      nfft =     1000000          nkpt =           2
  Rough estimation (10% accuracy) of disk space for files :

------------- Echo of variables that govern the present computation ------------
-
- outvars: echo of selected default values
-   iomode0 =  0 , fftalg0 =512 , wfoptalg0 =  0
-
- outvars: echo of global parameters not present in the input file
-  max_nthreads =    0
-
 -outvars: echo values of preprocessed input variables --------
            acell      1.0000000000E+00  1.0000000000E+00  1.0000000000E+00 Bohr
              amu      8.54678000E+01  1.38905500E+02  3.20660000E+01
             ecut      5.20000000E+01 Hartree
-          fftalg         512
           irdden           1
           irdwfk           1
           istwfk        1    1
              ixc     -116133
              kpt      0.00000000E+00  0.00000000E+00  0.00000000E+00
                       5.00000000E-01  5.00000000E-01  0.00000000E+00
           kptopt           0
P           mkmem           2
P          mkqmem           2
P          mk1mem           2
            natom           4
            nband          25
           nbdbuf           4
            ngfft         100     100     100
             nkpt           2
            nstep        2000
             nsym          12
           ntypat           3
              occ      2.000000  2.000000  2.000000  2.000000  2.000000  2.000000
                       2.000000  2.000000  2.000000  2.000000  2.000000  2.000000
                       2.000000  2.000000  2.000000  2.000000  0.000000  0.000000
                       0.000000  0.000000  0.000000  0.000000  0.000000  0.000000
                       0.000000
        optdriver           1
            prtwf          -1
            rfdir           1       1       1
           rfelfd           2
            rprim      7.7648050899E+00  0.0000000000E+00  1.2822569004E+01
                       3.5798027271E+00  6.8903708550E+00  1.2822569004E+01
                       0.0000000000E+00  0.0000000000E+00  1.4990346006E+01
          spgroup         166
           symrel      1  0  0   0  1  0   0  0  1      -1  0  0   0 -1  0   0  0 -1
                       0  1  0   1  0  0   0  0  1       0 -1  0  -1  0  0   0  0 -1
                       0  0  1   1  0  0   0  1  0       0  0 -1  -1  0  0   0 -1  0
                       1  0  0   0  0  1   0  1  0      -1  0  0   0  0 -1   0 -1  0
                       0  1  0   0  0  1   1  0  0       0 -1  0   0  0 -1  -1  0  0
                       0  0  1   0  1  0   1  0  0       0  0 -1   0 -1  0  -1  0  0
           tolwfr      1.00000000E-20
            typat      1  2  3  3
           useylm           1
              wtk        0.50000    0.50000
           xangst      0.0000000000E+00  0.0000000000E+00  0.0000000000E+00
                       3.0016539486E+00  1.8231136076E+00  1.0751686000E+01
                       1.3988427797E+00  8.4961469587E-01  5.0105437166E+00
                       4.6044651174E+00  2.7966125193E+00  1.6492828284E+01
            xcart      0.0000000000E+00  0.0000000000E+00  0.0000000000E+00
                       5.6723039085E+00  3.4451854275E+00  2.0317742007E+01
                       2.6434297567E+00  1.6055390937E+00  9.4685554011E+00
                       8.7011780603E+00  5.2848317613E+00  3.1166928613E+01
             xred      0.0000000000E+00  0.0000000000E+00  0.0000000000E+00
                       5.0000000000E-01  5.0000000000E-01  5.0000000000E-01
                       2.3301200000E-01  2.3301200000E-01  2.3301200000E-01
                       7.6698800000E-01  7.6698800000E-01  7.6698800000E-01
            znucl       37.00000   57.00000   16.00000

 chkinp: Checking input parameters for consistency.

== DATASET  1 ==================================================================
-   mpi_nproc: 1, omp_nthreads: -1 (-1 if OMP is not activated)

--- !DatasetInfo
iteration_state: {dtset: 1, }
dimensions: {natom: 4, nkpt: 2, mband: 25, nsppol: 1, nspinor: 1, nspden: 1, mpw: 14363, }
cutoff_energies: {ecut:  52.0, pawecutdg:  -1.0, }
electrons: {nelect:   3.20000000E+01, charge:   0.00000000E+00, occopt:   1.00000000E+00, tsmear:   1.00000000E-02, }
meta: {optdriver: 1, rfelfd: 2, }
...

 Real(R)+Recip(G) space primitive vectors, cartesian coordinates (Bohr,Bohr^-1):
 R(1)=  7.7648051  0.0000000 12.8225690  G(1)=  0.1287862 -0.0669092  0.0000000
 R(2)=  3.5798027  6.8903709 12.8225690  G(2)=  0.0000000  0.1451301  0.0000000
 R(3)=  0.0000000  0.0000000 14.9903460  G(3)= -0.1101623 -0.0669092  0.0667096
 Unit cell volume ucvol=  8.0201929E+02 bohr^3
 Angles (23,13,12)=  3.11973233E+01  3.11973233E+01  3.11973233E+01 degrees

 getcut: wavevector=  0.0000  0.0000  0.0000  ngfft= 100 100 100
         ecut(hartree)=     52.000   => boxcut(ratio)=   2.05516

--- Pseudopotential description ------------------------------------------------
- pspini: atom type   1  psp file is /scratch/users/j/a/jabreu/pseudos/PBEsol/Rb.psp8
- pspatm: opening atomic psp file    /scratch/users/j/a/jabreu/pseudos/PBEsol/Rb.psp8
- Rb    ONCVPSP-3.3.0  r_core=   1.71227   1.75361   1.90633
- 37.00000   9.00000    180112                znucl, zion, pspdat
    8 -116133    2    4       600   0.00000   pspcod,pspxc,lmax,lloc,mmax,r2well
    5.99000000000000    7.00000000000000    0.00000000000000   rchrg,fchrg,qchrg
     nproj     2     2     2
     extension_switch     1
  pspatm : epsatm=   34.48400912
         --- l  ekb(1:nproj) -->
             0    8.196957   -0.477221
             1    3.231347   -0.378736
             2   -1.047201    0.996637
 pspatm: atomic psp has been read  and splines computed

- pspini: atom type   2  psp file is /scratch/users/j/a/jabreu/pseudos/PBEsol/La.psp8
- pspatm: opening atomic psp file    /scratch/users/j/a/jabreu/pseudos/PBEsol/La.psp8
- La    ONCVPSP-3.3.0  r_core=   2.11664   1.60878   1.85636   1.66739
- 57.00000  11.00000    180112                znucl, zion, pspdat
    8 -116133    3    4       600   0.00000   pspcod,pspxc,lmax,lloc,mmax,r2well
    5.99000000000000    5.00000000000000    0.00000000000000   rchrg,fchrg,qchrg
     nproj     2     2     2     2
     extension_switch     1
  pspatm : epsatm=   29.08531775
         --- l  ekb(1:nproj) -->
             0    6.695600    0.639047
             1    6.383649    1.151322
             2    3.612966    0.847811
             3  -13.718437   -4.858923
 pspatm: atomic psp has been read  and splines computed

- pspini: atom type   3  psp file is /scratch/users/j/a/jabreu/pseudos/PBEsol/S.psp8
- pspatm: opening atomic psp file    /scratch/users/j/a/jabreu/pseudos/PBEsol/S.psp8
- S     ONCVPSP-3.3.0  r_core=   1.45376   1.45376   1.61851
- 16.00000   6.00000    180112                znucl, zion, pspdat
    8 -116133    2    4       600   0.00000   pspcod,pspxc,lmax,lloc,mmax,r2well
    5.99000000000000    6.00000000000000    0.00000000000000   rchrg,fchrg,qchrg
     nproj     2     2     2
     extension_switch     1
  pspatm : epsatm=    8.71840985
         --- l  ekb(1:nproj) -->
             0    6.834532    0.579453
             1    3.282851    0.896984
             2   -3.496974   -0.974265
 pspatm: atomic psp has been read  and splines computed

   2.59219669E+03                                ecore*ucvol(ha*bohr**3)

 ==>  initialize data related to q vector <==

 The list of irreducible perturbations for this q vector is:
    1)    idir= 1    ipert=   5
    2)    idir= 2    ipert=   5
    3)    idir= 3    ipert=   5

 Perturbation wavevector (in red.coord.)   0.000000  0.000000  0.000000
 Perturbation : derivative vs k along direction   1

 dfpt_looppert : COMMENT -
  In a d/dk calculation, iscf is set to -3 automatically.
 The set of symmetries contains only one element for this perturbation.
 symkpt : not enough symmetry to change the number of k points.

 Initialisation of the first-order wave-functions :
  ireadwf=   0

--- !BeginCycle
iteration_state: {dtset: 1, }
solver: {iscf: 7, nstep: 2000, nline: 4, wfoptalg: 0, }
tolerances: {tolwfr: 1.00E-20, }
...

     iter   2DEtotal(Ha)        deltaE(Ha) residm    vres2
-ETOT  1  -30.046097867243     -3.005E+01 8.979E-02 0.000E+00
 ETOT  2  -30.117578286500     -7.148E-02 5.326E-02 0.000E+00
 ETOT  3  -30.121798572333     -4.220E-03 1.510E-02 0.000E+00
 ETOT  4  -30.122692858091     -8.943E-04 3.435E-02 0.000E+00
 ETOT  5  -30.122967828135     -2.750E-04 1.091E-02 0.000E+00
 ETOT  6  -30.123059029139     -9.120E-05 2.341E-02 0.000E+00
 ETOT  7  -30.123090153046     -3.112E-05 7.034E-03 0.000E+00
 ETOT  8  -30.123100782356     -1.063E-05 1.690E-02 0.000E+00
 ETOT  9  -30.123104465411     -3.683E-06 5.125E-03 0.000E+00
 ETOT 10  -30.123105742318     -1.277E-06 1.208E-02 0.000E+00
 ETOT 11  -30.123106189260     -4.469E-07 3.752E-03 0.000E+00
 ETOT 12  -30.123106345785     -1.565E-07 8.600E-03 0.000E+00
 ETOT 13  -30.123106400999     -5.521E-08 2.760E-03 0.000E+00
 ETOT 14  -30.123106420486     -1.949E-08 6.106E-03 0.000E+00
 ETOT 15  -30.123106427403     -6.918E-09 2.042E-03 0.000E+00
 ETOT 16  -30.123106429860     -2.457E-09 4.333E-03 0.000E+00
 ETOT 17  -30.123106430737     -8.769E-10 1.520E-03 0.000E+00
 ETOT 18  -30.123106431050     -3.130E-10 3.081E-03 0.000E+00
 ETOT 19  -30.123106431163     -1.122E-10 1.139E-03 0.000E+00
 ETOT 20  -30.123106431203     -4.019E-11 2.200E-03 0.000E+00
 ETOT 21  -30.123106431217     -1.449E-11 8.589E-04 0.000E+00
 ETOT 22  -30.123106431222     -5.219E-12 1.581E-03 0.000E+00
 ETOT 23  -30.123106431224     -1.894E-12 6.503E-04 0.000E+00
 ETOT 24  -30.123106431225     -6.324E-13 1.145E-03 0.000E+00
 ETOT 25  -30.123106431225     -3.091E-13 4.937E-04 0.000E+00
 ETOT 26  -30.123106431225     -4.974E-14 8.360E-04 0.000E+00
 ETOT 27  -30.123106431225     -1.776E-14 3.750E-04 0.000E+00
 ETOT 28  -30.123106431225     -3.553E-14 6.155E-04 0.000E+00
 ETOT 29  -30.123106431225      2.487E-14 2.846E-04 0.000E+00
 ETOT 30  -30.123106431225      3.553E-15 4.566E-04 0.000E+00
[...]
 Perturbation : derivative vs k along direction   2
 The set of symmetries contains only one element for this perturbation.
 symkpt : not enough symmetry to change the number of k points.

[...]

 Perturbation wavevector (in red.coord.)   0.000000  0.000000  0.000000
 Perturbation : derivative vs k along direction   3
 The set of symmetries contains only one element for this perturbation.
 symkpt : not enough symmetry to change the number of k points.

 Initialisation of the first-order wave-functions :
  ireadwf=   0

--- !BeginCycle
iteration_state: {dtset: 1, }
solver: {iscf: 7, nstep: 2000, nline: 4, wfoptalg: 0, }
tolerances: {tolwfr: 1.00E-20, }
...

     iter   2DEtotal(Ha)        deltaE(Ha) residm    vres2
-ETOT  1  -28.938222376210     -2.894E+01 1.072E-01 0.000E+00
 ETOT  2  -28.991699729238     -5.348E-02 5.979E-02 0.000E+00
 ETOT  3  -28.995261242740     -3.562E-03 1.608E-02 0.000E+00
 ETOT  4  -28.995963474879     -7.022E-04 3.485E-02 0.000E+00
 ETOT  5  -28.996162306044     -1.988E-04 1.214E-02 0.000E+00
 ETOT  6  -28.996222635545     -6.033E-05 2.569E-02 0.000E+00
 ETOT  7  -28.996241850033     -1.921E-05 8.205E-03 0.000E+00
 ETOT  8  -28.996247970802     -6.121E-06 1.909E-02 0.000E+00
 ETOT  9  -28.996249968266     -1.997E-06 5.849E-03 0.000E+00
 ETOT 10  -28.996250619714     -6.514E-07 1.414E-02 0.000E+00
 ETOT 11  -28.996250835237     -2.155E-07 4.205E-03 0.000E+00
 ETOT 12  -28.996250906469     -7.123E-08 1.047E-02 0.000E+00
 ETOT 13  -28.996250930268     -2.380E-08 3.036E-03 0.000E+00
 ETOT 14  -28.996250938212     -7.943E-09 7.744E-03 0.000E+00
 ETOT 15  -28.996250940889     -2.677E-09 2.196E-03 0.000E+00
 ETOT 16  -28.996250941790     -9.014E-10 5.760E-03 0.000E+00
 ETOT 17  -28.996250942097     -3.062E-10 1.623E-03 0.000E+00
 ETOT 18  -28.996250942200     -1.040E-10 4.304E-03 0.000E+00
 ETOT 19  -28.996250942236     -3.559E-11 1.200E-03 0.000E+00
 ETOT 20  -28.996250942248     -1.214E-11 3.176E-03 0.000E+00
 ETOT 21  -28.996250942252     -4.245E-12 8.875E-04 0.000E+00
 ETOT 22  -28.996250942254     -1.432E-12 2.321E-03 0.000E+00
 ETOT 23  -28.996250942254     -4.832E-13 6.564E-04 0.000E+00
 ETOT 24  -28.996250942255     -2.096E-13 1.703E-03 0.000E+00
 ETOT 25  -28.996250942255     -7.461E-14 4.855E-04 0.000E+00
 ETOT 26  -28.996250942255      4.974E-14 1.257E-03 0.000E+00
 ETOT 27  -28.996250942255     -4.974E-14 3.592E-04 0.000E+00
 ETOT 28  -28.996250942255      0.000E+00 9.272E-04 0.000E+00
 ETOT 29  -28.996250942255     -2.487E-14 2.658E-04 0.000E+00
 ETOT 30  -28.996250942255      2.132E-14 6.838E-04 0.000E+00
 ETOT 31  -28.996250942255      2.132E-14 1.968E-04 0.000E+00
 ETOT 32  -28.996250942255     -1.776E-14 5.043E-04 0.000E+00
 ETOT 33  -28.996250942255      3.197E-14 1.457E-04 0.000E+00
 ETOT 34  -28.996250942255     -2.487E-14 3.719E-04 0.000E+00
 ETOT 35  -28.996250942255      1.776E-14 1.080E-04 0.000E+00
 ETOT 36  -28.996250942255     -3.553E-15 2.742E-04 0.000E+00
 ETOT 37  -28.996250942255      1.776E-14 8.006E-05 0.000E+00
 ETOT 38  -28.996250942255      3.553E-15 2.022E-04 0.000E+00
 ETOT 39  -28.996250942255     -7.105E-15 5.940E-05 0.000E+00
 ETOT 40  -28.996250942255     -3.553E-15 1.491E-04 0.000E+00
 ETOT 41  -28.996250942255     -7.105E-15 4.411E-05 0.000E+00
 ETOT 42  -28.996250942255     -3.553E-15 1.100E-04 0.000E+00
 ETOT 43  -28.996250942255      0.000E+00 3.278E-05 0.000E+00
 ETOT 44  -28.996250942255     -3.553E-15 8.117E-05 0.000E+00
 ETOT 45  -28.996250942255      1.066E-14 2.439E-05 0.000E+00
 ETOT 46  -28.996250942255     -3.553E-15 5.992E-05 0.000E+00
 ETOT 47  -28.996250942255     -1.421E-14 1.816E-05 0.000E+00
 ETOT 48  -28.996250942255      1.066E-14 4.426E-05 0.000E+00
 ETOT 49  -28.996250942255     -7.105E-15 1.354E-05 0.000E+00
 ETOT 50  -28.996250942255      3.553E-15 3.271E-05 0.000E+00
 ETOT 51  -28.996250942255      3.553E-15 1.010E-05 0.000E+00
 ETOT 52  -28.996250942255      3.553E-15 2.419E-05 0.000E+00
 ETOT 53  -28.996250942255      0.000E+00 7.543E-06 0.000E+00
 ETOT 54  -28.996250942255      0.000E+00 1.791E-05 0.000E+00
 ETOT 55  -28.996250942255     -3.553E-15 5.639E-06 0.000E+00
 ETOT 56  -28.996250942255      1.421E-14 1.327E-05 0.000E+00
 ETOT 57  -28.996250942255     -1.421E-14 4.220E-06 0.000E+00
 ETOT 58  -28.996250942255      1.421E-14 9.840E-06 0.000E+00
 ETOT 59  -28.996250942255      1.066E-14 3.160E-06 0.000E+00
 ETOT 60  -28.996250942255     -1.066E-14 7.304E-06 0.000E+00
 ETOT 61  -28.996250942255     -3.553E-15 2.375E-06 0.000E+00
[...]
 ETOT  311  -28.996250942255     -7.105E-15 4.802E-20 0.000E+00
 ETOT  312  -28.996250942255      3.553E-15 6.163E-20 0.000E+00
 ETOT  313  -28.996250942255      0.000E+00 3.733E-20 0.000E+00
 ETOT  314  -28.996250942255     -7.105E-15 4.789E-20 0.000E+00
 ETOT  315  -28.996250942255      1.066E-14 2.901E-20 0.000E+00
 ETOT  316  -28.996250942255     -7.105E-15 3.722E-20 0.000E+00
 ETOT  317  -28.996250942255     -1.066E-14 2.254E-20 0.000E+00
 ETOT  318  -28.996250942255      1.421E-14 2.893E-20 0.000E+00
 ETOT  319  -28.996250942255      7.105E-15 1.752E-20 0.000E+00
 ETOT  320  -28.996250942255      0.000E+00 2.248E-20 0.000E+00
 ETOT  321  -28.996250942255      3.553E-15 1.362E-20 0.000E+00
 ETOT  322  -28.996250942255      1.066E-14 1.747E-20 0.000E+00
 ETOT  323  -28.996250942255      3.553E-15 1.058E-20 0.000E+00
 ETOT  324  -28.996250942255     -1.066E-14 1.358E-20 0.000E+00
 ETOT  325  -28.996250942255      7.105E-15 9.989E-21 0.000E+00

 At SCF step  325   max residual=  9.99E-21 < tolwfr=  1.00E-20 =>converged.

 ----iterations are completed or convergence reached----

 dfpt_looppert: DFPT cycle converged with prtwf=-1. Will skip output of the 1st-order WFK file.
 dfpt_looppert : ek2=    5.3217505944E+01
          f-sum rule ratio=    1.0736063559E+00
 prteigrs : about to open file /scratch/users/j/a/jabreu/flow_simple_remain_atoms/flow/w208/t1/tmpdata/tmp_1WF1_EIG
 Expectation of eigenvalue derivatives (hartree) for nkpt=   2  k points:
  (in case of degenerate eigenvalues, averaged derivative)
 kpt#   1, nband= 25, wtk=  0.50000, kpt=  0.0000  0.0000  0.0000 (reduced coord)
  -0.00000    0.00000   -0.00000   -0.00000   -0.00000    0.00000   -0.00000   -0.00000
  -0.00000    0.00000   -0.00000   -0.00000   -0.00000   -0.00000    0.00000    0.00000
  -0.00000   -0.00000   -0.00000    0.00000   -0.00000   -0.00000   -0.00000    0.00000
   0.00001
 prteigrs : prtvol=0 or 1, do not print more k-points.

 Eight components of 2nd-order total energy (hartree) are
 1,2,3: 0th-order hamiltonian combined with 1st-order wavefunctions
     kin0=   5.18423915E+01 eigvalue=   1.33446059E+00  local=  -3.23971248E+01
 4,5,6: 1st-order hamiltonian combined with 1st and 0th-order wfs
     kin1=  -5.71346526E+01  Hartree=   0.00000000E+00     xc=   0.00000000E+00
 7,8,9: eventually, occupation + non-local contributions
    edocc=   7.48774183E+00     enl0=   7.28781900E-01   enl1=  -8.57849260E-01
 1-9 gives the relaxation energy (to be shifted if some occ is /=2.0)
   erelax=  -2.89962509E+01
  No Ewald or frozen-wf contrib.: the relaxation energy is the total one
 2DEtotal=   -0.2899625094E+02 Ha. Also 2DEtotal=   -0.789028114891E+03 eV
    (  non-var. 2DEtotal :   -2.8996250942E+01 Ha)

 CALCULATION OF EFFECTIVE MASSES
 NOTE : Additional infos (eff. mass eigenvalues, eigenvectors and, if degenerate, average mass) are available in stdout.

 COMMENTS:
 - At k-point ( 0.000, 0.000, 0.000), bands    15 through    16
   are DEGENERATE (effective mass tensor is therefore not defined).
   See Section IIIB Eqs. (67)-(70) and Appendix E of PRB 93 205147 (2016).
 - Angular average effective mass for Frohlich model is to be averaged over degenerate bands. See later.
 - Associated theta integrals calculated with ntheta=   1000 points.

 K-point ( 0.000, 0.000, 0.000) | band =    15
 Transport equivalent effective mass tensor:
             -0.5207604658             -0.0940085502             -0.5544100327
             -0.0940085502             -0.4230769452             -0.3367304777
             -0.5544100327             -0.3367304777             -2.3518403843
 Transport equivalent effective mass tensor eigenvalues:
             -2.5637173666             -0.3659810492             -0.3659793795
 Angular average effective mass 1/(<1/m>)=  -0.4761642528
 Angular average effective mass for Frohlich model (<m**0.5>)**2=  -0.5552269395
 Effective masses along directions: (cart. coord. / red. coord. -> eff. mass)
    1:   1.000000  0.000000  0.000000 /   0.908135  0.418677  0.000000 ->  -0.3606911445
    2:   0.000000  1.000000  0.000000 /   0.000000  1.000000  0.000000 ->  -0.3414757954
    3:   0.000000  0.000000  1.000000 /   0.545002  0.545002  0.637139 ->  -1.3193712036
    4:   0.577350  0.577350  0.577350 /   0.596522  0.674910  0.434347 ->  -0.7911220007
    5:   0.000000  0.707107  0.707107 /   0.459792  0.706866  0.537524 ->  -0.6671524966
    6:   0.707107  0.000000  0.707107 /   0.679637  0.541480  0.494866 ->  -0.8326943285
    7:   0.707107  0.707107  0.000000 /   0.595679  0.803222  0.000000 ->  -0.3809244018

 K-point ( 0.000, 0.000, 0.000) | band =    16
 Transport equivalent effective mass tensor:
             -2.2485429398             -0.1125596903             -0.6638097751
             -0.1125596903             -2.1315885014             -0.4031795955
             -0.6638097751             -0.4031795955             -4.4409259350
 Transport equivalent effective mass tensor eigenvalues:
             -4.6946147124             -2.0632226802             -2.0632199836
 Angular average effective mass 1/(<1/m>)=  -1.7201266540
 Angular average effective mass for Frohlich model (<m**0.5>)**2=  -1.8070090785
 Effective masses along directions: (cart. coord. / red. coord. -> eff. mass)
    1:   1.000000  0.000000  0.000000 /   0.908135  0.418677  0.000000 ->  -1.5366816148
    2:   0.000000  1.000000  0.000000 /   0.000000  1.000000  0.000000 ->  -1.6125368969
    3:   0.000000  0.000000  1.000000 /   0.545002  0.545002  0.637139 ->  -3.1780971812
    4:   0.577350  0.577350  0.577350 /   0.596522  0.674910  0.434347 ->  -1.7411778522
    5:   0.000000  0.707107  0.707107 /   0.459792  0.706866  0.537524 ->  -2.6356351599
    6:   0.707107  0.000000  0.707107 /   0.679637  0.541480  0.494866 ->  -2.9827490203
    7:   0.707107  0.707107  0.000000 /   0.595679  0.803222  0.000000 ->  -1.3512935233

 Angular average effective mass for Frohlich model, averaged over degenerate bands.
 Value of     (<<m**0.5>>)**2 =     1.091383E+00
 Absolute Value of <<m**0.5>> =     1.044693E+00

 K-point ( 0.500, 0.500, 0.000) | band =    17
 Effective mass tensor:
              0.8586730460              0.2312293161             -0.5327935357
              0.2312293161              0.6184086674             -0.3236026410
             -0.5327935357             -0.3236026410              1.2854550874
 Effective mass tensor eigenvalues:
              0.4779669909              0.5026871234              1.7818826865
 Angular average effective mass 1/(<1/m>)=   0.6461746276
 Angular average effective mass for Frohlich model (<m**0.5>)**2=   0.7016211677
 Effective masses along directions: (cart. coord. / red. coord. -> eff. mass)
    1:   1.000000  0.000000  0.000000 /   0.908135  0.418677  0.000000 ->   0.6202811115
    2:   0.000000  1.000000  0.000000 /   0.000000  1.000000  0.000000 ->   0.5221617436
    3:   0.000000  0.000000  1.000000 /   0.545002  0.545002  0.637139 ->   0.8965231537
    4:   0.577350  0.577350  0.577350 /   0.596522  0.674910  0.434347 ->   0.5023626442
    5:   0.000000  0.707107  0.707107 /   0.459792  0.706866  0.537524 ->   0.5328955007
    6:   0.707107  0.000000  0.707107 /   0.679637  0.541480  0.494866 ->   0.5105657922
    7:   0.707107  0.707107  0.000000 /   0.595679  0.803222  0.000000 ->   0.6793050187

 END OF EFFECTIVE MASSES SECTION

 ---- first-order wavefunction calculations are completed ----

 Total localisation tensor (bohr^2) in cartesian coordinates
  WARNING : still subject to testing - especially symmetries.
      direction              matrix element
   alpha     beta       real part   imaginary part
     1        1       2.5284911151    0.0000000000
     1        2       0.8531062872    0.0000000000
     1        3       5.0311343243    0.0000000000
     2        1       0.8531062872    0.0000000000
     2        2       1.6420510139    0.0000000000
     2        3       3.0557589536    0.0000000000
     3        1       5.0311343243    0.0000000000
     3        2       3.0557589536    0.0000000000
     3        3      18.2858343394    0.0000000000

 respfn : d/dk was computed, but no 2DTE, so no DDB output.

== END DATASET(S) ==============================================================

 -outvars: echo values of variables after computation  --------
            acell      1.0000000000E+00  1.0000000000E+00  1.0000000000E+00 Bohr
              amu      8.54678000E+01  1.38905500E+02  3.20660000E+01
             ecut      5.20000000E+01 Hartree
           etotal     -2.8996250942E+01
            fcart      0.0000000000E+00  0.0000000000E+00  0.0000000000E+00
                       0.0000000000E+00  0.0000000000E+00  0.0000000000E+00
                       0.0000000000E+00  0.0000000000E+00  0.0000000000E+00
                       0.0000000000E+00  0.0000000000E+00  0.0000000000E+00
-          fftalg         512
           irdden           1
           irdwfk           1
           istwfk        1    1
              ixc     -116133
              kpt      0.00000000E+00  0.00000000E+00  0.00000000E+00
                       5.00000000E-01  5.00000000E-01  0.00000000E+00
           kptopt           0
P           mkmem           2
P          mkqmem           2
P          mk1mem           2
            natom           4
            nband          25
           nbdbuf           4
            ngfft         100     100     100
             nkpt           2
            nstep        2000
             nsym          12
           ntypat           3
              occ      2.000000  2.000000  2.000000  2.000000  2.000000  2.000000
                       2.000000  2.000000  2.000000  2.000000  2.000000  2.000000
                       2.000000  2.000000  2.000000  2.000000  0.000000  0.000000
                       0.000000  0.000000  0.000000  0.000000  0.000000  0.000000
                       0.000000
        optdriver           1
            prtwf          -1
            rfdir           1       1       1
           rfelfd           2
            rprim      7.7648050899E+00  0.0000000000E+00  1.2822569004E+01
                       3.5798027271E+00  6.8903708550E+00  1.2822569004E+01
                       0.0000000000E+00  0.0000000000E+00  1.4990346006E+01
          spgroup         166
           strten      0.0000000000E+00  0.0000000000E+00  0.0000000000E+00
                       0.0000000000E+00  0.0000000000E+00  0.0000000000E+00
           symrel      1  0  0   0  1  0   0  0  1      -1  0  0   0 -1  0   0  0 -1
                       0  1  0   1  0  0   0  0  1       0 -1  0  -1  0  0   0  0 -1
                       0  0  1   1  0  0   0  1  0       0  0 -1  -1  0  0   0 -1  0
                       1  0  0   0  0  1   0  1  0      -1  0  0   0  0 -1   0 -1  0
                       0  1  0   0  0  1   1  0  0       0 -1  0   0  0 -1  -1  0  0
                       0  0  1   0  1  0   1  0  0       0  0 -1   0 -1  0  -1  0  0
           tolwfr      1.00000000E-20
            typat      1  2  3  3
           useylm           1
              wtk        0.50000    0.50000
           xangst      0.0000000000E+00  0.0000000000E+00  0.0000000000E+00
                       3.0016539486E+00  1.8231136076E+00  1.0751686000E+01
                       1.3988427797E+00  8.4961469587E-01  5.0105437166E+00
                       4.6044651174E+00  2.7966125193E+00  1.6492828284E+01
            xcart      0.0000000000E+00  0.0000000000E+00  0.0000000000E+00
                       5.6723039085E+00  3.4451854275E+00  2.0317742007E+01
                       2.6434297567E+00  1.6055390937E+00  9.4685554011E+00
                       8.7011780603E+00  5.2848317613E+00  3.1166928613E+01
             xred      0.0000000000E+00  0.0000000000E+00  0.0000000000E+00
                       5.0000000000E-01  5.0000000000E-01  5.0000000000E-01
                       2.3301200000E-01  2.3301200000E-01  2.3301200000E-01
                       7.6698800000E-01  7.6698800000E-01  7.6698800000E-01
            znucl       37.00000   57.00000   16.00000

- Timing analysis has been suppressed with timopt=0

 Suggested references for the acknowledgment of ABINIT usage.

 Calculation completed.
.Delivered   2 WARNINGs and   5 COMMENTs to log file.