.Version 9.5.1 of ABINIT

 ABINIT is a project of the Universite Catholique de Louvain,
 Corning Inc. and other collaborators, see ~abinit/doc/developers/contributors.txt .
 acknowledgments of the ABINIT effort.

.Starting date : Wed 19 May 2021.
- ( at 01h43 )

- input  file    -> /scratch/users/j/a/jabreu/flow_simple_8atoms/flow/w464/t1/run.abi
- output file    -> /scratch/users/j/a/jabreu/flow_simple_8atoms/flow/w464/t1/run.abo
- root for input  files -> /scratch/users/j/a/jabreu/flow_simple_8atoms/flow/w464/t1/indata/in
- root for output files -> /scratch/users/j/a/jabreu/flow_simple_8atoms/flow/w464/t1/outdata/out

 Symmetries : space group R-3 m (#166); Bravais hR (rhombohedral)
     intxc =       0      iscf =       7    lmnmax =      18     lnmax =       6
     mgfft =     120  mpssoang =       3    mqgrid =    3001     natom =       8
  nloc_mem =       1    nspden =       1   nspinor =       1    nsppol =       1
      nsym =      12    n1xccc =    2501    ntypat =       4    occopt =       1
   xclevel =       2
-    mband =          33        mffmem =           1         mkmem =           2
-   mkqmem =           2        mk1mem =           2           mpw =        8670
      nfft =     1728000          nkpt =           2
  Rough estimation (10% accuracy) of disk space for files :

------------- Echo of variables that govern the present computation ------------
-
- outvars: echo of selected default values
-   iomode0 =  0 , fftalg0 =512 , wfoptalg0 =  0
-
- outvars: echo of global parameters not present in the input file
-  max_nthreads =    0
-
 -outvars: echo values of preprocessed input variables --------
            acell      1.0000000000E+00  1.0000000000E+00  1.0000000000E+00 Bohr
              amu      4.49559100E+01  2.69815390E+01  1.20110000E+01
                       1.59994000E+01
             ecut      4.40000000E+01 Hartree
-          fftalg         512
           irdden           1
           irdwfk           1
           istwfk        1    1
              ixc     -116133
              kpt      0.00000000E+00  0.00000000E+00  0.00000000E+00
                       5.00000000E-01  5.00000000E-01  5.55111512E-17
           kptopt           0
P           mkmem           2
P          mkqmem           2
P          mk1mem           2
            natom           8
            nband          33
           nbdbuf           4
            ngfft         120     120     120
             nkpt           2
            nstep        2000
             nsym          12
           ntypat           4
              occ      2.000000  2.000000  2.000000  2.000000  2.000000  2.000000
                       2.000000  2.000000  2.000000  2.000000  2.000000  2.000000
                       2.000000  2.000000  2.000000  2.000000  2.000000  2.000000
                       2.000000  2.000000  2.000000  2.000000  2.000000  2.000000
                       0.000000  0.000000  0.000000  0.000000  0.000000  0.000000
                       0.000000  0.000000  0.000000
        optdriver           1
            prtwf          -1
            rfdir           1       1       1
           rfelfd           2
            rprim      6.0848833340E+00  0.0000000000E+00  1.8179851496E+01
                       2.9616954131E+00  5.3154647462E+00  1.8179851496E+01
                       0.0000000000E+00  0.0000000000E+00  1.9171145131E+01
          spgroup         166
           symrel      1  0  0   0  1  0   0  0  1      -1  0  0   0 -1  0   0  0 -1
                       0  1  0   1  0  0   0  0  1       0 -1  0  -1  0  0   0  0 -1
                       0  0  1   1  0  0   0  1  0       0  0 -1  -1  0  0   0 -1  0
                       1  0  0   0  0  1   0  1  0      -1  0  0   0  0 -1   0 -1  0
                       0  1  0   0  0  1   1  0  0       0 -1  0   0  0 -1  -1  0  0
                       0  0  1   0  1  0   1  0  0       0  0 -1   0 -1  0  -1  0  0
           tolwfr      1.00000000E-20
            typat      1  1  2  2  3  3  4  4
           useylm           1
              wtk        0.50000    0.50000
           xangst      0.0000000000E+00  0.0000000000E+00  0.0000000000E+00
                       2.3936216443E+00  1.4064113984E+00  1.4692829600E+01
                       3.5370642783E+00  2.0782597490E+00  2.1711653072E+01
                       1.2501790104E+00  7.3456304773E-01  7.6740061289E+00
                       2.9617190182E+00  1.7402062668E+00  1.8179996392E+01
                       1.8255242705E+00  1.0726165299E+00  1.1205662809E+01
                       9.5576354810E-01  5.6157444573E-01  5.8667880880E+00
                       3.8314797406E+00  2.2512483510E+00  2.3518871112E+01
            xcart      0.0000000000E+00  0.0000000000E+00  0.0000000000E+00
                       4.5232893735E+00  2.6577323731E+00  2.7765424062E+01
                       6.6840828005E+00  3.9273417587E+00  4.1029078197E+01
                       2.3624959466E+00  1.3881229875E+00  1.4501769926E+01
                       5.5968378269E+00  3.2885132591E+00  3.4355214277E+01
                       3.4497409202E+00  2.0269514871E+00  2.1175633846E+01
                       1.8061313537E+00  1.0612219056E+00  1.1086622766E+01
                       7.2404473934E+00  4.2542428406E+00  4.4444225357E+01
             xred      0.0000000000E+00  0.0000000000E+00  0.0000000000E+00
                       5.0000000000E-01  5.0000000000E-01  5.0000000000E-01
                       7.3885200000E-01  7.3885200000E-01  7.3885200000E-01
                       2.6114800000E-01  2.6114800000E-01  2.6114800000E-01
                       6.1866900000E-01  6.1866900000E-01  6.1866900000E-01
                       3.8133100000E-01  3.8133100000E-01  3.8133100000E-01
                       1.9964800000E-01  1.9964800000E-01  1.9964800000E-01
                       8.0035200000E-01  8.0035200000E-01  8.0035200000E-01
            znucl       21.00000   13.00000    6.00000    8.00000

 chkinp: Checking input parameters for consistency.

== DATASET  1 ==================================================================
-   mpi_nproc: 1, omp_nthreads: -1 (-1 if OMP is not activated)

--- !DatasetInfo
iteration_state: {dtset: 1, }
dimensions: {natom: 8, nkpt: 2, mband: 33, nsppol: 1, nspinor: 1, nspden: 1, mpw: 8670, }
cutoff_energies: {ecut:  44.0, pawecutdg:  -1.0, }
electrons: {nelect:   4.80000000E+01, charge:   0.00000000E+00, occopt:   1.00000000E+00, tsmear:   1.00000000E-02, }
meta: {optdriver: 1, rfelfd: 2, }
...

 Real(R)+Recip(G) space primitive vectors, cartesian coordinates (Bohr,Bohr^-1):
 R(1)=  6.0848833  0.0000000 18.1798515  G(1)=  0.1643417 -0.0915687  0.0000000
 R(2)=  2.9616954  5.3154647 18.1798515  G(2)=  0.0000000  0.1881303  0.0000000
 R(3)=  0.0000000  0.0000000 19.1711451  G(3)= -0.1558440 -0.0915687  0.0521617
 Unit cell volume ucvol=  6.2007119E+02 bohr^3
 Angles (23,13,12)=  1.85056404E+01  1.85056404E+01  1.85056404E+01 degrees

 getcut: wavevector=  0.0000  0.0000  0.0000  ngfft= 120 120 120
         ecut(hartree)=     44.000   => boxcut(ratio)=   2.09628

--- Pseudopotential description ------------------------------------------------
- pspini: atom type   1  psp file is /scratch/users/j/a/jabreu/pseudos/PBEsol/Sc.psp8
- pspatm: opening atomic psp file    /scratch/users/j/a/jabreu/pseudos/PBEsol/Sc.psp8
- Sc    ONCVPSP-3.3.0  r_core=   1.35663   1.35663   1.66161
- 21.00000  11.00000    180112                znucl, zion, pspdat
    8 -116133    2    4       600   0.00000   pspcod,pspxc,lmax,lloc,mmax,r2well
    5.99000000000000    5.00000000000000    0.00000000000000   rchrg,fchrg,qchrg
     nproj     2     2     2
     extension_switch     1
  pspatm : epsatm=   13.58981094
         --- l  ekb(1:nproj) -->
             0   10.810997    0.948773
             1    2.871172    0.364831
             2   -4.789751   -1.321945
 pspatm: atomic psp has been read  and splines computed

- pspini: atom type   2  psp file is /scratch/users/j/a/jabreu/pseudos/PBEsol/Al.psp8
- pspatm: opening atomic psp file    /scratch/users/j/a/jabreu/pseudos/PBEsol/Al.psp8
- Al    ONCVPSP-3.3.0  r_core=   1.76802   1.76802   1.70587
- 13.00000   3.00000    180112                znucl, zion, pspdat
    8 -116133    2    4       600   0.00000   pspcod,pspxc,lmax,lloc,mmax,r2well
    5.99000000000000    5.00000000000000    0.00000000000000   rchrg,fchrg,qchrg
     nproj     2     2     2
     extension_switch     1
  pspatm : epsatm=    0.68509324
         --- l  ekb(1:nproj) -->
             0    5.834965    0.726662
             1    6.225605    0.924840
             2   -2.432733   -0.548689
 pspatm: atomic psp has been read  and splines computed

[...]

- pspini: atom type   4  psp file is /scratch/users/j/a/jabreu/pseudos/PBEsol/O.psp8
- pspatm: opening atomic psp file    /scratch/users/j/a/jabreu/pseudos/PBEsol/O.psp8
- O     ONCVPSP-3.3.0  r_core=   1.35509   1.45563   1.26150
-  8.00000   6.00000    180112                znucl, zion, pspdat
    8 -116133    2    4       600   0.00000   pspcod,pspxc,lmax,lloc,mmax,r2well
    5.99000000000000    4.00000000000000    0.00000000000000   rchrg,fchrg,qchrg
     nproj     2     2     1
     extension_switch     1
  pspatm : epsatm=    6.22910522
         --- l  ekb(1:nproj) -->
             0    6.050032    0.820363
             1   -4.739617   -1.153841
             2   -1.335834
 pspatm: atomic psp has been read  and splines computed

   2.38589805E+03                                ecore*ucvol(ha*bohr**3)

-inwffil : will read wavefunctions from disk file /scratch/users/j/a/jabreu/flow_simple_8atoms/flow/w464/t1/indata/in_WFK

 ==>  initialize data related to q vector <==

 The list of irreducible perturbations for this q vector is:
    1)    idir= 1    ipert=   9
    2)    idir= 2    ipert=   9
    3)    idir= 3    ipert=   9

 Perturbation wavevector (in red.coord.)   0.000000  0.000000  0.000000
 Perturbation : derivative vs k along direction   1

 dfpt_looppert : COMMENT -
  In a d/dk calculation, iscf is set to -3 automatically.
 The set of symmetries contains only one element for this perturbation.
 symkpt : not enough symmetry to change the number of k points.

[...]

 Initialisation of the first-order wave-functions :
  ireadwf=   0

--- !BeginCycle
iteration_state: {dtset: 1, }
solver: {iscf: 7, nstep: 2000, nline: 4, wfoptalg: 0, }
tolerances: {tolwfr: 1.00E-20, }
...

     iter   2DEtotal(Ha)        deltaE(Ha) residm    vres2
-ETOT  1  -83.935752711303     -8.394E+01 3.096E-01 0.000E+00
 ETOT  2  -84.489607956844     -5.539E-01 4.726E-02 0.000E+00
 ETOT  3  -84.538854166901     -4.925E-02 5.271E-03 0.000E+00
 ETOT  4  -84.545397608583     -6.543E-03 4.592E-03 0.000E+00
 ETOT  5  -84.546479251620     -1.082E-03 6.063E-04 0.000E+00
 ETOT  6  -84.546673014440     -1.938E-04 6.765E-04 0.000E+00
 ETOT  7  -84.546710038812     -3.702E-05 9.877E-05 0.000E+00
 ETOT  8  -84.546717376777     -7.338E-06 1.133E-04 0.000E+00
 ETOT  9  -84.546718871154     -1.494E-06 1.652E-05 0.000E+00
 ETOT 10  -84.546719180986     -3.098E-07 1.992E-05 0.000E+00
 ETOT 11  -84.546719246092     -6.511E-08 2.828E-06 0.000E+00
[...]
 1-9 gives the relaxation energy (to be shifted if some occ is /=2.0)
   erelax=  -8.45467193E+01
  No Ewald or frozen-wf contrib.: the relaxation energy is the total one
 2DEtotal=   -0.8454671926E+02 Ha. Also 2DEtotal=   -0.230063323199E+04 eV
    (  non-var. 2DEtotal :   -8.4546719263E+01 Ha)

 Perturbation wavevector (in red.coord.)   0.000000  0.000000  0.000000
 Perturbation : derivative vs k along direction   2
 The set of symmetries contains only one element for this perturbation.
 symkpt : not enough symmetry to change the number of k points.

[...]

 Perturbation wavevector (in red.coord.)   0.000000  0.000000  0.000000
 Perturbation : derivative vs k along direction   3
 The set of symmetries contains only one element for this perturbation.
 symkpt : not enough symmetry to change the number of k points.

-inwffil : will read wavefunctions from disk file /scratch/users/j/a/jabreu/flow_simple_8atoms/flow/w464/t1/indata/in_WFK

 Initialisation of the first-order wave-functions :
  ireadwf=   0

--- !BeginCycle
iteration_state: {dtset: 1, }
solver: {iscf: 7, nstep: 2000, nline: 4, wfoptalg: 0, }
tolerances: {tolwfr: 1.00E-20, }
...

     iter   2DEtotal(Ha)        deltaE(Ha) residm    vres2
-ETOT  1  -73.291148726024     -7.329E+01 3.557E-01 0.000E+00
 ETOT  2  -73.775890320092     -4.847E-01 6.540E-02 0.000E+00
 ETOT  3  -73.817992720471     -4.210E-02 1.945E-02 0.000E+00
 ETOT  4  -73.823665674469     -5.673E-03 6.449E-03 0.000E+00
 ETOT  5  -73.824611158168     -9.455E-04 2.494E-03 0.000E+00
 ETOT  6  -73.824783879604     -1.727E-04 8.095E-04 0.000E+00
 ETOT  7  -73.824817592711     -3.371E-05 3.195E-04 0.000E+00
 ETOT  8  -73.824824412054     -6.819E-06 1.063E-04 0.000E+00
 ETOT  9  -73.824825824821     -1.413E-06 4.139E-05 0.000E+00
 ETOT 10  -73.824826121903     -2.971E-07 1.421E-05 0.000E+00
 ETOT 11  -73.824826185020     -6.312E-08 5.400E-06 0.000E+00
 ETOT 12  -73.824826198521     -1.350E-08 1.914E-06 0.000E+00
 ETOT 13  -73.824826201424     -2.903E-09 7.085E-07 0.000E+00
 ETOT 14  -73.824826202050     -6.264E-10 2.589E-07 0.000E+00
 ETOT 15  -73.824826202186     -1.355E-10 9.334E-08 0.000E+00
 ETOT 16  -73.824826202215     -2.950E-11 3.510E-08 0.000E+00
 ETOT 17  -73.824826202222     -6.537E-12 1.234E-08 0.000E+00
 ETOT 18  -73.824826202223     -1.293E-12 4.764E-09 0.000E+00
 ETOT 19  -73.824826202223     -1.705E-13 1.635E-09 0.000E+00
 ETOT 20  -73.824826202223     -1.847E-13 6.468E-10 0.000E+00
 ETOT 21  -73.824826202223      1.990E-13 2.173E-10 0.000E+00
 ETOT 22  -73.824826202223     -9.948E-14 8.783E-11 0.000E+00
 ETOT 23  -73.824826202223      5.684E-14 2.892E-11 0.000E+00
 ETOT 24  -73.824826202223     -7.105E-14 1.192E-11 0.000E+00
 ETOT 25  -73.824826202223      5.684E-14 3.856E-12 0.000E+00
 ETOT 26  -73.824826202223      8.527E-14 1.619E-12 0.000E+00
 ETOT 27  -73.824826202223     -2.842E-14 5.148E-13 0.000E+00
 ETOT 28  -73.824826202223     -7.105E-14 2.197E-13 0.000E+00
 ETOT 29  -73.824826202223      1.421E-14 6.882E-14 0.000E+00
 ETOT 30  -73.824826202223      8.527E-14 2.981E-14 0.000E+00
 ETOT 31  -73.824826202223     -5.684E-14 9.211E-15 0.000E+00
 ETOT 32  -73.824826202223     -2.842E-14 4.044E-15 0.000E+00
 ETOT 33  -73.824826202223      2.842E-14 1.234E-15 0.000E+00
 ETOT 34  -73.824826202223      1.421E-14 5.488E-16 0.000E+00
 ETOT 35  -73.824826202223     -4.263E-14 1.656E-16 0.000E+00
 ETOT 36  -73.824826202223     -1.421E-14 7.452E-17 0.000E+00
 ETOT 37  -73.824826202223      4.263E-14 2.227E-17 0.000E+00
 ETOT 38  -73.824826202223     -2.842E-14 1.014E-17 0.000E+00
 ETOT 39  -73.824826202223      0.000E+00 3.005E-18 0.000E+00
 ETOT 40  -73.824826202223     -2.842E-14 1.383E-18 0.000E+00
 ETOT 41  -73.824826202223      0.000E+00 4.079E-19 0.000E+00
 ETOT 42  -73.824826202223      5.684E-14 1.902E-19 0.000E+00
 ETOT 43  -73.824826202223     -2.842E-14 5.603E-20 0.000E+00
 ETOT 44  -73.824826202223      0.000E+00 2.655E-20 0.000E+00
 ETOT 45  -73.824826202223      4.263E-14 9.835E-21 0.000E+00

 At SCF step   45   max residual=  9.83E-21 < tolwfr=  1.00E-20 =>converged.

 ----iterations are completed or convergence reached----

 dfpt_looppert: DFPT cycle converged with prtwf=-1. Will skip output of the 1st-order WFK file.
 dfpt_looppert : ek2=    1.3413696803E+02
          f-sum rule ratio=    1.1623696900E+00
 prteigrs : about to open file /scratch/users/j/a/jabreu/flow_simple_8atoms/flow/w464/t1/tmpdata/tmp_1WF1_EIG
 Expectation of eigenvalue derivatives (hartree) for nkpt=   2  k points:
  (in case of degenerate eigenvalues, averaged derivative)
 kpt#   1, nband= 33, wtk=  0.50000, kpt=  0.0000  0.0000  0.0000 (reduced coord)
  -0.00000    0.00000   -0.00000   -0.00000   -0.00000    0.00000    0.00000    0.00000
   0.00000    0.00000    0.00000    0.00000   -0.00000   -0.00000   -0.00000   -0.00000
   0.00000   -0.00000   -0.00000    0.00000    0.00000    0.00000   -0.00000   -0.00000
  -0.00000   -0.00000    0.00000   -0.00000   -0.00000   -0.00000   -0.00000    0.00001
   0.00000
 prteigrs : prtvol=0 or 1, do not print more k-points.

 Eight components of 2nd-order total energy (hartree) are
 1,2,3: 0th-order hamiltonian combined with 1st-order wavefunctions
     kin0=   1.35535195E+02 eigvalue=  -1.44227155E+01  local=  -7.21117393E+01
 4,5,6: 1st-order hamiltonian combined with 1st and 0th-order wfs
     kin1=  -1.55916746E+02  Hartree=   0.00000000E+00     xc=   0.00000000E+00
 7,8,9: eventually, occupation + non-local contributions
    edocc=   2.54201714E+01     enl0=  -5.96085823E-01   enl1=   8.26709354E+00
 1-9 gives the relaxation energy (to be shifted if some occ is /=2.0)
   erelax=  -7.38248262E+01
  No Ewald or frozen-wf contrib.: the relaxation energy is the total one
 2DEtotal=   -0.7382482620E+02 Ha. Also 2DEtotal=   -0.200887568419E+04 eV
    (  non-var. 2DEtotal :   -7.3824826202E+01 Ha)

 CALCULATION OF EFFECTIVE MASSES
 NOTE : Additional infos (eff. mass eigenvalues, eigenvectors and, if degenerate, average mass) are available in stdout.

 COMMENTS:
 - At k-point ( 0.000, 0.000, 0.000), bands    23 through    24
   are DEGENERATE (effective mass tensor is therefore not defined).
   See Section IIIB Eqs. (67)-(70) and Appendix E of PRB 93 205147 (2016).
 - Angular average effective mass for Frohlich model is to be averaged over degenerate bands. See later.
 - Associated theta integrals calculated with ntheta=   1000 points.

 K-point ( 0.000, 0.000, 0.000) | band =    23
 Transport equivalent effective mass tensor:
             -0.3367836495             -0.0882916335             -0.9220591763
             -0.0882916335             -0.2384703419             -0.5421898029
             -0.9220591763             -0.5421898029             -5.8476694490
 Transport equivalent effective mass tensor eigenvalues:
             -6.0497791378             -0.1866065435             -0.1865377590
 Angular average effective mass 1/(<1/m>)=  -0.2705614007
 Angular average effective mass for Frohlich model (<m**0.5>)**2=  -0.3672735745
 Effective masses along directions: (cart. coord. / red. coord. -> eff. mass)
    1:   1.000000  0.000000  0.000000 /   0.899149  0.437643  0.000000 ->  -0.1878801804
    2:   0.000000  1.000000  0.000000 /   0.000000  1.000000  0.000000 ->  -0.1852645677
    3:   0.000000  0.000000  1.000000 /   0.566863  0.566863  0.597773 ->  -3.1192364346
    4:   0.577350  0.577350  0.577350 /   0.596222  0.650090  0.471065 ->  -0.3556888416
    5:   0.000000  0.707107  0.707107 /   0.514190  0.664529  0.542227 ->  -0.4298788259
    6:   0.707107  0.000000  0.707107 /   0.647745  0.564372  0.511772 ->  -0.5051538190
    7:   0.707107  0.707107  0.000000 /   0.592311  0.805710  0.000000 ->  -0.1884023624

 K-point ( 0.000, 0.000, 0.000) | band =    24
 Transport equivalent effective mass tensor:
             -0.6920186555             -0.0926541280             -0.9668742775
             -0.0926541280             -0.5892020197             -0.5682420726
             -0.9668742775             -0.5682420726             -6.4700480441
 Transport equivalent effective mass tensor eigenvalues:
             -6.6819542972             -0.5348214453             -0.5344929768
 Angular average effective mass 1/(<1/m>)=  -0.7310058401
 Angular average effective mass for Frohlich model (<m**0.5>)**2=  -0.9071333251
 Effective masses along directions: (cart. coord. / red. coord. -> eff. mass)
    1:   1.000000  0.000000  0.000000 /   0.899149  0.437643  0.000000 ->  -0.5194468207
    2:   0.000000  1.000000  0.000000 /   0.000000  1.000000  0.000000 ->  -0.5078830873
    3:   0.000000  0.000000  1.000000 /   0.566863  0.566863  0.597773 ->  -3.8896901514
    4:   0.577350  0.577350  0.577350 /   0.596222  0.650090  0.471065 ->  -1.0001358219
    5:   0.000000  0.707107  0.707107 /   0.514190  0.664529  0.542227 ->  -1.0102480470
    6:   0.707107  0.000000  0.707107 /   0.647745  0.564372  0.511772 ->  -1.2240152073
    7:   0.707107  0.707107  0.000000 /   0.592311  0.805710  0.000000 ->  -0.5284014727

 Angular average effective mass for Frohlich model, averaged over degenerate bands.
 Value of     (<<m**0.5>>)**2 =     6.072044E-01
 Absolute Value of <<m**0.5>> =     7.792332E-01

 K-point ( 0.500, 0.500, 0.000) | band =    25
 Effective mass tensor:
              1.1360170967              0.5554197987              0.1901901043
              0.5554197987              0.5170743143              0.1117492946
              0.1901901043              0.1117492946              1.3816996982
 Effective mass tensor eigenvalues:
              0.1907283616              1.1977841338              1.6462786138
 Angular average effective mass 1/(<1/m>)=   0.4487414399
 Angular average effective mass for Frohlich model (<m**0.5>)**2=   0.6031728921
 Effective masses along directions: (cart. coord. / red. coord. -> eff. mass)
    1:   1.000000  0.000000  0.000000 /   0.899149  0.437643  0.000000 ->   0.5357828585
    2:   0.000000  1.000000  0.000000 /   0.000000  1.000000  0.000000 ->   0.2452585151
    3:   0.000000  0.000000  1.000000 /   0.566863  0.566863  0.597773 ->   1.3484246640
    4:   0.577350  0.577350  0.577350 /   0.596222  0.650090  0.471065 ->   1.2442293672
    5:   0.000000  0.707107  0.707107 /   0.514190  0.664529  0.542227 ->   0.4250260427
    6:   0.707107  0.000000  0.707107 /   0.647745  0.564372  0.511772 ->   0.8281120156
    7:   0.707107  0.707107  0.000000 /   0.592311  0.805710  0.000000 ->   1.0122640442

 END OF EFFECTIVE MASSES SECTION

 ---- first-order wavefunction calculations are completed ----

 Total localisation tensor (bohr^2) in cartesian coordinates
  WARNING : still subject to testing - especially symmetries.
      direction              matrix element
   alpha     beta       real part   imaginary part
     1        1       3.6451163283    0.0000000000
     1        2       1.2530090173    0.0000000000
     1        3      13.0901688737    0.0000000000
     2        1       1.2530090173    0.0000000000
     2        2       2.2488218162    0.0000000000
     2        3       7.6913776336    0.0000000000
     3        1      13.0901688737    0.0000000000
     3        2       7.6913776336    0.0000000000
     3        3      72.9646642931    0.0000000000

 respfn : d/dk was computed, but no 2DTE, so no DDB output.

== END DATASET(S) ==============================================================

 -outvars: echo values of variables after computation  --------
            acell      1.0000000000E+00  1.0000000000E+00  1.0000000000E+00 Bohr
              amu      4.49559100E+01  2.69815390E+01  1.20110000E+01
                       1.59994000E+01
             ecut      4.40000000E+01 Hartree
           etotal     -7.3824826202E+01
            fcart      0.0000000000E+00  0.0000000000E+00  0.0000000000E+00
                       0.0000000000E+00  0.0000000000E+00  0.0000000000E+00
                       0.0000000000E+00  0.0000000000E+00  0.0000000000E+00
                       0.0000000000E+00  0.0000000000E+00  0.0000000000E+00
                       0.0000000000E+00  0.0000000000E+00  0.0000000000E+00
                       0.0000000000E+00  0.0000000000E+00  0.0000000000E+00
                       0.0000000000E+00  0.0000000000E+00  0.0000000000E+00
                       0.0000000000E+00  0.0000000000E+00  0.0000000000E+00
-          fftalg         512
           irdden           1
           irdwfk           1
           istwfk        1    1
              ixc     -116133
              kpt      0.00000000E+00  0.00000000E+00  0.00000000E+00
                       5.00000000E-01  5.00000000E-01  5.55111512E-17
           kptopt           0
P           mkmem           2
P          mkqmem           2
P          mk1mem           2
            natom           8
            nband          33
           nbdbuf           4
            ngfft         120     120     120
             nkpt           2
            nstep        2000
             nsym          12
           ntypat           4
              occ      2.000000  2.000000  2.000000  2.000000  2.000000  2.000000
                       2.000000  2.000000  2.000000  2.000000  2.000000  2.000000
                       2.000000  2.000000  2.000000  2.000000  2.000000  2.000000
                       2.000000  2.000000  2.000000  2.000000  2.000000  2.000000
                       0.000000  0.000000  0.000000  0.000000  0.000000  0.000000
                       0.000000  0.000000  0.000000
        optdriver           1
            prtwf          -1
            rfdir           1       1       1
           rfelfd           2
            rprim      6.0848833340E+00  0.0000000000E+00  1.8179851496E+01
                       2.9616954131E+00  5.3154647462E+00  1.8179851496E+01
                       0.0000000000E+00  0.0000000000E+00  1.9171145131E+01
          spgroup         166
           strten      0.0000000000E+00  0.0000000000E+00  0.0000000000E+00
                       0.0000000000E+00  0.0000000000E+00  0.0000000000E+00
           symrel      1  0  0   0  1  0   0  0  1      -1  0  0   0 -1  0   0  0 -1
                       0  1  0   1  0  0   0  0  1       0 -1  0  -1  0  0   0  0 -1
                       0  0  1   1  0  0   0  1  0       0  0 -1  -1  0  0   0 -1  0
                       1  0  0   0  0  1   0  1  0      -1  0  0   0  0 -1   0 -1  0
                       0  1  0   0  0  1   1  0  0       0 -1  0   0  0 -1  -1  0  0
                       0  0  1   0  1  0   1  0  0       0  0 -1   0 -1  0  -1  0  0
           tolwfr      1.00000000E-20
            typat      1  1  2  2  3  3  4  4
           useylm           1
              wtk        0.50000    0.50000
           xangst      0.0000000000E+00  0.0000000000E+00  0.0000000000E+00
                       2.3936216443E+00  1.4064113984E+00  1.4692829600E+01
                       3.5370642783E+00  2.0782597490E+00  2.1711653072E+01
                       1.2501790104E+00  7.3456304773E-01  7.6740061289E+00
                       2.9617190182E+00  1.7402062668E+00  1.8179996392E+01
                       1.8255242705E+00  1.0726165299E+00  1.1205662809E+01
                       9.5576354810E-01  5.6157444573E-01  5.8667880880E+00
                       3.8314797406E+00  2.2512483510E+00  2.3518871112E+01
            xcart      0.0000000000E+00  0.0000000000E+00  0.0000000000E+00
                       4.5232893735E+00  2.6577323731E+00  2.7765424062E+01
                       6.6840828005E+00  3.9273417587E+00  4.1029078197E+01
                       2.3624959466E+00  1.3881229875E+00  1.4501769926E+01
                       5.5968378269E+00  3.2885132591E+00  3.4355214277E+01
                       3.4497409202E+00  2.0269514871E+00  2.1175633846E+01
                       1.8061313537E+00  1.0612219056E+00  1.1086622766E+01
                       7.2404473934E+00  4.2542428406E+00  4.4444225357E+01
             xred      0.0000000000E+00  0.0000000000E+00  0.0000000000E+00
                       5.0000000000E-01  5.0000000000E-01  5.0000000000E-01
                       7.3885200000E-01  7.3885200000E-01  7.3885200000E-01
                       2.6114800000E-01  2.6114800000E-01  2.6114800000E-01
                       6.1866900000E-01  6.1866900000E-01  6.1866900000E-01
                       3.8133100000E-01  3.8133100000E-01  3.8133100000E-01
                       1.9964800000E-01  1.9964800000E-01  1.9964800000E-01
                       8.0035200000E-01  8.0035200000E-01  8.0035200000E-01
            znucl       21.00000   13.00000    6.00000    8.00000

- Timing analysis has been suppressed with timopt=0

 Suggested references for the acknowledgment of ABINIT usage.

 Calculation completed.
.Delivered  14 WARNINGs and   9 COMMENTs to log file.