.Version 9.5.2 of ABINIT

 ABINIT is a project of the Universite Catholique de Louvain,
 Corning Inc. and other collaborators, see ~abinit/doc/developers/contributors.txt .
 acknowledgments of the ABINIT effort.

.Starting date : Mon 24 May 2021.
- ( at 12h03 )

- input  file    -> /scratch/users/j/a/jabreu/flow_simple_10atoms/flow/w376/t1/run.abi
- output file    -> /scratch/users/j/a/jabreu/flow_simple_10atoms/flow/w376/t1/run.abo
- root for input  files -> /scratch/users/j/a/jabreu/flow_simple_10atoms/flow/w376/t1/indata/in
- root for output files -> /scratch/users/j/a/jabreu/flow_simple_10atoms/flow/w376/t1/outdata/out

 Symmetries : space group Fm -3 m (#225); Bravais cF (face-center cubic)
     intxc =       0      iscf =       7    lmnmax =      32     lnmax =       8
     mgfft =      80  mpssoang =       4    mqgrid =    3213     natom =      10
  nloc_mem =       1    nspden =       1   nspinor =       1    nsppol =       1
      nsym =      48    n1xccc =    2501    ntypat =       4    occopt =       1
   xclevel =       2
-    mband =          51        mffmem =           1         mkmem =           1
-   mkqmem =           1        mk1mem =           1           mpw =       22514
      nfft =      512000          nkpt =           1
  Rough estimation (10% accuracy) of disk space for files :

------------- Echo of variables that govern the present computation ------------
-
- outvars: echo of selected default values
-   iomode0 =  0 , fftalg0 =512 , wfoptalg0 =  0
-
- outvars: echo of global parameters not present in the input file
-  max_nthreads =    0
-
 -outvars: echo values of preprocessed input variables --------
            acell      1.0000000000E+00  1.0000000000E+00  1.0000000000E+00 Bohr
              amu      1.32905430E+02  4.00780000E+01  1.18710000E+02
                       3.54527000E+01
             ecut      3.60000000E+01 Hartree
-          fftalg         512
           irdden           1
           irdwfk           1
           istwfk        1
              ixc     -116133
              kpt      5.00000000E-01  5.00000000E-01  5.00000000E-01
           kptopt           0
P           mkmem           1
P          mkqmem           1
P          mk1mem           1
            natom          10
            nband          51
           nbdbuf           4
            ngfft          80      80      80
             nkpt           1
            nstep        2000
             nsym          48
           ntypat           4
              occ      2.000000  2.000000  2.000000  2.000000  2.000000  2.000000
                       2.000000  2.000000  2.000000  2.000000  2.000000  2.000000
                       2.000000  2.000000  2.000000  2.000000  2.000000  2.000000
                       2.000000  2.000000  2.000000  2.000000  2.000000  2.000000
                       2.000000  2.000000  2.000000  2.000000  2.000000  2.000000
                       2.000000  2.000000  2.000000  2.000000  2.000000  2.000000
                       2.000000  2.000000  2.000000  2.000000  2.000000  2.000000
                       0.000000  0.000000  0.000000  0.000000  0.000000  0.000000
                       0.000000  0.000000  0.000000
        optdriver           1
            prtwf          -1
            rfdir           1       1       1
           rfelfd           2
            rprim      1.2613848820E+01  0.0000000000E+00  7.2826090119E+00
                       4.2046162734E+00  1.1892450717E+01  7.2826090119E+00
                       0.0000000000E+00  0.0000000000E+00  1.4565218024E+01
          spgroup         225
           symrel      1  0  0   0  1  0   0  0  1      -1  0  0   0 -1  0   0  0 -1
                       0 -1  1   0 -1  0   1 -1  0       0  1 -1   0  1  0  -1  1  0
                      -1  0  0  -1  0  1  -1  1  0       1  0  0   1  0 -1   1 -1  0
                       0  1 -1   1  0 -1   0  0 -1       0 -1  1  -1  0  1   0  0  1
                      -1  0  0  -1  1  0  -1  0  1       1  0  0   1 -1  0   1  0 -1
                       0 -1  1   1 -1  0   0 -1  0       0  1 -1  -1  1  0   0  1  0
                       1  0  0   0  0  1   0  1  0      -1  0  0   0  0 -1   0 -1  0
                       0  1 -1   0  0 -1   1  0 -1       0 -1  1   0  0  1  -1  0  1
                      -1  0  1  -1  1  0  -1  0  0       1  0 -1   1 -1  0   1  0  0
                       0 -1  0   1 -1  0   0 -1  1       0  1  0  -1  1  0   0  1 -1
                       1  0 -1   0  0 -1   0  1 -1      -1  0  1   0  0  1   0 -1  1
                       0  1  0   0  0  1   1  0  0       0 -1  0   0  0 -1  -1  0  0
                       1  0 -1   0  1 -1   0  0 -1      -1  0  1   0 -1  1   0  0  1
                       0 -1  0   0 -1  1   1 -1  0       0  1  0   0  1 -1  -1  1  0
                      -1  0  1  -1  0  0  -1  1  0       1  0 -1   1  0  0   1 -1  0
                       0  1  0   1  0  0   0  0  1       0 -1  0  -1  0  0   0  0 -1
                       0  0 -1   0  1 -1   1  0 -1       0  0  1   0 -1  1  -1  0  1
                       1 -1  0   0 -1  1   0 -1  0      -1  1  0   0  1 -1   0  1  0
                       0  0  1   1  0  0   0  1  0       0  0 -1  -1  0  0   0 -1  0
                      -1  1  0  -1  0  0  -1  0  1       1 -1  0   1  0  0   1  0 -1
                       0  0  1   0  1  0   1  0  0       0  0 -1   0 -1  0  -1  0  0
                       1 -1  0   0 -1  0   0 -1  1      -1  1  0   0  1  0   0  1 -1
                       0  0 -1   1  0 -1   0  1 -1       0  0  1  -1  0  1   0 -1  1
                      -1  1  0  -1  0  1  -1  0  0       1 -1  0   1  0 -1   1  0  0
           tolwfr      1.00000000E-20
            typat      1  1  2  3  4  4  4  4  4  4
           useylm           1
           xangst      6.6749613082E+00  4.7199104052E+00  1.1561372124E+01
                       2.2249871027E+00  1.5733034684E+00  3.8537907082E+00
                       0.0000000000E+00  0.0000000000E+00  0.0000000000E+00
                       4.4499742055E+00  3.1466069368E+00  7.7075814163E+00
                       5.5828352888E+00  1.5444994285E+00  5.7454084621E+00
                       3.3171131222E+00  4.7487144451E+00  5.7454084621E+00
                       5.5828352888E+00  1.5444994285E+00  9.6697543705E+00
                       6.7156963721E+00  4.7487144451E+00  7.7075814163E+00
                       2.1842520389E+00  1.5444994285E+00  7.7075814163E+00
                       3.3171131222E+00  4.7487144451E+00  9.6697543705E+00
            xcart      1.2613848820E+01  8.9193380377E+00  2.1847827036E+01
                       4.2046162734E+00  2.9731126792E+00  7.2826090119E+00
                       0.0000000000E+00  0.0000000000E+00  0.0000000000E+00
                       8.4092325468E+00  5.9462253585E+00  1.4565218024E+01
                       1.0550029741E+01  2.9186809323E+00  1.0857248515E+01
                       6.2684353527E+00  8.9737697846E+00  1.0857248515E+01
                       1.0550029741E+01  2.9186809323E+00  1.8273187533E+01
                       1.2690826935E+01  8.9737697846E+00  1.4565218024E+01
                       4.1276381587E+00  2.9186809323E+00  1.4565218024E+01
                       6.2684353527E+00  8.9737697846E+00  1.8273187533E+01
             xred      7.5000000000E-01  7.5000000000E-01  7.5000000000E-01
                       2.5000000000E-01  2.5000000000E-01  2.5000000000E-01
                       0.0000000000E+00  0.0000000000E+00  0.0000000000E+00
                       5.0000000000E-01  5.0000000000E-01  5.0000000000E-01
                       7.5457700000E-01  2.4542300000E-01  2.4542300000E-01
                       2.4542300000E-01  7.5457700000E-01  2.4542300000E-01
                       7.5457700000E-01  2.4542300000E-01  7.5457700000E-01
                       7.5457700000E-01  7.5457700000E-01  2.4542300000E-01
                       2.4542300000E-01  2.4542300000E-01  7.5457700000E-01
                       2.4542300000E-01  7.5457700000E-01  7.5457700000E-01
            znucl       55.00000   20.00000   50.00000   17.00000

 chkinp: Checking input parameters for consistency.

== DATASET  1 ==================================================================
-   mpi_nproc: 1, omp_nthreads: -1 (-1 if OMP is not activated)

--- !DatasetInfo
iteration_state: {dtset: 1, }
dimensions: {natom: 10, nkpt: 1, mband: 51, nsppol: 1, nspinor: 1, nspden: 1, mpw: 22514, }
cutoff_energies: {ecut:  36.0, pawecutdg:  -1.0, }
electrons: {nelect:   8.40000000E+01, charge:   0.00000000E+00, occopt:   1.00000000E+00, tsmear:   1.00000000E-02, }
meta: {optdriver: 1, rfelfd: 2, }
...

 Real(R)+Recip(G) space primitive vectors, cartesian coordinates (Bohr,Bohr^-1):
 R(1)= 12.6138488  0.0000000  7.2826090  G(1)=  0.0792779 -0.0280290  0.0000000
 R(2)=  4.2046163 11.8924507  7.2826090  G(2)=  0.0000000  0.0840870  0.0000000
 R(3)=  0.0000000  0.0000000 14.5652180  G(3)= -0.0396390 -0.0280290  0.0686567
 Unit cell volume ucvol=  2.1849222E+03 bohr^3
 Angles (23,13,12)=  6.00000000E+01  6.00000000E+01  6.00000000E+01 degrees

 getcut: wavevector=  0.0000  0.0000  0.0000  ngfft=  80  80  80
         ecut(hartree)=     36.000   => boxcut(ratio)=   2.03356

--- Pseudopotential description ------------------------------------------------
- pspini: atom type   1  psp file is /scratch/users/j/a/jabreu/pseudos/PBEsol/Cs.psp8
- pspatm: opening atomic psp file    /scratch/users/j/a/jabreu/pseudos/PBEsol/Cs.psp8
- Cs    ONCVPSP-3.3.0  r_core=   2.27353   1.85623   2.01788   1.90105
- 55.00000   9.00000    180112                znucl, zion, pspdat
    8 -116133    3    4       600   0.00000   pspcod,pspxc,lmax,lloc,mmax,r2well
    5.99000000000000    5.00000000000000    0.00000000000000   rchrg,fchrg,qchrg
     nproj     2     2     2     2
     extension_switch     1
  pspatm : epsatm=   22.12462445
         --- l  ekb(1:nproj) -->
             0    6.214110    0.767882
             1    6.311966    0.793598
             2    3.769790    0.913105
             3   -9.247129   -2.432478
 pspatm: atomic psp has been read  and splines computed

- pspini: atom type   2  psp file is /scratch/users/j/a/jabreu/pseudos/PBEsol/Ca.psp8
- pspatm: opening atomic psp file    /scratch/users/j/a/jabreu/pseudos/PBEsol/Ca.psp8
- Ca    ONCVPSP-3.3.0  r_core=   1.45885   1.45885   1.85192
- 20.00000  10.00000    180112                znucl, zion, pspdat
    8 -116133    2    4       400   0.00000   pspcod,pspxc,lmax,lloc,mmax,r2well
    3.99000000000000    6.00000000000000    0.00000000000000   rchrg,fchrg,qchrg
     nproj     2     2     2
     extension_switch     1
  pspatm : epsatm=   12.46045226
         --- l  ekb(1:nproj) -->
             0   10.054847    0.973777
             1    2.998958    0.458102
             2   -3.447298   -1.091650
 pspatm: atomic psp has been read  and splines computed

[...]

- pspini: atom type   4  psp file is /scratch/users/j/a/jabreu/pseudos/PBEsol/Cl.psp8
- pspatm: opening atomic psp file    /scratch/users/j/a/jabreu/pseudos/PBEsol/Cl.psp8
- Cl    ONCVPSP-3.3.0  r_core=   1.56009   1.35202   1.75774
- 17.00000   7.00000    180112                znucl, zion, pspdat
[...]
tolerances: {tolwfr: 1.00E-20, }
...

     iter   2DEtotal(Ha)        deltaE(Ha) residm    vres2
-ETOT  1  -29.343821708418     -2.934E+01 5.621E-02 0.000E+00
 ETOT  2  -29.387624400548     -4.380E-02 1.464E-02 0.000E+00
 ETOT  3  -29.388317261241     -6.929E-04 2.032E-03 0.000E+00
 ETOT  4  -29.388349793950     -3.253E-05 1.380E-03 0.000E+00
 ETOT  5  -29.388352105025     -2.311E-06 3.761E-04 0.000E+00
 ETOT  6  -29.388352315388     -2.104E-07 2.640E-04 0.000E+00
 ETOT  7  -29.388352336637     -2.125E-08 7.880E-05 0.000E+00
 ETOT  8  -29.388352338955     -2.318E-09 5.504E-05 0.000E+00
 ETOT  9  -29.388352339216     -2.612E-10 1.650E-05 0.000E+00
 ETOT 10  -29.388352339247     -3.019E-11 1.153E-05 0.000E+00
 ETOT 11  -29.388352339250     -3.585E-12 3.527E-06 0.000E+00
 ETOT 12  -29.388352339251     -4.761E-13 2.447E-06 0.000E+00
 ETOT 13  -29.388352339251     -1.776E-14 7.531E-07 0.000E+00
 ETOT 14  -29.388352339251     -3.553E-15 5.198E-07 0.000E+00
 ETOT 15  -29.388352339251     -2.842E-14 1.617E-07 0.000E+00
 ETOT 16  -29.388352339251      0.000E+00 1.109E-07 0.000E+00
 ETOT 17  -29.388352339251      3.553E-14 3.474E-08 0.000E+00
 ETOT 18  -29.388352339251      0.000E+00 2.370E-08 0.000E+00
 ETOT 19  -29.388352339251     -1.776E-14 7.476E-09 0.000E+00
 ETOT 20  -29.388352339251      1.066E-14 5.075E-09 0.000E+00
 ETOT 21  -29.388352339251      3.553E-15 1.609E-09 0.000E+00
 ETOT 22  -29.388352339251      0.000E+00 1.088E-09 0.000E+00
 ETOT 23  -29.388352339251      0.000E+00 3.466E-10 0.000E+00
 ETOT 24  -29.388352339251     -7.105E-15 2.336E-10 0.000E+00
 ETOT 25  -29.388352339251     -1.066E-14 7.468E-11 0.000E+00
 ETOT 26  -29.388352339251      1.421E-14 5.020E-11 0.000E+00
 ETOT 27  -29.388352339251      3.553E-15 1.610E-11 0.000E+00
 ETOT 28  -29.388352339251     -3.553E-15 1.080E-11 0.000E+00
 ETOT 29  -29.388352339251      1.421E-14 3.470E-12 0.000E+00
 ETOT 30  -29.388352339251     -3.553E-15 2.324E-12 0.000E+00
 ETOT 31  -29.388352339251     -3.553E-15 7.482E-13 0.000E+00
 ETOT 32  -29.388352339251      0.000E+00 5.005E-13 0.000E+00
 ETOT 33  -29.388352339251      7.105E-15 1.613E-13 0.000E+00
 ETOT 34  -29.388352339251     -7.105E-15 1.079E-13 0.000E+00
 ETOT 35  -29.388352339251     -3.553E-15 3.480E-14 0.000E+00
 ETOT 36  -29.388352339251      7.105E-15 2.325E-14 0.000E+00
 ETOT 37  -29.388352339251      1.066E-14 7.507E-15 0.000E+00
 ETOT 38  -29.388352339251      0.000E+00 5.016E-15 0.000E+00
 ETOT 39  -29.388352339251     -1.421E-14 1.620E-15 0.000E+00
 ETOT 40  -29.388352339251      7.105E-15 1.082E-15 0.000E+00
 ETOT 41  -29.388352339251      0.000E+00 3.495E-16 0.000E+00
 ETOT 42  -29.388352339251     -3.553E-15 2.336E-16 0.000E+00
 ETOT 43  -29.388352339251      0.000E+00 7.542E-17 0.000E+00
 ETOT 44  -29.388352339251      0.000E+00 5.044E-17 0.000E+00
 ETOT 45  -29.388352339251      0.000E+00 1.628E-17 0.000E+00
 ETOT 46  -29.388352339251      3.553E-15 1.089E-17 0.000E+00
 ETOT 47  -29.388352339251      0.000E+00 3.513E-18 0.000E+00
 ETOT 48  -29.388352339251     -7.105E-15 2.353E-18 0.000E+00
 ETOT 49  -29.388352339251      0.000E+00 7.584E-19 0.000E+00
 ETOT 50  -29.388352339251      7.105E-15 5.083E-19 0.000E+00
 ETOT 51  -29.388352339251      0.000E+00 1.637E-19 0.000E+00
 ETOT 52  -29.388352339251     -7.105E-15 1.098E-19 0.000E+00
 ETOT 53  -29.388352339251      0.000E+00 3.535E-20 0.000E+00
 ETOT 54  -29.388352339251      0.000E+00 2.373E-20 0.000E+00
 ETOT 55  -29.388352339251     -3.553E-15 9.930E-21 0.000E+00

 At SCF step   55   max residual=  9.93E-21 < tolwfr=  1.00E-20 =>converged.

 ----iterations are completed or convergence reached----

 dfpt_looppert: DFPT cycle converged with prtwf=-1. Will skip output of the 1st-order WFK file.
 dfpt_looppert : ek2=    4.6894973821E+01
          f-sum rule ratio=    1.0558323074E+00
 prteigrs : about to open file /scratch/users/j/a/jabreu/flow_simple_10atoms/flow/w376/t1/tmpdata/tmp_1WF1_EIG
 Expectation of eigenvalue derivatives (hartree) for nkpt=   1  k points:
  (in case of degenerate eigenvalues, averaged derivative)
 kpt#   1, nband= 51, wtk=  1.00000, kpt=  0.5000  0.5000  0.5000 (reduced coord)
  -0.00000    0.00000    0.00000    0.00000    0.00000    0.00000   -0.00000    0.00000
   0.00000    0.00000   -0.00000    0.00000   -0.00000   -0.00000   -0.00000    0.00000
   0.00000   -0.00000   -0.00000    0.00000    0.00000    0.00000   -0.00000   -0.00000
   0.00000   -0.00000   -0.00000    0.00000   -0.00000   -0.00000   -0.00000   -0.00000
  -0.00000   -0.00000   -0.00000   -0.00000   -0.00000   -0.00000   -0.00000   -0.00000
   0.00000    0.00000   -0.00000   -0.00000   -0.00000    0.00000    0.00000    0.00000
   0.00000    0.00000   -0.00000

 Eight components of 2nd-order total energy (hartree) are
 1,2,3: 0th-order hamiltonian combined with 1st-order wavefunctions
     kin0=   3.61607766E+01 eigvalue=   3.68353649E+00  local=  -2.14189072E+01
 4,5,6: 1st-order hamiltonian combined with 1st and 0th-order wfs
     kin1=  -4.95132284E+01  Hartree=   0.00000000E+00     xc=   0.00000000E+00
 7,8,9: eventually, occupation + non-local contributions
    edocc=   7.02335325E+00     enl0=   3.93959318E+00   enl1=  -9.26347626E+00
 1-9 gives the relaxation energy (to be shifted if some occ is /=2.0)
   erelax=  -2.93883523E+01
  No Ewald or frozen-wf contrib.: the relaxation energy is the total one
 2DEtotal=   -0.2938835234E+02 Ha. Also 2DEtotal=   -0.799697736516E+03 eV
    (  non-var. 2DEtotal :   -2.9388352339E+01 Ha)

 CALCULATION OF EFFECTIVE MASSES
 NOTE : Additional infos (eff. mass eigenvalues, eigenvectors and, if degenerate, average mass) are available in stdout.

 K-point ( 0.500, 0.500, 0.500) | band =    42
 Effective mass tensor:
             -1.2042693283              0.1341326986              0.3285568330
              0.1341326986             -1.2991156116              0.2323246481
              0.3285568330              0.2323246481             -0.8248845784
 Effective mass tensor eigenvalues:
             -1.3939617049             -1.3939617047             -0.5403461086
 Angular average effective mass 1/(<1/m>)=  -0.9131237819
 Angular average effective mass for Frohlich model (<m**0.5>)**2=  -0.9763330405
 Effective masses along directions: (cart. coord. / red. coord. -> eff. mass)
    1:   1.000000  0.000000  0.000000 /   0.948683  0.316228  0.000000 ->  -1.0317562677
    2:   0.000000  1.000000  0.000000 /   0.000000  1.000000  0.000000 ->  -1.1858171127
    3:   0.000000  0.000000  1.000000 /   0.408248  0.408248  0.816497 ->  -0.6789309607
    4:   0.577350  0.577350  0.577350 /   0.585539  0.688047  0.428644 ->  -0.5846962787
    5:   0.000000  0.707107  0.707107 /   0.289489  0.762222  0.578977 ->  -0.6818755321
    6:   0.707107  0.000000  0.707107 /   0.731423  0.422287  0.535439 ->  -0.6034039965
    7:   0.707107  0.707107  0.000000 /   0.616798  0.787122  0.000000 ->  -0.9222204939

 K-point ( 0.500, 0.500, 0.500) | band =    43
 Effective mass tensor:
              0.5850952693              0.1021374227              0.2501845690
              0.1021374227              0.5128732051              0.1769072053
              0.2501845690              0.1769072053              0.8739835256
 Effective mass tensor eigenvalues:
              0.4406511409              0.4406511411              1.0906497181
 Angular average effective mass 1/(<1/m>)=   0.5498914208
 Angular average effective mass for Frohlich model (<m**0.5>)**2=   0.5751440256
 Effective masses along directions: (cart. coord. / red. coord. -> eff. mass)
    1:   1.000000  0.000000  0.000000 /   0.948683  0.316228  0.000000 ->   0.5079192597
    2:   0.000000  1.000000  0.000000 /   0.000000  1.000000  0.000000 ->   0.4719000322
    3:   0.000000  0.000000  1.000000 /   0.408248  0.408248  0.816497 ->   0.7311476790
    4:   0.577350  0.577350  0.577350 /   0.585539  0.688047  0.428644 ->   0.9221588336
    5:   0.000000  0.707107  0.707107 /   0.289489  0.762222  0.578977 ->   0.7271123780
    6:   0.707107  0.000000  0.707107 /   0.731423  0.422287  0.535439 ->   0.8713128652
    7:   0.707107  0.707107  0.000000 /   0.616798  0.787122  0.000000 ->   0.5460206776

 END OF EFFECTIVE MASSES SECTION

 ---- first-order wavefunction calculations are completed ----

 Total localisation tensor (bohr^2) in cartesian coordinates
  WARNING : still subject to testing - especially symmetries.
      direction              matrix element
   alpha     beta       real part   imaginary part
     1        1       1.4296162936    0.0000000000
     1        2       0.4043565674    0.0000000000
     1        3       0.9904672294    0.0000000000
     2        1       0.4043565674    0.0000000000
     2        2       1.1436930834    0.0000000000
     2        3       0.7003661192    0.0000000000
     3        1       0.9904672294    0.0000000000
     3        2       0.7003661192    0.0000000000
     3        3       2.5733093406    0.0000000000

 respfn : d/dk was computed, but no 2DTE, so no DDB output.

== END DATASET(S) ==============================================================

 -outvars: echo values of variables after computation  --------
            acell      1.0000000000E+00  1.0000000000E+00  1.0000000000E+00 Bohr
              amu      1.32905430E+02  4.00780000E+01  1.18710000E+02
                       3.54527000E+01
             ecut      3.60000000E+01 Hartree
           etotal     -2.9388352339E+01
            fcart      0.0000000000E+00  0.0000000000E+00  0.0000000000E+00
                       0.0000000000E+00  0.0000000000E+00  0.0000000000E+00
                       0.0000000000E+00  0.0000000000E+00  0.0000000000E+00
                       0.0000000000E+00  0.0000000000E+00  0.0000000000E+00
                       0.0000000000E+00  0.0000000000E+00  0.0000000000E+00
                       0.0000000000E+00  0.0000000000E+00  0.0000000000E+00
                       0.0000000000E+00  0.0000000000E+00  0.0000000000E+00
                       0.0000000000E+00  0.0000000000E+00  0.0000000000E+00
                       0.0000000000E+00  0.0000000000E+00  0.0000000000E+00
                       0.0000000000E+00  0.0000000000E+00  0.0000000000E+00
-          fftalg         512
           irdden           1
           irdwfk           1
           istwfk        1
              ixc     -116133
              kpt      5.00000000E-01  5.00000000E-01  5.00000000E-01
           kptopt           0
P           mkmem           1
P          mkqmem           1
P          mk1mem           1
            natom          10
            nband          51
           nbdbuf           4
            ngfft          80      80      80
             nkpt           1
            nstep        2000
             nsym          48
           ntypat           4
              occ      2.000000  2.000000  2.000000  2.000000  2.000000  2.000000
                       2.000000  2.000000  2.000000  2.000000  2.000000  2.000000
                       2.000000  2.000000  2.000000  2.000000  2.000000  2.000000
                       2.000000  2.000000  2.000000  2.000000  2.000000  2.000000
                       2.000000  2.000000  2.000000  2.000000  2.000000  2.000000
                       2.000000  2.000000  2.000000  2.000000  2.000000  2.000000
                       2.000000  2.000000  2.000000  2.000000  2.000000  2.000000
                       0.000000  0.000000  0.000000  0.000000  0.000000  0.000000
                       0.000000  0.000000  0.000000
        optdriver           1
            prtwf          -1
            rfdir           1       1       1
           rfelfd           2
            rprim      1.2613848820E+01  0.0000000000E+00  7.2826090119E+00
                       4.2046162734E+00  1.1892450717E+01  7.2826090119E+00
                       0.0000000000E+00  0.0000000000E+00  1.4565218024E+01
          spgroup         225
           strten      0.0000000000E+00  0.0000000000E+00  0.0000000000E+00
                       0.0000000000E+00  0.0000000000E+00  0.0000000000E+00
           symrel      1  0  0   0  1  0   0  0  1      -1  0  0   0 -1  0   0  0 -1
                       0 -1  1   0 -1  0   1 -1  0       0  1 -1   0  1  0  -1  1  0
                      -1  0  0  -1  0  1  -1  1  0       1  0  0   1  0 -1   1 -1  0
                       0  1 -1   1  0 -1   0  0 -1       0 -1  1  -1  0  1   0  0  1
                      -1  0  0  -1  1  0  -1  0  1       1  0  0   1 -1  0   1  0 -1
                       0 -1  1   1 -1  0   0 -1  0       0  1 -1  -1  1  0   0  1  0
                       1  0  0   0  0  1   0  1  0      -1  0  0   0  0 -1   0 -1  0
                       0  1 -1   0  0 -1   1  0 -1       0 -1  1   0  0  1  -1  0  1
                      -1  0  1  -1  1  0  -1  0  0       1  0 -1   1 -1  0   1  0  0
                       0 -1  0   1 -1  0   0 -1  1       0  1  0  -1  1  0   0  1 -1
                       1  0 -1   0  0 -1   0  1 -1      -1  0  1   0  0  1   0 -1  1
                       0  1  0   0  0  1   1  0  0       0 -1  0   0  0 -1  -1  0  0
                       1  0 -1   0  1 -1   0  0 -1      -1  0  1   0 -1  1   0  0  1
                       0 -1  0   0 -1  1   1 -1  0       0  1  0   0  1 -1  -1  1  0
                      -1  0  1  -1  0  0  -1  1  0       1  0 -1   1  0  0   1 -1  0
                       0  1  0   1  0  0   0  0  1       0 -1  0  -1  0  0   0  0 -1
                       0  0 -1   0  1 -1   1  0 -1       0  0  1   0 -1  1  -1  0  1
                       1 -1  0   0 -1  1   0 -1  0      -1  1  0   0  1 -1   0  1  0
                       0  0  1   1  0  0   0  1  0       0  0 -1  -1  0  0   0 -1  0
                      -1  1  0  -1  0  0  -1  0  1       1 -1  0   1  0  0   1  0 -1
                       0  0  1   0  1  0   1  0  0       0  0 -1   0 -1  0  -1  0  0
                       1 -1  0   0 -1  0   0 -1  1      -1  1  0   0  1  0   0  1 -1
                       0  0 -1   1  0 -1   0  1 -1       0  0  1  -1  0  1   0 -1  1
                      -1  1  0  -1  0  1  -1  0  0       1 -1  0   1  0 -1   1  0  0
           tolwfr      1.00000000E-20
            typat      1  1  2  3  4  4  4  4  4  4
           useylm           1
           xangst      6.6749613082E+00  4.7199104052E+00  1.1561372124E+01
                       2.2249871027E+00  1.5733034684E+00  3.8537907082E+00
                       0.0000000000E+00  0.0000000000E+00  0.0000000000E+00
                       4.4499742055E+00  3.1466069368E+00  7.7075814163E+00
                       5.5828352888E+00  1.5444994285E+00  5.7454084621E+00
                       3.3171131222E+00  4.7487144451E+00  5.7454084621E+00
                       5.5828352888E+00  1.5444994285E+00  9.6697543705E+00
                       6.7156963721E+00  4.7487144451E+00  7.7075814163E+00
                       2.1842520389E+00  1.5444994285E+00  7.7075814163E+00
                       3.3171131222E+00  4.7487144451E+00  9.6697543705E+00
            xcart      1.2613848820E+01  8.9193380377E+00  2.1847827036E+01
                       4.2046162734E+00  2.9731126792E+00  7.2826090119E+00
                       0.0000000000E+00  0.0000000000E+00  0.0000000000E+00
                       8.4092325468E+00  5.9462253585E+00  1.4565218024E+01
                       1.0550029741E+01  2.9186809323E+00  1.0857248515E+01
                       6.2684353527E+00  8.9737697846E+00  1.0857248515E+01
                       1.0550029741E+01  2.9186809323E+00  1.8273187533E+01
                       1.2690826935E+01  8.9737697846E+00  1.4565218024E+01
                       4.1276381587E+00  2.9186809323E+00  1.4565218024E+01
                       6.2684353527E+00  8.9737697846E+00  1.8273187533E+01
             xred      7.5000000000E-01  7.5000000000E-01  7.5000000000E-01
                       2.5000000000E-01  2.5000000000E-01  2.5000000000E-01
                       0.0000000000E+00  0.0000000000E+00  0.0000000000E+00
                       5.0000000000E-01  5.0000000000E-01  5.0000000000E-01
                       7.5457700000E-01  2.4542300000E-01  2.4542300000E-01
                       2.4542300000E-01  7.5457700000E-01  2.4542300000E-01
                       7.5457700000E-01  2.4542300000E-01  7.5457700000E-01
                       7.5457700000E-01  7.5457700000E-01  2.4542300000E-01
                       2.4542300000E-01  2.4542300000E-01  7.5457700000E-01
                       2.4542300000E-01  7.5457700000E-01  7.5457700000E-01
            znucl       55.00000   20.00000   50.00000   17.00000

- Timing analysis has been suppressed with timopt=0

 Suggested references for the acknowledgment of ABINIT usage.

 Calculation completed.
.Delivered   2 WARNINGs and   5 COMMENTs to log file.