.Version 9.5.1 of ABINIT

 ABINIT is a project of the Universite Catholique de Louvain,
 Corning Inc. and other collaborators, see ~abinit/doc/developers/contributors.txt .
 acknowledgments of the ABINIT effort.

.Starting date : Tue 11 May 2021.
- ( at 21h15 )

- input  file    -> /scratch/users/j/a/jabreu/flow_simple_8atoms/flow/w277/t1/run.abi
- output file    -> /scratch/users/j/a/jabreu/flow_simple_8atoms/flow/w277/t1/run.abo
- root for input  files -> /scratch/users/j/a/jabreu/flow_simple_8atoms/flow/w277/t1/indata/in
- root for output files -> /scratch/users/j/a/jabreu/flow_simple_8atoms/flow/w277/t1/outdata/out

 Symmetries : space group R-3 (#148); Bravais hR (rhombohedral)
     intxc =       0      iscf =       7    lmnmax =      18     lnmax =       6
     mgfft =      60  mpssoang =       3    mqgrid =    3001     natom =       8
  nloc_mem =       1    nspden =       1   nspinor =       1    nsppol =       1
      nsym =       6    n1xccc =    2501    ntypat =       3    occopt =       1
   xclevel =       2
-    mband =          34        mffmem =           1         mkmem =           1
-   mkqmem =           1        mk1mem =           1           mpw =        7895
      nfft =      216000          nkpt =           1
  Rough estimation (10% accuracy) of disk space for files :

------------- Echo of variables that govern the present computation ------------
-
- outvars: echo of selected default values
-   iomode0 =  0 , fftalg0 =512 , wfoptalg0 =  0
-
- outvars: echo of global parameters not present in the input file
-  max_nthreads =    0
-
 -outvars: echo values of preprocessed input variables --------
            acell      1.0000000000E+00  1.0000000000E+00  1.0000000000E+00 Bohr
              amu      6.94100000E+00  3.09737620E+01  1.89984032E+01
             ecut      4.20000000E+01 Hartree
-          fftalg         512
           irdden           1
           irdwfk           1
           istwfk        1
              ixc     -116133
           kptopt           0
P           mkmem           1
P          mkqmem           1
P          mk1mem           1
            natom           8
            nband          34
           nbdbuf           4
            ngfft          60      60      60
             nkpt           1
            nstep        2000
             nsym           6
           ntypat           3
              occ      2.000000  2.000000  2.000000  2.000000  2.000000  2.000000
                       2.000000  2.000000  2.000000  2.000000  2.000000  2.000000
                       2.000000  2.000000  2.000000  2.000000  2.000000  2.000000
                       2.000000  2.000000  2.000000  2.000000  2.000000  2.000000
                       2.000000  0.000000  0.000000  0.000000  0.000000  0.000000
                       0.000000  0.000000  0.000000  0.000000
        optdriver           1
            prtwf          -1
            rfdir           1       1       1
           rfelfd           2
            rprim      8.1912925755E+00  0.0000000000E+00  5.0911776261E+00
                       2.8300823525E+00  7.6868659372E+00  5.0911776261E+00
                       0.0000000000E+00  0.0000000000E+00  9.6445509838E+00
          spgroup         148
           symrel      1  0  0   0  1  0   0  0  1      -1  0  0   0 -1  0   0  0 -1
                       0  0  1   1  0  0   0  1  0       0  0 -1  -1  0  0   0 -1  0
                       0  1  0   0  0  1   1  0  0       0 -1  0   0  0 -1  -1  0  0
           tolwfr      1.00000000E-20
            typat      1  2  3  3  3  3  3  3
           useylm           1
           xangst      2.9161302096E+00  2.0338571297E+00  5.2459734485E+00
                       0.0000000000E+00  0.0000000000E+00  0.0000000000E+00
                       1.9797161872E+00  2.8188975078E+00  6.8844812803E+00
                       4.3044138034E+00  3.5324193338E+00  5.3155975487E+00
                       4.0896416299E+00  8.8387769915E-01  6.4618212132E+00
                       1.5278466158E+00  5.3529492569E-01  5.1763493482E+00
                       1.7426187893E+00  3.1838365603E+00  4.0301256837E+00
                       3.8525442320E+00  1.2488167517E+00  3.6074656166E+00
            xcart      5.5106874640E+00  3.8434329686E+00  9.9134531180E+00
                       0.0000000000E+00  0.0000000000E+00  0.0000000000E+00
                       3.7411214147E+00  5.3269442864E+00  1.3009784187E+01
                       8.1341632510E+00  6.6753051273E+00  1.0045023600E+01
                       7.7283026622E+00  1.6702867864E+00  1.2211072413E+01
                       2.8872116770E+00  1.0115608099E+00  9.7818826363E+00
                       3.2930722658E+00  6.0165791508E+00  7.6158338233E+00
                       7.2802535133E+00  2.3599216508E+00  6.8171220493E+00
             xred      5.0000000000E-01  5.0000000000E-01  5.0000000000E-01
                       0.0000000000E+00  0.0000000000E+00  0.0000000000E+00
                       2.1729100000E-01  6.9299300000E-01  8.6840400000E-01
                       6.9299300000E-01  8.6840400000E-01  2.1729100000E-01
                       8.6840400000E-01  2.1729100000E-01  6.9299300000E-01
                       3.0700700000E-01  1.3159600000E-01  7.8270900000E-01
                       1.3159600000E-01  7.8270900000E-01  3.0700700000E-01
                       7.8270900000E-01  3.0700700000E-01  1.3159600000E-01
            znucl        3.00000   15.00000    9.00000

 chkinp: Checking input parameters for consistency.

== DATASET  1 ==================================================================
-   mpi_nproc: 1, omp_nthreads: -1 (-1 if OMP is not activated)

--- !DatasetInfo
iteration_state: {dtset: 1, }
dimensions: {natom: 8, nkpt: 1, mband: 34, nsppol: 1, nspinor: 1, nspden: 1, mpw: 7895, }
cutoff_energies: {ecut:  42.0, pawecutdg:  -1.0, }
electrons: {nelect:   5.00000000E+01, charge:   0.00000000E+00, occopt:   1.00000000E+00, tsmear:   1.00000000E-02, }
meta: {optdriver: 1, rfelfd: 2, }
...

 Real(R)+Recip(G) space primitive vectors, cartesian coordinates (Bohr,Bohr^-1):
 R(1)=  8.1912926  0.0000000  5.0911776  G(1)=  0.1220809 -0.0449466  0.0000000
 R(2)=  2.8300824  7.6868659  5.0911776  G(2)=  0.0000000  0.1300920  0.0000000
 R(3)=  0.0000000  0.0000000  9.6445510  G(3)= -0.0644442 -0.0449466  0.1036855
 Unit cell volume ucvol=  6.0727270E+02 bohr^3
 Angles (23,13,12)=  5.81375891E+01  5.81375891E+01  5.81375891E+01 degrees

 getcut: wavevector=  0.0000  0.0000  0.0000  ngfft=  60  60  60
         ecut(hartree)=     42.000   => boxcut(ratio)=   2.13252

--- Pseudopotential description ------------------------------------------------
- pspini: atom type   1  psp file is /scratch/users/j/a/jabreu/pseudos/PBEsol/Li.psp8
- pspatm: opening atomic psp file    /scratch/users/j/a/jabreu/pseudos/PBEsol/Li.psp8
- Li    ONCVPSP-3.3.0  r_core=   1.40824   1.10935
-  3.00000   3.00000    180112                znucl, zion, pspdat
    8 -116133    1    4       400   0.00000   pspcod,pspxc,lmax,lloc,mmax,r2well
    3.99000000000000    0.00000000000000    0.00000000000000   rchrg,fchrg,qchrg
     nproj     2     2
     extension_switch     1
  pspatm : epsatm=    2.60859637
         --- l  ekb(1:nproj) -->
             0   -4.855856   -1.482423
             1   -2.171544   -0.427615
 pspatm: atomic psp has been read  and splines computed

- pspini: atom type   2  psp file is /scratch/users/j/a/jabreu/pseudos/PBEsol/P.psp8
- pspatm: opening atomic psp file    /scratch/users/j/a/jabreu/pseudos/PBEsol/P.psp8
- P     ONCVPSP-3.3.0  r_core=   1.46089   1.55067   1.70594
- 15.00000   5.00000    180112                znucl, zion, pspdat
    8 -116133    2    4       600   0.00000   pspcod,pspxc,lmax,lloc,mmax,r2well
    5.99000000000000    5.00000000000000    0.00000000000000   rchrg,fchrg,qchrg
     nproj     2     2     2
     extension_switch     1
  pspatm : epsatm=    7.31221086
         --- l  ekb(1:nproj) -->
             0    6.742364    1.063650
             1    3.449117    0.910422
             2   -3.077645   -0.799176
 pspatm: atomic psp has been read  and splines computed

- pspini: atom type   3  psp file is /scratch/users/j/a/jabreu/pseudos/PBEsol/F.psp8
- pspatm: opening atomic psp file    /scratch/users/j/a/jabreu/pseudos/PBEsol/F.psp8
- F     ONCVPSP-3.3.0  r_core=   1.30942   1.45782   1.60379
-  9.00000   7.00000    180112                znucl, zion, pspdat
    8 -116133    2    4       600   0.00000   pspcod,pspxc,lmax,lloc,mmax,r2well
    5.99000000000000    2.50000000000000    0.00000000000000   rchrg,fchrg,qchrg
     nproj     2     2     1
     extension_switch     1
  pspatm : epsatm=    4.89824824
         --- l  ekb(1:nproj) -->
             0    6.506434    1.065875
             1   -3.978753   -1.295852
             2   -2.394754
 pspatm: atomic psp has been read  and splines computed

   1.96551483E+03                                ecore*ucvol(ha*bohr**3)

-inwffil : will read wavefunctions from disk file /scratch/users/j/a/jabreu/flow_simple_8atoms/flow/w277/t1/indata/in_WFK

 ==>  initialize data related to q vector <==

 The list of irreducible perturbations for this q vector is:
    1)    idir= 1    ipert=   9
    2)    idir= 2    ipert=   9
    3)    idir= 3    ipert=   9

 Perturbation wavevector (in red.coord.)   0.000000  0.000000  0.000000
 Perturbation : derivative vs k along direction   1

 dfpt_looppert : COMMENT -
  In a d/dk calculation, iscf is set to -3 automatically.
 The set of symmetries contains only one element for this perturbation.
 symkpt : not enough symmetry to change the number of k points.

[...]

 Initialisation of the first-order wave-functions :
  ireadwf=   0

--- !BeginCycle
iteration_state: {dtset: 1, }
solver: {iscf: 7, nstep: 2000, nline: 4, wfoptalg: 0, }
tolerances: {tolwfr: 1.00E-20, }
...

     iter   2DEtotal(Ha)        deltaE(Ha) residm    vres2
-ETOT  1  -36.177213870152     -3.618E+01 8.318E-02 0.000E+00
 ETOT  2  -36.208281028179     -3.107E-02 9.976E-04 0.000E+00
 ETOT  3  -36.208329937152     -4.891E-05 1.581E-05 0.000E+00
 ETOT  4  -36.208330087523     -1.504E-07 1.034E-06 0.000E+00
 ETOT  5  -36.208330088138     -6.151E-10 2.387E-08 0.000E+00
 ETOT  6  -36.208330088141     -3.041E-12 1.769E-09 0.000E+00
 ETOT  7  -36.208330088141     -5.684E-14 5.035E-11 0.000E+00
 ETOT  8  -36.208330088141      2.132E-14 3.617E-12 0.000E+00
 ETOT  9  -36.208330088141      0.000E+00 1.244E-13 0.000E+00
 ETOT 10  -36.208330088141      7.105E-15 8.045E-15 0.000E+00
 ETOT 11  -36.208330088141     -7.105E-15 3.190E-16 0.000E+00
 ETOT 12  -36.208330088141      0.000E+00 1.871E-17 0.000E+00
 ETOT 13  -36.208330088141      0.000E+00 8.327E-19 0.000E+00
 ETOT 14  -36.208330088141      0.000E+00 4.489E-20 0.000E+00
 ETOT 15  -36.208330088141      0.000E+00 9.957E-21 0.000E+00

 At SCF step   15   max residual=  9.96E-21 < tolwfr=  1.00E-20 =>converged.

 ----iterations are completed or convergence reached----

 dfpt_looppert: DFPT cycle converged with prtwf=-1. Will skip output of the 1st-order WFK file.
 dfpt_looppert : ek2=    6.6813023144E+01
          f-sum rule ratio=    1.0471609737E+00
 prteigrs : about to open file /scratch/users/j/a/jabreu/flow_simple_8atoms/flow/w277/t1/tmpdata/tmp_1WF1_EIG
 Expectation of eigenvalue derivatives (hartree) for nkpt=   1  k points:
  (in case of degenerate eigenvalues, averaged derivative)
 kpt#   1, nband= 34, wtk=  1.00000, kpt=  0.0000  0.0000  0.0000 (reduced coord)
  -0.00000   -0.00000   -0.00000   -0.00000   -0.00000    0.00000    0.00000    0.00000
   0.00000    0.00000   -0.00000    0.00000    0.00000    0.00000    0.00000    0.00000
  -0.00000   -0.00000   -0.00000   -0.00000   -0.00000   -0.00000    0.00000   -0.00000
  -0.00000   -0.00000   -0.00000    0.00000    0.00000    0.00000   -0.00000   -0.01330
  -0.00110    0.02392

 Eight components of 2nd-order total energy (hartree) are
 1,2,3: 0th-order hamiltonian combined with 1st-order wavefunctions
     kin0=   4.56534520E+01 eigvalue=   3.30301712E+00  local=  -1.85158429E+01
 4,5,6: 1st-order hamiltonian combined with 1st and 0th-order wfs
     kin1=  -6.99639904E+01  Hartree=   0.00000000E+00     xc=   0.00000000E+00
 7,8,9: eventually, occupation + non-local contributions
    edocc=   6.70250336E+00     enl0=  -9.34799488E-01   enl1=  -2.45266980E+00
 1-9 gives the relaxation energy (to be shifted if some occ is /=2.0)
   erelax=  -3.62083301E+01
  No Ewald or frozen-wf contrib.: the relaxation energy is the total one
 2DEtotal=   -0.3620833009E+02 Ha. Also 2DEtotal=   -0.985278768958E+03 eV
    (  non-var. 2DEtotal :   -3.6208330088E+01 Ha)

 Perturbation wavevector (in red.coord.)   0.000000  0.000000  0.000000
 Perturbation : derivative vs k along direction   2
 The set of symmetries contains only one element for this perturbation.
 symkpt : not enough symmetry to change the number of k points.

[...]

 Perturbation wavevector (in red.coord.)   0.000000  0.000000  0.000000
 Perturbation : derivative vs k along direction   3
 The set of symmetries contains only one element for this perturbation.
 symkpt : not enough symmetry to change the number of k points.

-inwffil : will read wavefunctions from disk file /scratch/users/j/a/jabreu/flow_simple_8atoms/flow/w277/t1/indata/in_WFK

 Initialisation of the first-order wave-functions :
  ireadwf=   0

--- !BeginCycle
iteration_state: {dtset: 1, }
solver: {iscf: 7, nstep: 2000, nline: 4, wfoptalg: 0, }
tolerances: {tolwfr: 1.00E-20, }
...

     iter   2DEtotal(Ha)        deltaE(Ha) residm    vres2
-ETOT  1  -36.181267819278     -3.618E+01 6.888E-02 0.000E+00
 ETOT  2  -36.208376459365     -2.711E-02 1.185E-03 0.000E+00
 ETOT  3  -36.208422904360     -4.644E-05 2.136E-05 0.000E+00
 ETOT  4  -36.208423057205     -1.528E-07 1.345E-06 0.000E+00
 ETOT  5  -36.208423057887     -6.824E-10 4.304E-08 0.000E+00
 ETOT  6  -36.208423057891     -3.659E-12 2.728E-09 0.000E+00
 ETOT  7  -36.208423057891     -1.421E-14 1.104E-10 0.000E+00
 ETOT  8  -36.208423057891      2.132E-14 6.763E-12 0.000E+00
 ETOT  9  -36.208423057891     -1.421E-14 3.107E-13 0.000E+00
 ETOT 10  -36.208423057891      7.105E-15 1.865E-14 0.000E+00
 ETOT 11  -36.208423057891      0.000E+00 9.091E-16 0.000E+00
 ETOT 12  -36.208423057891     -7.105E-15 5.432E-17 0.000E+00
 ETOT 13  -36.208423057891      1.421E-14 2.735E-18 0.000E+00
 ETOT 14  -36.208423057891      0.000E+00 1.640E-19 0.000E+00
 ETOT 15  -36.208423057891     -1.421E-14 9.545E-21 0.000E+00

 At SCF step   15   max residual=  9.55E-21 < tolwfr=  1.00E-20 =>converged.

 ----iterations are completed or convergence reached----

 dfpt_looppert: DFPT cycle converged with prtwf=-1. Will skip output of the 1st-order WFK file.
 dfpt_looppert : ek2=    6.6813023143E+01
          f-sum rule ratio=    1.0471644442E+00
 prteigrs : about to open file /scratch/users/j/a/jabreu/flow_simple_8atoms/flow/w277/t1/tmpdata/tmp_1WF1_EIG
 Expectation of eigenvalue derivatives (hartree) for nkpt=   1  k points:
  (in case of degenerate eigenvalues, averaged derivative)
 kpt#   1, nband= 34, wtk=  1.00000, kpt=  0.0000  0.0000  0.0000 (reduced coord)
   0.00000    0.00000    0.00000    0.00000    0.00000    0.00000    0.00000   -0.00000
  -0.00000   -0.00000    0.00000    0.00000   -0.00000   -0.00000   -0.00000   -0.00000
  -0.00000   -0.00000   -0.00000   -0.00000    0.00000    0.00000   -0.00000    0.00000
   0.00000    0.00000    0.00000    0.00000    0.00000    0.00000    0.00000    0.00407
  -0.00534   -0.01155

 Eight components of 2nd-order total energy (hartree) are
 1,2,3: 0th-order hamiltonian combined with 1st-order wavefunctions
     kin0=   4.55779761E+01 eigvalue=   3.28922316E+00  local=  -1.84779846E+01
 4,5,6: 1st-order hamiltonian combined with 1st and 0th-order wfs
     kin1=  -6.99642222E+01  Hartree=   0.00000000E+00     xc=   0.00000000E+00
 7,8,9: eventually, occupation + non-local contributions
    edocc=   6.75225963E+00     enl0=  -9.33051215E-01   enl1=  -2.45262387E+00
 1-9 gives the relaxation energy (to be shifted if some occ is /=2.0)
   erelax=  -3.62084231E+01
  No Ewald or frozen-wf contrib.: the relaxation energy is the total one
 2DEtotal=   -0.3620842306E+02 Ha. Also 2DEtotal=   -0.985281298794E+03 eV
    (  non-var. 2DEtotal :   -3.6208423058E+01 Ha)

 CALCULATION OF EFFECTIVE MASSES
 NOTE : Additional infos (eff. mass eigenvalues, eigenvectors and, if degenerate, average mass) are available in stdout.

 COMMENTS:
 - At k-point ( 0.000, 0.000, 0.000), bands    24 through    25
   are DEGENERATE (effective mass tensor is therefore not defined).
   See Section IIIB Eqs. (67)-(70) and Appendix E of PRB 93 205147 (2016).
 - Angular average effective mass for Frohlich model is to be averaged over degenerate bands. See later.
 - Associated theta integrals calculated with ntheta=   1000 points.

 K-point ( 0.000, 0.000, 0.000) | band =    24
 Transport equivalent effective mass tensor:
            -11.1704319874              0.7328903831              1.8878460725
              0.7328903831            -11.7090263750              1.3156348883
              1.8878460725              1.3156348883             -8.8235081306
 Transport equivalent effective mass tensor eigenvalues:
            -12.2208702888            -12.2181846374             -7.2639115668
 Angular average effective mass 1/(<1/m>)=  -9.7168812343
 Angular average effective mass for Frohlich model (<m**0.5>)**2=  -9.9293884814
 Effective masses along directions: (cart. coord. / red. coord. -> eff. mass)
    1:   1.000000  0.000000  0.000000 /   0.945177  0.326558  0.000000 -> -10.3290210677
    2:   0.000000  1.000000  0.000000 /   0.000000  1.000000  0.000000 -> -10.6271779204
    3:   0.000000  0.000000  1.000000 /   0.423007  0.423007  0.801330 ->  -7.7314484133
    4:   0.577350  0.577350  0.577350 /   0.586404  0.689079  0.425795 ->  -7.4072742065
    5:   0.000000  0.707107  0.707107 /   0.303059  0.760630  0.574105 ->  -8.5124838336
    6:   0.707107  0.000000  0.707107 /   0.728764  0.434613  0.529164 ->  -7.3588452833
    7:   0.707107  0.707107  0.000000 /   0.614475  0.788936  0.000000 -> -10.1828009709

 K-point ( 0.000, 0.000, 0.000) | band =    25
 Transport equivalent effective mass tensor:
            -33.6729931544              4.7873370719             12.3398227508
              4.7873370719            -37.2190343522              8.6150061568
             12.3398227508              8.6150061568            -18.3322339004
 Transport equivalent effective mass tensor eigenvalues:
            -40.5587710146            -40.5320539433             -8.1334364490
 Angular average effective mass 1/(<1/m>)= -15.9075645933
 Angular average effective mass for Frohlich model (<m**0.5>)**2= -19.5938417688
 Effective masses along directions: (cart. coord. / red. coord. -> eff. mass)
    1:   1.000000  0.000000  0.000000 /   0.945177  0.326558  0.000000 -> -20.6197108465
    2:   0.000000  1.000000  0.000000 /   0.000000  1.000000  0.000000 -> -30.3961798660
    3:   0.000000  0.000000  1.000000 /   0.423007  0.423007  0.801330 -> -10.4515510510
    4:   0.577350  0.577350  0.577350 /   0.586404  0.689079  0.425795 ->  -8.3394344810
    5:   0.000000  0.707107  0.707107 /   0.303059  0.760630  0.574105 ->  -9.6847171192
    6:   0.707107  0.000000  0.707107 /   0.728764  0.434613  0.529164 ->  -8.8188418929
    7:   0.707107  0.707107  0.000000 /   0.614475  0.788936  0.000000 -> -15.9190108094

 Angular average effective mass for Frohlich model, averaged over degenerate bands.
 Value of     (<<m**0.5>>)**2 =     1.435495E+01
 Absolute Value of <<m**0.5>> =     3.788793E+00

 K-point ( 0.000, 0.000, 0.000) | band =    26
 Effective mass tensor:
              0.8217200270             -0.0069484653             -0.0179268534
             -0.0069484653              0.8268347367             -0.0125004911
             -0.0179268534             -0.0125004911              0.7994409692
 Effective mass tensor eigenvalues:
              0.7846282866              0.8316808289              0.8316866175
 Angular average effective mass 1/(<1/m>)=   0.8153837590
 Angular average effective mass for Frohlich model (<m**0.5>)**2=   0.8155700230
 Effective masses along directions: (cart. coord. / red. coord. -> eff. mass)
    1:   1.000000  0.000000  0.000000 /   0.945177  0.326558  0.000000 ->   0.8212548169
    2:   0.000000  1.000000  0.000000 /   0.000000  1.000000  0.000000 ->   0.8265756487
    3:   0.000000  0.000000  1.000000 /   0.423007  0.423007  0.801330 ->   0.7988562587
    4:   0.577350  0.577350  0.577350 /   0.586404  0.689079  0.425795 ->   0.7907638700
    5:   0.000000  0.707107  0.707107 /   0.303059  0.760630  0.574105 ->   0.8000280547
    6:   0.707107  0.000000  0.707107 /   0.728764  0.434613  0.529164 ->   0.7922733650
    7:   0.707107  0.707107  0.000000 /   0.614475  0.788936  0.000000 ->   0.8167413560

 END OF EFFECTIVE MASSES SECTION

 ---- first-order wavefunction calculations are completed ----

 Total localisation tensor (bohr^2) in cartesian coordinates
  WARNING : still subject to testing - especially symmetries.
      direction              matrix element
   alpha     beta       real part   imaginary part
     1        1       0.5674324832    0.0000000000
     1        2       0.1643553737    0.0000000000
     1        3       0.4239257815    0.0000000000
     2        1       0.1643553737    0.0000000000
     2        2       0.4464102335    0.0000000000
     2        3       0.2956671563    0.0000000000
     3        1       0.4239257815    0.0000000000
     3        2       0.2956671563    0.0000000000
     3        3       1.0944070426    0.0000000000

 respfn : d/dk was computed, but no 2DTE, so no DDB output.

== END DATASET(S) ==============================================================

 -outvars: echo values of variables after computation  --------
            acell      1.0000000000E+00  1.0000000000E+00  1.0000000000E+00 Bohr
              amu      6.94100000E+00  3.09737620E+01  1.89984032E+01
             ecut      4.20000000E+01 Hartree
           etotal     -3.6208423058E+01
            fcart      0.0000000000E+00  0.0000000000E+00  0.0000000000E+00
                       0.0000000000E+00  0.0000000000E+00  0.0000000000E+00
                       0.0000000000E+00  0.0000000000E+00  0.0000000000E+00
                       0.0000000000E+00  0.0000000000E+00  0.0000000000E+00
                       0.0000000000E+00  0.0000000000E+00  0.0000000000E+00
                       0.0000000000E+00  0.0000000000E+00  0.0000000000E+00
                       0.0000000000E+00  0.0000000000E+00  0.0000000000E+00
                       0.0000000000E+00  0.0000000000E+00  0.0000000000E+00
-          fftalg         512
           irdden           1
           irdwfk           1
           istwfk        1
              ixc     -116133
           kptopt           0
P           mkmem           1
P          mkqmem           1
P          mk1mem           1
            natom           8
            nband          34
           nbdbuf           4
            ngfft          60      60      60
             nkpt           1
            nstep        2000
             nsym           6
           ntypat           3
              occ      2.000000  2.000000  2.000000  2.000000  2.000000  2.000000
                       2.000000  2.000000  2.000000  2.000000  2.000000  2.000000
                       2.000000  2.000000  2.000000  2.000000  2.000000  2.000000
                       2.000000  2.000000  2.000000  2.000000  2.000000  2.000000
                       2.000000  0.000000  0.000000  0.000000  0.000000  0.000000
                       0.000000  0.000000  0.000000  0.000000
        optdriver           1
            prtwf          -1
            rfdir           1       1       1
           rfelfd           2
            rprim      8.1912925755E+00  0.0000000000E+00  5.0911776261E+00
                       2.8300823525E+00  7.6868659372E+00  5.0911776261E+00
                       0.0000000000E+00  0.0000000000E+00  9.6445509838E+00
          spgroup         148
           strten      0.0000000000E+00  0.0000000000E+00  0.0000000000E+00
                       0.0000000000E+00  0.0000000000E+00  0.0000000000E+00
           symrel      1  0  0   0  1  0   0  0  1      -1  0  0   0 -1  0   0  0 -1
                       0  0  1   1  0  0   0  1  0       0  0 -1  -1  0  0   0 -1  0
                       0  1  0   0  0  1   1  0  0       0 -1  0   0  0 -1  -1  0  0
           tolwfr      1.00000000E-20
            typat      1  2  3  3  3  3  3  3
           useylm           1
           xangst      2.9161302096E+00  2.0338571297E+00  5.2459734485E+00
                       0.0000000000E+00  0.0000000000E+00  0.0000000000E+00
                       1.9797161872E+00  2.8188975078E+00  6.8844812803E+00
                       4.3044138034E+00  3.5324193338E+00  5.3155975487E+00
                       4.0896416299E+00  8.8387769915E-01  6.4618212132E+00
                       1.5278466158E+00  5.3529492569E-01  5.1763493482E+00
                       1.7426187893E+00  3.1838365603E+00  4.0301256837E+00
                       3.8525442320E+00  1.2488167517E+00  3.6074656166E+00
            xcart      5.5106874640E+00  3.8434329686E+00  9.9134531180E+00
                       0.0000000000E+00  0.0000000000E+00  0.0000000000E+00
                       3.7411214147E+00  5.3269442864E+00  1.3009784187E+01
                       8.1341632510E+00  6.6753051273E+00  1.0045023600E+01
                       7.7283026622E+00  1.6702867864E+00  1.2211072413E+01
                       2.8872116770E+00  1.0115608099E+00  9.7818826363E+00
                       3.2930722658E+00  6.0165791508E+00  7.6158338233E+00
                       7.2802535133E+00  2.3599216508E+00  6.8171220493E+00
             xred      5.0000000000E-01  5.0000000000E-01  5.0000000000E-01
                       0.0000000000E+00  0.0000000000E+00  0.0000000000E+00
                       2.1729100000E-01  6.9299300000E-01  8.6840400000E-01
                       6.9299300000E-01  8.6840400000E-01  2.1729100000E-01
                       8.6840400000E-01  2.1729100000E-01  6.9299300000E-01
                       3.0700700000E-01  1.3159600000E-01  7.8270900000E-01
                       1.3159600000E-01  7.8270900000E-01  3.0700700000E-01
                       7.8270900000E-01  3.0700700000E-01  1.3159600000E-01
            znucl        3.00000   15.00000    9.00000

- Timing analysis has been suppressed with timopt=0

 Suggested references for the acknowledgment of ABINIT usage.

 Calculation completed.
.Delivered   6 WARNINGs and   5 COMMENTs to log file.