.Version 9.5.2 of ABINIT

 ABINIT is a project of the Universite Catholique de Louvain,
 Corning Inc. and other collaborators, see ~abinit/doc/developers/contributors.txt .
 acknowledgments of the ABINIT effort.

.Starting date : Mon 31 May 2021.
- ( at 22h10 )

- input  file    -> /scratch/users/j/a/jabreu/flow_simple_11atoms/flow/w338/t1/run.abi
- output file    -> /scratch/users/j/a/jabreu/flow_simple_11atoms/flow/w338/t1/run.abo
- root for input  files -> /scratch/users/j/a/jabreu/flow_simple_11atoms/flow/w338/t1/indata/in
- root for output files -> /scratch/users/j/a/jabreu/flow_simple_11atoms/flow/w338/t1/outdata/out

 Symmetries : space group I4_1/a (# 88); Bravais tI (body-center tetrag.)
     intxc =       0      iscf =       7    lmnmax =      18     lnmax =       6
     mgfft =      90  mpssoang =       3    mqgrid =    3007     natom =      12
  nloc_mem =       1    nspden =       1   nspinor =       1    nsppol =       1
      nsym =       8    n1xccc =    2501    ntypat =       3    occopt =       1
   xclevel =       2
-    mband =          57        mffmem =           1         mkmem =           2
-   mkqmem =           2        mk1mem =           2           mpw =       21009
      nfft =      729000          nkpt =           2
  Rough estimation (10% accuracy) of disk space for files :

------------- Echo of variables that govern the present computation ------------
-
- outvars: echo of selected default values
-   iomode0 =  0 , fftalg0 =512 , wfoptalg0 =  0
-
- outvars: echo of global parameters not present in the input file
-  max_nthreads =    0
-
 -outvars: echo values of preprocessed input variables --------
            acell      1.0000000000E+00  1.0000000000E+00  1.0000000000E+00 Bohr
              amu      8.54678000E+01  9.89062000E+01  1.59994000E+01
             ecut      4.40000000E+01 Hartree
-          fftalg         512
           irdden           1
           irdwfk           1
           istwfk        0    1
              ixc     -116133
              kpt      0.00000000E+00  0.00000000E+00  1.30434783E-01
                       0.00000000E+00  0.00000000E+00  0.00000000E+00
           kptopt           0
P           mkmem           2
P          mkqmem           2
P          mk1mem           2
            natom          12
            nband          57
           nbdbuf           4
            ngfft          90      90      90
             nkpt           2
            nstep        2000
             nsym           8
           ntypat           3
              occ      2.000000  2.000000  2.000000  2.000000  2.000000  2.000000
                       2.000000  2.000000  2.000000  2.000000  2.000000  2.000000
                       2.000000  2.000000  2.000000  2.000000  2.000000  2.000000
                       2.000000  2.000000  2.000000  2.000000  2.000000  2.000000
                       2.000000  2.000000  2.000000  2.000000  2.000000  2.000000
                       2.000000  2.000000  2.000000  2.000000  2.000000  2.000000
                       2.000000  2.000000  2.000000  2.000000  2.000000  2.000000
                       2.000000  2.000000  2.000000  2.000000  2.000000  2.000000
                       0.000000  0.000000  0.000000  0.000000  0.000000  0.000000
                       0.000000  0.000000  0.000000
        optdriver           1
            prtwf          -1
            rfdir           1       1       1
           rfelfd           2
            rprim      1.0209405999E+01  0.0000000000E+00 -1.0508157609E+01
                      -1.6811536663E+00  1.0070039384E+01 -1.0508157609E+01
                       0.0000000000E+00  0.0000000000E+00  1.4651052767E+01
          spgroup          88
           symrel      1  0  0   0  1  0   0  0  1      -1  0  0   0 -1  0   0  0 -1
                       0  1  0   1  0  0  -1 -1 -1       0 -1  0  -1  0  0   1  1  1
                      -1 -1 -1   0  0  1   1  0  0       1  1  1   0  0 -1  -1  0  0
                       0  0  1  -1 -1 -1   0  1  0       0  0 -1   1  1  1   0 -1  0
            tnons      0.0000000  0.0000000  0.0000000    -0.2500000  0.2500000  0.5000000
                       0.0000000  0.0000000 -0.0000000    -0.2500000  0.2500000  0.5000000
                       0.0000000  0.0000000 -0.0000000    -0.2500000  0.2500000  0.5000000
                       0.0000000  0.0000000 -0.0000000    -0.2500000  0.2500000  0.5000000
           tolwfr      1.00000000E-20
            typat      1  1  2  2  3  3  3  3  3  3  3  3
           useylm           1
              wtk        0.50000    0.50000
           xangst      2.2564783817E+00  2.6644176658E+00 -5.5606775109E+00
                       6.8342508868E-01  3.9966264987E+00 -1.6841759079E+00
                       3.8295316747E+00  1.3322088329E+00 -1.6841759079E+00
                      -2.4692142895E-17  1.4790489199E-16 -5.8471793860E-16
                       2.9093183485E+00  2.3263656778E+00 -2.7400013063E+00
                       4.4367103985E+00  4.5848886208E+00 -4.9145204523E+00
                       2.1891505876E+00  5.1206497251E+00 -7.1288243338E+00
                       2.1666551019E-02  1.1344997166E+00  3.2701292800E+00
                       3.8078651237E+00  1.9770911626E-01  2.7986980183E+00
                       7.5075288274E-01  1.5403944394E+00 -1.1602908494E-01
                       3.9057780396E+00  2.0761555437E+00 -1.3800727124E-01
                       3.0585121840E-02  4.3346784867E+00 -4.5048521124E+00
            xcart      4.2641261662E+00  5.0350196920E+00 -1.0508157609E+01
                       1.2914862499E+00  7.5525295380E+00 -3.1826312254E+00
                       7.2367660824E+00  2.5175098460E+00 -3.1826312255E+00
                      -4.6661387706E-17  2.7949973957E-16 -1.1049567689E-15
                       5.4978149121E+00  4.3961940160E+00 -5.1778520727E+00
                       8.3841675841E+00  8.6641838432E+00 -9.2870977294E+00
                       4.1368950743E+00  9.6766256029E+00 -1.3471525640E+01
                       4.0943847669E-02  2.1438937623E+00  6.1796487583E+00
                       7.1958222348E+00  3.7361608372E-01  5.2887727832E+00
                       1.4187173419E+00  2.9109236271E+00 -2.1926319399E-01
                       7.3808508307E+00  3.9233653868E+00 -2.6079594699E-01
                       5.7797504019E-02  8.1913552140E+00 -8.5129367616E+00
             xred      5.0000000000E-01  5.0000000000E-01 -4.8572257327E-17
                       2.5000000000E-01  7.5000000000E-01  5.0000000000E-01
                       7.5000000000E-01  2.5000000000E-01  5.0000000000E-01
                       0.0000000000E+00  2.7755575616E-17 -5.5511151231E-17
                       6.1039225000E-01  4.3656175000E-01  3.9749400000E-01
                       9.6289825000E-01  8.6039225000E-01  6.7383050000E-01
                       5.6343825000E-01  9.6093225000E-01  1.7383050000E-01
                       3.9067750000E-02  2.1289825000E-01  6.0250600000E-01
                       7.1093225000E-01  3.7101750000E-02  8.9749400000E-01
                       1.8656175000E-01  2.8906775000E-01  3.2616950000E-01
                       7.8710175000E-01  3.8960775000E-01  8.2616950000E-01
                       1.3960775000E-01  8.1343825000E-01  1.0250600000E-01
            znucl       37.00000   43.00000    8.00000

 chkinp: Checking input parameters for consistency.

== DATASET  1 ==================================================================
-   mpi_nproc: 1, omp_nthreads: -1 (-1 if OMP is not activated)

--- !DatasetInfo
iteration_state: {dtset: 1, }
dimensions: {natom: 12, nkpt: 2, mband: 57, nsppol: 1, nspinor: 1, nspden: 1, mpw: 21009, }
cutoff_energies: {ecut:  44.0, pawecutdg:  -1.0, }
electrons: {nelect:   9.60000000E+01, charge:   0.00000000E+00, occopt:   1.00000000E+00, tsmear:   1.00000000E-02, }
meta: {optdriver: 1, rfelfd: 2, }
...

 Real(R)+Recip(G) space primitive vectors, cartesian coordinates (Bohr,Bohr^-1):
 R(1)= 10.2094060  0.0000000-10.5081576  G(1)=  0.0979489  0.0163522  0.0000000
 R(2)= -1.6811537 10.0700394-10.5081576  G(2)=  0.0000000  0.0993045  0.0000000
 R(3)=  0.0000000  0.0000000 14.6510528  G(3)=  0.0702518  0.0829523  0.0682545
 Unit cell volume ucvol=  1.5062618E+03 bohr^3
 Angles (23,13,12)=  1.35826160E+02  1.35826160E+02  6.42492095E+01 degrees

 getcut: wavevector=  0.0000  0.0000  0.0000  ngfft=  90  90  90
         ecut(hartree)=     44.000   => boxcut(ratio)=   2.05742

--- Pseudopotential description ------------------------------------------------
- pspini: atom type   1  psp file is /scratch/users/j/a/jabreu/pseudos/PBEsol/Rb.psp8
- pspatm: opening atomic psp file    /scratch/users/j/a/jabreu/pseudos/PBEsol/Rb.psp8
- Rb    ONCVPSP-3.3.0  r_core=   1.71227   1.75361   1.90633
- 37.00000   9.00000    180112                znucl, zion, pspdat
    8 -116133    2    4       600   0.00000   pspcod,pspxc,lmax,lloc,mmax,r2well
    5.99000000000000    7.00000000000000    0.00000000000000   rchrg,fchrg,qchrg
     nproj     2     2     2
     extension_switch     1
  pspatm : epsatm=   34.48400912
         --- l  ekb(1:nproj) -->
             0    8.196957   -0.477221
             1    3.231347   -0.378736
             2   -1.047201    0.996637
 pspatm: atomic psp has been read  and splines computed

- pspini: atom type   2  psp file is /scratch/users/j/a/jabreu/pseudos/PBEsol/Tc.psp8
- pspatm: opening atomic psp file    /scratch/users/j/a/jabreu/pseudos/PBEsol/Tc.psp8
- Tc    ONCVPSP-3.3.0  r_core=   1.40470   1.40470   1.35532
- 43.00000  15.00000    180112                znucl, zion, pspdat
    8 -116133    2    4       600   0.00000   pspcod,pspxc,lmax,lloc,mmax,r2well
    5.99000000000000    5.00000000000000    0.00000000000000   rchrg,fchrg,qchrg
     nproj     2     2     2
     extension_switch     1
  pspatm : epsatm=   15.79243377
         --- l  ekb(1:nproj) -->
             0   14.505077    1.455651
             1    8.600877    1.229267
             2    1.994354    0.461147
 pspatm: atomic psp has been read  and splines computed

- pspini: atom type   3  psp file is /scratch/users/j/a/jabreu/pseudos/PBEsol/O.psp8
- pspatm: opening atomic psp file    /scratch/users/j/a/jabreu/pseudos/PBEsol/O.psp8
- O     ONCVPSP-3.3.0  r_core=   1.35509   1.45563   1.26150
-  8.00000   6.00000    180112                znucl, zion, pspdat
    8 -116133    2    4       600   0.00000   pspcod,pspxc,lmax,lloc,mmax,r2well
    5.99000000000000    4.00000000000000    0.00000000000000   rchrg,fchrg,qchrg
     nproj     2     2     1
     extension_switch     1
  pspatm : epsatm=    6.22910522
         --- l  ekb(1:nproj) -->
             0    6.050032    0.820363
             1   -4.739617   -1.153841
             2   -1.335834
 pspatm: atomic psp has been read  and splines computed

   1.44370298E+04                                ecore*ucvol(ha*bohr**3)

 ==>  initialize data related to q vector <==

 The list of irreducible perturbations for this q vector is:
    1)    idir= 1    ipert=  13
    2)    idir= 2    ipert=  13
    3)    idir= 3    ipert=  13

 Perturbation wavevector (in red.coord.)   0.000000  0.000000  0.000000
[...]
   erelax=  -3.77016421E+01
  No Ewald or frozen-wf contrib.: the relaxation energy is the total one
 2DEtotal=   -0.3770164213E+02 Ha. Also 2DEtotal=   -0.102591385618E+04 eV
    (  non-var. 2DEtotal :   -3.7701642131E+01 Ha)

 Perturbation wavevector (in red.coord.)   0.000000  0.000000  0.000000
 Perturbation : derivative vs k along direction   2
 The set of symmetries contains only one element for this perturbation.
 symkpt : not enough symmetry to change the number of k points.

[...]

 Perturbation wavevector (in red.coord.)   0.000000  0.000000  0.000000
 Perturbation : derivative vs k along direction   3
 The set of symmetries contains only one element for this perturbation.
 symkpt : not enough symmetry to change the number of k points.

 Initialisation of the first-order wave-functions :
  ireadwf=   0

--- !BeginCycle
iteration_state: {dtset: 1, }
solver: {iscf: 7, nstep: 2000, nline: 4, wfoptalg: 0, }
tolerances: {tolwfr: 1.00E-20, }
...

     iter   2DEtotal(Ha)        deltaE(Ha) residm    vres2
-ETOT  1  -62.747115624313     -6.275E+01 8.614E-02 0.000E+00
 ETOT  2  -62.998482553660     -2.514E-01 1.148E-02 0.000E+00
 ETOT  3  -63.014176526161     -1.569E-02 5.518E-04 0.000E+00
 ETOT  4  -63.015633500621     -1.457E-03 1.034E-04 0.000E+00
 ETOT  5  -63.015789895933     -1.564E-04 2.105E-05 0.000E+00
 ETOT  6  -63.015807689402     -1.779E-05 6.350E-06 0.000E+00
 ETOT  7  -63.015809809354     -2.120E-06 2.874E-06 0.000E+00
 ETOT  8  -63.015810070003     -2.606E-07 9.544E-07 0.000E+00
 ETOT  9  -63.015810102967     -3.296E-08 4.629E-07 0.000E+00
 ETOT 10  -63.015810107229     -4.262E-09 1.624E-07 0.000E+00
 ETOT 11  -63.015810107791     -5.624E-10 8.052E-08 0.000E+00
 ETOT 12  -63.015810107867     -7.537E-11 2.911E-08 0.000E+00
 ETOT 13  -63.015810107877     -1.027E-11 1.445E-08 0.000E+00
 ETOT 14  -63.015810107878     -1.442E-12 5.326E-09 0.000E+00
 ETOT 15  -63.015810107879     -1.705E-13 2.629E-09 0.000E+00
 ETOT 16  -63.015810107879     -2.132E-14 9.844E-10 0.000E+00
 ETOT 17  -63.015810107879      7.105E-15 4.822E-10 0.000E+00
 ETOT 18  -63.015810107879     -7.105E-15 1.830E-10 0.000E+00
 ETOT 19  -63.015810107879     -5.684E-14 8.897E-11 0.000E+00
 ETOT 20  -63.015810107879      4.263E-14 3.419E-11 0.000E+00
 ETOT 21  -63.015810107879      0.000E+00 1.649E-11 0.000E+00
 ETOT 22  -63.015810107879     -2.842E-14 6.410E-12 0.000E+00
 ETOT 23  -63.015810107879      0.000E+00 3.068E-12 0.000E+00
 ETOT 24  -63.015810107879      1.421E-14 1.205E-12 0.000E+00
 ETOT 25  -63.015810107879      7.105E-15 5.728E-13 0.000E+00
 ETOT 26  -63.015810107879     -7.105E-15 2.273E-13 0.000E+00
 ETOT 27  -63.015810107879      0.000E+00 1.073E-13 0.000E+00
 ETOT 28  -63.015810107879     -1.421E-14 4.294E-14 0.000E+00
 ETOT 29  -63.015810107879      7.105E-15 2.013E-14 0.000E+00
 ETOT 30  -63.015810107879      7.105E-15 8.126E-15 0.000E+00
 ETOT 31  -63.015810107879     -7.105E-15 3.788E-15 0.000E+00
 ETOT 32  -63.015810107879      1.421E-14 1.540E-15 0.000E+00
 ETOT 33  -63.015810107879     -7.105E-15 7.139E-16 0.000E+00
 ETOT 34  -63.015810107879      7.105E-15 2.924E-16 0.000E+00
 ETOT 35  -63.015810107879      0.000E+00 1.348E-16 0.000E+00
 ETOT 36  -63.015810107879     -7.105E-15 5.556E-17 0.000E+00
 ETOT 37  -63.015810107879      0.000E+00 2.549E-17 0.000E+00
 ETOT 38  -63.015810107879      7.105E-15 1.057E-17 0.000E+00
 ETOT 39  -63.015810107879     -1.421E-14 4.826E-18 0.000E+00
 ETOT 40  -63.015810107879      7.105E-15 2.011E-18 0.000E+00
 ETOT 41  -63.015810107879      2.842E-14 9.149E-19 0.000E+00
 ETOT 42  -63.015810107879     -2.842E-14 3.831E-19 0.000E+00
 ETOT 43  -63.015810107879      7.105E-15 1.736E-19 0.000E+00
 ETOT 44  -63.015810107879      0.000E+00 7.300E-20 0.000E+00
 ETOT 45  -63.015810107879     -1.421E-14 3.297E-20 0.000E+00
 ETOT 46  -63.015810107879      0.000E+00 1.392E-20 0.000E+00
 ETOT 47  -63.015810107879      1.421E-14 9.892E-21 0.000E+00

 At SCF step   47   max residual=  9.89E-21 < tolwfr=  1.00E-20 =>converged.

 ----iterations are completed or convergence reached----

 dfpt_looppert: DFPT cycle converged with prtwf=-1. Will skip output of the 1st-order WFK file.
 dfpt_looppert : ek2=    1.2487864854E+02
          f-sum rule ratio=    1.0053034010E+00
 prteigrs : about to open file /scratch/users/j/a/jabreu/flow_simple_11atoms/flow/w338/t1/tmpdata/tmp_1WF1_EIG
 Expectation of eigenvalue derivatives (hartree) for nkpt=   2  k points:
  (in case of degenerate eigenvalues, averaged derivative)
 kpt#   1, nband= 57, wtk=  0.50000, kpt=  0.0000  0.0000  0.1304 (reduced coord)
   0.00000   -0.00000    0.00001    0.00001   -0.00002   -0.00002    0.00007   -0.00006
   0.00072   -0.00054    0.00481   -0.00601    0.00400   -0.00037    0.00225   -0.00278
  -0.00242   -0.00037    0.00540   -0.00677    0.00220   -0.00310    0.00405    0.00210
  -0.01048   -0.01655    0.00298    0.00974    0.02953   -0.04661   -0.00043    0.00506
   0.01388   -0.00214   -0.00492    0.03654   -0.02392    0.00291   -0.00976    0.01839
  -0.01669    0.01065    0.03370   -0.02072    0.00685   -0.01268   -0.03176   -0.00057
   0.03441    0.02068   -0.00444    0.00729   -0.02081   -0.04906    0.02161   -0.02096
   0.03524
 prteigrs : prtvol=0 or 1, do not print more k-points.

 Eight components of 2nd-order total energy (hartree) are
 1,2,3: 0th-order hamiltonian combined with 1st-order wavefunctions
     kin0=   9.64716552E+01 eigvalue=   8.17074624E+00  local=  -5.13213867E+01
 4,5,6: 1st-order hamiltonian combined with 1st and 0th-order wfs
     kin1=  -1.25540930E+02  Hartree=   0.00000000E+00     xc=   0.00000000E+00
 7,8,9: eventually, occupation + non-local contributions
    edocc=   1.13271211E+01     enl0=  -1.63232579E+00   enl1=  -4.90690123E-01
 1-9 gives the relaxation energy (to be shifted if some occ is /=2.0)
   erelax=  -6.30158101E+01
  No Ewald or frozen-wf contrib.: the relaxation energy is the total one
 2DEtotal=   -0.6301581011E+02 Ha. Also 2DEtotal=   -0.171474739809E+04 eV
    (  non-var. 2DEtotal :   -6.3015810108E+01 Ha)

 CALCULATION OF EFFECTIVE MASSES
 NOTE : Additional infos (eff. mass eigenvalues, eigenvectors and, if degenerate, average mass) are available in stdout.

 K-point ( 0.000, 0.000, 0.130) | band =    48
 Effective mass tensor:
             -6.4537503612             -3.5088705290              0.3370271042
             -3.5088705290             -6.5806925702              0.8985006728
              0.3370271042              0.8985006728            -10.8602338839
 Effective mass tensor eigenvalues:
            -11.4275164429             -9.4788874712             -2.9882729012
 Angular average effective mass 1/(<1/m>)=  -5.6856177621
 Angular average effective mass for Frohlich model (<m**0.5>)**2=  -6.3974084653
 Effective masses along directions: (cart. coord. / red. coord. -> eff. mass)
    1:   1.000000  0.000000  0.000000 /   0.986712 -0.162479  0.000000 ->  -4.5809169950
    2:   0.000000  1.000000  0.000000 /   0.000000  1.000000  0.000000 ->  -4.6257539772
    3:   0.000000  0.000000  1.000000 /  -0.503541 -0.503541  0.702064 -> -10.7331526710
    4:   0.577350  0.577350  0.577350 /  -0.020177 -0.143131  0.989498 ->  -9.4694198549
    5:   0.000000  0.707107  0.707107 /  -0.582649 -0.024292  0.812361 ->  -5.9194004683
    6:   0.707107  0.000000  0.707107 /  -0.015673 -0.639489  0.768640 ->  -6.5425765216
    7:   0.707107  0.707107  0.000000 /   0.772630  0.634856  0.000000 ->  -9.9554792109

 K-point ( 0.000, 0.000, 0.000) | band =    49
 Effective mass tensor:
              2.2608251982              0.5027110858             -1.0491651858
              0.5027110858              2.4286765005             -1.2388393609
             -1.0491651858             -1.2388393609              4.4205577164
 Effective mass tensor eigenvalues:
              1.8350823688              1.8350823809              5.4398946654
 Angular average effective mass 1/(<1/m>)=   2.3553493231
 Angular average effective mass for Frohlich model (<m**0.5>)**2=   2.5049172459
 Effective masses along directions: (cart. coord. / red. coord. -> eff. mass)
    1:   1.000000  0.000000  0.000000 /   0.986712 -0.162479  0.000000 ->   1.9908959924
    2:   0.000000  1.000000  0.000000 /   0.000000  1.000000  0.000000 ->   2.0598505514
    3:   0.000000  0.000000  1.000000 /  -0.503541 -0.503541  0.702064 ->   3.4972629047
    4:   0.577350  0.577350  0.577350 /  -0.020177 -0.143131  0.989498 ->   1.8389389645
    5:   0.000000  0.707107  0.707107 /  -0.582649 -0.024292  0.812361 ->   1.9615374162
    6:   0.707107  0.000000  0.707107 /  -0.015673 -0.639489  0.768640 ->   2.0031611155
    7:   0.707107  0.707107  0.000000 /   0.772630  0.634856  0.000000 ->   2.2546856582

 END OF EFFECTIVE MASSES SECTION

 ---- first-order wavefunction calculations are completed ----

 Total localisation tensor (bohr^2) in cartesian coordinates
  WARNING : still subject to testing - especially symmetries.
      direction              matrix element
   alpha     beta       real part   imaginary part
     1        1       0.7725101831    0.0000000000
     1        2      -0.1221219646    0.0000000000
     1        3      -0.6466961600    0.0000000000
     2        1      -0.1221219646    0.0000000000
     2        2       0.7315054049    0.0000000000
     2        3      -0.7633310848    0.0000000000
     3        1      -0.6466961600    0.0000000000
     3        2      -0.7633310848    0.0000000000
     3        3       4.1885728557    0.0000000000

 respfn : d/dk was computed, but no 2DTE, so no DDB output.

== END DATASET(S) ==============================================================

 -outvars: echo values of variables after computation  --------
            acell      1.0000000000E+00  1.0000000000E+00  1.0000000000E+00 Bohr
              amu      8.54678000E+01  9.89062000E+01  1.59994000E+01
             ecut      4.40000000E+01 Hartree
           etotal     -6.3015810108E+01
            fcart      0.0000000000E+00  0.0000000000E+00  0.0000000000E+00
                       0.0000000000E+00  0.0000000000E+00  0.0000000000E+00
                       0.0000000000E+00  0.0000000000E+00  0.0000000000E+00
                       0.0000000000E+00  0.0000000000E+00  0.0000000000E+00
                       0.0000000000E+00  0.0000000000E+00  0.0000000000E+00
                       0.0000000000E+00  0.0000000000E+00  0.0000000000E+00
                       0.0000000000E+00  0.0000000000E+00  0.0000000000E+00
                       0.0000000000E+00  0.0000000000E+00  0.0000000000E+00
                       0.0000000000E+00  0.0000000000E+00  0.0000000000E+00
                       0.0000000000E+00  0.0000000000E+00  0.0000000000E+00
                       0.0000000000E+00  0.0000000000E+00  0.0000000000E+00
                       0.0000000000E+00  0.0000000000E+00  0.0000000000E+00
-          fftalg         512
           irdden           1
           irdwfk           1
           istwfk        0    1
              ixc     -116133
              kpt      0.00000000E+00  0.00000000E+00  1.30434783E-01
                       0.00000000E+00  0.00000000E+00  0.00000000E+00
           kptopt           0
P           mkmem           2
P          mkqmem           2
P          mk1mem           2
            natom          12
            nband          57
           nbdbuf           4
            ngfft          90      90      90
             nkpt           2
            nstep        2000
             nsym           8
           ntypat           3
              occ      2.000000  2.000000  2.000000  2.000000  2.000000  2.000000
                       2.000000  2.000000  2.000000  2.000000  2.000000  2.000000
                       2.000000  2.000000  2.000000  2.000000  2.000000  2.000000
                       2.000000  2.000000  2.000000  2.000000  2.000000  2.000000
                       2.000000  2.000000  2.000000  2.000000  2.000000  2.000000
                       2.000000  2.000000  2.000000  2.000000  2.000000  2.000000
                       2.000000  2.000000  2.000000  2.000000  2.000000  2.000000
                       2.000000  2.000000  2.000000  2.000000  2.000000  2.000000
                       0.000000  0.000000  0.000000  0.000000  0.000000  0.000000
                       0.000000  0.000000  0.000000
        optdriver           1
            prtwf          -1
            rfdir           1       1       1
           rfelfd           2
            rprim      1.0209405999E+01  0.0000000000E+00 -1.0508157609E+01
                      -1.6811536663E+00  1.0070039384E+01 -1.0508157609E+01
                       0.0000000000E+00  0.0000000000E+00  1.4651052767E+01
          spgroup          88
           strten      0.0000000000E+00  0.0000000000E+00  0.0000000000E+00
                       0.0000000000E+00  0.0000000000E+00  0.0000000000E+00
           symrel      1  0  0   0  1  0   0  0  1      -1  0  0   0 -1  0   0  0 -1
                       0  1  0   1  0  0  -1 -1 -1       0 -1  0  -1  0  0   1  1  1
                      -1 -1 -1   0  0  1   1  0  0       1  1  1   0  0 -1  -1  0  0
                       0  0  1  -1 -1 -1   0  1  0       0  0 -1   1  1  1   0 -1  0
            tnons      0.0000000  0.0000000  0.0000000    -0.2500000  0.2500000  0.5000000
                       0.0000000  0.0000000 -0.0000000    -0.2500000  0.2500000  0.5000000
                       0.0000000  0.0000000 -0.0000000    -0.2500000  0.2500000  0.5000000
                       0.0000000  0.0000000 -0.0000000    -0.2500000  0.2500000  0.5000000
           tolwfr      1.00000000E-20
            typat      1  1  2  2  3  3  3  3  3  3  3  3
           useylm           1
              wtk        0.50000    0.50000
           xangst      2.2564783817E+00  2.6644176658E+00 -5.5606775109E+00
                       6.8342508868E-01  3.9966264987E+00 -1.6841759079E+00
                       3.8295316747E+00  1.3322088329E+00 -1.6841759079E+00
                      -2.4692142895E-17  1.4790489199E-16 -5.8471793860E-16
                       2.9093183485E+00  2.3263656778E+00 -2.7400013063E+00
                       4.4367103985E+00  4.5848886208E+00 -4.9145204523E+00
                       2.1891505876E+00  5.1206497251E+00 -7.1288243338E+00
                       2.1666551019E-02  1.1344997166E+00  3.2701292800E+00
                       3.8078651237E+00  1.9770911626E-01  2.7986980183E+00
                       7.5075288274E-01  1.5403944394E+00 -1.1602908494E-01
                       3.9057780396E+00  2.0761555437E+00 -1.3800727124E-01
                       3.0585121840E-02  4.3346784867E+00 -4.5048521124E+00
            xcart      4.2641261662E+00  5.0350196920E+00 -1.0508157609E+01
                       1.2914862499E+00  7.5525295380E+00 -3.1826312254E+00
                       7.2367660824E+00  2.5175098460E+00 -3.1826312255E+00
                      -4.6661387706E-17  2.7949973957E-16 -1.1049567689E-15
                       5.4978149121E+00  4.3961940160E+00 -5.1778520727E+00
                       8.3841675841E+00  8.6641838432E+00 -9.2870977294E+00
                       4.1368950743E+00  9.6766256029E+00 -1.3471525640E+01
                       4.0943847669E-02  2.1438937623E+00  6.1796487583E+00
                       7.1958222348E+00  3.7361608372E-01  5.2887727832E+00
                       1.4187173419E+00  2.9109236271E+00 -2.1926319399E-01
                       7.3808508307E+00  3.9233653868E+00 -2.6079594699E-01
                       5.7797504019E-02  8.1913552140E+00 -8.5129367616E+00
             xred      5.0000000000E-01  5.0000000000E-01 -4.8572257327E-17
                       2.5000000000E-01  7.5000000000E-01  5.0000000000E-01
                       7.5000000000E-01  2.5000000000E-01  5.0000000000E-01
                       0.0000000000E+00  2.7755575616E-17 -5.5511151231E-17
                       6.1039225000E-01  4.3656175000E-01  3.9749400000E-01
                       9.6289825000E-01  8.6039225000E-01  6.7383050000E-01
                       5.6343825000E-01  9.6093225000E-01  1.7383050000E-01
                       3.9067750000E-02  2.1289825000E-01  6.0250600000E-01
                       7.1093225000E-01  3.7101750000E-02  8.9749400000E-01
                       1.8656175000E-01  2.8906775000E-01  3.2616950000E-01
                       7.8710175000E-01  3.8960775000E-01  8.2616950000E-01
                       1.3960775000E-01  8.1343825000E-01  1.0250600000E-01
            znucl       37.00000   43.00000    8.00000

- Timing analysis has been suppressed with timopt=0

 Suggested references for the acknowledgment of ABINIT usage.

 Calculation completed.
.Delivered   2 WARNINGs and   5 COMMENTs to log file.