.Version 9.5.1 of ABINIT

 ABINIT is a project of the Universite Catholique de Louvain,
 Corning Inc. and other collaborators, see ~abinit/doc/developers/contributors.txt .
 acknowledgments of the ABINIT effort.

.Starting date : Tue 27 Apr 2021.
- ( at 15h32 )

- input  file    -> /scratch/users/j/a/jabreu/flow_simple/flow/w141/t1/run.abi
- output file    -> /scratch/users/j/a/jabreu/flow_simple/flow/w141/t1/run.abo
- root for input  files -> /scratch/users/j/a/jabreu/flow_simple/flow/w141/t1/indata/in
- root for output files -> /scratch/users/j/a/jabreu/flow_simple/flow/w141/t1/outdata/out

 Symmetries : space group F-4 3 m (#216); Bravais cF (face-center cubic)
     intxc =       0      iscf =       7    lmnmax =      18     lnmax =       6
     mgfft =      48  mpssoang =       3    mqgrid =    3001     natom =       3
  nloc_mem =       1    nspden =       1   nspinor =       1    nsppol =       1
      nsym =      24    n1xccc =    2501    ntypat =       3    occopt =       1
   xclevel =       2
-    mband =          18        mffmem =           1         mkmem =           2
-   mkqmem =           2        mk1mem =           2           mpw =        4720
      nfft =      110592          nkpt =           2
  Rough estimation (10% accuracy) of disk space for files :

------------- Echo of variables that govern the present computation ------------
-
- outvars: echo of selected default values
-   iomode0 =  0 , fftalg0 =512 , wfoptalg0 =  0
-
- outvars: echo of global parameters not present in the input file
-  max_nthreads =    0
-
 -outvars: echo values of preprocessed input variables --------
            acell      1.0000000000E+00  1.0000000000E+00  1.0000000000E+00 Bohr
              amu      6.94100000E+00  2.43050000E+01  3.09737620E+01
             ecut      4.20000000E+01 Hartree
-          fftalg         512
           irdden           1
           irdwfk           1
           istwfk        0    1
              ixc     -116133
              kpt      1.10294118E-01  1.10294118E-01  2.20588235E-01
                       5.00000000E-01  0.00000000E+00  5.00000000E-01
           kptopt           0
P           mkmem           2
P          mkqmem           2
P          mk1mem           2
            natom           3
            nband          18
           nbdbuf           4
            ngfft          48      48      48
             nkpt           2
            nstep         100
             nsym          24
           ntypat           3
              occ      2.000000  2.000000  2.000000  2.000000  2.000000  2.000000
                       2.000000  2.000000  2.000000  0.000000  0.000000  0.000000
                       0.000000  0.000000  0.000000  0.000000  0.000000  0.000000
        optdriver           1
            prtwf          -1
            rfdir           1       1       1
           rfelfd           2
            rprim      6.9239735528E+00  0.0000000000E+00  3.9975579946E+00
                       2.3079911843E+00  6.5279848693E+00  3.9975579946E+00
                       0.0000000000E+00  0.0000000000E+00  7.9951159892E+00
          spgroup         216
           symrel      1  0  0   0  1  0   0  0  1       0 -1  1   0 -1  0   1 -1  0
                      -1  0  0  -1  0  1  -1  1  0       0  1 -1   1  0 -1   0  0 -1
                      -1  0  0  -1  1  0  -1  0  1       0 -1  1   1 -1  0   0 -1  0
                       1  0  0   0  0  1   0  1  0       0  1 -1   0  0 -1   1  0 -1
                      -1  0  1  -1  1  0  -1  0  0       0 -1  0   1 -1  0   0 -1  1
                       1  0 -1   0  0 -1   0  1 -1       0  1  0   0  0  1   1  0  0
                       1  0 -1   0  1 -1   0  0 -1       0 -1  0   0 -1  1   1 -1  0
                      -1  0  1  -1  0  0  -1  1  0       0  1  0   1  0  0   0  0  1
                       0  0 -1   0  1 -1   1  0 -1       1 -1  0   0 -1  1   0 -1  0
                       0  0  1   1  0  0   0  1  0      -1  1  0  -1  0  0  -1  0  1
                       0  0  1   0  1  0   1  0  0       1 -1  0   0 -1  0   0 -1  1
                       0  0 -1   1  0 -1   0  1 -1      -1  1  0  -1  0  1  -1  0  0
           tolwfr      1.00000000E-20
            typat      1  2  3
           useylm           1
              wtk        0.50000    0.50000
           xangst      3.6640089970E+00  2.5908456081E+00  6.3462497423E+00
                       0.0000000000E+00  0.0000000000E+00  0.0000000000E+00
                       1.2213363323E+00  8.6361520271E-01  2.1154165808E+00
            xcart      6.9239735528E+00  4.8959886520E+00  1.1992673984E+01
                       0.0000000000E+00  0.0000000000E+00  0.0000000000E+00
                       2.3079911843E+00  1.6319962173E+00  3.9975579946E+00
             xred      7.5000000000E-01  7.5000000000E-01  7.5000000000E-01
                       0.0000000000E+00  0.0000000000E+00  0.0000000000E+00
                       2.5000000000E-01  2.5000000000E-01  2.5000000000E-01
            znucl        3.00000   12.00000   15.00000

 chkinp: Checking input parameters for consistency.

== DATASET  1 ==================================================================
-   mpi_nproc: 1, omp_nthreads: -1 (-1 if OMP is not activated)

--- !DatasetInfo
iteration_state: {dtset: 1, }
dimensions: {natom: 3, nkpt: 2, mband: 18, nsppol: 1, nspinor: 1, nspden: 1, mpw: 4720, }
cutoff_energies: {ecut:  42.0, pawecutdg:  -1.0, }
electrons: {nelect:   1.80000000E+01, charge:   0.00000000E+00, occopt:   1.00000000E+00, tsmear:   1.00000000E-02, }
meta: {optdriver: 1, rfelfd: 2, }
...

 Real(R)+Recip(G) space primitive vectors, cartesian coordinates (Bohr,Bohr^-1):
 R(1)=  6.9239736  0.0000000  3.9975580  G(1)=  0.1444257 -0.0510622  0.0000000
 R(2)=  2.3079912  6.5279849  3.9975580  G(2)=  0.0000000  0.1531866  0.0000000
 R(3)=  0.0000000  0.0000000  7.9951160  G(3)= -0.0722129 -0.0510622  0.1250764
 Unit cell volume ucvol=  3.6137600E+02 bohr^3
 Angles (23,13,12)=  6.00000000E+01  6.00000000E+01  6.00000000E+01 degrees

 getcut: wavevector=  0.0000  0.0000  0.0000  ngfft=  48  48  48
         ecut(hartree)=     42.000   => boxcut(ratio)=   2.05791

--- Pseudopotential description ------------------------------------------------
- pspini: atom type   1  psp file is /scratch/users/j/a/jabreu/pseudos/PBEsol/Li.psp8
- pspatm: opening atomic psp file    /scratch/users/j/a/jabreu/pseudos/PBEsol/Li.psp8
- Li    ONCVPSP-3.3.0  r_core=   1.40824   1.10935
-  3.00000   3.00000    180112                znucl, zion, pspdat
    8 -116133    1    4       400   0.00000   pspcod,pspxc,lmax,lloc,mmax,r2well
    3.99000000000000    0.00000000000000    0.00000000000000   rchrg,fchrg,qchrg
     nproj     2     2
     extension_switch     1
  pspatm : epsatm=    2.60859637
         --- l  ekb(1:nproj) -->
             0   -4.855856   -1.482423
             1   -2.171544   -0.427615
 pspatm: atomic psp has been read  and splines computed

- pspini: atom type   2  psp file is /scratch/users/j/a/jabreu/pseudos/PBEsol/Mg.psp8
- pspatm: opening atomic psp file    /scratch/users/j/a/jabreu/pseudos/PBEsol/Mg.psp8
- Mg    ONCVPSP-3.3.0  r_core=   1.16056   1.56380
- 12.00000  10.00000    180112                znucl, zion, pspdat
    8 -116133    1    4       400   0.00000   pspcod,pspxc,lmax,lloc,mmax,r2well
    3.99000000000000    0.00000000000000    0.00000000000000   rchrg,fchrg,qchrg
     nproj     2     2
     extension_switch     1
  pspatm : epsatm=    9.18164846
         --- l  ekb(1:nproj) -->
             0    2.230603   -0.826587
             1   -6.503151   -2.501445
 pspatm: atomic psp has been read  and splines computed

- pspini: atom type   3  psp file is /scratch/users/j/a/jabreu/pseudos/PBEsol/P.psp8
- pspatm: opening atomic psp file    /scratch/users/j/a/jabreu/pseudos/PBEsol/P.psp8
- P     ONCVPSP-3.3.0  r_core=   1.46089   1.55067   1.70594
- 15.00000   5.00000    180112                znucl, zion, pspdat
    8 -116133    2    4       600   0.00000   pspcod,pspxc,lmax,lloc,mmax,r2well
    5.99000000000000    5.00000000000000    0.00000000000000   rchrg,fchrg,qchrg
     nproj     2     2     2
     extension_switch     1
  pspatm : epsatm=    7.31221086
         --- l  ekb(1:nproj) -->
             0    6.742364    1.063650
             1    3.449117    0.910422
             2   -3.077645   -0.799176
 pspatm: atomic psp has been read  and splines computed

   3.43844202E+02                                ecore*ucvol(ha*bohr**3)

-inwffil : will read wavefunctions from disk file /scratch/users/j/a/jabreu/flow_simple/flow/w141/t1/indata/in_WFK

 ==>  initialize data related to q vector <==

 The list of irreducible perturbations for this q vector is:
    1)    idir= 1    ipert=   4
    2)    idir= 2    ipert=   4
    3)    idir= 3    ipert=   4

 Perturbation wavevector (in red.coord.)   0.000000  0.000000  0.000000
 Perturbation : derivative vs k along direction   1

 dfpt_looppert : COMMENT -
  In a d/dk calculation, iscf is set to -3 automatically.
 The set of symmetries contains only one element for this perturbation.
 symkpt : not enough symmetry to change the number of k points.

[...]

 Initialisation of the first-order wave-functions :
  ireadwf=   0

--- !BeginCycle
iteration_state: {dtset: 1, }
solver: {iscf: 7, nstep: 100, nline: 4, wfoptalg: 0, }
tolerances: {tolwfr: 1.00E-20, }
...

     iter   2DEtotal(Ha)        deltaE(Ha) residm    vres2
-ETOT  1  -22.779988236887     -2.278E+01 2.818E-02 0.000E+00
 ETOT  2  -22.781960943099     -1.973E-03 2.461E-05 0.000E+00
 ETOT  3  -22.781961841182     -8.981E-07 3.049E-08 0.000E+00
 ETOT  4  -22.781961841850     -6.673E-10 6.540E-11 0.000E+00
 ETOT  5  -22.781961841850     -8.598E-13 2.136E-13 0.000E+00
 ETOT  6  -22.781961841850     -1.066E-14 5.294E-16 0.000E+00
 ETOT  7  -22.781961841850      6.040E-14 1.914E-18 0.000E+00
 ETOT  8  -22.781961841850      0.000E+00 9.821E-21 0.000E+00

 At SCF step    8   max residual=  9.82E-21 < tolwfr=  1.00E-20 =>converged.

 ----iterations are completed or convergence reached----

 dfpt_looppert: DFPT cycle converged with prtwf=-1. Will skip output of the 1st-order WFK file.
 dfpt_looppert : ek2=    3.3350623626E+01
          f-sum rule ratio=    1.2575306907E+00
 prteigrs : about to open file /scratch/users/j/a/jabreu/flow_simple/flow/w141/t1/tmpdata/tmp_1WF1_EIG
 Expectation of eigenvalue derivatives (hartree) for nkpt=   2  k points:
  (in case of degenerate eigenvalues, averaged derivative)
 kpt#   1, nband= 18, wtk=  0.50000, kpt=  0.1103  0.1103  0.2206 (reduced coord)
  -0.00000   -0.00000    0.00000   -0.00000   -0.00000   -0.00000    0.00000   -0.00000
   0.00000    0.00000    0.00000   -0.00000    0.00000   -0.00000    0.00000    0.00000
  -0.00000   -0.00379
 prteigrs : prtvol=0 or 1, do not print more k-points.

 Eight components of 2nd-order total energy (hartree) are
 1,2,3: 0th-order hamiltonian combined with 1st-order wavefunctions
     kin0=   1.39689772E+01 eigvalue=   3.42822437E+00  local=  -5.61798291E+00
 4,5,6: 1st-order hamiltonian combined with 1st and 0th-order wfs
     kin1=  -4.19394328E+01  Hartree=   0.00000000E+00     xc=   0.00000000E+00
 7,8,9: eventually, occupation + non-local contributions
    edocc=   1.11428350E+01     enl0=  -1.40091765E-01   enl1=  -3.62449092E+00
 1-9 gives the relaxation energy (to be shifted if some occ is /=2.0)
   erelax=  -2.27819618E+01
  No Ewald or frozen-wf contrib.: the relaxation energy is the total one
 2DEtotal=   -0.2278196184E+02 Ha. Also 2DEtotal=   -0.619928708762E+03 eV
    (  non-var. 2DEtotal :   -2.2781961842E+01 Ha)

 Perturbation wavevector (in red.coord.)   0.000000  0.000000  0.000000
 Perturbation : derivative vs k along direction   2
 The set of symmetries contains only one element for this perturbation.
 symkpt : not enough symmetry to change the number of k points.

[...]

 Perturbation wavevector (in red.coord.)   0.000000  0.000000  0.000000
 Perturbation : derivative vs k along direction   3
 The set of symmetries contains only one element for this perturbation.
 symkpt : not enough symmetry to change the number of k points.

-inwffil : will read wavefunctions from disk file /scratch/users/j/a/jabreu/flow_simple/flow/w141/t1/indata/in_WFK

 Initialisation of the first-order wave-functions :
  ireadwf=   0

--- !BeginCycle
iteration_state: {dtset: 1, }
solver: {iscf: 7, nstep: 100, nline: 4, wfoptalg: 0, }
tolerances: {tolwfr: 1.00E-20, }
...

     iter   2DEtotal(Ha)        deltaE(Ha) residm    vres2
-ETOT  1  -19.943141374815     -1.994E+01 2.818E-02 0.000E+00
 ETOT  2  -19.945084170195     -1.943E-03 1.039E-05 0.000E+00
 ETOT  3  -19.945085193534     -1.023E-06 3.050E-08 0.000E+00
 ETOT  4  -19.945085194408     -8.750E-10 6.544E-11 0.000E+00
 ETOT  5  -19.945085194410     -1.158E-12 2.137E-13 0.000E+00
 ETOT  6  -19.945085194410     -2.487E-14 5.298E-16 0.000E+00
 ETOT  7  -19.945085194410      2.842E-14 1.914E-18 0.000E+00
 ETOT  8  -19.945085194410      1.066E-14 9.869E-21 0.000E+00

 At SCF step    8   max residual=  9.87E-21 < tolwfr=  1.00E-20 =>converged.

 ----iterations are completed or convergence reached----

 dfpt_looppert: DFPT cycle converged with prtwf=-1. Will skip output of the 1st-order WFK file.
 dfpt_looppert : ek2=    3.3350623625E+01
          f-sum rule ratio=    1.0793401526E+00
 prteigrs : about to open file /scratch/users/j/a/jabreu/flow_simple/flow/w141/t1/tmpdata/tmp_1WF1_EIG
 Expectation of eigenvalue derivatives (hartree) for nkpt=   2  k points:
  (in case of degenerate eigenvalues, averaged derivative)
 kpt#   1, nband= 18, wtk=  0.50000, kpt=  0.1103  0.1103  0.2206 (reduced coord)
   0.00000    0.00000   -0.00007   -0.00003   -0.00001    0.07154   -0.29545   -0.17112
  -0.00026    0.12034   -0.14239   -0.00191    0.02629   -0.02852    0.18221    0.20730
   0.34200    0.63247
 prteigrs : prtvol=0 or 1, do not print more k-points.

 Eight components of 2nd-order total energy (hartree) are
 1,2,3: 0th-order hamiltonian combined with 1st-order wavefunctions
     kin0=   1.39571343E+01 eigvalue=   3.43357993E+00  local=  -5.59176104E+00
 4,5,6: 1st-order hamiltonian combined with 1st and 0th-order wfs
     kin1=  -3.59966672E+01  Hartree=   0.00000000E+00     xc=   0.00000000E+00
 7,8,9: eventually, occupation + non-local contributions
    edocc=   8.31304488E+00     enl0=  -1.66912931E-01   enl1=  -3.89350319E+00
 1-9 gives the relaxation energy (to be shifted if some occ is /=2.0)
   erelax=  -1.99450852E+01
  No Ewald or frozen-wf contrib.: the relaxation energy is the total one
 2DEtotal=   -0.1994508519E+02 Ha. Also 2DEtotal=   -0.542733369345E+03 eV
    (  non-var. 2DEtotal :   -1.9945085194E+01 Ha)

 CALCULATION OF EFFECTIVE MASSES
 NOTE : Additional infos (eff. mass eigenvalues, eigenvectors and, if degenerate, average mass) are available in stdout.

 K-point ( 0.110, 0.110, 0.221) | band =     9
 Effective mass tensor:
             -0.7090482887             -0.3486066734             -0.0000165994
             -0.3486066734             -0.4625436799             -0.0000023790
             -0.0000165994             -0.0000023790             -2.6500304606
 Effective mass tensor eigenvalues:
             -2.6500304608             -0.9555496093             -0.2160423592
 Angular average effective mass 1/(<1/m>)=  -0.4956552352
 Angular average effective mass for Frohlich model (<m**0.5>)**2=  -0.6656172407
 Effective masses along directions: (cart. coord. / red. coord. -> eff. mass)
    1:   1.000000  0.000000  0.000000 /   0.948683  0.316228  0.000000 ->  -0.4463128584
    2:   0.000000  1.000000  0.000000 /   0.000000  1.000000  0.000000 ->  -0.2911496935
    3:   0.000000  0.000000  1.000000 /   0.408248  0.408248  0.816497 ->  -2.6500304601
    4:   0.577350  0.577350  0.577350 /   0.585539  0.688047  0.428644 ->  -1.1213889294
    5:   0.000000  0.707107  0.707107 /   0.289489  0.762222  0.578977 ->  -0.5246550584
    6:   0.707107  0.000000  0.707107 /   0.731423  0.422287  0.535439 ->  -0.7639682422
    7:   0.707107  0.707107  0.000000 /   0.616798  0.787122  0.000000 ->  -0.8703562195

 K-point ( 0.500, 0.000, 0.500) | band =    10
 Effective mass tensor:
              0.4685114207             -0.1268359706              0.1553417189
             -0.1268359706              0.5581979698             -0.2196863610
              0.1553417189             -0.2196863610              0.6478845537
 Effective mass tensor eigenvalues:
              0.3788248062              0.3788248387              0.9169442993
 Angular average effective mass 1/(<1/m>)=   0.4709528917
 Angular average effective mass for Frohlich model (<m**0.5>)**2=   0.4916266458
 Effective masses along directions: (cart. coord. / red. coord. -> eff. mass)
    1:   1.000000  0.000000  0.000000 /   0.948683  0.316228  0.000000 ->   0.4198948744
    2:   0.000000  1.000000  0.000000 /   0.000000  1.000000  0.000000 ->   0.4709528802
    3:   0.000000  0.000000  1.000000 /   0.408248  0.408248  0.816497 ->   0.5361468275
    4:   0.577350  0.577350  0.577350 /   0.585539  0.688047  0.428644 ->   0.4015621616
    5:   0.000000  0.707107  0.707107 /   0.289489  0.762222  0.578977 ->   0.3807056547
    6:   0.707107  0.000000  0.707107 /   0.731423  0.422287  0.535439 ->   0.5966054862
    7:   0.707107  0.707107  0.000000 /   0.616798  0.787122  0.000000 ->   0.3820303728

 END OF EFFECTIVE MASSES SECTION

 ---- first-order wavefunction calculations are completed ----

 Total localisation tensor (bohr^2) in cartesian coordinates
  WARNING : still subject to testing - especially symmetries.
      direction              matrix element
   alpha     beta       real part   imaginary part
     1        1       2.6629437166    0.0000000000
     1        2       0.7531945730    0.0000000000
     1        3       1.8449416685    0.0000000000
     2        1       0.7531945730    0.0000000000
     2        2       2.1303559605    0.0000000000
     2        3       1.3045712684    0.0000000000
     3        1       1.8449416685    0.0000000000
     3        2       1.3045712684    0.0000000000
     3        3       3.6329947514    0.0000000000

 respfn : d/dk was computed, but no 2DTE, so no DDB output.

== END DATASET(S) ==============================================================

 -outvars: echo values of variables after computation  --------
            acell      1.0000000000E+00  1.0000000000E+00  1.0000000000E+00 Bohr
              amu      6.94100000E+00  2.43050000E+01  3.09737620E+01
             ecut      4.20000000E+01 Hartree
           etotal     -1.9945085194E+01
            fcart      0.0000000000E+00  0.0000000000E+00  0.0000000000E+00
                       0.0000000000E+00  0.0000000000E+00  0.0000000000E+00
                       0.0000000000E+00  0.0000000000E+00  0.0000000000E+00
-          fftalg         512
           irdden           1
           irdwfk           1
           istwfk        0    1
              ixc     -116133
              kpt      1.10294118E-01  1.10294118E-01  2.20588235E-01
                       5.00000000E-01  0.00000000E+00  5.00000000E-01
           kptopt           0
P           mkmem           2
P          mkqmem           2
P          mk1mem           2
            natom           3
            nband          18
           nbdbuf           4
            ngfft          48      48      48
             nkpt           2
            nstep         100
             nsym          24
           ntypat           3
              occ      2.000000  2.000000  2.000000  2.000000  2.000000  2.000000
                       2.000000  2.000000  2.000000  0.000000  0.000000  0.000000
                       0.000000  0.000000  0.000000  0.000000  0.000000  0.000000
        optdriver           1
            prtwf          -1
            rfdir           1       1       1
           rfelfd           2
            rprim      6.9239735528E+00  0.0000000000E+00  3.9975579946E+00
                       2.3079911843E+00  6.5279848693E+00  3.9975579946E+00
                       0.0000000000E+00  0.0000000000E+00  7.9951159892E+00
          spgroup         216
           strten      0.0000000000E+00  0.0000000000E+00  0.0000000000E+00
                       0.0000000000E+00  0.0000000000E+00  0.0000000000E+00
           symrel      1  0  0   0  1  0   0  0  1       0 -1  1   0 -1  0   1 -1  0
                      -1  0  0  -1  0  1  -1  1  0       0  1 -1   1  0 -1   0  0 -1
                      -1  0  0  -1  1  0  -1  0  1       0 -1  1   1 -1  0   0 -1  0
                       1  0  0   0  0  1   0  1  0       0  1 -1   0  0 -1   1  0 -1
                      -1  0  1  -1  1  0  -1  0  0       0 -1  0   1 -1  0   0 -1  1
                       1  0 -1   0  0 -1   0  1 -1       0  1  0   0  0  1   1  0  0
                       1  0 -1   0  1 -1   0  0 -1       0 -1  0   0 -1  1   1 -1  0
                      -1  0  1  -1  0  0  -1  1  0       0  1  0   1  0  0   0  0  1
                       0  0 -1   0  1 -1   1  0 -1       1 -1  0   0 -1  1   0 -1  0
                       0  0  1   1  0  0   0  1  0      -1  1  0  -1  0  0  -1  0  1
                       0  0  1   0  1  0   1  0  0       1 -1  0   0 -1  0   0 -1  1
                       0  0 -1   1  0 -1   0  1 -1      -1  1  0  -1  0  1  -1  0  0
           tolwfr      1.00000000E-20
            typat      1  2  3
           useylm           1
              wtk        0.50000    0.50000
           xangst      3.6640089970E+00  2.5908456081E+00  6.3462497423E+00
                       0.0000000000E+00  0.0000000000E+00  0.0000000000E+00
                       1.2213363323E+00  8.6361520271E-01  2.1154165808E+00
            xcart      6.9239735528E+00  4.8959886520E+00  1.1992673984E+01
                       0.0000000000E+00  0.0000000000E+00  0.0000000000E+00
                       2.3079911843E+00  1.6319962173E+00  3.9975579946E+00
             xred      7.5000000000E-01  7.5000000000E-01  7.5000000000E-01
                       0.0000000000E+00  0.0000000000E+00  0.0000000000E+00
                       2.5000000000E-01  2.5000000000E-01  2.5000000000E-01
            znucl        3.00000   12.00000   15.00000

- Timing analysis has been suppressed with timopt=0

 Suggested references for the acknowledgment of ABINIT usage.

 Calculation completed.
.Delivered  14 WARNINGs and   9 COMMENTs to log file.