.Version 9.7.2 of ABINIT

 ABINIT is a project of the Universite Catholique de Louvain,
 Corning Inc. and other collaborators, see ~abinit/doc/developers/contributors.txt .
 acknowledgments of the ABINIT effort.

.Starting date : Wed  1 Dec 2021.
- ( at 21h55 )

- input  file    -> /scratch/users/j/a/jabreu/flow_simple_remain_atoms/flow/w262/t1/run.abi
- output file    -> /scratch/users/j/a/jabreu/flow_simple_remain_atoms/flow/w262/t1/run.abo
- root for input  files -> /scratch/users/j/a/jabreu/flow_simple_remain_atoms/flow/w262/t1/indata/in
- root for output files -> /scratch/users/j/a/jabreu/flow_simple_remain_atoms/flow/w262/t1/outdata/out

 Symmetries : space group I4/m m m (#139); Bravais tI (body-center tetrag.)
     intxc =       0      iscf =       7    lmnmax =       8     lnmax =       4
     mgfft =      60  mpssoang =       2    mqgrid =    3001     natom =       5
  nloc_mem =       1    nspden =       1   nspinor =       1    nsppol =       1
      nsym =      16    n1xccc =    2501    ntypat =       3    occopt =       1
   xclevel =       2
-    mband =          19        mffmem =           1         mkmem =           1
-   mkqmem =           1        mk1mem =           1           mpw =        5108
      nfft =      216000          nkpt =           1
  Rough estimation (10% accuracy) of disk space for files :

------------- Echo of variables that govern the present computation ------------
-
- outvars: echo of selected default values
-   iomode0 =  0 , fftalg0 =512 , wfoptalg0 =  0
-
- outvars: echo of global parameters not present in the input file
-  max_nthreads =    0
-
 -outvars: echo values of preprocessed input variables --------
            acell      1.0000000000E+00  1.0000000000E+00  1.0000000000E+00 Bohr
              amu      6.94100000E+00  1.20110000E+01  1.40067400E+01
             ecut      4.20000000E+01 Hartree
-          fftalg         512
           irdden           1
           irdwfk           1
              ixc     -116133
              kpt      5.00000000E-01  5.00000000E-01 -5.00000000E-01
           kptopt           0
P           mkmem           1
P          mkqmem           1
P          mk1mem           1
            natom           5
            nband          19
           nbdbuf           4
            ngfft          60      60      60
             nkpt           1
            nstep        2000
             nsym          16
           ntypat           3
              occ      2.000000  2.000000  2.000000  2.000000  2.000000  2.000000
                       2.000000  2.000000  2.000000  2.000000  0.000000  0.000000
                       0.000000  0.000000  0.000000  0.000000  0.000000  0.000000
                       0.000000
        optdriver           1
            prtwf          -1
            rfdir           1       1       1
           rfelfd           2
            rprim      6.4435534585E+00  0.0000000000E+00 -7.0710231253E+00
                      -9.6648853640E-01  6.3706578217E+00 -7.0710231253E+00
                       0.0000000000E+00  0.0000000000E+00  9.5665432216E+00
          spgroup         139
           symrel      1  0  0   0  1  0   0  0  1      -1  0  0   0 -1  0   0  0 -1
                       0  0  1  -1 -1 -1   1  0  0       0  0 -1   1  1  1  -1  0  0
                       0  1  0   1  0  0  -1 -1 -1       0 -1  0  -1  0  0   1  1  1
                      -1 -1 -1   0  0  1   0  1  0       1  1  1   0  0 -1   0 -1  0
                       0  1  0   1  0  0   0  0  1       0 -1  0  -1  0  0   0  0 -1
                       0  0  1  -1 -1 -1   0  1  0       0  0 -1   1  1  1   0 -1  0
                       1  0  0   0  1  0  -1 -1 -1      -1  0  0   0 -1  0   1  1  1
                      -1 -1 -1   0  0  1   1  0  0       1  1  1   0  0 -1  -1  0  0
           tolwfr      1.00000000E-20
            typat      1  1  2  3  3
           useylm           1
           xangst      4.6886262877E-01  2.5284051922E+00 -1.2106259604E+00
                       2.4294752980E+00  8.4280173074E-01 -1.2106259604E+00
                       0.0000000000E+00  0.0000000000E+00  0.0000000000E+00
                       4.1132632189E-01  4.7843494409E-01 -1.0620644361E+00
                       2.4870116049E+00  2.8927719789E+00 -6.4215841225E+00
            xcart      8.8602196232E-01  4.7779933663E+00 -2.2877515145E+00
                       4.5910429598E+00  1.5926644554E+00 -2.2877515145E+00
                       0.0000000000E+00  0.0000000000E+00  0.0000000000E+00
                       7.7729409961E-01  9.0411101674E-01 -2.0070109198E+00
                       4.6997708225E+00  5.4665468050E+00 -1.2135035331E+01
             xred      2.5000000000E-01  7.5000000000E-01  5.0000000000E-01
                       7.5000000000E-01  2.5000000000E-01  5.0000000000E-01
                       0.0000000000E+00  0.0000000000E+00  0.0000000000E+00
                       1.4191800000E-01  1.4191800000E-01  0.0000000000E+00
                       8.5808200000E-01  8.5808200000E-01  0.0000000000E+00
            znucl        3.00000    6.00000    7.00000

 chkinp: Checking input parameters for consistency.

== DATASET  1 ==================================================================
-   mpi_nproc: 1, omp_nthreads: -1 (-1 if OMP is not activated)

--- !DatasetInfo
iteration_state: {dtset: 1, }
dimensions: {natom: 5, nkpt: 1, mband: 19, nsppol: 1, nspinor: 1, nspden: 1, mpw: 5108, }
cutoff_energies: {ecut:  42.0, pawecutdg:  -1.0, }
electrons: {nelect:   2.00000000E+01, charge:   0.00000000E+00, occopt:   1.00000000E+00, tsmear:   1.00000000E-02, }
meta: {optdriver: 1, rfelfd: 2, }
...

 Real(R)+Recip(G) space primitive vectors, cartesian coordinates (Bohr,Bohr^-1):
 R(1)=  6.4435535  0.0000000 -7.0710231  G(1)=  0.1551939  0.0235444  0.0000000
 R(2)= -0.9664885  6.3706578 -7.0710231  G(2)=  0.0000000  0.1569697  0.0000000
 R(3)=  0.0000000  0.0000000  9.5665432  G(3)=  0.1147101  0.1334253  0.1045310
 Unit cell volume ucvol=  3.9270348E+02 bohr^3
 Angles (23,13,12)=  1.37658283E+02  1.37658283E+02  6.14267596E+01 degrees

 getcut: wavevector=  0.0000  0.0000  0.0000  ngfft=  60  60  60
         ecut(hartree)=     42.000   => boxcut(ratio)=   2.15003

--- Pseudopotential description ------------------------------------------------
- pspini: atom type   1  psp file is /scratch/users/j/a/jabreu/pseudos/PBEsol/Li.psp8
- pspatm: opening atomic psp file    /scratch/users/j/a/jabreu/pseudos/PBEsol/Li.psp8
- Li    ONCVPSP-3.3.0  r_core=   1.40824   1.10935
-  3.00000   3.00000    180112                znucl, zion, pspdat
    8 -116133    1    4       400   0.00000   pspcod,pspxc,lmax,lloc,mmax,r2well
    3.99000000000000    0.00000000000000    0.00000000000000   rchrg,fchrg,qchrg
     nproj     2     2
     extension_switch     1
  pspatm : epsatm=    2.60859637
         --- l  ekb(1:nproj) -->
             0   -4.855856   -1.482423
             1   -2.171544   -0.427615
 pspatm: atomic psp has been read  and splines computed

- pspini: atom type   2  psp file is /scratch/users/j/a/jabreu/pseudos/PBEsol/C.psp8
- pspatm: opening atomic psp file    /scratch/users/j/a/jabreu/pseudos/PBEsol/C.psp8
- C     ONCVPSP-3.3.0  r_core=   1.20440   1.26326
-  6.00000   4.00000    180112                znucl, zion, pspdat
    8 -116133    1    4       600   0.00000   pspcod,pspxc,lmax,lloc,mmax,r2well
    5.99000000000000    4.00000000000000    0.00000000000000   rchrg,fchrg,qchrg
     nproj     2     2
     extension_switch     1
  pspatm : epsatm=    4.34909529
         --- l  ekb(1:nproj) -->
             0    6.468939    0.390031
             1   -4.179695   -0.878453
 pspatm: atomic psp has been read  and splines computed

- pspini: atom type   3  psp file is /scratch/users/j/a/jabreu/pseudos/PBEsol/N.psp8
- pspatm: opening atomic psp file    /scratch/users/j/a/jabreu/pseudos/PBEsol/N.psp8
- N     ONCVPSP-3.3.0  r_core=   1.20551   1.35824
-  7.00000   5.00000    180112                znucl, zion, pspdat
    8 -116133    1    4       600   0.00000   pspcod,pspxc,lmax,lloc,mmax,r2well
    5.99000000000000    4.00000000000000    0.00000000000000   rchrg,fchrg,qchrg
     nproj     2     2
     extension_switch     1
  pspatm : epsatm=    5.26508895
         --- l  ekb(1:nproj) -->
             0    7.464189    0.625868
             1   -4.309714   -1.012941
 pspatm: atomic psp has been read  and splines computed

   4.01929319E+02                                ecore*ucvol(ha*bohr**3)

 ==>  initialize data related to q vector <==

 The list of irreducible perturbations for this q vector is:
    1)    idir= 1    ipert=   6
    2)    idir= 2    ipert=   6
    3)    idir= 3    ipert=   6

 Perturbation wavevector (in red.coord.)   0.000000  0.000000  0.000000
 Perturbation : derivative vs k along direction   1

 dfpt_looppert : COMMENT -
  In a d/dk calculation, iscf is set to -3 automatically.
 The set of symmetries contains only one element for this perturbation.
 symkpt : not enough symmetry to change the number of k points.

 Initialisation of the first-order wave-functions :
  ireadwf=   0

--- !BeginCycle
iteration_state: {dtset: 1, }
solver: {iscf: 7, nstep: 2000, nline: 4, wfoptalg: 0, }
tolerances: {tolwfr: 1.00E-20, }
...

     iter   2DEtotal(Ha)        deltaE(Ha) residm    vres2
-ETOT  1  -23.753792084331     -2.375E+01 2.846E-02 0.000E+00
 ETOT  2  -23.763555897796     -9.764E-03 2.258E-05 0.000E+00
 ETOT  3  -23.763565854332     -9.957E-06 5.431E-08 0.000E+00
 ETOT  4  -23.763565877222     -2.289E-08 3.112E-10 0.000E+00
 ETOT  5  -23.763565877293     -7.054E-11 8.133E-13 0.000E+00
 ETOT  6  -23.763565877293     -2.522E-13 4.804E-15 0.000E+00
 ETOT  7  -23.763565877293      0.000E+00 1.259E-17 0.000E+00
 ETOT  8  -23.763565877293      2.132E-14 8.857E-20 0.000E+00
 ETOT  9  -23.763565877293     -1.066E-14 9.438E-21 0.000E+00

 At SCF step    9   max residual=  9.44E-21 < tolwfr=  1.00E-20 =>converged.

 ----iterations are completed or convergence reached----

 dfpt_looppert: DFPT cycle converged with prtwf=-1. Will skip output of the 1st-order WFK file.
 dfpt_looppert : ek2=    3.8909098621E+01
          f-sum rule ratio=    1.1985704365E+00
 prteigrs : about to open file /scratch/users/j/a/jabreu/flow_simple_remain_atoms/flow/w262/t1/tmpdata/tmp_1WF1_EIG
 Expectation of eigenvalue derivatives (hartree) for nkpt=   1  k points:
  (in case of degenerate eigenvalues, averaged derivative)
 kpt#   1, nband= 19, wtk=  1.00000, kpt=  0.5000  0.5000 -0.5000 (reduced coord)
   0.00000   -0.00000   -0.00000   -0.00000    0.00000   -0.00000    0.00000    0.00000
   0.00000    0.00000   -0.00000    0.00000    0.00000   -0.00000    0.00000   -0.00000
  -0.00000   -0.00000   -0.00000

 Eight components of 2nd-order total energy (hartree) are
 1,2,3: 0th-order hamiltonian combined with 1st-order wavefunctions
     kin0=   2.01470344E+01 eigvalue=   2.45075707E+00  local=  -7.50356127E+00
 4,5,6: 1st-order hamiltonian combined with 1st and 0th-order wfs
     kin1=  -4.66352953E+01  Hartree=   0.00000000E+00     xc=   0.00000000E+00
 7,8,9: eventually, occupation + non-local contributions
    edocc=   9.95559806E+00     enl0=  -1.28626234E+00   enl1=  -8.91836436E-01
 1-9 gives the relaxation energy (to be shifted if some occ is /=2.0)
   erelax=  -2.37635659E+01
  No Ewald or frozen-wf contrib.: the relaxation energy is the total one
 2DEtotal=   -0.2376356588E+02 Ha. Also 2DEtotal=   -0.646639512969E+03 eV
    (  non-var. 2DEtotal :   -2.3763565877E+01 Ha)

 Perturbation wavevector (in red.coord.)   0.000000  0.000000  0.000000
 Perturbation : derivative vs k along direction   2
 The set of symmetries contains only one element for this perturbation.
 symkpt : not enough symmetry to change the number of k points.

[...]

 Perturbation wavevector (in red.coord.)   0.000000  0.000000  0.000000
 Perturbation : derivative vs k along direction   3
 The set of symmetries contains only one element for this perturbation.
 symkpt : not enough symmetry to change the number of k points.

 Initialisation of the first-order wave-functions :
  ireadwf=   0

--- !BeginCycle
iteration_state: {dtset: 1, }
solver: {iscf: 7, nstep: 2000, nline: 4, wfoptalg: 0, }
tolerances: {tolwfr: 1.00E-20, }
...

     iter   2DEtotal(Ha)        deltaE(Ha) residm    vres2
-ETOT  1  -40.001676924803     -4.000E+01 4.779E-02 0.000E+00
 ETOT  2  -40.011691888842     -1.001E-02 5.138E-05 0.000E+00
 ETOT  3  -40.011697016281     -5.127E-06 1.765E-08 0.000E+00
 ETOT  4  -40.011697020805     -4.524E-09 2.704E-11 0.000E+00
 ETOT  5  -40.011697020810     -4.867E-12 1.582E-14 0.000E+00
 ETOT  6  -40.011697020810      9.237E-14 3.109E-17 0.000E+00
 ETOT  7  -40.011697020810     -3.553E-14 1.836E-20 0.000E+00
 ETOT  8  -40.011697020810     -1.421E-14 8.188E-21 0.000E+00

 At SCF step    8   max residual=  8.19E-21 < tolwfr=  1.00E-20 =>converged.

 ----iterations are completed or convergence reached----

 dfpt_looppert: DFPT cycle converged with prtwf=-1. Will skip output of the 1st-order WFK file.
 dfpt_looppert : ek2=    6.6146004867E+01
          f-sum rule ratio=    1.1924778479E+00
 prteigrs : about to open file /scratch/users/j/a/jabreu/flow_simple_remain_atoms/flow/w262/t1/tmpdata/tmp_1WF1_EIG
 Expectation of eigenvalue derivatives (hartree) for nkpt=   1  k points:
  (in case of degenerate eigenvalues, averaged derivative)
 kpt#   1, nband= 19, wtk=  1.00000, kpt=  0.5000  0.5000 -0.5000 (reduced coord)
  -0.00000   -0.00000   -0.00000   -0.00000    0.00000   -0.00000    0.00000    0.00000
   0.00000    0.00000    0.00000   -0.00000   -0.00000   -0.00000    0.00000   -0.00000
  -0.00000   -0.00000   -0.00000

 Eight components of 2nd-order total energy (hartree) are
 1,2,3: 0th-order hamiltonian combined with 1st-order wavefunctions
     kin0=   3.53451236E+01 eigvalue=   4.20479505E+00  local=  -1.29559580E+01
 4,5,6: 1st-order hamiltonian combined with 1st and 0th-order wfs
     kin1=  -7.88776455E+01  Hartree=   0.00000000E+00     xc=   0.00000000E+00
 7,8,9: eventually, occupation + non-local contributions
    edocc=   1.55336494E+01     enl0=  -2.11591316E+00   enl1=  -1.14574851E+00
 1-9 gives the relaxation energy (to be shifted if some occ is /=2.0)
   erelax=  -4.00116970E+01
  No Ewald or frozen-wf contrib.: the relaxation energy is the total one
 2DEtotal=   -0.4001169702E+02 Ha. Also 2DEtotal=   -0.108877364652E+04 eV
    (  non-var. 2DEtotal :   -4.0011697021E+01 Ha)

 CALCULATION OF EFFECTIVE MASSES
 NOTE : Additional infos (eff. mass eigenvalues, eigenvectors and, if degenerate, average mass) are available in stdout.

 COMMENTS:
 - At k-point ( 0.500, 0.500,-0.500), bands     9 through    10
   are DEGENERATE (effective mass tensor is therefore not defined).
   See Section IIIB Eqs. (67)-(70) and Appendix E of PRB 93 205147 (2016).
 - Angular average effective mass for Frohlich model is to be averaged over degenerate bands. See later.
 - Associated theta integrals calculated with ntheta=   1000 points.

 K-point ( 0.500, 0.500,-0.500) | band =     9
 Transport equivalent effective mass tensor:
             -1.3915478791              0.1191507117             -0.2644993537
              0.1191507117             -1.3553953188             -0.3076528939
             -0.2644993537             -0.3076528939             -0.8110355721
 Transport equivalent effective mass tensor eigenvalues:
             -1.4939856813             -1.4939856811             -0.5700074076
 Angular average effective mass 1/(<1/m>)=  -0.9455500276
 Angular average effective mass for Frohlich model (<m**0.5>)**2=  -1.0163241662
 Effective masses along directions: (cart. coord. / red. coord. -> eff. mass)
    1:   1.000000  0.000000  0.000000 /   0.988937 -0.148334  0.000000 ->  -1.1782300689
    2:   0.000000  1.000000  0.000000 /   0.000000  1.000000  0.000000 ->  -1.1137218321
    3:   0.000000  0.000000  1.000000 /  -0.510950 -0.510950  0.691275 ->  -0.6674446133
    4:   0.577350  0.577350  0.577350 /  -0.064482 -0.171295  0.983107 ->  -1.5889845488
    5:   0.000000  0.707107  0.707107 /  -0.593369 -0.058772  0.802782 ->  -1.2003412885
    6:   0.707107  0.000000  0.707107 /  -0.050155 -0.642458  0.764678 ->  -1.1405197205
    7:   0.707107  0.707107  0.000000 /   0.766197  0.642605  0.000000 ->  -1.0738250045

 K-point ( 0.500, 0.500,-0.500) | band =    10
 Transport equivalent effective mass tensor:
             -4.6320366303              0.5688643163             -1.2628060859
              0.5688643163             -4.4594325268             -1.4688351488
             -1.2628060859             -1.4688351488             -1.8604817442
 Transport equivalent effective mass tensor eigenvalues:
             -5.1211080699             -5.1211080697             -0.7097347617
 Angular average effective mass 1/(<1/m>)=  -1.3240234931
 Angular average effective mass for Frohlich model (<m**0.5>)**2=  -1.8320785826
 Effective masses along directions: (cart. coord. / red. coord. -> eff. mass)
    1:   1.000000  0.000000  0.000000 /   0.988937 -0.148334  0.000000 ->  -2.7616753610
    2:   0.000000  1.000000  0.000000 /   0.000000  1.000000  0.000000 ->  -2.3876430796
    3:   0.000000  0.000000  1.000000 /  -0.510950 -0.510950  0.691275 ->  -0.7078229819
    4:   0.577350  0.577350  0.577350 /  -0.064482 -0.171295  0.983107 ->  -3.3441940182
    5:   0.000000  0.707107  0.707107 /  -0.593369 -0.058772  0.802782 ->  -2.6334947685
    6:   0.707107  0.000000  0.707107 /  -0.050155 -0.642458  0.764678 ->  -2.4421635859
    7:   0.707107  0.707107  0.000000 /   0.766197  0.642605  0.000000 ->  -1.4673735604

 Angular average effective mass for Frohlich model, averaged over degenerate bands.
 Value of     (<<m**0.5>>)**2 =     1.394374E+00
 Absolute Value of <<m**0.5>> =     1.180836E+00

 K-point ( 0.500, 0.500,-0.500) | band =    11
 Effective mass tensor:
              0.7381322298              0.2150098792             -0.4772944552
              0.2150098792              0.8033702623             -0.5551658988
             -0.4772944552             -0.5551658988              1.7856784864
 Effective mass tensor eigenvalues:
              0.5532811369              0.5532811370              2.2206187047
 Angular average effective mass 1/(<1/m>)=   0.7379849110
 Angular average effective mass for Frohlich model (<m**0.5>)**2=   0.8095835925
 Effective masses along directions: (cart. coord. / red. coord. -> eff. mass)
    1:   1.000000  0.000000  0.000000 /   0.988937 -0.148334  0.000000 ->   0.6035199865
    2:   0.000000  1.000000  0.000000 /   0.000000  1.000000  0.000000 ->   0.6235006338
    3:   0.000000  0.000000  1.000000 /  -0.510950 -0.510950  0.691275 ->   1.2432704830
    4:   0.577350  0.577350  0.577350 /  -0.064482 -0.171295  0.983107 ->   0.5559882471
    5:   0.000000  0.707107  0.707107 /  -0.593369 -0.058772  0.802782 ->   0.6038837363
    6:   0.707107  0.000000  0.707107 /  -0.050155 -0.642458  0.764678 ->   0.6176209085
    7:   0.707107  0.707107  0.000000 /   0.766197  0.642605  0.000000 ->   0.6870979474

 END OF EFFECTIVE MASSES SECTION

 ---- first-order wavefunction calculations are completed ----

 Total localisation tensor (bohr^2) in cartesian coordinates
  WARNING : still subject to testing - especially symmetries.
      direction              matrix element
   alpha     beta       real part   imaginary part
     1        1       1.0204372315    0.0000000000
     1        2      -0.1479973615    0.0000000000
     1        3      -0.9309002208    0.0000000000
     2        1      -0.1479973615    0.0000000000
     2        2       0.9755320555    0.0000000000
     2        3      -1.0827782495    0.0000000000
     3        1      -0.9309002208    0.0000000000
     3        2      -1.0827782495    0.0000000000
     3        3       5.6046081039    0.0000000000

 respfn : d/dk was computed, but no 2DTE, so no DDB output.

== END DATASET(S) ==============================================================

 -outvars: echo values of variables after computation  --------
            acell      1.0000000000E+00  1.0000000000E+00  1.0000000000E+00 Bohr
              amu      6.94100000E+00  1.20110000E+01  1.40067400E+01
             ecut      4.20000000E+01 Hartree
           etotal     -4.0011697021E+01
            fcart      0.0000000000E+00  0.0000000000E+00  0.0000000000E+00
                       0.0000000000E+00  0.0000000000E+00  0.0000000000E+00
                       0.0000000000E+00  0.0000000000E+00  0.0000000000E+00
                       0.0000000000E+00  0.0000000000E+00  0.0000000000E+00
                       0.0000000000E+00  0.0000000000E+00  0.0000000000E+00
-          fftalg         512
           irdden           1
           irdwfk           1
              ixc     -116133
              kpt      5.00000000E-01  5.00000000E-01 -5.00000000E-01
           kptopt           0
P           mkmem           1
P          mkqmem           1
P          mk1mem           1
            natom           5
            nband          19
           nbdbuf           4
            ngfft          60      60      60
             nkpt           1
            nstep        2000
             nsym          16
           ntypat           3
              occ      2.000000  2.000000  2.000000  2.000000  2.000000  2.000000
                       2.000000  2.000000  2.000000  2.000000  0.000000  0.000000
                       0.000000  0.000000  0.000000  0.000000  0.000000  0.000000
                       0.000000
        optdriver           1
            prtwf          -1
            rfdir           1       1       1
           rfelfd           2
            rprim      6.4435534585E+00  0.0000000000E+00 -7.0710231253E+00
                      -9.6648853640E-01  6.3706578217E+00 -7.0710231253E+00
                       0.0000000000E+00  0.0000000000E+00  9.5665432216E+00
          spgroup         139
           strten      0.0000000000E+00  0.0000000000E+00  0.0000000000E+00
                       0.0000000000E+00  0.0000000000E+00  0.0000000000E+00
           symrel      1  0  0   0  1  0   0  0  1      -1  0  0   0 -1  0   0  0 -1
                       0  0  1  -1 -1 -1   1  0  0       0  0 -1   1  1  1  -1  0  0
                       0  1  0   1  0  0  -1 -1 -1       0 -1  0  -1  0  0   1  1  1
                      -1 -1 -1   0  0  1   0  1  0       1  1  1   0  0 -1   0 -1  0
                       0  1  0   1  0  0   0  0  1       0 -1  0  -1  0  0   0  0 -1
                       0  0  1  -1 -1 -1   0  1  0       0  0 -1   1  1  1   0 -1  0
                       1  0  0   0  1  0  -1 -1 -1      -1  0  0   0 -1  0   1  1  1
                      -1 -1 -1   0  0  1   1  0  0       1  1  1   0  0 -1  -1  0  0
           tolwfr      1.00000000E-20
            typat      1  1  2  3  3
           useylm           1
           xangst      4.6886262877E-01  2.5284051922E+00 -1.2106259604E+00
                       2.4294752980E+00  8.4280173074E-01 -1.2106259604E+00
                       0.0000000000E+00  0.0000000000E+00  0.0000000000E+00
                       4.1132632189E-01  4.7843494409E-01 -1.0620644361E+00
                       2.4870116049E+00  2.8927719789E+00 -6.4215841225E+00
            xcart      8.8602196232E-01  4.7779933663E+00 -2.2877515145E+00
                       4.5910429598E+00  1.5926644554E+00 -2.2877515145E+00
                       0.0000000000E+00  0.0000000000E+00  0.0000000000E+00
                       7.7729409961E-01  9.0411101674E-01 -2.0070109198E+00
                       4.6997708225E+00  5.4665468050E+00 -1.2135035331E+01
             xred      2.5000000000E-01  7.5000000000E-01  5.0000000000E-01
                       7.5000000000E-01  2.5000000000E-01  5.0000000000E-01
                       0.0000000000E+00  0.0000000000E+00  0.0000000000E+00
                       1.4191800000E-01  1.4191800000E-01  0.0000000000E+00
                       8.5808200000E-01  8.5808200000E-01  0.0000000000E+00
            znucl        3.00000    6.00000    7.00000

- Timing analysis has been suppressed with timopt=0

 Suggested references for the acknowledgment of ABINIT usage.

 Calculation completed.
.Delivered   2 WARNINGs and   5 COMMENTs to log file.