.Version 9.5.2 of ABINIT

 ABINIT is a project of the Universite Catholique de Louvain,
 Corning Inc. and other collaborators, see ~abinit/doc/developers/contributors.txt .
 acknowledgments of the ABINIT effort.

.Starting date : Thu 27 May 2021.
- ( at 13h47 )

- input  file    -> /scratch/users/j/a/jabreu/flow_simple_11atoms/flow/w223/t1/run.abi
- output file    -> /scratch/users/j/a/jabreu/flow_simple_11atoms/flow/w223/t1/run.abo
- root for input  files -> /scratch/users/j/a/jabreu/flow_simple_11atoms/flow/w223/t1/indata/in
- root for output files -> /scratch/users/j/a/jabreu/flow_simple_11atoms/flow/w223/t1/outdata/out

 Symmetries : space group C2/c (# 15); Bravais mC (1-face-center monocl.)
     intxc =       0      iscf =       7    lmnmax =      18     lnmax =       6
     mgfft =     108  mpssoang =       3    mqgrid =    4896     natom =      12
  nloc_mem =       1    nspden =       1   nspinor =       1    nsppol =       1
      nsym =       4    n1xccc =    2501    ntypat =       3    occopt =       1
   xclevel =       2
-    mband =          69        mffmem =           1         mkmem =           2
-   mkqmem =           2        mk1mem =           2           mpw =       35384
      nfft =      691200          nkpt =           2
  Rough estimation (10% accuracy) of disk space for files :

------------- Echo of variables that govern the present computation ------------
-
- outvars: echo of selected default values
-   iomode0 =  0 , fftalg0 =512 , wfoptalg0 =  0
-
- outvars: echo of global parameters not present in the input file
-  max_nthreads =    0
-
 -outvars: echo values of preprocessed input variables --------
            acell      1.0000000000E+00  1.0000000000E+00  1.0000000000E+00 Bohr
              amu      8.54678000E+01  1.08110000E+01  7.49215900E+01
             ecut      4.20000000E+01 Hartree
-          fftalg         512
           irdden           1
           irdwfk           1
           istwfk        0    1
              ixc     -116133
              kpt      5.00000000E-01 -5.00000000E-01  0.00000000E+00
                       0.00000000E+00  0.00000000E+00  0.00000000E+00
           kptopt           0
P           mkmem           2
P          mkqmem           2
P          mk1mem           2
            natom          12
            nband          69
           nbdbuf           4
            ngfft          80      80     108
             nkpt           2
            nstep        2000
             nsym           4
           ntypat           3
              occ      2.000000  2.000000  2.000000  2.000000  2.000000  2.000000
                       2.000000  2.000000  2.000000  2.000000  2.000000  2.000000
                       2.000000  2.000000  2.000000  2.000000  2.000000  2.000000
                       2.000000  2.000000  2.000000  2.000000  2.000000  2.000000
                       2.000000  2.000000  2.000000  2.000000  2.000000  2.000000
                       2.000000  2.000000  2.000000  2.000000  2.000000  2.000000
                       2.000000  2.000000  2.000000  2.000000  2.000000  2.000000
                       2.000000  2.000000  2.000000  2.000000  2.000000  2.000000
                       2.000000  2.000000  2.000000  2.000000  2.000000  2.000000
                       2.000000  2.000000  2.000000  2.000000  2.000000  2.000000
                       0.000000  0.000000  0.000000  0.000000  0.000000  0.000000
                       0.000000  0.000000  0.000000
        optdriver           1
            prtwf          -1
            rfdir           1       1       1
           rfelfd           2
            rprim      1.2303413961E+01  0.0000000000E+00  3.2763015121E+00
                      -3.8534739900E-01  1.2297377870E+01  3.2763015121E+00
                       0.0000000000E+00  0.0000000000E+00  1.7967900155E+01
          spgroup          15
           symrel      1  0  0   0  1  0   0  0  1      -1  0  0   0 -1  0   0  0 -1
                       0 -1  0  -1  0  0   0  0 -1       0  1  0   1  0  0   0  0  1
            tnons      0.0000000  0.0000000  0.0000000    -0.0000000  0.0000000  0.0000000
                      -0.0000000 -0.0000000  0.5000000    -0.0000000  0.0000000  0.5000000
           tolwfr      1.00000000E-20
            typat      1  1  1  1  1  1  2  2  3  3  3  3
           useylm           1
              wtk        0.50000    0.50000
           xangst      5.5111504061E+00  9.6870527311E-01  8.8648965250E+00
                       7.9561878879E-01  5.5387868209E+00  4.1107949008E+00
                       1.5085183010E+00  2.2799193776E+00  1.0364410489E+01
                       4.0752156941E+00  4.9283059726E+00  7.3653825609E+00
                       4.7982508938E+00  4.2275727164E+00  2.6112809367E+00
                       2.2315535008E+00  1.5791861214E+00  5.6103088649E+00
                       5.0632460772E+00  1.4027940407E+00  4.1107949008E+00
                       1.2435231176E+00  5.1046980533E+00  8.8648965250E+00
                       5.8478891231E+00  2.2675030827E+00  5.5788276266E+00
                       4.2235365696E+00  5.9145294144E-01  2.6427621749E+00
                       2.0832326253E+00  5.9160391526E+00  1.0332929251E+01
                       4.5888007178E-01  4.2399890113E+00  7.3968637992E+00
            xcart      1.0414564945E+01  1.8305876697E+00  1.6752226629E+01
                       1.5035016170E+00  1.0466790200E+01  7.7682765509E+00
                       2.8506864554E+00  4.3084232287E+00  1.9585897353E+01
                       7.7010415943E+00  9.3131485872E+00  1.3918555904E+01
                       9.0673801062E+00  7.9889546409E+00  4.9346058264E+00
                       4.2170249673E+00  2.9842292824E+00  1.0601947276E+01
                       9.5681484294E+00  2.6508965578E+00  7.7682765509E+00
                       2.3499181322E+00  9.6464813118E+00  1.6752226629E+01
                       1.1050908898E+01  4.2849598318E+00  1.0542456357E+01
                       7.9813274287E+00  1.1176840798E+00  4.9940967450E+00
                       3.9367391329E+00  1.1179693790E+01  1.9526406435E+01
                       8.6715766350E-01  8.0124180378E+00  1.3978046823E+01
             xred      8.5114000000E-01  1.4886000000E-01  7.5000000000E-01
                       1.4886000000E-01  8.5114000000E-01  2.5000000000E-01
                       2.4267200000E-01  3.5035300000E-01  9.8191600000E-01
                       6.4964700000E-01  7.5732800000E-01  5.1808400000E-01
                       7.5732800000E-01  6.4964700000E-01  1.8084000000E-02
                       3.5035300000E-01  2.4267200000E-01  4.8191600000E-01
                       7.8443400000E-01  2.1556600000E-01  2.5000000000E-01
                       2.1556600000E-01  7.8443400000E-01  7.5000000000E-01
                       9.0911200000E-01  3.4844500000E-01  3.5743300000E-01
                       6.5155500000E-01  9.0888000000E-02  1.4256700000E-01
                       3.4844500000E-01  9.0911200000E-01  8.5743300000E-01
                       9.0888000000E-02  6.5155500000E-01  6.4256700000E-01
            znucl       37.00000    5.00000   33.00000

 chkinp: Checking input parameters for consistency.

== DATASET  1 ==================================================================
-   mpi_nproc: 1, omp_nthreads: -1 (-1 if OMP is not activated)

--- !DatasetInfo
iteration_state: {dtset: 1, }
dimensions: {natom: 12, nkpt: 2, mband: 69, nsppol: 1, nspinor: 1, nspden: 1, mpw: 35384, }
cutoff_energies: {ecut:  42.0, pawecutdg:  -1.0, }
electrons: {nelect:   1.20000000E+02, charge:   0.00000000E+00, occopt:   1.00000000E+00, tsmear:   1.00000000E-02, }
meta: {optdriver: 1, rfelfd: 2, }
...

 Real(R)+Recip(G) space primitive vectors, cartesian coordinates (Bohr,Bohr^-1):
 R(1)= 12.3034140  0.0000000  3.2763015  G(1)=  0.0812783  0.0025469  0.0000000
 R(2)= -0.3853474 12.2973779  3.2763015  G(2)=  0.0000000  0.0813181  0.0000000
 R(3)=  0.0000000  0.0000000 17.9679002  G(3)= -0.0148204 -0.0152921  0.0556548
 Unit cell volume ucvol=  2.7185385E+03 bohr^3
 Angles (23,13,12)=  7.50886228E+01  7.50886228E+01  8.78813188E+01 degrees

 getcut: wavevector=  0.0000  0.0000  0.0000  ngfft=  80  80 108
         ecut(hartree)=     42.000   => boxcut(ratio)=   2.06037

--- Pseudopotential description ------------------------------------------------
- pspini: atom type   1  psp file is /scratch/users/j/a/jabreu/pseudos/PBEsol/Rb.psp8
- pspatm: opening atomic psp file    /scratch/users/j/a/jabreu/pseudos/PBEsol/Rb.psp8
- Rb    ONCVPSP-3.3.0  r_core=   1.71227   1.75361   1.90633
- 37.00000   9.00000    180112                znucl, zion, pspdat
    8 -116133    2    4       600   0.00000   pspcod,pspxc,lmax,lloc,mmax,r2well
    5.99000000000000    7.00000000000000    0.00000000000000   rchrg,fchrg,qchrg
     nproj     2     2     2
     extension_switch     1
  pspatm : epsatm=   34.48400912
         --- l  ekb(1:nproj) -->
             0    8.196957   -0.477221
             1    3.231347   -0.378736
             2   -1.047201    0.996637
 pspatm: atomic psp has been read  and splines computed

- pspini: atom type   2  psp file is /scratch/users/j/a/jabreu/pseudos/PBEsol/B.psp8
- pspatm: opening atomic psp file    /scratch/users/j/a/jabreu/pseudos/PBEsol/B.psp8
- B     ONCVPSP-3.3.0  r_core=   1.20849   1.20849
-  5.00000   3.00000    180112                znucl, zion, pspdat
    8 -116133    1    4       600   0.00000   pspcod,pspxc,lmax,lloc,mmax,r2well
    5.99000000000000    2.90000000000000    0.00000000000000   rchrg,fchrg,qchrg
     nproj     2     2
     extension_switch     1
  pspatm : epsatm=    3.20154566
         --- l  ekb(1:nproj) -->
             0    8.466603    1.247630
             1   -3.609180   -0.822621
 pspatm: atomic psp has been read  and splines computed

- pspini: atom type   3  psp file is /scratch/users/j/a/jabreu/pseudos/PBEsol/As.psp8
- pspatm: opening atomic psp file    /scratch/users/j/a/jabreu/pseudos/PBEsol/As.psp8
- As    ONCVPSP-3.3.0  r_core=   1.76603   1.70395   1.80867
- 33.00000  15.00000    180112                znucl, zion, pspdat
    8 -116133    2    4       600   0.00000   pspcod,pspxc,lmax,lloc,mmax,r2well
    5.99000000000000    5.00000000000000    0.00000000000000   rchrg,fchrg,qchrg
     nproj     2     2     2
     extension_switch     1
  pspatm : epsatm=   28.79155382
         --- l  ekb(1:nproj) -->
             0    8.270760    0.868950
             1    4.919053    0.756587
             2  -10.048665   -4.076802
 pspatm: atomic psp has been read  and splines computed

   3.94168034E+04                                ecore*ucvol(ha*bohr**3)

 ==>  initialize data related to q vector <==

 The list of irreducible perturbations for this q vector is:
    1)    idir= 1    ipert=  13
    2)    idir= 2    ipert=  13
    3)    idir= 3    ipert=  13

 Perturbation wavevector (in red.coord.)   0.000000  0.000000  0.000000
 Perturbation : derivative vs k along direction   1

 dfpt_looppert : COMMENT -
  In a d/dk calculation, iscf is set to -3 automatically.
 The set of symmetries contains only one element for this perturbation.
[...]
  -0.00000    0.00000    0.00000   -0.00000   -0.00000    0.00000    0.00000    0.00000
  -0.00000   -0.00000    0.00000   -0.00000   -0.00000   -0.00000    0.00000    0.00000
  -0.00000   -0.00000    0.00000    0.00000    0.00000   -0.00000    0.00000    0.00000
   0.00000    0.00000    0.00000   -0.00000   -0.00000    0.00000    0.00000   -0.00000
  -0.00000   -0.00000   -0.00000    0.00046   -0.00506
 prteigrs : prtvol=0 or 1, do not print more k-points.

 Eight components of 2nd-order total energy (hartree) are
 1,2,3: 0th-order hamiltonian combined with 1st-order wavefunctions
     kin0=   7.03818606E+01 eigvalue=   1.11117872E+01  local=  -3.31342967E+01
 4,5,6: 1st-order hamiltonian combined with 1st and 0th-order wfs
     kin1=  -6.28743693E+01  Hartree=   0.00000000E+00     xc=   0.00000000E+00
 7,8,9: eventually, occupation + non-local contributions
    edocc=   4.39040661E+00     enl0=   3.48530372E+00   enl1=  -4.95957534E+01
 1-9 gives the relaxation energy (to be shifted if some occ is /=2.0)
   erelax=  -5.62350614E+01
  No Ewald or frozen-wf contrib.: the relaxation energy is the total one
 2DEtotal=   -0.5623506137E+02 Ha. Also 2DEtotal=   -0.153023384144E+04 eV
    (  non-var. 2DEtotal :   -5.6235061374E+01 Ha)

 Perturbation wavevector (in red.coord.)   0.000000  0.000000  0.000000
 Perturbation : derivative vs k along direction   2
 The set of symmetries contains only one element for this perturbation.
 symkpt : not enough symmetry to change the number of k points.

[...]

 Perturbation wavevector (in red.coord.)   0.000000  0.000000  0.000000
 Perturbation : derivative vs k along direction   3
 The set of symmetries contains only one element for this perturbation.
 symkpt : not enough symmetry to change the number of k points.

 Initialisation of the first-order wave-functions :
  ireadwf=   0

--- !BeginCycle
iteration_state: {dtset: 1, }
solver: {iscf: 7, nstep: 2000, nline: 4, wfoptalg: 0, }
tolerances: {tolwfr: 1.00E-20, }
...

     iter   2DEtotal(Ha)        deltaE(Ha) residm    vres2
-ETOT  1  -30.058401276663     -3.006E+01 4.012E-02 0.000E+00
 ETOT  2  -30.094757036682     -3.636E-02 2.859E-03 0.000E+00
 ETOT  3  -30.094922067847     -1.650E-04 5.459E-04 0.000E+00
 ETOT  4  -30.094923744956     -1.677E-06 7.115E-05 0.000E+00
 ETOT  5  -30.094923767661     -2.270E-08 3.333E-05 0.000E+00
 ETOT  6  -30.094923768016     -3.552E-10 4.620E-06 0.000E+00
 ETOT  7  -30.094923768022     -6.096E-12 2.245E-06 0.000E+00
 ETOT  8  -30.094923768022     -8.171E-14 3.173E-07 0.000E+00
 ETOT  9  -30.094923768022      7.105E-15 1.568E-07 0.000E+00
 ETOT 10  -30.094923768022     -2.132E-14 2.243E-08 0.000E+00
 ETOT 11  -30.094923768022      0.000E+00 1.120E-08 0.000E+00
 ETOT 12  -30.094923768022      7.105E-15 1.615E-09 0.000E+00
 ETOT 13  -30.094923768022      0.000E+00 8.124E-10 0.000E+00
 ETOT 14  -30.094923768022      0.000E+00 1.177E-10 0.000E+00
 ETOT 15  -30.094923768022      0.000E+00 5.956E-11 0.000E+00
 ETOT 16  -30.094923768022      0.000E+00 8.661E-12 0.000E+00
 ETOT 17  -30.094923768022      3.553E-15 4.400E-12 0.000E+00
 ETOT 18  -30.094923768022     -3.553E-15 6.413E-13 0.000E+00
 ETOT 19  -30.094923768022      7.105E-15 3.269E-13 0.000E+00
 ETOT 20  -30.094923768022     -7.105E-15 4.772E-14 0.000E+00
 ETOT 21  -30.094923768022      1.066E-14 2.440E-14 0.000E+00
 ETOT 22  -30.094923768022      7.105E-15 3.566E-15 0.000E+00
 ETOT 23  -30.094923768022     -7.105E-15 1.828E-15 0.000E+00
 ETOT 24  -30.094923768022     -1.066E-14 2.673E-16 0.000E+00
 ETOT 25  -30.094923768022      3.553E-15 1.373E-16 0.000E+00
 ETOT 26  -30.094923768022      1.421E-14 2.010E-17 0.000E+00
 ETOT 27  -30.094923768022     -7.105E-15 1.035E-17 0.000E+00
 ETOT 28  -30.094923768022     -1.776E-14 1.515E-18 0.000E+00
 ETOT 29  -30.094923768022      2.842E-14 7.813E-19 0.000E+00
 ETOT 30  -30.094923768022     -7.105E-15 1.145E-19 0.000E+00
 ETOT 31  -30.094923768022      7.105E-15 5.913E-20 0.000E+00
 ETOT 32  -30.094923768022     -7.105E-15 9.871E-21 0.000E+00

 At SCF step   32   max residual=  9.87E-21 < tolwfr=  1.00E-20 =>converged.

 ----iterations are completed or convergence reached----

 dfpt_looppert: DFPT cycle converged with prtwf=-1. Will skip output of the 1st-order WFK file.
 dfpt_looppert : ek2=    3.3644627385E+01
          f-sum rule ratio=    9.9736127604E-01
 prteigrs : about to open file /scratch/users/j/a/jabreu/flow_simple_11atoms/flow/w223/t1/tmpdata/tmp_1WF1_EIG
 Expectation of eigenvalue derivatives (hartree) for nkpt=   2  k points:
  (in case of degenerate eigenvalues, averaged derivative)
 kpt#   1, nband= 69, wtk=  0.50000, kpt=  0.5000 -0.5000  0.0000 (reduced coord)
  -0.00000    0.00000   -0.00000    0.00000    0.00000   -0.00000    0.00000    0.00000
  -0.00000   -0.00000    0.00000   -0.00000   -0.00000    0.00000   -0.00000    0.00000
  -0.00000    0.00000    0.00000    0.00000    0.00000    0.00000    0.00000   -0.00000
   0.00000   -0.00000    0.00000   -0.00000    0.00000    0.00000    0.00000    0.00000
   0.00000   -0.00000   -0.00000   -0.00000   -0.00000   -0.00000   -0.00000   -0.00000
   0.00000    0.00000   -0.00000    0.00000    0.00000    0.00000   -0.00000   -0.00000
   0.00000   -0.00000   -0.00000    0.00000   -0.00000   -0.00000   -0.00000   -0.00000
   0.00000    0.00000    0.00000   -0.00000    0.00000   -0.00000   -0.00000    0.00000
  -0.00000    0.00000    0.00000    0.00021   -0.00148
 prteigrs : prtvol=0 or 1, do not print more k-points.

 Eight components of 2nd-order total energy (hartree) are
 1,2,3: 0th-order hamiltonian combined with 1st-order wavefunctions
     kin0=   3.80044968E+01 eigvalue=   5.98610417E+00  local=  -1.80212080E+01
 4,5,6: 1st-order hamiltonian combined with 1st and 0th-order wfs
     kin1=  -3.35558485E+01  Hartree=   0.00000000E+00     xc=   0.00000000E+00
 7,8,9: eventually, occupation + non-local contributions
    edocc=   2.20582381E+00     enl0=   1.91970695E+00   enl1=  -2.66339990E+01
 1-9 gives the relaxation energy (to be shifted if some occ is /=2.0)
   erelax=  -3.00949238E+01
  No Ewald or frozen-wf contrib.: the relaxation energy is the total one
 2DEtotal=   -0.3009492377E+02 Ha. Also 2DEtotal=   -0.818924522889E+03 eV
    (  non-var. 2DEtotal :   -3.0094923768E+01 Ha)

 CALCULATION OF EFFECTIVE MASSES
 NOTE : Additional infos (eff. mass eigenvalues, eigenvectors and, if degenerate, average mass) are available in stdout.

 K-point ( 0.500,-0.500, 0.000) | band =    60
 Effective mass tensor:
             -2.5112038518              0.9486088238              0.5782218947
              0.9486088238             -2.4525567496              0.5972378298
              0.5782218947              0.5972378298             -1.7520347129
 Effective mass tensor eigenvalues:
             -3.4309425196             -2.4809054034             -0.8039473913
 Angular average effective mass 1/(<1/m>)=  -1.5476632031
 Angular average effective mass for Frohlich model (<m**0.5>)**2=  -1.7569950624
 Effective masses along directions: (cart. coord. / red. coord. -> eff. mass)
    1:   1.000000  0.000000  0.000000 /   0.999510 -0.031305  0.000000 ->  -1.7367012871
    2:   0.000000  1.000000  0.000000 /   0.000000  1.000000  0.000000 ->  -1.6832576005
    3:   0.000000  0.000000  1.000000 /   0.176566  0.176566  0.968323 ->  -1.3012093555
    4:   0.577350  0.577350  0.577350 /   0.552119  0.538249  0.636752 ->  -0.8099833935
    5:   0.000000  0.707107  0.707107 /   0.136498  0.648836  0.748585 ->  -1.0197584515
    6:   0.707107  0.000000  0.707107 /   0.650324  0.120673  0.750011 ->  -1.0393004316
    7:   0.707107  0.707107  0.000000 /   0.718442  0.695587  0.000000 ->  -1.1385853427

 K-point ( 0.000, 0.000, 0.000) | band =    61
 Effective mass tensor:
              0.4415714537             -0.0289314952              0.0159188147
             -0.0289314952              0.4397582694              0.0164254551
              0.0159188147              0.0164254551              0.4193291824
 Effective mass tensor eigenvalues:
              0.3923361958              0.4387121519              0.4696105577
 Angular average effective mass 1/(<1/m>)=   0.4311796128
 Angular average effective mass for Frohlich model (<m**0.5>)**2=   0.4318979417
 Effective masses along directions: (cart. coord. / red. coord. -> eff. mass)
    1:   1.000000  0.000000  0.000000 /   0.999510 -0.031305  0.000000 ->   0.4389779036
    2:   0.000000  1.000000  0.000000 /   0.000000  1.000000  0.000000 ->   0.4371339961
    3:   0.000000  0.000000  1.000000 /   0.176566  0.176566  0.968323 ->   0.4180584029
    4:   0.577350  0.577350  0.577350 /   0.552119  0.538249  0.636752 ->   0.4355098658
    5:   0.000000  0.707107  0.707107 /   0.136498  0.648836  0.748585 ->   0.4455552836
    6:   0.707107  0.000000  0.707107 /   0.650324  0.120673  0.750011 ->   0.4459250458
    7:   0.707107  0.707107  0.000000 /   0.718442  0.695587  0.000000 ->   0.4104841286

 END OF EFFECTIVE MASSES SECTION

 ---- first-order wavefunction calculations are completed ----

 Total localisation tensor (bohr^2) in cartesian coordinates
  WARNING : still subject to testing - especially symmetries.
      direction              matrix element
   alpha     beta       real part   imaginary part
     1        1       0.9819392825    0.0000000000
     1        2      -0.0307086743    0.0000000000
     1        3       0.2530449020    0.0000000000
     2        1      -0.0307086743    0.0000000000
     2        2       0.9799888961    0.0000000000
     2        3       0.2610913592    0.0000000000
     3        1       0.2530449020    0.0000000000
     3        2       0.2610913592    0.0000000000
     3        3       1.2452450427    0.0000000000

 respfn : d/dk was computed, but no 2DTE, so no DDB output.

== END DATASET(S) ==============================================================

 -outvars: echo values of variables after computation  --------
            acell      1.0000000000E+00  1.0000000000E+00  1.0000000000E+00 Bohr
              amu      8.54678000E+01  1.08110000E+01  7.49215900E+01
             ecut      4.20000000E+01 Hartree
           etotal     -3.0094923768E+01
            fcart      0.0000000000E+00  0.0000000000E+00  0.0000000000E+00
                       0.0000000000E+00  0.0000000000E+00  0.0000000000E+00
                       0.0000000000E+00  0.0000000000E+00  0.0000000000E+00
                       0.0000000000E+00  0.0000000000E+00  0.0000000000E+00
                       0.0000000000E+00  0.0000000000E+00  0.0000000000E+00
                       0.0000000000E+00  0.0000000000E+00  0.0000000000E+00
                       0.0000000000E+00  0.0000000000E+00  0.0000000000E+00
                       0.0000000000E+00  0.0000000000E+00  0.0000000000E+00
                       0.0000000000E+00  0.0000000000E+00  0.0000000000E+00
                       0.0000000000E+00  0.0000000000E+00  0.0000000000E+00
                       0.0000000000E+00  0.0000000000E+00  0.0000000000E+00
                       0.0000000000E+00  0.0000000000E+00  0.0000000000E+00
-          fftalg         512
           irdden           1
           irdwfk           1
           istwfk        0    1
              ixc     -116133
              kpt      5.00000000E-01 -5.00000000E-01  0.00000000E+00
                       0.00000000E+00  0.00000000E+00  0.00000000E+00
           kptopt           0
P           mkmem           2
P          mkqmem           2
P          mk1mem           2
            natom          12
            nband          69
           nbdbuf           4
            ngfft          80      80     108
             nkpt           2
            nstep        2000
             nsym           4
           ntypat           3
              occ      2.000000  2.000000  2.000000  2.000000  2.000000  2.000000
                       2.000000  2.000000  2.000000  2.000000  2.000000  2.000000
                       2.000000  2.000000  2.000000  2.000000  2.000000  2.000000
                       2.000000  2.000000  2.000000  2.000000  2.000000  2.000000
                       2.000000  2.000000  2.000000  2.000000  2.000000  2.000000
                       2.000000  2.000000  2.000000  2.000000  2.000000  2.000000
                       2.000000  2.000000  2.000000  2.000000  2.000000  2.000000
                       2.000000  2.000000  2.000000  2.000000  2.000000  2.000000
                       2.000000  2.000000  2.000000  2.000000  2.000000  2.000000
                       2.000000  2.000000  2.000000  2.000000  2.000000  2.000000
                       0.000000  0.000000  0.000000  0.000000  0.000000  0.000000
                       0.000000  0.000000  0.000000
        optdriver           1
            prtwf          -1
            rfdir           1       1       1
           rfelfd           2
            rprim      1.2303413961E+01  0.0000000000E+00  3.2763015121E+00
                      -3.8534739900E-01  1.2297377870E+01  3.2763015121E+00
                       0.0000000000E+00  0.0000000000E+00  1.7967900155E+01
          spgroup          15
           strten      0.0000000000E+00  0.0000000000E+00  0.0000000000E+00
                       0.0000000000E+00  0.0000000000E+00  0.0000000000E+00
           symrel      1  0  0   0  1  0   0  0  1      -1  0  0   0 -1  0   0  0 -1
                       0 -1  0  -1  0  0   0  0 -1       0  1  0   1  0  0   0  0  1
            tnons      0.0000000  0.0000000  0.0000000    -0.0000000  0.0000000  0.0000000
                      -0.0000000 -0.0000000  0.5000000    -0.0000000  0.0000000  0.5000000
           tolwfr      1.00000000E-20
            typat      1  1  1  1  1  1  2  2  3  3  3  3
           useylm           1
              wtk        0.50000    0.50000
           xangst      5.5111504061E+00  9.6870527311E-01  8.8648965250E+00
                       7.9561878879E-01  5.5387868209E+00  4.1107949008E+00
                       1.5085183010E+00  2.2799193776E+00  1.0364410489E+01
                       4.0752156941E+00  4.9283059726E+00  7.3653825609E+00
                       4.7982508938E+00  4.2275727164E+00  2.6112809367E+00
                       2.2315535008E+00  1.5791861214E+00  5.6103088649E+00
                       5.0632460772E+00  1.4027940407E+00  4.1107949008E+00
                       1.2435231176E+00  5.1046980533E+00  8.8648965250E+00
                       5.8478891231E+00  2.2675030827E+00  5.5788276266E+00
                       4.2235365696E+00  5.9145294144E-01  2.6427621749E+00
                       2.0832326253E+00  5.9160391526E+00  1.0332929251E+01
                       4.5888007178E-01  4.2399890113E+00  7.3968637992E+00
            xcart      1.0414564945E+01  1.8305876697E+00  1.6752226629E+01
                       1.5035016170E+00  1.0466790200E+01  7.7682765509E+00
                       2.8506864554E+00  4.3084232287E+00  1.9585897353E+01
                       7.7010415943E+00  9.3131485872E+00  1.3918555904E+01
                       9.0673801062E+00  7.9889546409E+00  4.9346058264E+00
                       4.2170249673E+00  2.9842292824E+00  1.0601947276E+01
                       9.5681484294E+00  2.6508965578E+00  7.7682765509E+00
                       2.3499181322E+00  9.6464813118E+00  1.6752226629E+01
                       1.1050908898E+01  4.2849598318E+00  1.0542456357E+01
                       7.9813274287E+00  1.1176840798E+00  4.9940967450E+00
                       3.9367391329E+00  1.1179693790E+01  1.9526406435E+01
                       8.6715766350E-01  8.0124180378E+00  1.3978046823E+01
             xred      8.5114000000E-01  1.4886000000E-01  7.5000000000E-01
                       1.4886000000E-01  8.5114000000E-01  2.5000000000E-01
                       2.4267200000E-01  3.5035300000E-01  9.8191600000E-01
                       6.4964700000E-01  7.5732800000E-01  5.1808400000E-01
                       7.5732800000E-01  6.4964700000E-01  1.8084000000E-02
                       3.5035300000E-01  2.4267200000E-01  4.8191600000E-01
                       7.8443400000E-01  2.1556600000E-01  2.5000000000E-01
                       2.1556600000E-01  7.8443400000E-01  7.5000000000E-01
                       9.0911200000E-01  3.4844500000E-01  3.5743300000E-01
                       6.5155500000E-01  9.0888000000E-02  1.4256700000E-01
                       3.4844500000E-01  9.0911200000E-01  8.5743300000E-01
                       9.0888000000E-02  6.5155500000E-01  6.4256700000E-01
            znucl       37.00000    5.00000   33.00000

- Timing analysis has been suppressed with timopt=0

 Suggested references for the acknowledgment of ABINIT usage.

 Calculation completed.
.Delivered   2 WARNINGs and   7 COMMENTs to log file.