.Version 9.7.2 of ABINIT

 ABINIT is a project of the Universite Catholique de Louvain,
 Corning Inc. and other collaborators, see ~abinit/doc/developers/contributors.txt .
 acknowledgments of the ABINIT effort.

.Starting date : Wed  1 Dec 2021.
- ( at 21h38 )

- input  file    -> /scratch/users/j/a/jabreu/flow_simple_remain_atoms/flow/w226/t1/run.abi
- output file    -> /scratch/users/j/a/jabreu/flow_simple_remain_atoms/flow/w226/t1/run.abo
- root for input  files -> /scratch/users/j/a/jabreu/flow_simple_remain_atoms/flow/w226/t1/indata/in
- root for output files -> /scratch/users/j/a/jabreu/flow_simple_remain_atoms/flow/w226/t1/outdata/out

 Symmetries : space group P4/n m m (#129); Bravais tP (primitive tetrag.)
     intxc =       0      iscf =       7    lmnmax =      18     lnmax =       6
     mgfft =      90  mpssoang =       3    mqgrid =    4321     natom =       6
  nloc_mem =       1    nspden =       1   nspinor =       1    nsppol =       1
      nsym =      16    n1xccc =    2501    ntypat =       3    occopt =       1
   xclevel =       2
-    mband =          43        mffmem =           1         mkmem =           2
-   mkqmem =           2        mk1mem =           2           mpw =       17952
      nfft =      324000          nkpt =           2
  Rough estimation (10% accuracy) of disk space for files :

------------- Echo of variables that govern the present computation ------------
-
- outvars: echo of selected default values
-   iomode0 =  0 , fftalg0 =512 , wfoptalg0 =  0
-
- outvars: echo of global parameters not present in the input file
-  max_nthreads =    0
-
 -outvars: echo values of preprocessed input variables --------
            acell      1.0000000000E+00  1.0000000000E+00  1.0000000000E+00 Bohr
              amu      8.54678000E+01  4.00780000E+01  7.49215900E+01
             ecut      4.20000000E+01 Hartree
-          fftalg         512
           irdden           1
           irdwfk           1
           istwfk        1    1
              ixc     -116133
              kpt      5.00000000E-01  5.00000000E-01  0.00000000E+00
                       0.00000000E+00  0.00000000E+00  0.00000000E+00
           kptopt           0
P           mkmem           2
P          mkqmem           2
P          mk1mem           2
            natom           6
            nband          43
           nbdbuf           4
            ngfft          60      60      90
             nkpt           2
            nstep        2000
             nsym          16
           ntypat           3
              occ      2.000000  2.000000  2.000000  2.000000  2.000000  2.000000
                       2.000000  2.000000  2.000000  2.000000  2.000000  2.000000
                       2.000000  2.000000  2.000000  2.000000  2.000000  2.000000
                       2.000000  2.000000  2.000000  2.000000  2.000000  2.000000
                       2.000000  2.000000  2.000000  2.000000  2.000000  2.000000
                       2.000000  2.000000  2.000000  2.000000  0.000000  0.000000
                       0.000000  0.000000  0.000000  0.000000  0.000000  0.000000
                       0.000000
        optdriver           1
            prtwf          -1
            rfdir           1       1       1
           rfelfd           2
            rprim      9.6413603513E+00  0.0000000000E+00  0.0000000000E+00
                       0.0000000000E+00  9.6413603513E+00  0.0000000000E+00
                       0.0000000000E+00  0.0000000000E+00  1.4810090795E+01
          spgroup         129
           symrel      1  0  0   0  1  0   0  0  1      -1  0  0   0 -1  0   0  0 -1
                      -1  0  0   0  1  0   0  0 -1       1  0  0   0 -1  0   0  0  1
                      -1  0  0   0 -1  0   0  0  1       1  0  0   0  1  0   0  0 -1
                       1  0  0   0 -1  0   0  0 -1      -1  0  0   0  1  0   0  0  1
                       0  1  0   1  0  0   0  0  1       0 -1  0  -1  0  0   0  0 -1
                       0 -1  0   1  0  0   0  0 -1       0  1  0  -1  0  0   0  0  1
                       0 -1  0  -1  0  0   0  0  1       0  1  0   1  0  0   0  0 -1
                       0  1  0  -1  0  0   0  0 -1       0 -1  0   1  0  0   0  0  1
            tnons      0.0000000  0.0000000  0.0000000     0.5000000  0.5000000 -0.0000000
                       0.5000000  0.5000000 -0.0000000     0.0000000  0.0000000  0.0000000
                       0.0000000  0.0000000  0.0000000     0.5000000  0.5000000 -0.0000000
                       0.5000000  0.5000000 -0.0000000     0.0000000  0.0000000  0.0000000
                       0.5000000  0.5000000  0.0000000     0.0000000  0.0000000 -0.0000000
                       0.0000000  0.0000000 -0.0000000     0.5000000  0.5000000  0.0000000
                       0.5000000  0.5000000  0.0000000     0.0000000  0.0000000 -0.0000000
                       0.0000000  0.0000000 -0.0000000     0.5000000  0.5000000  0.0000000
           tolwfr      1.00000000E-20
            typat      1  1  2  2  3  3
           useylm           1
              wtk        0.50000    0.50000
           xangst      0.0000000000E+00  2.5509940789E+00  2.9203540274E+00
                       2.5509940789E+00  0.0000000000E+00  4.9168084784E+00
                       2.5509940789E+00  2.5509940789E+00  0.0000000000E+00
                       0.0000000000E+00  0.0000000000E+00  0.0000000000E+00
                       2.5509940789E+00  0.0000000000E+00  1.4557137496E+00
                       0.0000000000E+00  2.5509940789E+00  6.3814487561E+00
            xcart      0.0000000000E+00  4.8206801756E+00  5.5186693228E+00
                       4.8206801756E+00  0.0000000000E+00  9.2914214720E+00
                       4.8206801756E+00  4.8206801756E+00  0.0000000000E+00
                       0.0000000000E+00  0.0000000000E+00  0.0000000000E+00
                       4.8206801756E+00  0.0000000000E+00  2.7509003147E+00
                       0.0000000000E+00  4.8206801756E+00  1.2059190480E+01
             xred      0.0000000000E+00  5.0000000000E-01  3.7262900000E-01
                       5.0000000000E-01  0.0000000000E+00  6.2737100000E-01
                       5.0000000000E-01  5.0000000000E-01  0.0000000000E+00
                       0.0000000000E+00  0.0000000000E+00  0.0000000000E+00
                       5.0000000000E-01  0.0000000000E+00  1.8574500000E-01
                       0.0000000000E+00  5.0000000000E-01  8.1425500000E-01
            znucl       37.00000   20.00000   33.00000

 chkinp: Checking input parameters for consistency.

== DATASET  1 ==================================================================
-   mpi_nproc: 1, omp_nthreads: -1 (-1 if OMP is not activated)

--- !DatasetInfo
iteration_state: {dtset: 1, }
dimensions: {natom: 6, nkpt: 2, mband: 43, nsppol: 1, nspinor: 1, nspden: 1, mpw: 17952, }
cutoff_energies: {ecut:  42.0, pawecutdg:  -1.0, }
electrons: {nelect:   6.80000000E+01, charge:   0.00000000E+00, occopt:   1.00000000E+00, tsmear:   1.00000000E-02, }
meta: {optdriver: 1, rfelfd: 2, }
...

 Real(R)+Recip(G) space primitive vectors, cartesian coordinates (Bohr,Bohr^-1):
 R(1)=  9.6413604  0.0000000  0.0000000  G(1)=  0.1037198  0.0000000  0.0000000
 R(2)=  0.0000000  9.6413604  0.0000000  G(2)=  0.0000000  0.1037198  0.0000000
 R(3)=  0.0000000  0.0000000 14.8100908  G(3)=  0.0000000  0.0000000  0.0675215
 Unit cell volume ucvol=  1.3766843E+03 bohr^3
 Angles (23,13,12)=  9.00000000E+01  9.00000000E+01  9.00000000E+01 degrees

 getcut: wavevector=  0.0000  0.0000  0.0000  ngfft=  60  60  90
         ecut(hartree)=     42.000   => boxcut(ratio)=   2.08303

--- Pseudopotential description ------------------------------------------------
- pspini: atom type   1  psp file is /scratch/users/j/a/jabreu/pseudos/PBEsol/Rb.psp8
- pspatm: opening atomic psp file    /scratch/users/j/a/jabreu/pseudos/PBEsol/Rb.psp8
- Rb    ONCVPSP-3.3.0  r_core=   1.71227   1.75361   1.90633
- 37.00000   9.00000    180112                znucl, zion, pspdat
    8 -116133    2    4       600   0.00000   pspcod,pspxc,lmax,lloc,mmax,r2well
    5.99000000000000    7.00000000000000    0.00000000000000   rchrg,fchrg,qchrg
     nproj     2     2     2
     extension_switch     1
  pspatm : epsatm=   34.48400912
         --- l  ekb(1:nproj) -->
             0    8.196957   -0.477221
             1    3.231347   -0.378736
             2   -1.047201    0.996637
 pspatm: atomic psp has been read  and splines computed

- pspini: atom type   2  psp file is /scratch/users/j/a/jabreu/pseudos/PBEsol/Ca.psp8
- pspatm: opening atomic psp file    /scratch/users/j/a/jabreu/pseudos/PBEsol/Ca.psp8
- Ca    ONCVPSP-3.3.0  r_core=   1.45885   1.45885   1.85192
- 20.00000  10.00000    180112                znucl, zion, pspdat
    8 -116133    2    4       400   0.00000   pspcod,pspxc,lmax,lloc,mmax,r2well
    3.99000000000000    6.00000000000000    0.00000000000000   rchrg,fchrg,qchrg
     nproj     2     2     2
     extension_switch     1
  pspatm : epsatm=   12.46045226
         --- l  ekb(1:nproj) -->
             0   10.054847    0.973777
             1    2.998958    0.458102
             2   -3.447298   -1.091650
 pspatm: atomic psp has been read  and splines computed

- pspini: atom type   3  psp file is /scratch/users/j/a/jabreu/pseudos/PBEsol/As.psp8
- pspatm: opening atomic psp file    /scratch/users/j/a/jabreu/pseudos/PBEsol/As.psp8
- As    ONCVPSP-3.3.0  r_core=   1.76603   1.70395   1.80867
- 33.00000  15.00000    180112                znucl, zion, pspdat
    8 -116133    2    4       600   0.00000   pspcod,pspxc,lmax,lloc,mmax,r2well
    5.99000000000000    5.00000000000000    0.00000000000000   rchrg,fchrg,qchrg
     nproj     2     2     2
     extension_switch     1
  pspatm : epsatm=   28.79155382
         --- l  ekb(1:nproj) -->
             0    8.270760    0.868950
             1    4.919053    0.756587
             2  -10.048665   -4.076802
 pspatm: atomic psp has been read  and splines computed

   1.03000981E+04                                ecore*ucvol(ha*bohr**3)

 ==>  initialize data related to q vector <==

 The list of irreducible perturbations for this q vector is:
    1)    idir= 1    ipert=   7
    2)    idir= 2    ipert=   7
    3)    idir= 3    ipert=   7

 Perturbation wavevector (in red.coord.)   0.000000  0.000000  0.000000
 Perturbation : derivative vs k along direction   1

 dfpt_looppert : COMMENT -
  In a d/dk calculation, iscf is set to -3 automatically.
 The set of symmetries contains only one element for this perturbation.
 symkpt : not enough symmetry to change the number of k points.

 Initialisation of the first-order wave-functions :
  ireadwf=   0

--- !BeginCycle
iteration_state: {dtset: 1, }
solver: {iscf: 7, nstep: 2000, nline: 4, wfoptalg: 0, }
tolerances: {tolwfr: 1.00E-20, }
...

     iter   2DEtotal(Ha)        deltaE(Ha) residm    vres2
-ETOT  1  -49.640796725218     -4.964E+01 6.178E-02 0.000E+00
 ETOT  2  -49.778836126337     -1.380E-01 1.166E-02 0.000E+00
 ETOT  3  -49.788110105963     -9.274E-03 2.521E-03 0.000E+00
 ETOT  4  -49.789281965896     -1.172E-03 9.365E-04 0.000E+00
[...]
 4,5,6: 1st-order hamiltonian combined with 1st and 0th-order wfs
     kin1=  -6.15182173E+01  Hartree=   0.00000000E+00     xc=   0.00000000E+00
 7,8,9: eventually, occupation + non-local contributions
    edocc=   7.60942096E+00     enl0=   2.60734129E+00   enl1=  -3.80607519E+01
 1-9 gives the relaxation energy (to be shifted if some occ is /=2.0)
   erelax=  -4.97894846E+01
  No Ewald or frozen-wf contrib.: the relaxation energy is the total one
 2DEtotal=   -0.4978948456E+02 Ha. Also 2DEtotal=   -0.135484077669E+04 eV
    (  non-var. 2DEtotal :   -4.9789484565E+01 Ha)

 Perturbation wavevector (in red.coord.)   0.000000  0.000000  0.000000
 Perturbation : derivative vs k along direction   2
 The set of symmetries contains only one element for this perturbation.
 symkpt : not enough symmetry to change the number of k points.

[...]

 Perturbation wavevector (in red.coord.)   0.000000  0.000000  0.000000
 Perturbation : derivative vs k along direction   3
 The set of symmetries contains only one element for this perturbation.
 symkpt : not enough symmetry to change the number of k points.

 Initialisation of the first-order wave-functions :
  ireadwf=   0

--- !BeginCycle
iteration_state: {dtset: 1, }
solver: {iscf: 7, nstep: 2000, nline: 4, wfoptalg: 0, }
tolerances: {tolwfr: 1.00E-20, }
...

     iter   2DEtotal(Ha)        deltaE(Ha) residm    vres2
-ETOT  1  -21.540061506538     -2.154E+01 2.954E-02 0.000E+00
 ETOT  2  -21.585817057496     -4.576E-02 2.845E-03 0.000E+00
 ETOT  3  -21.587283980128     -1.467E-03 1.563E-04 0.000E+00
 ETOT  4  -21.587359825825     -7.585E-05 1.637E-05 0.000E+00
 ETOT  5  -21.587364221216     -4.395E-06 6.673E-06 0.000E+00
 ETOT  6  -21.587364485504     -2.643E-07 6.770E-07 0.000E+00
 ETOT  7  -21.587364501943     -1.644E-08 5.402E-07 0.000E+00
 ETOT  8  -21.587364502984     -1.041E-09 5.733E-08 0.000E+00
 ETOT  9  -21.587364503052     -6.745E-11 5.338E-08 0.000E+00
 ETOT 10  -21.587364503056     -4.498E-12 5.801E-09 0.000E+00
 ETOT 11  -21.587364503056     -3.162E-13 5.315E-09 0.000E+00
 ETOT 12  -21.587364503056      1.066E-14 6.005E-10 0.000E+00
 ETOT 13  -21.587364503056      0.000E+00 5.301E-10 0.000E+00
 ETOT 14  -21.587364503056      1.066E-14 6.295E-11 0.000E+00
 ETOT 15  -21.587364503056     -2.487E-14 5.308E-11 0.000E+00
 ETOT 16  -21.587364503056     -1.421E-14 6.705E-12 0.000E+00
 ETOT 17  -21.587364503056      1.066E-14 5.355E-12 0.000E+00
 ETOT 18  -21.587364503056      3.553E-15 7.274E-13 0.000E+00
 ETOT 19  -21.587364503056     -1.066E-14 5.468E-13 0.000E+00
 ETOT 20  -21.587364503056      1.066E-14 8.042E-14 0.000E+00
 ETOT 21  -21.587364503056      3.553E-15 5.682E-14 0.000E+00
 ETOT 22  -21.587364503056      0.000E+00 9.038E-15 0.000E+00
 ETOT 23  -21.587364503056     -3.553E-15 6.028E-15 0.000E+00
 ETOT 24  -21.587364503056      0.000E+00 1.026E-15 0.000E+00
 ETOT 25  -21.587364503056      0.000E+00 6.524E-16 0.000E+00
 ETOT 26  -21.587364503056      0.000E+00 1.165E-16 0.000E+00
 ETOT 27  -21.587364503056     -3.553E-15 7.165E-17 0.000E+00
 ETOT 28  -21.587364503056      0.000E+00 1.316E-17 0.000E+00
 ETOT 29  -21.587364503056      0.000E+00 7.934E-18 0.000E+00
 ETOT 30  -21.587364503056      0.000E+00 1.475E-18 0.000E+00
 ETOT 31  -21.587364503056     -3.553E-15 8.819E-19 0.000E+00
 ETOT 32  -21.587364503056      0.000E+00 1.645E-19 0.000E+00
 ETOT 33  -21.587364503056      7.105E-15 9.823E-20 0.000E+00
 ETOT 34  -21.587364503056      0.000E+00 1.832E-20 0.000E+00
 ETOT 35  -21.587364503056      0.000E+00 9.822E-21 0.000E+00

 At SCF step   35   max residual=  9.82E-21 < tolwfr=  1.00E-20 =>converged.

 ----iterations are completed or convergence reached----

 dfpt_looppert: DFPT cycle converged with prtwf=-1. Will skip output of the 1st-order WFK file.
 dfpt_looppert : ek2=    2.4478409907E+01
          f-sum rule ratio=    1.1011666460E+00
 prteigrs : about to open file /scratch/users/j/a/jabreu/flow_simple_remain_atoms/flow/w226/t1/tmpdata/tmp_1WF1_EIG
 Expectation of eigenvalue derivatives (hartree) for nkpt=   2  k points:
  (in case of degenerate eigenvalues, averaged derivative)
 kpt#   1, nband= 43, wtk=  0.50000, kpt=  0.5000  0.5000  0.0000 (reduced coord)
   0.00000    0.00000   -0.00000   -0.00000   -0.00000   -0.00000    0.00000    0.00000
   0.00000    0.00000   -0.00000   -0.00000   -0.00000   -0.00000   -0.00000   -0.00000
   0.00000    0.00000    0.00000    0.00000    0.00000    0.00000   -0.00000   -0.00000
   0.00000    0.00000    0.00000    0.00000    0.00000    0.00000    0.00000    0.00000
  -0.00000   -0.00000   -0.00000   -0.00000   -0.00000   -0.00000   -0.00000   -0.00000
  -0.00000   -0.00000   -0.00001
 prteigrs : prtvol=0 or 1, do not print more k-points.

 Eight components of 2nd-order total energy (hartree) are
 1,2,3: 0th-order hamiltonian combined with 1st-order wavefunctions
     kin0=   2.76426135E+01 eigvalue=   3.29060478E+00  local=  -1.40039010E+01
 4,5,6: 1st-order hamiltonian combined with 1st and 0th-order wfs
     kin1=  -2.69548085E+01  Hartree=   0.00000000E+00     xc=   0.00000000E+00
 7,8,9: eventually, occupation + non-local contributions
    edocc=   3.76102645E+00     enl0=   8.97020731E-01   enl1=  -1.62199205E+01
 1-9 gives the relaxation energy (to be shifted if some occ is /=2.0)
   erelax=  -2.15873645E+01
  No Ewald or frozen-wf contrib.: the relaxation energy is the total one
 2DEtotal=   -0.2158736450E+02 Ha. Also 2DEtotal=   -0.587422062018E+03 eV
    (  non-var. 2DEtotal :   -2.1587364503E+01 Ha)

 CALCULATION OF EFFECTIVE MASSES
 NOTE : Additional infos (eff. mass eigenvalues, eigenvectors and, if degenerate, average mass) are available in stdout.

 COMMENTS:
 - At k-point ( 0.500, 0.500, 0.000), bands    33 through    34
   are DEGENERATE (effective mass tensor is therefore not defined).
   See Section IIIB Eqs. (67)-(70) and Appendix E of PRB 93 205147 (2016).
 - Angular average effective mass for Frohlich model is to be averaged over degenerate bands. See later.
 - Associated theta integrals calculated with ntheta=   1000 points.

 K-point ( 0.500, 0.500, 0.000) | band =    33
 Transport equivalent effective mass tensor:
             -2.1447598287             -0.0000250757             -0.0000006739
             -0.0000250757             -2.1447073263             -0.0000006937
             -0.0000006739             -0.0000006937             -0.7186315950
 Transport equivalent effective mass tensor eigenvalues:
             -2.1447698806             -2.1446972744             -0.7186315950
 Angular average effective mass 1/(<1/m>)=  -0.9693527429
 Angular average effective mass for Frohlich model (<m**0.5>)**2=  -1.0969686948
 Effective masses along directions: (cart. coord. / red. coord. -> eff. mass)
    1:   1.000000  0.000000  0.000000 /   1.000000  0.000000  0.000000 ->  -2.6331281080
    2:   0.000000  1.000000  0.000000 /   0.000000  1.000000  0.000000 ->  -2.6331281078
    3:   0.000000  0.000000  1.000000 /   0.000000  0.000000  1.000000 ->  -0.5110463089
    4:   0.577350  0.577350  0.577350 /   0.478935  0.478935  0.735692 ->  -0.9059567399
    5:   0.000000  0.707107  0.707107 /   0.000000  0.545577  0.838061 ->  -0.8559656687
    6:   0.707107  0.000000  0.707107 /   0.545577  0.000000  0.838061 ->  -0.8559640421
    7:   0.707107  0.707107  0.000000 /   0.707107  0.707107  0.000000 ->  -1.4763442373

 K-point ( 0.500, 0.500, 0.000) | band =    34
 Transport equivalent effective mass tensor:
            -13.5545468282             -0.0012271312              0.0000019901
             -0.0012271312            -13.5543804712             -0.0000075842
              0.0000019901             -0.0000075842             -2.1127694295
 Transport equivalent effective mass tensor eigenvalues:
            -13.5556935967            -13.5532337028             -2.1127694295
 Angular average effective mass 1/(<1/m>)=  -1.2836523269
 Angular average effective mass for Frohlich model (<m**0.5>)**2=  -2.0177626125
 Effective masses along directions: (cart. coord. / red. coord. -> eff. mass)
    1:   1.000000  0.000000  0.000000 /   1.000000  0.000000  0.000000 ->  -2.6331281200
    2:   0.000000  1.000000  0.000000 /   0.000000  1.000000  0.000000 ->  -2.6331281151
    3:   0.000000  0.000000  1.000000 /   0.000000  0.000000  1.000000 ->  -0.5112332049
    4:   0.577350  0.577350  0.577350 /   0.478935  0.478935  0.735692 ->  -1.4147539718
    5:   0.000000  0.707107  0.707107 /   0.000000  0.545577  0.838061 ->  -0.8562263715
    6:   0.707107  0.000000  0.707107 /   0.545577  0.000000  0.838061 ->  -0.8562263999
    7:   0.707107  0.707107  0.000000 /   0.707107  0.707107  0.000000 -> -12.1648489504

 Angular average effective mass for Frohlich model, averaged over degenerate bands.
 Value of     (<<m**0.5>>)**2 =     1.522562E+00
 Absolute Value of <<m**0.5>> =     1.233921E+00

 K-point ( 0.000, 0.000, 0.000) | band =    35
 Effective mass tensor:
              0.1975939120              0.0000000000             -0.0000000000
              0.0000000000              0.1975939120             -0.0000000000
             -0.0000000000             -0.0000000000              0.2878368129
 Effective mass tensor eigenvalues:
              0.1975939120              0.1975939120              0.2878368129
 Angular average effective mass 1/(<1/m>)=   0.2206537806
 Angular average effective mass for Frohlich model (<m**0.5>)**2=   0.2225970265
 Effective masses along directions: (cart. coord. / red. coord. -> eff. mass)
    1:   1.000000  0.000000  0.000000 /   1.000000  0.000000  0.000000 ->   0.1975939120
    2:   0.000000  1.000000  0.000000 /   0.000000  1.000000  0.000000 ->   0.1975939120
    3:   0.000000  0.000000  1.000000 /   0.000000  0.000000  1.000000 ->   0.2878368129
    4:   0.577350  0.577350  0.577350 /   0.478935  0.478935  0.735692 ->   0.2206537806
    5:   0.000000  0.707107  0.707107 /   0.000000  0.545577  0.838061 ->   0.2343271613
    6:   0.707107  0.000000  0.707107 /   0.545577  0.000000  0.838061 ->   0.2343271613
    7:   0.707107  0.707107  0.000000 /   0.707107  0.707107  0.000000 ->   0.1975939120

 END OF EFFECTIVE MASSES SECTION

 ---- first-order wavefunction calculations are completed ----

 Total localisation tensor (bohr^2) in cartesian coordinates
  WARNING : still subject to testing - especially symmetries.
      direction              matrix element
   alpha     beta       real part   imaginary part
     1        1       1.5069907911    0.0000000000
     1        2       0.0000000000    0.0000000000
     1        3       0.0000000000    0.0000000000
     2        1       0.0000000000    0.0000000000
     2        2       1.5070537794    0.0000000000
     2        3       0.0000000000    0.0000000000
     3        1       0.0000000000    0.0000000000
     3        2       0.0000000000    0.0000000000
     3        3       1.6143124369    0.0000000000

 respfn : d/dk was computed, but no 2DTE, so no DDB output.

== END DATASET(S) ==============================================================

 -outvars: echo values of variables after computation  --------
            acell      1.0000000000E+00  1.0000000000E+00  1.0000000000E+00 Bohr
              amu      8.54678000E+01  4.00780000E+01  7.49215900E+01
             ecut      4.20000000E+01 Hartree
           etotal     -2.1587364503E+01
            fcart      0.0000000000E+00  0.0000000000E+00  0.0000000000E+00
                       0.0000000000E+00  0.0000000000E+00  0.0000000000E+00
                       0.0000000000E+00  0.0000000000E+00  0.0000000000E+00
                       0.0000000000E+00  0.0000000000E+00  0.0000000000E+00
                       0.0000000000E+00  0.0000000000E+00  0.0000000000E+00
                       0.0000000000E+00  0.0000000000E+00  0.0000000000E+00
-          fftalg         512
           irdden           1
           irdwfk           1
           istwfk        1    1
              ixc     -116133
              kpt      5.00000000E-01  5.00000000E-01  0.00000000E+00
                       0.00000000E+00  0.00000000E+00  0.00000000E+00
           kptopt           0
P           mkmem           2
P          mkqmem           2
P          mk1mem           2
            natom           6
            nband          43
           nbdbuf           4
            ngfft          60      60      90
             nkpt           2
            nstep        2000
             nsym          16
           ntypat           3
              occ      2.000000  2.000000  2.000000  2.000000  2.000000  2.000000
                       2.000000  2.000000  2.000000  2.000000  2.000000  2.000000
                       2.000000  2.000000  2.000000  2.000000  2.000000  2.000000
                       2.000000  2.000000  2.000000  2.000000  2.000000  2.000000
                       2.000000  2.000000  2.000000  2.000000  2.000000  2.000000
                       2.000000  2.000000  2.000000  2.000000  0.000000  0.000000
                       0.000000  0.000000  0.000000  0.000000  0.000000  0.000000
                       0.000000
        optdriver           1
            prtwf          -1
            rfdir           1       1       1
           rfelfd           2
            rprim      9.6413603513E+00  0.0000000000E+00  0.0000000000E+00
                       0.0000000000E+00  9.6413603513E+00  0.0000000000E+00
                       0.0000000000E+00  0.0000000000E+00  1.4810090795E+01
          spgroup         129
           strten      0.0000000000E+00  0.0000000000E+00  0.0000000000E+00
                       0.0000000000E+00  0.0000000000E+00  0.0000000000E+00
           symrel      1  0  0   0  1  0   0  0  1      -1  0  0   0 -1  0   0  0 -1
                      -1  0  0   0  1  0   0  0 -1       1  0  0   0 -1  0   0  0  1
                      -1  0  0   0 -1  0   0  0  1       1  0  0   0  1  0   0  0 -1
                       1  0  0   0 -1  0   0  0 -1      -1  0  0   0  1  0   0  0  1
                       0  1  0   1  0  0   0  0  1       0 -1  0  -1  0  0   0  0 -1
                       0 -1  0   1  0  0   0  0 -1       0  1  0  -1  0  0   0  0  1
                       0 -1  0  -1  0  0   0  0  1       0  1  0   1  0  0   0  0 -1
                       0  1  0  -1  0  0   0  0 -1       0 -1  0   1  0  0   0  0  1
            tnons      0.0000000  0.0000000  0.0000000     0.5000000  0.5000000 -0.0000000
                       0.5000000  0.5000000 -0.0000000     0.0000000  0.0000000  0.0000000
                       0.0000000  0.0000000  0.0000000     0.5000000  0.5000000 -0.0000000
                       0.5000000  0.5000000 -0.0000000     0.0000000  0.0000000  0.0000000
                       0.5000000  0.5000000  0.0000000     0.0000000  0.0000000 -0.0000000
                       0.0000000  0.0000000 -0.0000000     0.5000000  0.5000000  0.0000000
                       0.5000000  0.5000000  0.0000000     0.0000000  0.0000000 -0.0000000
                       0.0000000  0.0000000 -0.0000000     0.5000000  0.5000000  0.0000000
           tolwfr      1.00000000E-20
            typat      1  1  2  2  3  3
           useylm           1
              wtk        0.50000    0.50000
           xangst      0.0000000000E+00  2.5509940789E+00  2.9203540274E+00
                       2.5509940789E+00  0.0000000000E+00  4.9168084784E+00
                       2.5509940789E+00  2.5509940789E+00  0.0000000000E+00
                       0.0000000000E+00  0.0000000000E+00  0.0000000000E+00
                       2.5509940789E+00  0.0000000000E+00  1.4557137496E+00
                       0.0000000000E+00  2.5509940789E+00  6.3814487561E+00
            xcart      0.0000000000E+00  4.8206801756E+00  5.5186693228E+00
                       4.8206801756E+00  0.0000000000E+00  9.2914214720E+00
                       4.8206801756E+00  4.8206801756E+00  0.0000000000E+00
                       0.0000000000E+00  0.0000000000E+00  0.0000000000E+00
                       4.8206801756E+00  0.0000000000E+00  2.7509003147E+00
                       0.0000000000E+00  4.8206801756E+00  1.2059190480E+01
             xred      0.0000000000E+00  5.0000000000E-01  3.7262900000E-01
                       5.0000000000E-01  0.0000000000E+00  6.2737100000E-01
                       5.0000000000E-01  5.0000000000E-01  0.0000000000E+00
                       0.0000000000E+00  0.0000000000E+00  0.0000000000E+00
                       5.0000000000E-01  0.0000000000E+00  1.8574500000E-01
                       0.0000000000E+00  5.0000000000E-01  8.1425500000E-01
            znucl       37.00000   20.00000   33.00000

- Timing analysis has been suppressed with timopt=0

 Suggested references for the acknowledgment of ABINIT usage.

 Calculation completed.
.Delivered   2 WARNINGs and   5 COMMENTs to log file.