.Version 9.5.2 of ABINIT

 ABINIT is a project of the Universite Catholique de Louvain,
 Corning Inc. and other collaborators, see ~abinit/doc/developers/contributors.txt .
 acknowledgments of the ABINIT effort.

.Starting date : Wed 26 May 2021.
- ( at 03h29 )

- input  file    -> /scratch/users/j/a/jabreu/flow_simple_11atoms/flow/w300/t1/run.abi
- output file    -> /scratch/users/j/a/jabreu/flow_simple_11atoms/flow/w300/t1/run.abo
- root for input  files -> /scratch/users/j/a/jabreu/flow_simple_11atoms/flow/w300/t1/indata/in
- root for output files -> /scratch/users/j/a/jabreu/flow_simple_11atoms/flow/w300/t1/outdata/out

 Symmetries : space group R-3 m (#166); Bravais hR (rhombohedral)
     intxc =       0      iscf =       7    lmnmax =      18     lnmax =       6
     mgfft =      72  mpssoang =       3    mqgrid =    3001     natom =      11
  nloc_mem =       1    nspden =       1   nspinor =       1    nsppol =       1
      nsym =      12    n1xccc =    2501    ntypat =       4    occopt =       1
   xclevel =       2
-    mband =          45        mffmem =           1         mkmem =           1
-   mkqmem =           1        mk1mem =           1           mpw =       12619
      nfft =      373248          nkpt =           1
  Rough estimation (10% accuracy) of disk space for files :

------------- Echo of variables that govern the present computation ------------
-
- outvars: echo of selected default values
-   iomode0 =  0 , fftalg0 =512 , wfoptalg0 =  0
-
- outvars: echo of global parameters not present in the input file
-  max_nthreads =    0
-
 -outvars: echo values of preprocessed input variables --------
            acell      1.0000000000E+00  1.0000000000E+00  1.0000000000E+00 Bohr
              amu      1.37327000E+02  2.43050000E+01  1.08110000E+01
                       1.59994000E+01
             ecut      4.40000000E+01 Hartree
-          fftalg         512
           irdden           1
           irdwfk           1
           istwfk        1
              ixc     -116133
           kptopt           0
P           mkmem           1
P          mkqmem           1
P          mk1mem           1
            natom          11
            nband          45
           nbdbuf           4
            ngfft          72      72      72
             nkpt           1
            nstep        2000
             nsym          12
           ntypat           4
              occ      2.000000  2.000000  2.000000  2.000000  2.000000  2.000000
                       2.000000  2.000000  2.000000  2.000000  2.000000  2.000000
                       2.000000  2.000000  2.000000  2.000000  2.000000  2.000000
                       2.000000  2.000000  2.000000  2.000000  2.000000  2.000000
                       2.000000  2.000000  2.000000  2.000000  2.000000  2.000000
                       2.000000  2.000000  2.000000  2.000000  2.000000  2.000000
                       0.000000  0.000000  0.000000  0.000000  0.000000  0.000000
                       0.000000  0.000000  0.000000
        optdriver           1
            prtwf          -1
            rfdir           1       1       1
           rfelfd           2
            rprim      9.1292664856E+00  0.0000000000E+00  7.5668766717E+00
                       3.5563514529E+00  8.4080836644E+00  7.5668766717E+00
                       0.0000000000E+00  0.0000000000E+00  1.1857534699E+01
          spgroup         166
           symrel      1  0  0   0  1  0   0  0  1      -1  0  0   0 -1  0   0  0 -1
                       0  1  0   1  0  0   0  0  1       0 -1  0  -1  0  0   0  0 -1
                       0  0  1   1  0  0   0  1  0       0  0 -1  -1  0  0   0 -1  0
                       1  0  0   0  0  1   0  1  0      -1  0  0   0  0 -1   0 -1  0
                       0  1  0   0  0  1   1  0  0       0 -1  0   0  0 -1  -1  0  0
                       0  0  1   0  1  0   1  0  0       0  0 -1   0 -1  0  -1  0  0
           tolwfr      1.00000000E-20
            typat      1  1  2  3  3  4  4  4  4  4  4
           useylm           1
           xangst      5.2131482856E+00  3.4552977358E+00  1.1092056190E+01
                       1.4997916043E+00  9.9406850731E-01  3.1911182720E+00
                       0.0000000000E+00  0.0000000000E+00  0.0000000000E+00
                       2.7589847301E+00  1.8286672791E+00  5.8703132881E+00
                       3.9539551599E+00  2.6206989640E+00  8.4128611742E+00
                       2.7908742462E+00  3.2930960894E+00  8.7664775144E+00
                       4.9684280619E+00  3.2930960894E+00  7.7430504107E+00
                       4.1201510740E+00  1.2875620528E+00  8.7664775144E+00
                       2.5927888159E+00  3.1618041903E+00  5.5166969479E+00
                       1.7445118280E+00  1.1562701537E+00  6.5401240516E+00
                       3.9220656437E+00  1.1562701537E+00  5.5166969479E+00
            xcart      9.8514225499E+00  6.5295664283E+00  2.0960948450E+01
                       2.8341953886E+00  1.8785172361E+00  6.0303395918E+00
                       0.0000000000E+00  0.0000000000E+00  0.0000000000E+00
                       5.2137255446E+00  3.4556803457E+00  1.1093284429E+01
                       7.4718923939E+00  4.9524033187E+00  1.5898003613E+01
                       5.2739879966E+00  6.2230497383E+00  1.6566241652E+01
                       9.3889683480E+00  6.2230497383E+00  1.4632244709E+01
                       7.7859571560E+00  2.4331396589E+00  1.6566241652E+01
                       4.8996607825E+00  5.9749440055E+00  1.0425046390E+01
                       3.2966495905E+00  2.1850339261E+00  1.2359043333E+01
                       7.4116299419E+00  2.1850339261E+00  1.0425046390E+01
             xred      7.7658200000E-01  7.7658200000E-01  7.7658200000E-01
                       2.2341800000E-01  2.2341800000E-01  2.2341800000E-01
                       0.0000000000E+00  0.0000000000E+00  0.0000000000E+00
                       4.1099500000E-01  4.1099500000E-01  4.1099500000E-01
                       5.8900500000E-01  5.8900500000E-01  5.8900500000E-01
                       2.8938100000E-01  7.4012700000E-01  7.4012700000E-01
                       7.4012700000E-01  7.4012700000E-01  2.8938100000E-01
                       7.4012700000E-01  2.8938100000E-01  7.4012700000E-01
                       2.5987300000E-01  7.1061900000E-01  2.5987300000E-01
                       2.5987300000E-01  2.5987300000E-01  7.1061900000E-01
                       7.1061900000E-01  2.5987300000E-01  2.5987300000E-01
            znucl       56.00000   12.00000    5.00000    8.00000

 chkinp: Checking input parameters for consistency.

== DATASET  1 ==================================================================
-   mpi_nproc: 1, omp_nthreads: -1 (-1 if OMP is not activated)

--- !DatasetInfo
iteration_state: {dtset: 1, }
dimensions: {natom: 11, nkpt: 1, mband: 45, nsppol: 1, nspinor: 1, nspden: 1, mpw: 12619, }
cutoff_energies: {ecut:  44.0, pawecutdg:  -1.0, }
electrons: {nelect:   7.20000000E+01, charge:   0.00000000E+00, occopt:   1.00000000E+00, tsmear:   1.00000000E-02, }
meta: {optdriver: 1, rfelfd: 2, }
...

 Real(R)+Recip(G) space primitive vectors, cartesian coordinates (Bohr,Bohr^-1):
 R(1)=  9.1292665  0.0000000  7.5668767  G(1)=  0.1095378 -0.0463310  0.0000000
 R(2)=  3.5563515  8.4080837  7.5668767  G(2)=  0.0000000  0.1189332  0.0000000
 R(3)=  0.0000000  0.0000000 11.8575347  G(3)= -0.0699015 -0.0463310  0.0843346
 Unit cell volume ucvol=  9.1018005E+02 bohr^3
 Angles (23,13,12)=  5.03460495E+01  5.03460495E+01  5.03460495E+01 degrees

 getcut: wavevector=  0.0000  0.0000  0.0000  ngfft=  72  72  72
         ecut(hartree)=     44.000   => boxcut(ratio)=   2.03351

--- Pseudopotential description ------------------------------------------------
- pspini: atom type   1  psp file is /scratch/users/j/a/jabreu/pseudos/PBEsol/Ba.psp8
- pspatm: opening atomic psp file    /scratch/users/j/a/jabreu/pseudos/PBEsol/Ba.psp8
- Ba    ONCVPSP-3.3.0  r_core=   2.15444   1.91218   2.15444
- 56.00000  10.00000    180112                znucl, zion, pspdat
    8 -116133    2    4       600   0.00000   pspcod,pspxc,lmax,lloc,mmax,r2well
    5.99000000000000    5.00000000000000    0.00000000000000   rchrg,fchrg,qchrg
     nproj     2     2     2
     extension_switch     1
  pspatm : epsatm=   26.37418029
         --- l  ekb(1:nproj) -->
             0    6.652372    0.677024
             1    5.027722    0.408462
             2    2.543237    0.416854
 pspatm: atomic psp has been read  and splines computed

- pspini: atom type   2  psp file is /scratch/users/j/a/jabreu/pseudos/PBEsol/Mg.psp8
- pspatm: opening atomic psp file    /scratch/users/j/a/jabreu/pseudos/PBEsol/Mg.psp8
- Mg    ONCVPSP-3.3.0  r_core=   1.16056   1.56380
- 12.00000  10.00000    180112                znucl, zion, pspdat
    8 -116133    1    4       400   0.00000   pspcod,pspxc,lmax,lloc,mmax,r2well
    3.99000000000000    0.00000000000000    0.00000000000000   rchrg,fchrg,qchrg
     nproj     2     2
     extension_switch     1
  pspatm : epsatm=    9.18164846
         --- l  ekb(1:nproj) -->
             0    2.230603   -0.826587
             1   -6.503151   -2.501445
 pspatm: atomic psp has been read  and splines computed

[...]

- pspini: atom type   4  psp file is /scratch/users/j/a/jabreu/pseudos/PBEsol/O.psp8
- pspatm: opening atomic psp file    /scratch/users/j/a/jabreu/pseudos/PBEsol/O.psp8
- O     ONCVPSP-3.3.0  r_core=   1.35509   1.45563   1.26150
-  8.00000   6.00000    180112                znucl, zion, pspdat
    8 -116133    2    4       600   0.00000   pspcod,pspxc,lmax,lloc,mmax,r2well
    5.99000000000000    4.00000000000000    0.00000000000000   rchrg,fchrg,qchrg
     nproj     2     2     1
     extension_switch     1
  pspatm : epsatm=    6.22910522
         --- l  ekb(1:nproj) -->
             0    6.050032    0.820363
             1   -4.739617   -1.153841
             2   -1.335834
 pspatm: atomic psp has been read  and splines computed

   7.61095668E+03                                ecore*ucvol(ha*bohr**3)

 ==>  initialize data related to q vector <==

 The list of irreducible perturbations for this q vector is:
    1)    idir= 1    ipert=  12
    2)    idir= 2    ipert=  12
    3)    idir= 3    ipert=  12

 Perturbation wavevector (in red.coord.)   0.000000  0.000000  0.000000
 Perturbation : derivative vs k along direction   1

 dfpt_looppert : COMMENT -
  In a d/dk calculation, iscf is set to -3 automatically.
 The set of symmetries contains only one element for this perturbation.
 symkpt : not enough symmetry to change the number of k points.

 Initialisation of the first-order wave-functions :
  ireadwf=   0

--- !BeginCycle
iteration_state: {dtset: 1, }
solver: {iscf: 7, nstep: 2000, nline: 4, wfoptalg: 0, }
tolerances: {tolwfr: 1.00E-20, }
...

     iter   2DEtotal(Ha)        deltaE(Ha) residm    vres2
-ETOT  1  -49.493593192870     -4.949E+01 5.636E-02 0.000E+00
 ETOT  2  -49.562480654578     -6.889E-02 7.289E-04 0.000E+00
 ETOT  3  -49.563038613629     -5.580E-04 2.287E-05 0.000E+00
 ETOT  4  -49.563044861455     -6.248E-06 1.224E-06 0.000E+00
 ETOT  5  -49.563044942817     -8.136E-08 6.200E-08 0.000E+00
 ETOT  6  -49.563044943952     -1.135E-09 4.076E-09 0.000E+00
 ETOT  7  -49.563044943968     -1.675E-11 3.472E-10 0.000E+00
 ETOT  8  -49.563044943968     -1.137E-13 2.462E-11 0.000E+00
 ETOT  9  -49.563044943969     -1.137E-13 2.091E-12 0.000E+00
 ETOT 10  -49.563044943969      2.132E-14 1.511E-13 0.000E+00
 ETOT 11  -49.563044943969     -3.553E-14 1.282E-14 0.000E+00
 ETOT 12  -49.563044943969      2.132E-14 9.367E-16 0.000E+00
 ETOT 13  -49.563044943969     -7.105E-15 7.951E-17 0.000E+00
 ETOT 14  -49.563044943969     -2.132E-14 5.853E-18 0.000E+00
 ETOT 15  -49.563044943969      2.842E-14 4.972E-19 0.000E+00
 ETOT 16  -49.563044943969     -7.105E-15 3.679E-20 0.000E+00
 ETOT 17  -49.563044943969      0.000E+00 9.932E-21 0.000E+00

 At SCF step   17   max residual=  9.93E-21 < tolwfr=  1.00E-20 =>converged.

 ----iterations are completed or convergence reached----

 dfpt_looppert: DFPT cycle converged with prtwf=-1. Will skip output of the 1st-order WFK file.
 dfpt_looppert : ek2=    8.0413354585E+01
          f-sum rule ratio=    1.1811431247E+00
 prteigrs : about to open file /scratch/users/j/a/jabreu/flow_simple_11atoms/flow/w300/t1/tmpdata/tmp_1WF1_EIG
 Expectation of eigenvalue derivatives (hartree) for nkpt=   1  k points:
  (in case of degenerate eigenvalues, averaged derivative)
 kpt#   1, nband= 45, wtk=  1.00000, kpt=  0.0000  0.0000  0.0000 (reduced coord)
  -0.00000   -0.00000    0.00000    0.00000   -0.00000    0.00000   -0.00000    0.00000
   0.00000    0.00000   -0.00000   -0.00000   -0.00000   -0.00000    0.00000   -0.00000
  -0.00000   -0.00000    0.00000    0.00000    0.00000    0.00000   -0.00000   -0.00000
  -0.00000   -0.00000   -0.00000   -0.00000    0.00000    0.00000   -0.00000   -0.00000
   0.00000    0.00000    0.00000    0.00000    0.00000    0.00000   -0.00000    0.00000
   0.00000    0.00000    0.00000   -0.00000   -0.00000

 Eight components of 2nd-order total energy (hartree) are
 1,2,3: 0th-order hamiltonian combined with 1st-order wavefunctions
     kin0=   6.57480349E+01 eigvalue=  -7.87408935E-01  local=  -2.99098001E+01
 4,5,6: 1st-order hamiltonian combined with 1st and 0th-order wfs
     kin1=  -9.49796809E+01  Hartree=   0.00000000E+00     xc=   0.00000000E+00
 7,8,9: eventually, occupation + non-local contributions
    edocc=   1.34853806E+01     enl0=   1.02683856E+00   enl1=  -4.14640899E+00
 1-9 gives the relaxation energy (to be shifted if some occ is /=2.0)
   erelax=  -4.95630449E+01
  No Ewald or frozen-wf contrib.: the relaxation energy is the total one
 2DEtotal=   -0.4956304494E+02 Ha. Also 2DEtotal=   -0.134867904124E+04 eV
    (  non-var. 2DEtotal :   -4.9563044944E+01 Ha)

 Perturbation wavevector (in red.coord.)   0.000000  0.000000  0.000000
 Perturbation : derivative vs k along direction   2
 The set of symmetries contains only one element for this perturbation.
 symkpt : not enough symmetry to change the number of k points.

[...]

 Perturbation wavevector (in red.coord.)   0.000000  0.000000  0.000000
 Perturbation : derivative vs k along direction   3
 The set of symmetries contains only one element for this perturbation.
 symkpt : not enough symmetry to change the number of k points.

 Initialisation of the first-order wave-functions :
  ireadwf=   0

--- !BeginCycle
iteration_state: {dtset: 1, }
solver: {iscf: 7, nstep: 2000, nline: 4, wfoptalg: 0, }
tolerances: {tolwfr: 1.00E-20, }
...

     iter   2DEtotal(Ha)        deltaE(Ha) residm    vres2
-ETOT  1  -49.493780601916     -4.949E+01 5.630E-02 0.000E+00
 ETOT  2  -49.562469656427     -6.869E-02 1.366E-03 0.000E+00
 ETOT  3  -49.563032594965     -5.629E-04 2.341E-05 0.000E+00
 ETOT  4  -49.563038945415     -6.350E-06 1.779E-06 0.000E+00
 ETOT  5  -49.563039028539     -8.312E-08 5.988E-08 0.000E+00
 ETOT  6  -49.563039029702     -1.163E-09 4.168E-09 0.000E+00
 ETOT  7  -49.563039029719     -1.710E-11 3.472E-10 0.000E+00
 ETOT  8  -49.563039029720     -3.197E-13 2.462E-11 0.000E+00
 ETOT  9  -49.563039029720     -2.842E-14 2.091E-12 0.000E+00
 ETOT 10  -49.563039029720      7.105E-14 1.511E-13 0.000E+00
 ETOT 11  -49.563039029720      4.263E-14 1.282E-14 0.000E+00
 ETOT 12  -49.563039029720      7.105E-15 9.367E-16 0.000E+00
 ETOT 13  -49.563039029720     -1.421E-14 7.951E-17 0.000E+00
 ETOT 14  -49.563039029720     -1.421E-14 5.853E-18 0.000E+00
 ETOT 15  -49.563039029720      1.421E-14 4.972E-19 0.000E+00
 ETOT 16  -49.563039029720     -7.105E-15 3.679E-20 0.000E+00
 ETOT 17  -49.563039029720      1.421E-14 9.869E-21 0.000E+00

 At SCF step   17   max residual=  9.87E-21 < tolwfr=  1.00E-20 =>converged.

 ----iterations are completed or convergence reached----

 dfpt_looppert: DFPT cycle converged with prtwf=-1. Will skip output of the 1st-order WFK file.
 dfpt_looppert : ek2=    8.0413354586E+01
          f-sum rule ratio=    1.1811429884E+00
 prteigrs : about to open file /scratch/users/j/a/jabreu/flow_simple_11atoms/flow/w300/t1/tmpdata/tmp_1WF1_EIG
 Expectation of eigenvalue derivatives (hartree) for nkpt=   1  k points:
  (in case of degenerate eigenvalues, averaged derivative)
 kpt#   1, nband= 45, wtk=  1.00000, kpt=  0.0000  0.0000  0.0000 (reduced coord)
   0.00000   -0.00000   -0.00000   -0.00000    0.00000    0.00000    0.00000    0.00000
  -0.00000   -0.00000   -0.00000   -0.00000    0.00000    0.00000   -0.00000    0.00000
   0.00000    0.00000    0.00000   -0.00000   -0.00000   -0.00000    0.00000    0.00000
   0.00000    0.00000    0.00000    0.00000   -0.00000   -0.00000    0.00000    0.00000
  -0.00000   -0.00000    0.00000    0.00000    0.00000   -0.00000   -0.00000    0.00000
   0.00000    0.00000    0.00000   -0.00000   -0.00000

 Eight components of 2nd-order total energy (hartree) are
 1,2,3: 0th-order hamiltonian combined with 1st-order wavefunctions
     kin0=   6.57481734E+01 eigvalue=  -7.87407253E-01  local=  -2.99099095E+01
 4,5,6: 1st-order hamiltonian combined with 1st and 0th-order wfs
     kin1=  -9.49796699E+01  Hartree=   0.00000000E+00     xc=   0.00000000E+00
 7,8,9: eventually, occupation + non-local contributions
    edocc=   1.34853090E+01     enl0=   1.02687339E+00   enl1=  -4.14640812E+00
 1-9 gives the relaxation energy (to be shifted if some occ is /=2.0)
   erelax=  -4.95630390E+01
  No Ewald or frozen-wf contrib.: the relaxation energy is the total one
 2DEtotal=   -0.4956303903E+02 Ha. Also 2DEtotal=   -0.134867888031E+04 eV
    (  non-var. 2DEtotal :   -4.9563039030E+01 Ha)

 CALCULATION OF EFFECTIVE MASSES
 NOTE : Additional infos (eff. mass eigenvalues, eigenvectors and, if degenerate, average mass) are available in stdout.

 K-point ( 0.000, 0.000, 0.000) | band =    36
 Effective mass tensor:
             -1.6065360978             -0.4880068804             -1.5665798296
             -0.4880068804             -1.1937133803             -1.0383360392
             -1.5665798296             -1.0383360392             -4.2034843641
 Effective mass tensor eigenvalues:
             -5.2632133185             -0.8702602619             -0.8702602617
 Angular average effective mass 1/(<1/m>)=  -1.2057097228
 Angular average effective mass for Frohlich model (<m**0.5>)**2=  -1.3838035404
 Effective masses along directions: (cart. coord. / red. coord. -> eff. mass)
    1:   1.000000  0.000000  0.000000 /   0.931795  0.362985  0.000000 ->  -1.0118022213
    2:   0.000000  1.000000  0.000000 /   0.000000  1.000000  0.000000 ->  -0.9272444845
    3:   0.000000  0.000000  1.000000 /   0.473748  0.473748  0.742378 ->  -2.3732595820
    4:   0.577350  0.577350  0.577350 /   0.589990  0.690176  0.419009 ->  -2.6370206165
    5:   0.000000  0.707107  0.707107 /   0.355500  0.750521  0.557080 ->  -1.9112420173
    6:   0.707107  0.000000  0.707107 /   0.716442  0.477305  0.508814 ->  -2.7561290221
    7:   0.707107  0.707107  0.000000 /   0.606611  0.794999  0.000000 ->  -1.0789155369

 K-point ( 0.000, 0.000, 0.000) | band =    37
 Effective mass tensor:
              0.5679349992             -0.0268122630             -0.0860716358
             -0.0268122630              0.5906164649             -0.0570486608
             -0.0860716358             -0.0570486608              0.4252524620
 Effective mass tensor eigenvalues:
              0.3670284232              0.6083877513              0.6083877514
 Angular average effective mass 1/(<1/m>)=   0.4990051674
 Angular average effective mass for Frohlich model (<m**0.5>)**2=   0.5082319369
 Effective masses along directions: (cart. coord. / red. coord. -> eff. mass)
    1:   1.000000  0.000000  0.000000 /   0.931795  0.362985  0.000000 ->   0.5479899700
    2:   0.000000  1.000000  0.000000 /   0.000000  1.000000  0.000000 ->   0.5802904510
    3:   0.000000  0.000000  1.000000 /   0.473748  0.473748  0.742378 ->   0.4058711834
    4:   0.577350  0.577350  0.577350 /   0.589990  0.690176  0.419009 ->   0.3981946871
    5:   0.000000  0.707107  0.707107 /   0.355500  0.750521  0.557080 ->   0.4257057533
    6:   0.707107  0.000000  0.707107 /   0.716442  0.477305  0.508814 ->   0.3952875505
    7:   0.707107  0.707107  0.000000 /   0.606611  0.794999  0.000000 ->   0.5279446003

 END OF EFFECTIVE MASSES SECTION

 ---- first-order wavefunction calculations are completed ----

 Total localisation tensor (bohr^2) in cartesian coordinates
  WARNING : still subject to testing - especially symmetries.
      direction              matrix element
   alpha     beta       real part   imaginary part
     1        1       1.2967111415    0.0000000000
     1        2       0.4039369339    0.0000000000
     1        3       1.2967024428    0.0000000000
     2        1       0.4039369339    0.0000000000
     2        2       0.9550055951    0.0000000000
     2        3       0.8594597589    0.0000000000
     3        1       1.2967024428    0.0000000000
     3        2       0.8594597589    0.0000000000
     3        3       3.4462780655    0.0000000000

 respfn : d/dk was computed, but no 2DTE, so no DDB output.

== END DATASET(S) ==============================================================

 -outvars: echo values of variables after computation  --------
            acell      1.0000000000E+00  1.0000000000E+00  1.0000000000E+00 Bohr
              amu      1.37327000E+02  2.43050000E+01  1.08110000E+01
                       1.59994000E+01
             ecut      4.40000000E+01 Hartree
           etotal     -4.9563039030E+01
            fcart      0.0000000000E+00  0.0000000000E+00  0.0000000000E+00
                       0.0000000000E+00  0.0000000000E+00  0.0000000000E+00
                       0.0000000000E+00  0.0000000000E+00  0.0000000000E+00
                       0.0000000000E+00  0.0000000000E+00  0.0000000000E+00
                       0.0000000000E+00  0.0000000000E+00  0.0000000000E+00
                       0.0000000000E+00  0.0000000000E+00  0.0000000000E+00
                       0.0000000000E+00  0.0000000000E+00  0.0000000000E+00
                       0.0000000000E+00  0.0000000000E+00  0.0000000000E+00
                       0.0000000000E+00  0.0000000000E+00  0.0000000000E+00
                       0.0000000000E+00  0.0000000000E+00  0.0000000000E+00
                       0.0000000000E+00  0.0000000000E+00  0.0000000000E+00
-          fftalg         512
           irdden           1
           irdwfk           1
           istwfk        1
              ixc     -116133
           kptopt           0
P           mkmem           1
P          mkqmem           1
P          mk1mem           1
            natom          11
            nband          45
           nbdbuf           4
            ngfft          72      72      72
             nkpt           1
            nstep        2000
             nsym          12
           ntypat           4
              occ      2.000000  2.000000  2.000000  2.000000  2.000000  2.000000
                       2.000000  2.000000  2.000000  2.000000  2.000000  2.000000
                       2.000000  2.000000  2.000000  2.000000  2.000000  2.000000
                       2.000000  2.000000  2.000000  2.000000  2.000000  2.000000
                       2.000000  2.000000  2.000000  2.000000  2.000000  2.000000
                       2.000000  2.000000  2.000000  2.000000  2.000000  2.000000
                       0.000000  0.000000  0.000000  0.000000  0.000000  0.000000
                       0.000000  0.000000  0.000000
        optdriver           1
            prtwf          -1
            rfdir           1       1       1
           rfelfd           2
            rprim      9.1292664856E+00  0.0000000000E+00  7.5668766717E+00
                       3.5563514529E+00  8.4080836644E+00  7.5668766717E+00
                       0.0000000000E+00  0.0000000000E+00  1.1857534699E+01
          spgroup         166
           strten      0.0000000000E+00  0.0000000000E+00  0.0000000000E+00
                       0.0000000000E+00  0.0000000000E+00  0.0000000000E+00
           symrel      1  0  0   0  1  0   0  0  1      -1  0  0   0 -1  0   0  0 -1
                       0  1  0   1  0  0   0  0  1       0 -1  0  -1  0  0   0  0 -1
                       0  0  1   1  0  0   0  1  0       0  0 -1  -1  0  0   0 -1  0
                       1  0  0   0  0  1   0  1  0      -1  0  0   0  0 -1   0 -1  0
                       0  1  0   0  0  1   1  0  0       0 -1  0   0  0 -1  -1  0  0
                       0  0  1   0  1  0   1  0  0       0  0 -1   0 -1  0  -1  0  0
           tolwfr      1.00000000E-20
            typat      1  1  2  3  3  4  4  4  4  4  4
           useylm           1
           xangst      5.2131482856E+00  3.4552977358E+00  1.1092056190E+01
                       1.4997916043E+00  9.9406850731E-01  3.1911182720E+00
                       0.0000000000E+00  0.0000000000E+00  0.0000000000E+00
                       2.7589847301E+00  1.8286672791E+00  5.8703132881E+00
                       3.9539551599E+00  2.6206989640E+00  8.4128611742E+00
                       2.7908742462E+00  3.2930960894E+00  8.7664775144E+00
                       4.9684280619E+00  3.2930960894E+00  7.7430504107E+00
                       4.1201510740E+00  1.2875620528E+00  8.7664775144E+00
                       2.5927888159E+00  3.1618041903E+00  5.5166969479E+00
                       1.7445118280E+00  1.1562701537E+00  6.5401240516E+00
                       3.9220656437E+00  1.1562701537E+00  5.5166969479E+00
            xcart      9.8514225499E+00  6.5295664283E+00  2.0960948450E+01
                       2.8341953886E+00  1.8785172361E+00  6.0303395918E+00
                       0.0000000000E+00  0.0000000000E+00  0.0000000000E+00
                       5.2137255446E+00  3.4556803457E+00  1.1093284429E+01
                       7.4718923939E+00  4.9524033187E+00  1.5898003613E+01
                       5.2739879966E+00  6.2230497383E+00  1.6566241652E+01
                       9.3889683480E+00  6.2230497383E+00  1.4632244709E+01
                       7.7859571560E+00  2.4331396589E+00  1.6566241652E+01
                       4.8996607825E+00  5.9749440055E+00  1.0425046390E+01
                       3.2966495905E+00  2.1850339261E+00  1.2359043333E+01
                       7.4116299419E+00  2.1850339261E+00  1.0425046390E+01
             xred      7.7658200000E-01  7.7658200000E-01  7.7658200000E-01
                       2.2341800000E-01  2.2341800000E-01  2.2341800000E-01
                       0.0000000000E+00  0.0000000000E+00  0.0000000000E+00
                       4.1099500000E-01  4.1099500000E-01  4.1099500000E-01
                       5.8900500000E-01  5.8900500000E-01  5.8900500000E-01
                       2.8938100000E-01  7.4012700000E-01  7.4012700000E-01
                       7.4012700000E-01  7.4012700000E-01  2.8938100000E-01
                       7.4012700000E-01  2.8938100000E-01  7.4012700000E-01
                       2.5987300000E-01  7.1061900000E-01  2.5987300000E-01
                       2.5987300000E-01  2.5987300000E-01  7.1061900000E-01
                       7.1061900000E-01  2.5987300000E-01  2.5987300000E-01
            znucl       56.00000   12.00000    5.00000    8.00000

- Timing analysis has been suppressed with timopt=0

 Suggested references for the acknowledgment of ABINIT usage.

 Calculation completed.
.Delivered   2 WARNINGs and   5 COMMENTs to log file.