.Version 9.5.1 of ABINIT

 ABINIT is a project of the Universite Catholique de Louvain,
 Corning Inc. and other collaborators, see ~abinit/doc/developers/contributors.txt .
 acknowledgments of the ABINIT effort.

.Starting date : Mon 26 Apr 2021.
- ( at 00h50 )

- input  file    -> /scratch/users/j/a/jabreu/flow_simple/flow/w122/t1/run.abi
- output file    -> /scratch/users/j/a/jabreu/flow_simple/flow/w122/t1/run.abo
- root for input  files -> /scratch/users/j/a/jabreu/flow_simple/flow/w122/t1/indata/in
- root for output files -> /scratch/users/j/a/jabreu/flow_simple/flow/w122/t1/outdata/out

 Symmetries : space group F-4 3 m (#216); Bravais cF (face-center cubic)
     intxc =       0      iscf =       7    lmnmax =      25     lnmax =       7
     mgfft =      48  mpssoang =       4    mqgrid =    3001     natom =       3
  nloc_mem =       1    nspden =       1   nspinor =       1    nsppol =       1
      nsym =      24    n1xccc =    2501    ntypat =       3    occopt =       1
   xclevel =       2
-    mband =          31        mffmem =           1         mkmem =           2
-   mkqmem =           2        mk1mem =           2           mpw =        4999
      nfft =      110592          nkpt =           2
  Rough estimation (10% accuracy) of disk space for files :

------------- Echo of variables that govern the present computation ------------
-
- outvars: echo of selected default values
-   iomode0 =  0 , fftalg0 =512 , wfoptalg0 =  0
-
- outvars: echo of global parameters not present in the input file
-  max_nthreads =    0
-
 -outvars: echo values of preprocessed input variables --------
            acell      1.0000000000E+00  1.0000000000E+00  1.0000000000E+00 Bohr
              amu      9.12240000E+01  1.14820000E+02  1.96966540E+02
             ecut      3.80000000E+01 Hartree
-          fftalg         512
           irdden           1
           irdwfk           1
           istwfk        0    1
              ixc     -116133
              kpt      3.51562500E-02  3.51562500E-02  7.03125000E-02
                       5.00000000E-01  2.83671614E-17  5.00000000E-01
           kptopt           0
P           mkmem           2
P          mkqmem           2
P          mk1mem           2
            natom           3
            nband          31
           nbdbuf           4
            ngfft          48      48      48
             nkpt           2
            nstep         100
             nsym          24
           ntypat           3
              occ      2.000000  2.000000  2.000000  2.000000  2.000000  2.000000
                       2.000000  2.000000  2.000000  2.000000  2.000000  2.000000
                       2.000000  2.000000  2.000000  2.000000  2.000000  2.000000
                       2.000000  2.000000  2.000000  2.000000  0.000000  0.000000
                       0.000000  0.000000  0.000000  0.000000  0.000000  0.000000
                       0.000000
        optdriver           1
            prtwf          -1
            rfdir           1       1       1
           rfelfd           2
            rprim      7.4312181458E+00  0.0000000000E+00  4.2904157969E+00
                       2.4770727153E+00  7.0062196578E+00  4.2904157969E+00
                       0.0000000000E+00  0.0000000000E+00  8.5808315937E+00
          spgroup         216
           symrel      1  0  0   0  1  0   0  0  1       0 -1  1   0 -1  0   1 -1  0
                      -1  0  0  -1  0  1  -1  1  0       0  1 -1   1  0 -1   0  0 -1
                      -1  0  0  -1  1  0  -1  0  1       0 -1  1   1 -1  0   0 -1  0
                       1  0  0   0  0  1   0  1  0       0  1 -1   0  0 -1   1  0 -1
                      -1  0  1  -1  1  0  -1  0  0       0 -1  0   1 -1  0   0 -1  1
                       1  0 -1   0  0 -1   0  1 -1       0  1  0   0  0  1   1  0  0
                       1  0 -1   0  1 -1   0  0 -1       0 -1  0   0 -1  1   1 -1  0
                      -1  0  1  -1  0  0  -1  1  0       0  1  0   1  0  0   0  0  1
                       0  0 -1   0  1 -1   1  0 -1       1 -1  0   0 -1  1   0 -1  0
                       0  0  1   1  0  0   0  1  0      -1  1  0  -1  0  0  -1  0  1
                       0  0  1   0  1  0   1  0  0       1 -1  0   0 -1  0   0 -1  1
                       0  0 -1   1  0 -1   0  1 -1      -1  1  0  -1  0  1  -1  0  0
           tolwfr      1.00000000E-20
            typat      1  2  3
           useylm           1
              wtk        0.50000    0.50000
           xangst      0.0000000000E+00  0.0000000000E+00  0.0000000000E+00
                       2.6216208499E+00  1.8537658806E+00  4.5407805102E+00
                       3.9324312748E+00  2.7806488210E+00  6.8111707652E+00
            xcart      0.0000000000E+00  0.0000000000E+00  0.0000000000E+00
                       4.9541454305E+00  3.5031098289E+00  8.5808315938E+00
                       7.4312181458E+00  5.2546647434E+00  1.2871247391E+01
             xred      0.0000000000E+00  0.0000000000E+00  0.0000000000E+00
                       5.0000000000E-01  5.0000000000E-01  5.0000000000E-01
                       7.5000000000E-01  7.5000000000E-01  7.5000000000E-01
            znucl       40.00000   49.00000   79.00000

 chkinp: Checking input parameters for consistency.

== DATASET  1 ==================================================================
-   mpi_nproc: 1, omp_nthreads: -1 (-1 if OMP is not activated)

--- !DatasetInfo
iteration_state: {dtset: 1, }
dimensions: {natom: 3, nkpt: 2, mband: 31, nsppol: 1, nspinor: 1, nspden: 1, mpw: 4999, }
cutoff_energies: {ecut:  38.0, pawecutdg:  -1.0, }
electrons: {nelect:   4.40000000E+01, charge:   0.00000000E+00, occopt:   1.00000000E+00, tsmear:   1.00000000E-02, }
meta: {optdriver: 1, rfelfd: 2, }
...

 Real(R)+Recip(G) space primitive vectors, cartesian coordinates (Bohr,Bohr^-1):
 R(1)=  7.4312181  0.0000000  4.2904158  G(1)=  0.1345674 -0.0475768  0.0000000
 R(2)=  2.4770727  7.0062197  4.2904158  G(2)=  0.0000000  0.1427303  0.0000000
 R(3)=  0.0000000  0.0000000  8.5808316  G(3)= -0.0672837 -0.0475768  0.1165388
 Unit cell volume ucvol=  4.4675882E+02 bohr^3
 Angles (23,13,12)=  6.00000000E+01  6.00000000E+01  6.00000000E+01 degrees

 getcut: wavevector=  0.0000  0.0000  0.0000  ngfft=  48  48  48
         ecut(hartree)=     38.000   => boxcut(ratio)=   2.01583

--- Pseudopotential description ------------------------------------------------
- pspini: atom type   1  psp file is /scratch/users/j/a/jabreu/pseudos/PBEsol/Zr.psp8
- pspatm: opening atomic psp file    /scratch/users/j/a/jabreu/pseudos/PBEsol/Zr.psp8
- Zr    ONCVPSP-3.3.0  r_core=   1.56507   1.56507   1.51006
- 40.00000  12.00000    180112                znucl, zion, pspdat
    8 -116133    2    4       600   0.00000   pspcod,pspxc,lmax,lloc,mmax,r2well
    5.99000000000000    5.00000000000000    0.00000000000000   rchrg,fchrg,qchrg
     nproj     2     2     2
     extension_switch     1
  pspatm : epsatm=   18.88750170
         --- l  ekb(1:nproj) -->
             0   10.584966    0.890424
             1    5.814585    0.741293
             2    1.525459    0.487901
 pspatm: atomic psp has been read  and splines computed

- pspini: atom type   2  psp file is /scratch/users/j/a/jabreu/pseudos/PBEsol/In.psp8
- pspatm: opening atomic psp file    /scratch/users/j/a/jabreu/pseudos/PBEsol/In.psp8
- In    ONCVPSP-3.3.0  r_core=   2.10853   2.37566   1.87143
- 49.00000  13.00000    180112                znucl, zion, pspdat
    8 -116133    2    4       600   0.00000   pspcod,pspxc,lmax,lloc,mmax,r2well
    5.99000000000000    5.00000000000000    0.00000000000000   rchrg,fchrg,qchrg
     nproj     2     2     2
     extension_switch     1
  pspatm : epsatm=   25.17984752
         --- l  ekb(1:nproj) -->
             0   12.999887    1.931740
             1    5.981707    1.012544
             2   -4.048011   -1.239028
 pspatm: atomic psp has been read  and splines computed

- pspini: atom type   3  psp file is /scratch/users/j/a/jabreu/pseudos/PBEsol/Au.psp8
- pspatm: opening atomic psp file    /scratch/users/j/a/jabreu/pseudos/PBEsol/Au.psp8
- Au    ONCVPSP-3.3.0  r_core=   1.45604   1.56407   1.56407   1.60183
- 79.00000  19.00000    180112                znucl, zion, pspdat
    8 -116133    3    4       500   0.00000   pspcod,pspxc,lmax,lloc,mmax,r2well
    4.99000000000000    5.00000000000000    0.00000000000000   rchrg,fchrg,qchrg
     nproj     2     2     2     1
     extension_switch     1
  pspatm : epsatm=   32.21965837
         --- l  ekb(1:nproj) -->
             0    9.413866   -0.196587
             1    2.474292   -1.517497
             2    1.503483    0.298081
             3    1.177996
 pspatm: atomic psp has been read  and splines computed

   3.35662833E+03                                ecore*ucvol(ha*bohr**3)

-inwffil : will read wavefunctions from disk file /scratch/users/j/a/jabreu/flow_simple/flow/w122/t1/indata/in_WFK

 ==>  initialize data related to q vector <==

 The list of irreducible perturbations for this q vector is:
    1)    idir= 1    ipert=   4
    2)    idir= 2    ipert=   4
    3)    idir= 3    ipert=   4

 Perturbation wavevector (in red.coord.)   0.000000  0.000000  0.000000
 Perturbation : derivative vs k along direction   1

 dfpt_looppert : COMMENT -
  In a d/dk calculation, iscf is set to -3 automatically.
 The set of symmetries contains only one element for this perturbation.
 symkpt : not enough symmetry to change the number of k points.

[...]

 Initialisation of the first-order wave-functions :
  ireadwf=   0

--- !BeginCycle
iteration_state: {dtset: 1, }
solver: {iscf: 7, nstep: 100, nline: 4, wfoptalg: 0, }
tolerances: {tolwfr: 1.00E-20, }
...

     iter   2DEtotal(Ha)        deltaE(Ha) residm    vres2
-ETOT  1  -57.870860930312     -5.787E+01 1.430E-01 0.000E+00
 ETOT  2  -57.900548693842     -2.969E-02 9.580E-03 0.000E+00
 ETOT  3  -57.900673853994     -1.252E-04 4.631E-04 0.000E+00
 ETOT  4  -57.900675015069     -1.161E-06 3.315E-05 0.000E+00
 ETOT  5  -57.900675033248     -1.818E-08 1.846E-06 0.000E+00
 ETOT  6  -57.900675033706     -4.578E-10 1.471E-07 0.000E+00
 ETOT  7  -57.900675033723     -1.673E-11 9.042E-09 0.000E+00
 ETOT  8  -57.900675033724     -7.745E-13 7.402E-10 0.000E+00
 ETOT  9  -57.900675033724     -7.816E-14 4.690E-11 0.000E+00
 ETOT 10  -57.900675033724      8.527E-14 3.892E-12 0.000E+00
 ETOT 11  -57.900675033724     -6.395E-14 2.510E-13 0.000E+00
 ETOT 12  -57.900675033724      0.000E+00 2.104E-14 0.000E+00
 ETOT 13  -57.900675033724     -2.132E-14 1.365E-15 0.000E+00
 ETOT 14  -57.900675033724      0.000E+00 1.158E-16 0.000E+00
 ETOT 15  -57.900675033724      1.421E-14 7.519E-18 0.000E+00
 ETOT 16  -57.900675033724     -1.421E-14 6.470E-19 0.000E+00
 ETOT 17  -57.900675033724      0.000E+00 4.185E-20 0.000E+00
 ETOT 18  -57.900675033724      0.000E+00 9.842E-21 0.000E+00

 At SCF step   18   max residual=  9.84E-21 < tolwfr=  1.00E-20 =>converged.

 ----iterations are completed or convergence reached----

 dfpt_looppert: DFPT cycle converged with prtwf=-1. Will skip output of the 1st-order WFK file.
 dfpt_looppert : ek2=    7.0774190487E+01
          f-sum rule ratio=    1.2240793732E+00
 prteigrs : about to open file /scratch/users/j/a/jabreu/flow_simple/flow/w122/t1/tmpdata/tmp_1WF1_EIG
 Expectation of eigenvalue derivatives (hartree) for nkpt=   2  k points:
  (in case of degenerate eigenvalues, averaged derivative)
 kpt#   1, nband= 31, wtk=  0.50000, kpt=  0.0352  0.0352  0.0703 (reduced coord)
  -0.00000    0.00000   -0.00000   -0.00000   -0.00000    0.00000   -0.00000   -0.00000
  -0.00000    0.00000    0.00000    0.00000   -0.00000    0.00000   -0.00000    0.00000
   0.00000   -0.00000    0.00000    0.00000   -0.00000    0.00000    0.00000   -0.00000
   0.00000    0.00000   -0.00000    0.00000    0.00000    0.00200   -0.01158
 prteigrs : prtvol=0 or 1, do not print more k-points.

 Eight components of 2nd-order total energy (hartree) are
 1,2,3: 0th-order hamiltonian combined with 1st-order wavefunctions
     kin0=   5.40032349E+01 eigvalue=   2.06287802E-01  local=  -2.63962566E+01
 4,5,6: 1st-order hamiltonian combined with 1st and 0th-order wfs
     kin1=  -8.66332267E+01  Hartree=   0.00000000E+00     xc=   0.00000000E+00
 7,8,9: eventually, occupation + non-local contributions
    edocc=   2.33975820E+01     enl0=   6.68982689E+00   enl1=  -2.91681233E+01
 1-9 gives the relaxation energy (to be shifted if some occ is /=2.0)
   erelax=  -5.79006750E+01
  No Ewald or frozen-wf contrib.: the relaxation energy is the total one
 2DEtotal=   -0.5790067503E+02 Ha. Also 2DEtotal=   -0.157555749410E+04 eV
    (  non-var. 2DEtotal :   -5.7900675034E+01 Ha)

 Perturbation wavevector (in red.coord.)   0.000000  0.000000  0.000000
 Perturbation : derivative vs k along direction   2
 The set of symmetries contains only one element for this perturbation.
 symkpt : not enough symmetry to change the number of k points.

[...]

 Perturbation wavevector (in red.coord.)   0.000000  0.000000  0.000000
 Perturbation : derivative vs k along direction   3
 The set of symmetries contains only one element for this perturbation.
 symkpt : not enough symmetry to change the number of k points.

-inwffil : will read wavefunctions from disk file /scratch/users/j/a/jabreu/flow_simple/flow/w122/t1/indata/in_WFK

 Initialisation of the first-order wave-functions :
  ireadwf=   0

--- !BeginCycle
iteration_state: {dtset: 1, }
solver: {iscf: 7, nstep: 100, nline: 4, wfoptalg: 0, }
tolerances: {tolwfr: 1.00E-20, }
...

     iter   2DEtotal(Ha)        deltaE(Ha) residm    vres2
-ETOT  1  -57.649154739937     -5.765E+01 5.165E-02 0.000E+00
 ETOT  2  -57.679215609650     -3.006E-02 2.255E-03 0.000E+00
 ETOT  3  -57.679331616011     -1.160E-04 6.442E-05 0.000E+00
 ETOT  4  -57.679332552819     -9.368E-07 3.095E-06 0.000E+00
 ETOT  5  -57.679332564662     -1.184E-08 1.323E-07 0.000E+00
 ETOT  6  -57.679332564956     -2.943E-10 1.209E-08 0.000E+00
 ETOT  7  -57.679332564968     -1.180E-11 5.888E-10 0.000E+00
 ETOT  8  -57.679332564969     -5.755E-13 5.785E-11 0.000E+00
 ETOT  9  -57.679332564969     -3.553E-14 2.791E-12 0.000E+00
 ETOT 10  -57.679332564969      2.132E-14 2.875E-13 0.000E+00
 ETOT 11  -57.679332564969     -7.105E-15 1.361E-14 0.000E+00
 ETOT 12  -57.679332564969     -7.105E-15 1.460E-15 0.000E+00
 ETOT 13  -57.679332564969      7.105E-15 6.771E-17 0.000E+00
 ETOT 14  -57.679332564969     -2.842E-14 7.521E-18 0.000E+00
 ETOT 15  -57.679332564969      0.000E+00 3.428E-19 0.000E+00
 ETOT 16  -57.679332564969      0.000E+00 3.920E-20 0.000E+00
 ETOT 17  -57.679332564969      0.000E+00 9.581E-21 0.000E+00

 At SCF step   17   max residual=  9.58E-21 < tolwfr=  1.00E-20 =>converged.

 ----iterations are completed or convergence reached----

 dfpt_looppert: DFPT cycle converged with prtwf=-1. Will skip output of the 1st-order WFK file.
 dfpt_looppert : ek2=    7.0774190488E+01
          f-sum rule ratio=    1.2184302231E+00
 prteigrs : about to open file /scratch/users/j/a/jabreu/flow_simple/flow/w122/t1/tmpdata/tmp_1WF1_EIG
 Expectation of eigenvalue derivatives (hartree) for nkpt=   2  k points:
  (in case of degenerate eigenvalues, averaged derivative)
 kpt#   1, nband= 31, wtk=  0.50000, kpt=  0.0352  0.0352  0.0703 (reduced coord)
   0.00000   -0.00003   -0.00000   -0.00000    0.00009   -0.00088   -0.00010   -0.00009
   0.00102    0.00129   -0.00060    0.00068    0.00068    0.04402   -0.01906   -0.01502
   0.00692    0.00850    0.01641   -0.14361   -0.03195    0.00011   -0.06307   -0.03049
  -0.12713    0.02911    0.13602    0.19986    0.18368   -0.32774   -0.17608
 prteigrs : prtvol=0 or 1, do not print more k-points.

 Eight components of 2nd-order total energy (hartree) are
 1,2,3: 0th-order hamiltonian combined with 1st-order wavefunctions
     kin0=   5.36656267E+01 eigvalue=   1.89804461E-01  local=  -2.61764548E+01
 4,5,6: 1st-order hamiltonian combined with 1st and 0th-order wfs
     kin1=  -8.62334127E+01  Hartree=   0.00000000E+00     xc=   0.00000000E+00
 7,8,9: eventually, occupation + non-local contributions
    edocc=   2.33755193E+01     enl0=   6.62483693E+00   enl1=  -2.91252524E+01
 1-9 gives the relaxation energy (to be shifted if some occ is /=2.0)
   erelax=  -5.76793326E+01
  No Ewald or frozen-wf contrib.: the relaxation energy is the total one
 2DEtotal=   -0.5767933256E+02 Ha. Also 2DEtotal=   -0.156953445921E+04 eV
    (  non-var. 2DEtotal :   -5.7679332565E+01 Ha)

 CALCULATION OF EFFECTIVE MASSES
 NOTE : Additional infos (eff. mass eigenvalues, eigenvectors and, if degenerate, average mass) are available in stdout.

 K-point ( 0.035, 0.035, 0.070) | band =    22
 Effective mass tensor:
             -0.9620135985             -0.4022581846              0.0000350133
             -0.4022581846             -0.6775427300              0.0009344708
              0.0000350133              0.0009344708            -14.5107700101
 Effective mass tensor eigenvalues:
            -14.5107700735             -1.2464426051             -0.3931136600
 Angular average effective mass 1/(<1/m>)=  -0.8784795878
 Angular average effective mass for Frohlich model (<m**0.5>)**2=  -1.2805798140
 Effective masses along directions: (cart. coord. / red. coord. -> eff. mass)
    1:   1.000000  0.000000  0.000000 /   0.948683  0.316228  0.000000 ->  -0.7231922629
    2:   0.000000  1.000000  0.000000 /   0.000000  1.000000  0.000000 ->  -0.5093416739
    3:   0.000000  0.000000  1.000000 /   0.408248  0.408248  0.816497 -> -14.5107683477
    4:   0.577350  0.577350  0.577350 /   0.585539  0.688047  0.428644 ->  -1.6918093474
    5:   0.000000  0.707107  0.707107 /   0.289489  0.762222  0.578977 ->  -0.9840186123
    6:   0.707107  0.000000  0.707107 /   0.731423  0.422287  0.535439 ->  -1.3778152421
    7:   0.707107  0.707107  0.000000 /   0.616798  0.787122  0.000000 ->  -1.1735813212

 K-point ( 0.500, 0.000, 0.500) | band =    23
 Effective mass tensor:
              0.4632939558             -0.3691047685              0.4520591886
             -0.3691047685              0.7242904127             -0.6393082001
              0.4520591886             -0.6393082001              0.9852868759
 Effective mass tensor eigenvalues:
              0.2022974365              0.2022974628              1.7682763451
 Angular average effective mass 1/(<1/m>)=   0.2870276541
 Angular average effective mass for Frohlich model (<m**0.5>)**2=   0.3432112247
 Effective masses along directions: (cart. coord. / red. coord. -> eff. mass)
    1:   1.000000  0.000000  0.000000 /   0.948683  0.316228  0.000000 ->   0.2373267329
    2:   0.000000  1.000000  0.000000 /   0.000000  1.000000  0.000000 ->   0.2870276597
    3:   0.000000  0.000000  1.000000 /   0.408248  0.408248  0.816497 ->   0.3630595018
    4:   0.577350  0.577350  0.577350 /   0.585539  0.688047  0.428644 ->   0.2211977054
    5:   0.000000  0.707107  0.707107 /   0.289489  0.762222  0.578977 ->   0.2038169584
    6:   0.707107  0.000000  0.707107 /   0.731423  0.422287  0.535439 ->   0.4503990383
    7:   0.707107  0.707107  0.000000 /   0.616798  0.787122  0.000000 ->   0.2048918071

 END OF EFFECTIVE MASSES SECTION

 ---- first-order wavefunction calculations are completed ----

 Total localisation tensor (bohr^2) in cartesian coordinates
  WARNING : still subject to testing - especially symmetries.
      direction              matrix element
   alpha     beta       real part   imaginary part
     1        1       4.7895936359    0.0000000000
     1        2       1.3547053635    0.0000000000
     1        3       3.3183293238    0.0000000000
     2        1       1.3547053635    0.0000000000
     2        2       3.8316853961    0.0000000000
     2        3       2.3464185188    0.0000000000
     3        1       3.3183293238    0.0000000000
     3        2       2.3464185188    0.0000000000
     3        3       8.6000005563    0.0000000000

 respfn : d/dk was computed, but no 2DTE, so no DDB output.

== END DATASET(S) ==============================================================

 -outvars: echo values of variables after computation  --------
            acell      1.0000000000E+00  1.0000000000E+00  1.0000000000E+00 Bohr
              amu      9.12240000E+01  1.14820000E+02  1.96966540E+02
             ecut      3.80000000E+01 Hartree
           etotal     -5.7679332565E+01
            fcart      0.0000000000E+00  0.0000000000E+00  0.0000000000E+00
                       0.0000000000E+00  0.0000000000E+00  0.0000000000E+00
                       0.0000000000E+00  0.0000000000E+00  0.0000000000E+00
-          fftalg         512
           irdden           1
           irdwfk           1
           istwfk        0    1
              ixc     -116133
              kpt      3.51562500E-02  3.51562500E-02  7.03125000E-02
                       5.00000000E-01  2.83671614E-17  5.00000000E-01
           kptopt           0
P           mkmem           2
P          mkqmem           2
P          mk1mem           2
            natom           3
            nband          31
           nbdbuf           4
            ngfft          48      48      48
             nkpt           2
            nstep         100
             nsym          24
           ntypat           3
              occ      2.000000  2.000000  2.000000  2.000000  2.000000  2.000000
                       2.000000  2.000000  2.000000  2.000000  2.000000  2.000000
                       2.000000  2.000000  2.000000  2.000000  2.000000  2.000000
                       2.000000  2.000000  2.000000  2.000000  0.000000  0.000000
                       0.000000  0.000000  0.000000  0.000000  0.000000  0.000000
                       0.000000
        optdriver           1
            prtwf          -1
            rfdir           1       1       1
           rfelfd           2
            rprim      7.4312181458E+00  0.0000000000E+00  4.2904157969E+00
                       2.4770727153E+00  7.0062196578E+00  4.2904157969E+00
                       0.0000000000E+00  0.0000000000E+00  8.5808315937E+00
          spgroup         216
           strten      0.0000000000E+00  0.0000000000E+00  0.0000000000E+00
                       0.0000000000E+00  0.0000000000E+00  0.0000000000E+00
           symrel      1  0  0   0  1  0   0  0  1       0 -1  1   0 -1  0   1 -1  0
                      -1  0  0  -1  0  1  -1  1  0       0  1 -1   1  0 -1   0  0 -1
                      -1  0  0  -1  1  0  -1  0  1       0 -1  1   1 -1  0   0 -1  0
                       1  0  0   0  0  1   0  1  0       0  1 -1   0  0 -1   1  0 -1
                      -1  0  1  -1  1  0  -1  0  0       0 -1  0   1 -1  0   0 -1  1
                       1  0 -1   0  0 -1   0  1 -1       0  1  0   0  0  1   1  0  0
                       1  0 -1   0  1 -1   0  0 -1       0 -1  0   0 -1  1   1 -1  0
                      -1  0  1  -1  0  0  -1  1  0       0  1  0   1  0  0   0  0  1
                       0  0 -1   0  1 -1   1  0 -1       1 -1  0   0 -1  1   0 -1  0
                       0  0  1   1  0  0   0  1  0      -1  1  0  -1  0  0  -1  0  1
                       0  0  1   0  1  0   1  0  0       1 -1  0   0 -1  0   0 -1  1
                       0  0 -1   1  0 -1   0  1 -1      -1  1  0  -1  0  1  -1  0  0
           tolwfr      1.00000000E-20
            typat      1  2  3
           useylm           1
              wtk        0.50000    0.50000
           xangst      0.0000000000E+00  0.0000000000E+00  0.0000000000E+00
                       2.6216208499E+00  1.8537658806E+00  4.5407805102E+00
                       3.9324312748E+00  2.7806488210E+00  6.8111707652E+00
            xcart      0.0000000000E+00  0.0000000000E+00  0.0000000000E+00
                       4.9541454305E+00  3.5031098289E+00  8.5808315938E+00
                       7.4312181458E+00  5.2546647434E+00  1.2871247391E+01
             xred      0.0000000000E+00  0.0000000000E+00  0.0000000000E+00
                       5.0000000000E-01  5.0000000000E-01  5.0000000000E-01
                       7.5000000000E-01  7.5000000000E-01  7.5000000000E-01
            znucl       40.00000   49.00000   79.00000

- Timing analysis has been suppressed with timopt=0

 Suggested references for the acknowledgment of ABINIT usage.

 Calculation completed.
.Delivered  14 WARNINGs and   9 COMMENTs to log file.