.Version 9.5.1 of ABINIT

 ABINIT is a project of the Universite Catholique de Louvain,
 Corning Inc. and other collaborators, see ~abinit/doc/developers/contributors.txt .
 acknowledgments of the ABINIT effort.

.Starting date : Wed  5 May 2021.
- ( at 19h55 )

- input  file    -> /scratch/users/j/a/jabreu/flow_simple_7atoms/flow/w151/t1/run.abi
- output file    -> /scratch/users/j/a/jabreu/flow_simple_7atoms/flow/w151/t1/run.abo
- root for input  files -> /scratch/users/j/a/jabreu/flow_simple_7atoms/flow/w151/t1/indata/in
- root for output files -> /scratch/users/j/a/jabreu/flow_simple_7atoms/flow/w151/t1/outdata/out

 Symmetries : space group I4/m m m (#139); Bravais tI (body-center tetrag.)
     intxc =       0      iscf =       7    lmnmax =      18     lnmax =       6
     mgfft =     120  mpssoang =       3    mqgrid =    3001     natom =       7
  nloc_mem =       1    nspden =       1   nspinor =       1    nsppol =       1
      nsym =      16    n1xccc =    2501    ntypat =       3    occopt =       1
   xclevel =       2
-    mband =          47        mffmem =           1         mkmem =           1
-   mkqmem =           1        mk1mem =           1           mpw =       23136
      nfft =     1728000          nkpt =           1
  Rough estimation (10% accuracy) of disk space for files :

------------- Echo of variables that govern the present computation ------------
-
- outvars: echo of selected default values
-   iomode0 =  0 , fftalg0 =512 , wfoptalg0 =  0
-
- outvars: echo of global parameters not present in the input file
-  max_nthreads =    0
-
 -outvars: echo values of preprocessed input variables --------
            acell      1.0000000000E+00  1.0000000000E+00  1.0000000000E+00 Bohr
              amu      1.37327000E+02  1.21753000E+02  1.59994000E+01
             ecut      4.40000000E+01 Hartree
-          fftalg         512
           irdden           1
           irdwfk           1
              ixc     -116133
              kpt      5.00000000E-01  5.00000000E-01 -5.00000000E-01
           kptopt           0
P           mkmem           1
P          mkqmem           1
P          mk1mem           1
            natom           7
            nband          47
           nbdbuf           4
            ngfft         120     120     120
             nkpt           1
            nstep        2000
             nsym          16
           ntypat           3
              occ      2.000000  2.000000  2.000000  2.000000  2.000000  2.000000
                       2.000000  2.000000  2.000000  2.000000  2.000000  2.000000
                       2.000000  2.000000  2.000000  2.000000  2.000000  2.000000
                       2.000000  2.000000  2.000000  2.000000  2.000000  2.000000
                       2.000000  2.000000  2.000000  2.000000  2.000000  2.000000
                       2.000000  2.000000  2.000000  2.000000  2.000000  2.000000
                       2.000000  2.000000  0.000000  0.000000  0.000000  0.000000
                       0.000000  0.000000  0.000000  0.000000  0.000000
        optdriver           1
            prtwf          -1
            rfdir           1       1       1
           rfelfd           2
            rprim      9.5176188293E+00  0.0000000000E+00 -1.5810824743E+01
                      -7.3430439270E-01  9.4892499829E+00 -1.5810824743E+01
                       0.0000000000E+00  0.0000000000E+00  1.8454464154E+01
          spgroup         139
           symrel      1  0  0   0  1  0   0  0  1      -1  0  0   0 -1  0   0  0 -1
                       0  0  1  -1 -1 -1   1  0  0       0  0 -1   1  1  1  -1  0  0
                       0  1  0   1  0  0  -1 -1 -1       0 -1  0  -1  0  0   1  1  1
                      -1 -1 -1   0  0  1   0  1  0       1  1  1   0  0 -1   0 -1  0
                       0  1  0   1  0  0   0  0  1       0 -1  0  -1  0  0   0  0 -1
                       0  0  1  -1 -1 -1   0  1  0       0  0 -1   1  1  1   0 -1  0
                       1  0  0   0  1  0  -1 -1 -1      -1  0  0   0 -1  0   1  1  1
                      -1 -1 -1   0  0  1   1  0  0       1  1  1   0  0 -1  -1  0  0
           tolwfr      1.00000000E-20
            typat      1  1  1  1  2  2  3
           useylm           1
           xangst      1.5323852768E+00  1.6555466694E+00 -5.5168866434E+00
                       3.1155445389E+00  3.3659481482E+00 -1.1216569562E+01
                       2.5182534823E+00  0.0000000000E+00  6.9947686217E-01
                      -1.9428857439E-01  2.5107474088E+00  6.9947686217E-01
                       6.3883006559E-01  6.9017433371E-01 -2.2999131548E+00
                       4.0090997501E+00  4.3313204839E+00 -1.4433543051E+01
                       2.3239649079E+00  2.5107474088E+00 -8.3667281030E+00
            xcart      2.8957885032E+00  3.1285298054E+00 -1.0425404862E+01
                       5.8875259334E+00  6.3607201775E+00 -2.1196244624E+01
                       4.7588094146E+00  0.0000000000E+00  1.3218197058E+00
                      -3.6715219635E-01  4.7446249915E+00  1.3218197058E+00
                       1.2072138694E+00  1.3042404746E+00 -4.3462059919E+00
                       7.5761005672E+00  8.1850095083E+00 -2.7275443494E+01
                       4.3916572183E+00  4.7446249915E+00 -1.5810824743E+01
             xred      3.2969200000E-01  3.2969200000E-01 -5.5511151231E-17
                       6.7030800000E-01  6.7030800000E-01  0.0000000000E+00
                       5.0000000000E-01  0.0000000000E+00  5.0000000000E-01
                       6.9388939039E-18  5.0000000000E-01  5.0000000000E-01
                       1.3744400000E-01  1.3744400000E-01  0.0000000000E+00
                       8.6255600000E-01  8.6255600000E-01 -1.1102230246E-16
                       5.0000000000E-01  5.0000000000E-01 -1.1102230246E-16
            znucl       56.00000   51.00000    8.00000

 chkinp: Checking input parameters for consistency.

== DATASET  1 ==================================================================
-   mpi_nproc: 1, omp_nthreads: -1 (-1 if OMP is not activated)

--- !DatasetInfo
iteration_state: {dtset: 1, }
dimensions: {natom: 7, nkpt: 1, mband: 47, nsppol: 1, nspinor: 1, nspden: 1, mpw: 23136, }
cutoff_energies: {ecut:  44.0, pawecutdg:  -1.0, }
electrons: {nelect:   7.60000000E+01, charge:   0.00000000E+00, occopt:   1.00000000E+00, tsmear:   1.00000000E-02, }
meta: {optdriver: 1, rfelfd: 2, }
...

 Real(R)+Recip(G) space primitive vectors, cartesian coordinates (Bohr,Bohr^-1):
 R(1)=  9.5176188  0.0000000-15.8108247  G(1)=  0.1050683  0.0081305  0.0000000
 R(2)= -0.7343044  9.4892500-15.8108247  G(2)=  0.0000000  0.1053824  0.0000000
 R(3)=  0.0000000  0.0000000 18.4544642  G(3)=  0.0900171  0.0972519  0.0541874
 Unit cell volume ucvol=  1.6667161E+03 bohr^3
 Angles (23,13,12)=  1.48953383E+02  1.48953383E+02  4.44799284E+01 degrees

 getcut: wavevector=  0.0000  0.0000  0.0000  ngfft= 120 120 120
         ecut(hartree)=     44.000   => boxcut(ratio)=   2.17806

--- Pseudopotential description ------------------------------------------------
- pspini: atom type   1  psp file is /scratch/users/j/a/jabreu/pseudos/PBEsol/Ba.psp8
- pspatm: opening atomic psp file    /scratch/users/j/a/jabreu/pseudos/PBEsol/Ba.psp8
- Ba    ONCVPSP-3.3.0  r_core=   2.15444   1.91218   2.15444
- 56.00000  10.00000    180112                znucl, zion, pspdat
    8 -116133    2    4       600   0.00000   pspcod,pspxc,lmax,lloc,mmax,r2well
    5.99000000000000    5.00000000000000    0.00000000000000   rchrg,fchrg,qchrg
     nproj     2     2     2
     extension_switch     1
  pspatm : epsatm=   26.37418029
         --- l  ekb(1:nproj) -->
             0    6.652372    0.677024
             1    5.027722    0.408462
             2    2.543237    0.416854
 pspatm: atomic psp has been read  and splines computed

- pspini: atom type   2  psp file is /scratch/users/j/a/jabreu/pseudos/PBEsol/Sb.psp8
- pspatm: opening atomic psp file    /scratch/users/j/a/jabreu/pseudos/PBEsol/Sb.psp8
- Sb    ONCVPSP-3.3.0  r_core=   1.81962   2.12485   1.81962
- 51.00000  15.00000    180112                znucl, zion, pspdat
    8 -116133    2    4       600   0.00000   pspcod,pspxc,lmax,lloc,mmax,r2well
    5.99000000000000    5.00000000000000    0.00000000000000   rchrg,fchrg,qchrg
     nproj     2     2     2
     extension_switch     1
  pspatm : epsatm=   26.35641246
         --- l  ekb(1:nproj) -->
             0    9.727814    1.485032
             1    5.505335    0.704623
             2   -4.710637   -1.436443
 pspatm: atomic psp has been read  and splines computed

- pspini: atom type   3  psp file is /scratch/users/j/a/jabreu/pseudos/PBEsol/O.psp8
- pspatm: opening atomic psp file    /scratch/users/j/a/jabreu/pseudos/PBEsol/O.psp8
- O     ONCVPSP-3.3.0  r_core=   1.35509   1.45563   1.26150
-  8.00000   6.00000    180112                znucl, zion, pspdat
    8 -116133    2    4       600   0.00000   pspcod,pspxc,lmax,lloc,mmax,r2well
    5.99000000000000    4.00000000000000    0.00000000000000   rchrg,fchrg,qchrg
     nproj     2     2     1
     extension_switch     1
  pspatm : epsatm=    6.22910522
         --- l  ekb(1:nproj) -->
             0    6.050032    0.820363
             1   -4.739617   -1.153841
             2   -1.335834
 pspatm: atomic psp has been read  and splines computed

   1.24973375E+04                                ecore*ucvol(ha*bohr**3)

-inwffil : will read wavefunctions from disk file /scratch/users/j/a/jabreu/flow_simple_7atoms/flow/w151/t1/indata/in_WFK

 ==>  initialize data related to q vector <==

 The list of irreducible perturbations for this q vector is:
    1)    idir= 1    ipert=   8
    2)    idir= 2    ipert=   8
    3)    idir= 3    ipert=   8

 Perturbation wavevector (in red.coord.)   0.000000  0.000000  0.000000
 Perturbation : derivative vs k along direction   1

 dfpt_looppert : COMMENT -
  In a d/dk calculation, iscf is set to -3 automatically.
 The set of symmetries contains only one element for this perturbation.
 symkpt : not enough symmetry to change the number of k points.

[...]

 Initialisation of the first-order wave-functions :
  ireadwf=   0

--- !BeginCycle
iteration_state: {dtset: 1, }
solver: {iscf: 7, nstep: 2000, nline: 4, wfoptalg: 0, }
tolerances: {tolwfr: 1.00E-20, }
...

     iter   2DEtotal(Ha)        deltaE(Ha) residm    vres2
-ETOT  1  -64.410772471313     -6.441E+01 9.935E-02 0.000E+00
 ETOT  2  -64.543715809377     -1.329E-01 1.340E-02 0.000E+00
 ETOT  3  -64.546108796548     -2.393E-03 6.078E-03 0.000E+00
 ETOT  4  -64.546181272722     -7.248E-05 2.013E-03 0.000E+00
 ETOT  5  -64.546184019017     -2.746E-06 1.194E-03 0.000E+00
 ETOT  6  -64.546184150500     -1.315E-07 4.439E-04 0.000E+00
 ETOT  7  -64.546184158540     -8.041E-09 2.607E-04 0.000E+00
 ETOT  8  -64.546184159121     -5.808E-10 9.987E-05 0.000E+00
 ETOT  9  -64.546184159166     -4.536E-11 5.838E-05 0.000E+00
 ETOT 10  -64.546184159170     -4.064E-12 2.262E-05 0.000E+00
 ETOT 11  -64.546184159170     -1.421E-14 1.320E-05 0.000E+00
 ETOT 12  -64.546184159171     -8.527E-14 5.138E-06 0.000E+00
 ETOT 13  -64.546184159171      4.263E-14 2.998E-06 0.000E+00
[...]
  -0.00000   -0.00000   -0.00000    0.00000   -0.00000   -0.00000   -0.00000   -0.00000
  -0.00000   -0.00000   -0.00000   -0.00000   -0.00000    0.00000   -0.00000   -0.00000
  -0.00000   -0.00000    0.00000    0.00000    0.00000    0.00000    0.00000   -0.00000
   0.00000    0.00000    0.00000   -0.00000   -0.00000   -0.00000    0.00000    0.00000
   0.00000    0.00000    0.00000    0.00000   -0.00000   -0.00000   -0.00000    0.00000
   0.00000   -0.00000    0.00000    0.00000    0.00000    0.00000   -0.00000

 Eight components of 2nd-order total energy (hartree) are
 1,2,3: 0th-order hamiltonian combined with 1st-order wavefunctions
     kin0=   8.76007068E+01 eigvalue=  -1.00589743E+00  local=  -6.04225125E+01
 4,5,6: 1st-order hamiltonian combined with 1st and 0th-order wfs
     kin1=  -9.34361415E+01  Hartree=   0.00000000E+00     xc=   0.00000000E+00
 7,8,9: eventually, occupation + non-local contributions
    edocc=   1.90254423E+01     enl0=   1.93484451E+01   enl1=  -3.56562269E+01
 1-9 gives the relaxation energy (to be shifted if some occ is /=2.0)
   erelax=  -6.45461842E+01
  No Ewald or frozen-wf contrib.: the relaxation energy is the total one
 2DEtotal=   -0.6454618416E+02 Ha. Also 2DEtotal=   -0.175639099385E+04 eV
    (  non-var. 2DEtotal :   -6.4546184159E+01 Ha)

 Perturbation wavevector (in red.coord.)   0.000000  0.000000  0.000000
 Perturbation : derivative vs k along direction   2
 The set of symmetries contains only one element for this perturbation.
 symkpt : not enough symmetry to change the number of k points.

[...]

 Perturbation wavevector (in red.coord.)   0.000000  0.000000  0.000000
 Perturbation : derivative vs k along direction   3
 The set of symmetries contains only one element for this perturbation.
 symkpt : not enough symmetry to change the number of k points.

-inwffil : will read wavefunctions from disk file /scratch/users/j/a/jabreu/flow_simple_7atoms/flow/w151/t1/indata/in_WFK

 Initialisation of the first-order wave-functions :
  ireadwf=   0

--- !BeginCycle
iteration_state: {dtset: 1, }
solver: {iscf: 7, nstep: 2000, nline: 4, wfoptalg: 0, }
tolerances: {tolwfr: 1.00E-20, }
...

     iter   2DEtotal(Ha)        deltaE(Ha) residm    vres2
-ETOT  1  -121.24968021156     -1.212E+02 2.373E-01 0.000E+00
 ETOT  2  -121.42678271746     -1.771E-01 5.339E-03 0.000E+00
 ETOT  3  -121.42905771939     -2.275E-03 8.007E-04 0.000E+00
 ETOT  4  -121.42912984249     -7.212E-05 1.116E-04 0.000E+00
 ETOT  5  -121.42913296598     -3.123E-06 1.007E-05 0.000E+00
 ETOT  6  -121.42913313249     -1.665E-07 1.491E-06 0.000E+00
 ETOT  7  -121.42913314274     -1.025E-08 2.269E-07 0.000E+00
 ETOT  8  -121.42913314343     -6.891E-10 5.130E-08 0.000E+00
 ETOT  9  -121.42913314348     -4.951E-11 1.280E-08 0.000E+00
 ETOT 10  -121.42913314348     -4.349E-12 2.636E-09 0.000E+00
 ETOT 11  -121.42913314348      5.684E-14 8.503E-10 0.000E+00
 ETOT 12  -121.42913314348     -2.842E-14 1.818E-10 0.000E+00
 ETOT 13  -121.42913314348     -1.137E-13 5.860E-11 0.000E+00
 ETOT 14  -121.42913314348      2.984E-13 1.275E-11 0.000E+00
 ETOT 15  -121.42913314348     -1.990E-13 4.089E-12 0.000E+00
 ETOT 16  -121.42913314348     -7.105E-14 8.981E-13 0.000E+00
 ETOT 17  -121.42913314348      2.842E-14 2.872E-13 0.000E+00
 ETOT 18  -121.42913314348      4.263E-14 6.340E-14 0.000E+00
 ETOT 19  -121.42913314348     -4.263E-14 2.024E-14 0.000E+00
 ETOT 20  -121.42913314348      0.000E+00 4.480E-15 0.000E+00
 ETOT 21  -121.42913314348      4.263E-14 1.429E-15 0.000E+00
 ETOT 22  -121.42913314348      0.000E+00 3.168E-16 0.000E+00
 ETOT 23  -121.42913314348      0.000E+00 1.010E-16 0.000E+00
 ETOT 24  -121.42913314348     -1.421E-14 2.240E-17 0.000E+00
 ETOT 25  -121.42913314348     -2.842E-14 7.140E-18 0.000E+00
 ETOT 26  -121.42913314348      2.842E-14 1.585E-18 0.000E+00
 ETOT 27  -121.42913314348     -1.421E-14 5.049E-19 0.000E+00
 ETOT 28  -121.42913314348      2.842E-14 1.121E-19 0.000E+00
 ETOT 29  -121.42913314348     -2.842E-14 3.571E-20 0.000E+00
 ETOT 30  -121.42913314348     -4.263E-14 9.938E-21 0.000E+00

 At SCF step   30   max residual=  9.94E-21 < tolwfr=  1.00E-20 =>converged.

 ----iterations are completed or convergence reached----

 dfpt_looppert: DFPT cycle converged with prtwf=-1. Will skip output of the 1st-order WFK file.
 dfpt_looppert : ek2=    1.2299845813E+02
          f-sum rule ratio=    1.4384647706E+00
 prteigrs : about to open file /scratch/users/j/a/jabreu/flow_simple_7atoms/flow/w151/t1/tmpdata/tmp_1WF1_EIG
 Expectation of eigenvalue derivatives (hartree) for nkpt=   1  k points:
  (in case of degenerate eigenvalues, averaged derivative)
 kpt#   1, nband= 47, wtk=  1.00000, kpt=  0.5000  0.5000 -0.5000 (reduced coord)
  -0.00000   -0.00000   -0.00000    0.00000   -0.00000   -0.00000   -0.00000    0.00000
   0.00000   -0.00000   -0.00000   -0.00000    0.00000    0.00000    0.00000   -0.00000
   0.00000    0.00000    0.00000    0.00000    0.00000    0.00000    0.00000    0.00000
   0.00000   -0.00000   -0.00000   -0.00000    0.00000   -0.00000    0.00000    0.00000
   0.00000    0.00000    0.00000    0.00000    0.00000    0.00000   -0.00000    0.00000
   0.00000    0.00000    0.00000    0.00000   -0.00000    0.00000   -0.00000

 Eight components of 2nd-order total energy (hartree) are
 1,2,3: 0th-order hamiltonian combined with 1st-order wavefunctions
     kin0=   1.65978323E+02 eigvalue=  -2.35938417E+00  local=  -1.14947216E+02
 4,5,6: 1st-order hamiltonian combined with 1st and 0th-order wfs
     kin1=  -1.76928949E+02  Hartree=   0.00000000E+00     xc=   0.00000000E+00
 7,8,9: eventually, occupation + non-local contributions
    edocc=   3.58381735E+01     enl0=   3.69192370E+01   enl1=  -6.59293174E+01
 1-9 gives the relaxation energy (to be shifted if some occ is /=2.0)
   erelax=  -1.21429133E+02
  No Ewald or frozen-wf contrib.: the relaxation energy is the total one
 2DEtotal=   -0.1214291331E+03 Ha. Also 2DEtotal=   -0.330425475375E+04 eV
    (  non-var. 2DEtotal :   -1.2142913314E+02 Ha)

 CALCULATION OF EFFECTIVE MASSES
 NOTE : Additional infos (eff. mass eigenvalues, eigenvectors and, if degenerate, average mass) are available in stdout.

 COMMENTS:
 - At k-point ( 0.500, 0.500,-0.500), bands    37 through    38
   are DEGENERATE (effective mass tensor is therefore not defined).
   See Section IIIB Eqs. (67)-(70) and Appendix E of PRB 93 205147 (2016).
 - Angular average effective mass for Frohlich model is to be averaged over degenerate bands. See later.
 - Associated theta integrals calculated with ntheta=   1000 points.

 K-point ( 0.500, 0.500,-0.500) | band =    37
 Transport equivalent effective mass tensor:
             -0.3247275770             -0.2333285016              0.7775219014
             -0.2333285016             -0.3608404768              0.8400161556
              0.7775219014              0.8400161556             -2.9079489381
 Transport equivalent effective mass tensor eigenvalues:
             -3.3760011219             -0.1087579649             -0.1087579050
 Angular average effective mass 1/(<1/m>)=  -0.1382261141
 Angular average effective mass for Frohlich model (<m**0.5>)**2=  -0.1881798564
 Effective masses along directions: (cart. coord. / red. coord. -> eff. mass)
    1:   1.000000  0.000000  0.000000 /   0.997037 -0.076924  0.000000 ->  -0.0857998919
    2:   0.000000  1.000000  0.000000 /   0.000000  1.000000  0.000000 ->  -0.0863740011
    3:   0.000000  0.000000  1.000000 /  -0.545353 -0.545353  0.636538 ->  -0.7055878128
    4:   0.577350  0.577350  0.577350 /  -0.303500 -0.340282  0.889998 ->  -0.1349105074
    5:   0.000000  0.707107  0.707107 /  -0.629663 -0.251755  0.734945 ->  -0.1041623440
    6:   0.707107  0.000000  0.707107 /  -0.246100 -0.647009  0.721675 ->  -0.1040481754
    7:   0.707107  0.707107  0.000000 /   0.735980  0.677004  0.000000 ->  -0.1470922299

 K-point ( 0.500, 0.500,-0.500) | band =    38
 Transport equivalent effective mass tensor:
             -0.8728060040             -0.4534936081              1.5112258685
             -0.4534936081             -0.9429887585              1.6326823800
              1.5112258685              1.6326823800             -5.8938135707
 Transport equivalent effective mass tensor eigenvalues:
             -6.8035119506             -0.4530482741             -0.4530481084
 Angular average effective mass 1/(<1/m>)=  -0.3502104130
 Angular average effective mass for Frohlich model (<m**0.5>)**2=  -0.4652750911
 Effective masses along directions: (cart. coord. / red. coord. -> eff. mass)
    1:   1.000000  0.000000  0.000000 /   0.997037 -0.076924  0.000000 ->  -0.4597829809
    2:   0.000000  1.000000  0.000000 /   0.000000  1.000000  0.000000 ->  -0.4767060976
    3:   0.000000  0.000000  1.000000 /  -0.545353 -0.545353  0.636538 ->  -0.7422044434
    4:   0.577350  0.577350  0.577350 /  -0.303500 -0.340282  0.889998 ->  -0.1508191608
    5:   0.000000  0.707107  0.707107 /  -0.629663 -0.251755  0.734945 ->  -0.4509125134
    6:   0.707107  0.000000  0.707107 /  -0.246100 -0.647009  0.721675 ->  -0.4958226590
    7:   0.707107  0.707107  0.000000 /   0.735980  0.677004  0.000000 ->  -0.1679337410

 Angular average effective mass for Frohlich model, averaged over degenerate bands.
 Value of     (<<m**0.5>>)**2 =     3.113125E-01
 Absolute Value of <<m**0.5>> =     5.579539E-01

 K-point ( 0.500, 0.500,-0.500) | band =    39
 Effective mass tensor:
              0.1533076846              0.0482502941             -0.1607876155
              0.0482502941              0.1607751669             -0.1737104926
             -0.1607876155             -0.1737104926              0.6875137410
 Effective mass tensor eigenvalues:
              0.1086468837              0.1086468843              0.7843028245
 Angular average effective mass 1/(<1/m>)=   0.1524136461
 Angular average effective mass for Frohlich model (<m**0.5>)**2=   0.1784230872
 Effective masses along directions: (cart. coord. / red. coord. -> eff. mass)
    1:   1.000000  0.000000  0.000000 /   0.997037 -0.076924  0.000000 ->   0.1152071613
    2:   0.000000  1.000000  0.000000 /   0.000000  1.000000  0.000000 ->   0.1163821646
    3:   0.000000  0.000000  1.000000 /  -0.545353 -0.545353  0.636538 ->   0.4147864619
    4:   0.577350  0.577350  0.577350 /  -0.303500 -0.340282  0.889998 ->   0.1136287959
    5:   0.000000  0.707107  0.707107 /  -0.629663 -0.251755  0.734945 ->   0.1326225209
    6:   0.707107  0.000000  0.707107 /  -0.246100 -0.647009  0.721675 ->   0.1345467829
    7:   0.707107  0.707107  0.000000 /   0.735980  0.677004  0.000000 ->   0.1239163358

 END OF EFFECTIVE MASSES SECTION

 ---- first-order wavefunction calculations are completed ----

 Total localisation tensor (bohr^2) in cartesian coordinates
  WARNING : still subject to testing - especially symmetries.
      direction              matrix element
   alpha     beta       real part   imaginary part
     1        1       8.0107563313    0.0000000000
     1        2      -0.6125583554    0.0000000000
     1        3     -12.2082217541    0.0000000000
     2        1      -0.6125583554    0.0000000000
     2        2       7.9159534133    0.0000000000
     2        3     -13.1894251197    0.0000000000
     3        1     -12.2082217541    0.0000000000
     3        2     -13.1894251197    0.0000000000
     3        3     103.1008512055    0.0000000000

 respfn : d/dk was computed, but no 2DTE, so no DDB output.

== END DATASET(S) ==============================================================

 -outvars: echo values of variables after computation  --------
            acell      1.0000000000E+00  1.0000000000E+00  1.0000000000E+00 Bohr
              amu      1.37327000E+02  1.21753000E+02  1.59994000E+01
             ecut      4.40000000E+01 Hartree
           etotal     -1.2142913314E+02
            fcart      0.0000000000E+00  0.0000000000E+00  0.0000000000E+00
                       0.0000000000E+00  0.0000000000E+00  0.0000000000E+00
                       0.0000000000E+00  0.0000000000E+00  0.0000000000E+00
                       0.0000000000E+00  0.0000000000E+00  0.0000000000E+00
                       0.0000000000E+00  0.0000000000E+00  0.0000000000E+00
                       0.0000000000E+00  0.0000000000E+00  0.0000000000E+00
                       0.0000000000E+00  0.0000000000E+00  0.0000000000E+00
-          fftalg         512
           irdden           1
           irdwfk           1
              ixc     -116133
              kpt      5.00000000E-01  5.00000000E-01 -5.00000000E-01
           kptopt           0
P           mkmem           1
P          mkqmem           1
P          mk1mem           1
            natom           7
            nband          47
           nbdbuf           4
            ngfft         120     120     120
             nkpt           1
            nstep        2000
             nsym          16
           ntypat           3
              occ      2.000000  2.000000  2.000000  2.000000  2.000000  2.000000
                       2.000000  2.000000  2.000000  2.000000  2.000000  2.000000
                       2.000000  2.000000  2.000000  2.000000  2.000000  2.000000
                       2.000000  2.000000  2.000000  2.000000  2.000000  2.000000
                       2.000000  2.000000  2.000000  2.000000  2.000000  2.000000
                       2.000000  2.000000  2.000000  2.000000  2.000000  2.000000
                       2.000000  2.000000  0.000000  0.000000  0.000000  0.000000
                       0.000000  0.000000  0.000000  0.000000  0.000000
        optdriver           1
            prtwf          -1
            rfdir           1       1       1
           rfelfd           2
            rprim      9.5176188293E+00  0.0000000000E+00 -1.5810824743E+01
                      -7.3430439270E-01  9.4892499829E+00 -1.5810824743E+01
                       0.0000000000E+00  0.0000000000E+00  1.8454464154E+01
          spgroup         139
           strten      0.0000000000E+00  0.0000000000E+00  0.0000000000E+00
                       0.0000000000E+00  0.0000000000E+00  0.0000000000E+00
           symrel      1  0  0   0  1  0   0  0  1      -1  0  0   0 -1  0   0  0 -1
                       0  0  1  -1 -1 -1   1  0  0       0  0 -1   1  1  1  -1  0  0
                       0  1  0   1  0  0  -1 -1 -1       0 -1  0  -1  0  0   1  1  1
                      -1 -1 -1   0  0  1   0  1  0       1  1  1   0  0 -1   0 -1  0
                       0  1  0   1  0  0   0  0  1       0 -1  0  -1  0  0   0  0 -1
                       0  0  1  -1 -1 -1   0  1  0       0  0 -1   1  1  1   0 -1  0
                       1  0  0   0  1  0  -1 -1 -1      -1  0  0   0 -1  0   1  1  1
                      -1 -1 -1   0  0  1   1  0  0       1  1  1   0  0 -1  -1  0  0
           tolwfr      1.00000000E-20
            typat      1  1  1  1  2  2  3
           useylm           1
           xangst      1.5323852768E+00  1.6555466694E+00 -5.5168866434E+00
                       3.1155445389E+00  3.3659481482E+00 -1.1216569562E+01
                       2.5182534823E+00  0.0000000000E+00  6.9947686217E-01
                      -1.9428857439E-01  2.5107474088E+00  6.9947686217E-01
                       6.3883006559E-01  6.9017433371E-01 -2.2999131548E+00
                       4.0090997501E+00  4.3313204839E+00 -1.4433543051E+01
                       2.3239649079E+00  2.5107474088E+00 -8.3667281030E+00
            xcart      2.8957885032E+00  3.1285298054E+00 -1.0425404862E+01
                       5.8875259334E+00  6.3607201775E+00 -2.1196244624E+01
                       4.7588094146E+00  0.0000000000E+00  1.3218197058E+00
                      -3.6715219635E-01  4.7446249915E+00  1.3218197058E+00
                       1.2072138694E+00  1.3042404746E+00 -4.3462059919E+00
                       7.5761005672E+00  8.1850095083E+00 -2.7275443494E+01
                       4.3916572183E+00  4.7446249915E+00 -1.5810824743E+01
             xred      3.2969200000E-01  3.2969200000E-01 -5.5511151231E-17
                       6.7030800000E-01  6.7030800000E-01  0.0000000000E+00
                       5.0000000000E-01  0.0000000000E+00  5.0000000000E-01
                       6.9388939039E-18  5.0000000000E-01  5.0000000000E-01
                       1.3744400000E-01  1.3744400000E-01  0.0000000000E+00
                       8.6255600000E-01  8.6255600000E-01 -1.1102230246E-16
                       5.0000000000E-01  5.0000000000E-01 -1.1102230246E-16
            znucl       56.00000   51.00000    8.00000

- Timing analysis has been suppressed with timopt=0

 Suggested references for the acknowledgment of ABINIT usage.

 Calculation completed.
.Delivered   6 WARNINGs and   5 COMMENTs to log file.