.Version 9.5.2 of ABINIT

 ABINIT is a project of the Universite Catholique de Louvain,
 Corning Inc. and other collaborators, see ~abinit/doc/developers/contributors.txt .
 acknowledgments of the ABINIT effort.

.Starting date : Mon 24 May 2021.
- ( at 10h49 )

- input  file    -> /scratch/users/j/a/jabreu/flow_simple_10atoms/flow/w260/t1/run.abi
- output file    -> /scratch/users/j/a/jabreu/flow_simple_10atoms/flow/w260/t1/run.abo
- root for input  files -> /scratch/users/j/a/jabreu/flow_simple_10atoms/flow/w260/t1/indata/in
- root for output files -> /scratch/users/j/a/jabreu/flow_simple_10atoms/flow/w260/t1/outdata/out

 Symmetries : space group I4/m (# 87); Bravais tI (body-center tetrag.)
     intxc =       0      iscf =       7    lmnmax =      18     lnmax =       6
     mgfft =      72  mpssoang =       3    mqgrid =    3001     natom =      10
  nloc_mem =       1    nspden =       1   nspinor =       1    nsppol =       1
      nsym =       8    n1xccc =    2501    ntypat =       4    occopt =       1
   xclevel =       2
-    mband =          49        mffmem =           1         mkmem =           2
-   mkqmem =           2        mk1mem =           2           mpw =       15817
      nfft =      373248          nkpt =           2
  Rough estimation (10% accuracy) of disk space for files :

------------- Echo of variables that govern the present computation ------------
-
- outvars: echo of selected default values
-   iomode0 =  0 , fftalg0 =512 , wfoptalg0 =  0
-
- outvars: echo of global parameters not present in the input file
-  max_nthreads =    0
-
 -outvars: echo values of preprocessed input variables --------
            acell      1.0000000000E+00  1.0000000000E+00  1.0000000000E+00 Bohr
              amu      3.90983000E+01  8.54678000E+01  4.49559100E+01
                       1.89984032E+01
             ecut      4.20000000E+01 Hartree
-          fftalg         512
           irdden           1
           irdwfk           1
           istwfk        1    1
              ixc     -116133
              kpt      0.00000000E+00  5.00000000E-01  0.00000000E+00
                       0.00000000E+00  0.00000000E+00  0.00000000E+00
           kptopt           0
P           mkmem           2
P          mkqmem           2
P          mk1mem           2
            natom          10
            nband          49
           nbdbuf           4
            ngfft          72      72      72
             nkpt           2
            nstep        2000
             nsym           8
           ntypat           4
              occ      2.000000  2.000000  2.000000  2.000000  2.000000  2.000000
                       2.000000  2.000000  2.000000  2.000000  2.000000  2.000000
                       2.000000  2.000000  2.000000  2.000000  2.000000  2.000000
                       2.000000  2.000000  2.000000  2.000000  2.000000  2.000000
                       2.000000  2.000000  2.000000  2.000000  2.000000  2.000000
                       2.000000  2.000000  2.000000  2.000000  2.000000  2.000000
                       2.000000  2.000000  2.000000  2.000000  0.000000  0.000000
                       0.000000  0.000000  0.000000  0.000000  0.000000  0.000000
                       0.000000
        optdriver           1
            prtwf          -1
            rfdir           1       1       1
           rfelfd           2
            rprim      1.0324400209E+01  0.0000000000E+00 -6.1733553516E+00
                      -3.3214368287E+00  9.7755458704E+00 -6.1733553516E+00
                       0.0000000000E+00  0.0000000000E+00  1.2029279113E+01
          spgroup          87
           symrel      1  0  0   0  1  0   0  0  1      -1  0  0   0 -1  0   0  0 -1
                       0  1  0   1  0  0  -1 -1 -1       0 -1  0  -1  0  0   1  1  1
                       0  0  1  -1 -1 -1   0  1  0       0  0 -1   1  1  1   0 -1  0
                      -1 -1 -1   0  0  1   1  0  0       1  1  1   0  0 -1  -1  0  0
           tolwfr      1.00000000E-20
            typat      1  2  2  3  4  4  4  4  4  4
           useylm           1
              wtk        0.50000    0.50000
           xangst      1.8529043067E+00  2.5864980381E+00 -3.2667989526E+00
                       4.7637818575E-02  3.8797470571E+00 -8.3988781516E-02
                       3.6581707948E+00  1.2932490190E+00 -8.3988781516E-02
                       0.0000000000E+00  0.0000000000E+00  5.3004437024E-16
                       4.1392451454E-02  4.3504573688E+00 -2.8976549534E+00
                       3.7987097320E-01  1.4387666919E+00  1.3546079364E+00
                       3.3259376401E+00  3.7342293842E+00 -1.5225854994E+00
                       3.6644161619E+00  8.2253870733E-01  2.7296773904E+00
                       2.8861763933E+00  4.0288586690E+00 -5.0885293885E+00
                       8.1963222006E-01  1.1441374071E+00 -1.4450685167E+00
            xcart      3.5014816901E+00  4.8877729352E+00 -6.1733553516E+00
                       9.0022430675E-02  7.3316594028E+00 -1.5871579530E-01
                       6.9129409494E+00  2.4438864676E+00 -1.5871579530E-01
                       0.0000000000E+00  0.0000000000E+00  1.0016386980E-15
                       7.8220397217E-02  8.2211729798E+00 -5.4757742895E+00
                       7.1785210517E-01  2.7188750168E+00  2.5598380172E+00
                       6.2851112749E+00  7.0566708536E+00 -2.8772696078E+00
                       6.9247429829E+00  1.5543728906E+00  5.1583426989E+00
                       5.4540829545E+00  7.6134395125E+00 -9.6159269634E+00
                       1.5488804256E+00  2.1621063579E+00 -2.7307837398E+00
             xred      5.0000000000E-01  5.0000000000E-01  8.3266726847E-17
                       2.5000000000E-01  7.5000000000E-01  5.0000000000E-01
                       7.5000000000E-01  2.5000000000E-01  5.0000000000E-01
                       0.0000000000E+00  0.0000000000E+00  8.3266726847E-17
                       2.7813025000E-01  8.4099375000E-01  1.1912400000E-01
                       1.5900625000E-01  2.7813025000E-01  4.3713650000E-01
                       8.4099375000E-01  7.2186975000E-01  5.6286350000E-01
                       7.2186975000E-01  1.5900625000E-01  8.8087600000E-01
                       7.7882500000E-01  7.7882500000E-01  8.3266726847E-17
                       2.2117500000E-01  2.2117500000E-01  8.3266726847E-17
            znucl       19.00000   37.00000   21.00000    9.00000

 chkinp: Checking input parameters for consistency.

== DATASET  1 ==================================================================
-   mpi_nproc: 1, omp_nthreads: -1 (-1 if OMP is not activated)

--- !DatasetInfo
iteration_state: {dtset: 1, }
dimensions: {natom: 10, nkpt: 2, mband: 49, nsppol: 1, nspinor: 1, nspden: 1, mpw: 15817, }
cutoff_energies: {ecut:  42.0, pawecutdg:  -1.0, }
electrons: {nelect:   8.00000000E+01, charge:   0.00000000E+00, occopt:   1.00000000E+00, tsmear:   1.00000000E-02, }
meta: {optdriver: 1, rfelfd: 2, }
...

 Real(R)+Recip(G) space primitive vectors, cartesian coordinates (Bohr,Bohr^-1):
 R(1)= 10.3244002  0.0000000 -6.1733554  G(1)=  0.0968579  0.0329094  0.0000000
 R(2)= -3.3214368  9.7755459 -6.1733554  G(2)=  0.0000000  0.1022961  0.0000000
 R(3)=  0.0000000  0.0000000 12.0292791  G(3)=  0.0497069  0.0693867  0.0831305
 Unit cell volume ucvol=  1.2140748E+03 bohr^3
 Angles (23,13,12)=  1.20876824E+02  1.20876824E+02  8.84878893E+01 degrees

 getcut: wavevector=  0.0000  0.0000  0.0000  ngfft=  72  72  72
         ecut(hartree)=     42.000   => boxcut(ratio)=   2.05206

--- Pseudopotential description ------------------------------------------------
- pspini: atom type   1  psp file is /scratch/users/j/a/jabreu/pseudos/PBEsol/K.psp8
- pspatm: opening atomic psp file    /scratch/users/j/a/jabreu/pseudos/PBEsol/K.psp8
- K     ONCVPSP-3.3.0  r_core=   1.36296   1.46408   1.61068
- 19.00000   9.00000    180112                znucl, zion, pspdat
    8 -116133    2    4       400   0.00000   pspcod,pspxc,lmax,lloc,mmax,r2well
    3.99000000000000    5.00000000000000    0.00000000000000   rchrg,fchrg,qchrg
     nproj     2     2     2
     extension_switch     1
  pspatm : epsatm=    8.32487830
         --- l  ekb(1:nproj) -->
             0   10.921326    0.816676
             1    4.431000    0.560368
             2   -3.384038   -1.043186
 pspatm: atomic psp has been read  and splines computed

- pspini: atom type   2  psp file is /scratch/users/j/a/jabreu/pseudos/PBEsol/Rb.psp8
- pspatm: opening atomic psp file    /scratch/users/j/a/jabreu/pseudos/PBEsol/Rb.psp8
- Rb    ONCVPSP-3.3.0  r_core=   1.71227   1.75361   1.90633
- 37.00000   9.00000    180112                znucl, zion, pspdat
    8 -116133    2    4       600   0.00000   pspcod,pspxc,lmax,lloc,mmax,r2well
    5.99000000000000    7.00000000000000    0.00000000000000   rchrg,fchrg,qchrg
     nproj     2     2     2
     extension_switch     1
  pspatm : epsatm=   34.48400912
         --- l  ekb(1:nproj) -->
             0    8.196957   -0.477221
             1    3.231347   -0.378736
             2   -1.047201    0.996637
 pspatm: atomic psp has been read  and splines computed

[...]

- pspini: atom type   4  psp file is /scratch/users/j/a/jabreu/pseudos/PBEsol/F.psp8
- pspatm: opening atomic psp file    /scratch/users/j/a/jabreu/pseudos/PBEsol/F.psp8
- F     ONCVPSP-3.3.0  r_core=   1.30942   1.45782   1.60379
-  9.00000   7.00000    180112                znucl, zion, pspdat
    8 -116133    2    4       600   0.00000   pspcod,pspxc,lmax,lloc,mmax,r2well
    5.99000000000000    2.50000000000000    0.00000000000000   rchrg,fchrg,qchrg
     nproj     2     2     1
     extension_switch     1
  pspatm : epsatm=    4.89824824
         --- l  ekb(1:nproj) -->
             0    6.506434    1.065875
             1   -3.978753   -1.295852
             2   -2.394754
 pspatm: atomic psp has been read  and splines computed

   9.62177575E+03                                ecore*ucvol(ha*bohr**3)

 ==>  initialize data related to q vector <==

 The list of irreducible perturbations for this q vector is:
    1)    idir= 1    ipert=  11
    2)    idir= 2    ipert=  11
    3)    idir= 3    ipert=  11

 Perturbation wavevector (in red.coord.)   0.000000  0.000000  0.000000
 Perturbation : derivative vs k along direction   1

 dfpt_looppert : COMMENT -
  In a d/dk calculation, iscf is set to -3 automatically.
 The set of symmetries contains only one element for this perturbation.
 symkpt : not enough symmetry to change the number of k points.

 Initialisation of the first-order wave-functions :
  ireadwf=   0

--- !BeginCycle
iteration_state: {dtset: 1, }
solver: {iscf: 7, nstep: 2000, nline: 4, wfoptalg: 0, }
tolerances: {tolwfr: 1.00E-20, }
...

     iter   2DEtotal(Ha)        deltaE(Ha) residm    vres2
-ETOT  1  -33.851236455488     -3.385E+01 6.834E-02 0.000E+00
 ETOT  2  -33.935097973922     -8.386E-02 3.927E-03 0.000E+00
 ETOT  3  -33.936214159994     -1.116E-03 4.385E-04 0.000E+00
 ETOT  4  -33.936240571044     -2.641E-05 5.782E-05 0.000E+00
 ETOT  5  -33.936241420020     -8.490E-07 1.584E-05 0.000E+00
[...]
 ETOT 30  -33.936241453725     -1.421E-14 1.292E-19 0.000E+00
 ETOT 31  -33.936241453725     -1.421E-14 4.178E-20 0.000E+00
 ETOT 32  -33.936241453725     -7.105E-15 1.136E-20 0.000E+00
 ETOT 33  -33.936241453725      2.132E-14 9.996E-21 0.000E+00

 At SCF step   33   max residual=  1.00E-20 < tolwfr=  1.00E-20 =>converged.

 ----iterations are completed or convergence reached----

 dfpt_looppert: DFPT cycle converged with prtwf=-1. Will skip output of the 1st-order WFK file.
 dfpt_looppert : ek2=    6.6099425298E+01
          f-sum rule ratio=    1.0226185680E+00
 prteigrs : about to open file /scratch/users/j/a/jabreu/flow_simple_10atoms/flow/w260/t1/tmpdata/tmp_1WF1_EIG
 Expectation of eigenvalue derivatives (hartree) for nkpt=   2  k points:
  (in case of degenerate eigenvalues, averaged derivative)
 kpt#   1, nband= 49, wtk=  0.50000, kpt=  0.0000  0.5000  0.0000 (reduced coord)
  -0.00000   -0.00000    0.00000   -0.00000   -0.00000   -0.00000    0.00000   -0.00000
  -0.00000   -0.00000   -0.00000    0.00000    0.00000    0.00000   -0.00000    0.00000
   0.00000   -0.00000    0.00000    0.00000    0.00000   -0.00000    0.00000   -0.00000
  -0.00000   -0.00000   -0.00000    0.00000    0.00000    0.00000   -0.00000    0.00000
  -0.00000    0.00000    0.00000    0.00000    0.00000   -0.00000    0.00000   -0.00000
   0.00000    0.00000   -0.00000    0.00000    0.00000   -0.00002   -0.00001    0.00000
   0.00184
 prteigrs : prtvol=0 or 1, do not print more k-points.

 Eight components of 2nd-order total energy (hartree) are
 1,2,3: 0th-order hamiltonian combined with 1st-order wavefunctions
     kin0=   4.67810532E+01 eigvalue=   4.30482808E+00  local=  -2.22329845E+01
 4,5,6: 1st-order hamiltonian combined with 1st and 0th-order wfs
     kin1=  -6.75944996E+01  Hartree=   0.00000000E+00     xc=   0.00000000E+00
 7,8,9: eventually, occupation + non-local contributions
    edocc=   5.58188280E+00     enl0=  -4.98538051E-01   enl1=  -2.77983263E-01
 1-9 gives the relaxation energy (to be shifted if some occ is /=2.0)
   erelax=  -3.39362415E+01
  No Ewald or frozen-wf contrib.: the relaxation energy is the total one
 2DEtotal=   -0.3393624145E+02 Ha. Also 2DEtotal=   -0.923452092963E+03 eV
    (  non-var. 2DEtotal :   -3.3936241453E+01 Ha)

 Perturbation wavevector (in red.coord.)   0.000000  0.000000  0.000000
 Perturbation : derivative vs k along direction   2
 The set of symmetries contains only one element for this perturbation.
 symkpt : not enough symmetry to change the number of k points.

[...]

 Perturbation wavevector (in red.coord.)   0.000000  0.000000  0.000000
 Perturbation : derivative vs k along direction   3
 The set of symmetries contains only one element for this perturbation.
 symkpt : not enough symmetry to change the number of k points.

 Initialisation of the first-order wave-functions :
  ireadwf=   0

--- !BeginCycle
iteration_state: {dtset: 1, }
solver: {iscf: 7, nstep: 2000, nline: 4, wfoptalg: 0, }
tolerances: {tolwfr: 1.00E-20, }
...

     iter   2DEtotal(Ha)        deltaE(Ha) residm    vres2
-ETOT  1  -45.719590666826     -4.572E+01 6.779E-02 0.000E+00
 ETOT  2  -45.815090644738     -9.550E-02 5.986E-03 0.000E+00
 ETOT  3  -45.816346633991     -1.256E-03 6.561E-04 0.000E+00
 ETOT  4  -45.816375659941     -2.903E-05 8.939E-05 0.000E+00
 ETOT  5  -45.816376556925     -8.970E-07 1.785E-05 0.000E+00
 ETOT  6  -45.816376589264     -3.234E-08 5.133E-06 0.000E+00
 ETOT  7  -45.816376590551     -1.288E-09 1.234E-06 0.000E+00
 ETOT  8  -45.816376590605     -5.432E-11 3.738E-07 0.000E+00
 ETOT  9  -45.816376590608     -2.352E-12 9.239E-08 0.000E+00
 ETOT 10  -45.816376590608     -6.395E-14 2.844E-08 0.000E+00
 ETOT 11  -45.816376590608     -2.842E-14 7.127E-09 0.000E+00
 ETOT 12  -45.816376590608     -5.684E-14 2.208E-09 0.000E+00
 ETOT 13  -45.816376590608      2.842E-14 5.574E-10 0.000E+00
 ETOT 14  -45.816376590608      1.421E-14 1.732E-10 0.000E+00
 ETOT 15  -45.816376590608     -7.105E-15 4.389E-11 0.000E+00
 ETOT 16  -45.816376590608      0.000E+00 1.365E-11 0.000E+00
 ETOT 17  -45.816376590608      0.000E+00 3.469E-12 0.000E+00
 ETOT 18  -45.816376590608      0.000E+00 1.079E-12 0.000E+00
 ETOT 19  -45.816376590608      0.000E+00 2.747E-13 0.000E+00
 ETOT 20  -45.816376590608      0.000E+00 8.550E-14 0.000E+00
 ETOT 21  -45.816376590608      0.000E+00 2.180E-14 0.000E+00
 ETOT 22  -45.816376590608      0.000E+00 6.786E-15 0.000E+00
 ETOT 23  -45.816376590608      0.000E+00 1.732E-15 0.000E+00
 ETOT 24  -45.816376590608      0.000E+00 5.395E-16 0.000E+00
 ETOT 25  -45.816376590608      0.000E+00 1.378E-16 0.000E+00
 ETOT 26  -45.816376590608      0.000E+00 4.295E-17 0.000E+00
 ETOT 27  -45.816376590608     -1.421E-14 1.098E-17 0.000E+00
 ETOT 28  -45.816376590608      1.421E-14 3.426E-18 0.000E+00
 ETOT 29  -45.816376590608      0.000E+00 8.762E-19 0.000E+00
 ETOT 30  -45.816376590608      0.000E+00 2.736E-19 0.000E+00
 ETOT 31  -45.816376590608      0.000E+00 7.001E-20 0.000E+00
 ETOT 32  -45.816376590608      0.000E+00 2.189E-20 0.000E+00
 ETOT 33  -45.816376590608      0.000E+00 9.885E-21 0.000E+00

 At SCF step   33   max residual=  9.88E-21 < tolwfr=  1.00E-20 =>converged.

 ----iterations are completed or convergence reached----

 dfpt_looppert: DFPT cycle converged with prtwf=-1. Will skip output of the 1st-order WFK file.
 dfpt_looppert : ek2=    8.9669490799E+01
          f-sum rule ratio=    1.0171107855E+00
 prteigrs : about to open file /scratch/users/j/a/jabreu/flow_simple_10atoms/flow/w260/t1/tmpdata/tmp_1WF1_EIG
 Expectation of eigenvalue derivatives (hartree) for nkpt=   2  k points:
  (in case of degenerate eigenvalues, averaged derivative)
 kpt#   1, nband= 49, wtk=  0.50000, kpt=  0.0000  0.5000  0.0000 (reduced coord)
  -0.00000   -0.00000   -0.00000    0.00000    0.00000   -0.00000    0.00000    0.00000
   0.00000   -0.00000    0.00000    0.00000    0.00000    0.00000   -0.00000    0.00000
  -0.00000   -0.00000   -0.00000   -0.00000    0.00000   -0.00000    0.00000   -0.00000
   0.00000   -0.00000   -0.00000   -0.00000    0.00000    0.00000    0.00000   -0.00000
  -0.00000   -0.00000   -0.00000   -0.00000   -0.00000    0.00000    0.00000    0.00000
   0.00000   -0.00000   -0.00000    0.00000   -0.00000    0.00001   -0.00001    0.00000
  -0.00758
 prteigrs : prtvol=0 or 1, do not print more k-points.

 Eight components of 2nd-order total energy (hartree) are
 1,2,3: 0th-order hamiltonian combined with 1st-order wavefunctions
     kin0=   6.27962914E+01 eigvalue=   5.82473953E+00  local=  -2.96621767E+01
 4,5,6: 1st-order hamiltonian combined with 1st and 0th-order wfs
     kin1=  -9.12038062E+01  Hartree=   0.00000000E+00     xc=   0.00000000E+00
 7,8,9: eventually, occupation + non-local contributions
    edocc=   7.55478631E+00     enl0=  -6.97263961E-01   enl1=  -4.28946962E-01
 1-9 gives the relaxation energy (to be shifted if some occ is /=2.0)
   erelax=  -4.58163766E+01
  No Ewald or frozen-wf contrib.: the relaxation energy is the total one
 2DEtotal=   -0.4581637659E+02 Ha. Also 2DEtotal=   -0.124672701048E+04 eV
    (  non-var. 2DEtotal :   -4.5816376590E+01 Ha)

 CALCULATION OF EFFECTIVE MASSES
 NOTE : Additional infos (eff. mass eigenvalues, eigenvectors and, if degenerate, average mass) are available in stdout.

 K-point ( 0.000, 0.500, 0.000) | band =    40
 Effective mass tensor:
            -20.6662768660             -6.8857687626              8.9019419551
             -6.8857687626             -8.9385498622              2.6278175757
              8.9019419551              2.6278175757            -14.6279810865
 Effective mass tensor eigenvalues:
            -29.5337138737             -9.3277003726             -5.3713935685
 Angular average effective mass 1/(<1/m>)=  -9.1676227833
 Angular average effective mass for Frohlich model (<m**0.5>)**2= -10.3357796237
 Effective masses along directions: (cart. coord. / red. coord. -> eff. mass)
    1:   1.000000  0.000000  0.000000 /   0.951951 -0.306250  0.000000 -> -11.9479207889
    2:   0.000000  1.000000  0.000000 /   0.000000  1.000000  0.000000 ->  -6.6336923263
    3:   0.000000  0.000000  1.000000 /  -0.415336 -0.415336  0.809316 -> -10.7762785364
    4:   0.577350  0.577350  0.577350 /   0.326123  0.022057  0.945070 -> -10.1228224142
    5:   0.000000  0.707107  0.707107 /  -0.441191  0.257438  0.859696 ->  -8.5435415783
    6:   0.707107  0.000000  0.707107 /   0.261447 -0.598014  0.757644 ->  -7.7046279810
    7:   0.707107  0.707107  0.000000 /   0.847948  0.530079  0.000000 -> -15.3941559385

 K-point ( 0.000, 0.000, 0.000) | band =    41
 Effective mass tensor:
              0.5184119200              0.0099305674             -0.0125420801
              0.0099305674              0.5251603469             -0.0175078291
             -0.0125420801             -0.0175078291              0.5334105888
 Effective mass tensor eigenvalues:
              0.5112979736              0.5112982856              0.5543865964
 Angular average effective mass 1/(<1/m>)=   0.5248969460
 Angular average effective mass for Frohlich model (<m**0.5>)**2=   0.5251227763
 Effective masses along directions: (cart. coord. / red. coord. -> eff. mass)
    1:   1.000000  0.000000  0.000000 /   0.951951 -0.306250  0.000000 ->   0.5179442921
    2:   0.000000  1.000000  0.000000 /   0.000000  1.000000  0.000000 ->   0.5244108150
    3:   0.000000  0.000000  1.000000 /  -0.415336 -0.415336  0.809316 ->   0.5325391812
    4:   0.577350  0.577350  0.577350 /   0.326123  0.022057  0.945070 ->   0.5121757412
    5:   0.000000  0.707107  0.707107 /  -0.441191  0.257438  0.859696 ->   0.5117407614
    6:   0.707107  0.000000  0.707107 /   0.261447 -0.598014  0.757644 ->   0.5132153719
    7:   0.707107  0.707107  0.000000 /   0.847948  0.530079  0.000000 ->   0.5308498255

 END OF EFFECTIVE MASSES SECTION

 ---- first-order wavefunction calculations are completed ----

 Total localisation tensor (bohr^2) in cartesian coordinates
  WARNING : still subject to testing - especially symmetries.
      direction              matrix element
   alpha     beta       real part   imaginary part
     1        1       0.6608795017    0.0000000000
     1        2      -0.1731238730    0.0000000000
     1        3      -0.2506636619    0.0000000000
     2        1      -0.1731238730    0.0000000000
     2        2       0.5095326056    0.0000000000
     2        3      -0.3217749555    0.0000000000
     3        1      -0.2506636619    0.0000000000
     3        2      -0.3217749555    0.0000000000
     3        3       1.5090906089    0.0000000000

 respfn : d/dk was computed, but no 2DTE, so no DDB output.

== END DATASET(S) ==============================================================

 -outvars: echo values of variables after computation  --------
            acell      1.0000000000E+00  1.0000000000E+00  1.0000000000E+00 Bohr
              amu      3.90983000E+01  8.54678000E+01  4.49559100E+01
                       1.89984032E+01
             ecut      4.20000000E+01 Hartree
           etotal     -4.5816376591E+01
            fcart      0.0000000000E+00  0.0000000000E+00  0.0000000000E+00
                       0.0000000000E+00  0.0000000000E+00  0.0000000000E+00
                       0.0000000000E+00  0.0000000000E+00  0.0000000000E+00
                       0.0000000000E+00  0.0000000000E+00  0.0000000000E+00
                       0.0000000000E+00  0.0000000000E+00  0.0000000000E+00
                       0.0000000000E+00  0.0000000000E+00  0.0000000000E+00
                       0.0000000000E+00  0.0000000000E+00  0.0000000000E+00
                       0.0000000000E+00  0.0000000000E+00  0.0000000000E+00
                       0.0000000000E+00  0.0000000000E+00  0.0000000000E+00
                       0.0000000000E+00  0.0000000000E+00  0.0000000000E+00
-          fftalg         512
           irdden           1
           irdwfk           1
           istwfk        1    1
              ixc     -116133
              kpt      0.00000000E+00  5.00000000E-01  0.00000000E+00
                       0.00000000E+00  0.00000000E+00  0.00000000E+00
           kptopt           0
P           mkmem           2
P          mkqmem           2
P          mk1mem           2
            natom          10
            nband          49
           nbdbuf           4
            ngfft          72      72      72
             nkpt           2
            nstep        2000
             nsym           8
           ntypat           4
              occ      2.000000  2.000000  2.000000  2.000000  2.000000  2.000000
                       2.000000  2.000000  2.000000  2.000000  2.000000  2.000000
                       2.000000  2.000000  2.000000  2.000000  2.000000  2.000000
                       2.000000  2.000000  2.000000  2.000000  2.000000  2.000000
                       2.000000  2.000000  2.000000  2.000000  2.000000  2.000000
                       2.000000  2.000000  2.000000  2.000000  2.000000  2.000000
                       2.000000  2.000000  2.000000  2.000000  0.000000  0.000000
                       0.000000  0.000000  0.000000  0.000000  0.000000  0.000000
                       0.000000
        optdriver           1
            prtwf          -1
            rfdir           1       1       1
           rfelfd           2
            rprim      1.0324400209E+01  0.0000000000E+00 -6.1733553516E+00
                      -3.3214368287E+00  9.7755458704E+00 -6.1733553516E+00
                       0.0000000000E+00  0.0000000000E+00  1.2029279113E+01
          spgroup          87
           strten      0.0000000000E+00  0.0000000000E+00  0.0000000000E+00
                       0.0000000000E+00  0.0000000000E+00  0.0000000000E+00
           symrel      1  0  0   0  1  0   0  0  1      -1  0  0   0 -1  0   0  0 -1
                       0  1  0   1  0  0  -1 -1 -1       0 -1  0  -1  0  0   1  1  1
                       0  0  1  -1 -1 -1   0  1  0       0  0 -1   1  1  1   0 -1  0
                      -1 -1 -1   0  0  1   1  0  0       1  1  1   0  0 -1  -1  0  0
           tolwfr      1.00000000E-20
            typat      1  2  2  3  4  4  4  4  4  4
           useylm           1
              wtk        0.50000    0.50000
           xangst      1.8529043067E+00  2.5864980381E+00 -3.2667989526E+00
                       4.7637818575E-02  3.8797470571E+00 -8.3988781516E-02
                       3.6581707948E+00  1.2932490190E+00 -8.3988781516E-02
                       0.0000000000E+00  0.0000000000E+00  5.3004437024E-16
                       4.1392451454E-02  4.3504573688E+00 -2.8976549534E+00
                       3.7987097320E-01  1.4387666919E+00  1.3546079364E+00
                       3.3259376401E+00  3.7342293842E+00 -1.5225854994E+00
                       3.6644161619E+00  8.2253870733E-01  2.7296773904E+00
                       2.8861763933E+00  4.0288586690E+00 -5.0885293885E+00
                       8.1963222006E-01  1.1441374071E+00 -1.4450685167E+00
            xcart      3.5014816901E+00  4.8877729352E+00 -6.1733553516E+00
                       9.0022430675E-02  7.3316594028E+00 -1.5871579530E-01
                       6.9129409494E+00  2.4438864676E+00 -1.5871579530E-01
                       0.0000000000E+00  0.0000000000E+00  1.0016386980E-15
                       7.8220397217E-02  8.2211729798E+00 -5.4757742895E+00
                       7.1785210517E-01  2.7188750168E+00  2.5598380172E+00
                       6.2851112749E+00  7.0566708536E+00 -2.8772696078E+00
                       6.9247429829E+00  1.5543728906E+00  5.1583426989E+00
                       5.4540829545E+00  7.6134395125E+00 -9.6159269634E+00
                       1.5488804256E+00  2.1621063579E+00 -2.7307837398E+00
             xred      5.0000000000E-01  5.0000000000E-01  8.3266726847E-17
                       2.5000000000E-01  7.5000000000E-01  5.0000000000E-01
                       7.5000000000E-01  2.5000000000E-01  5.0000000000E-01
                       0.0000000000E+00  0.0000000000E+00  8.3266726847E-17
                       2.7813025000E-01  8.4099375000E-01  1.1912400000E-01
                       1.5900625000E-01  2.7813025000E-01  4.3713650000E-01
                       8.4099375000E-01  7.2186975000E-01  5.6286350000E-01
                       7.2186975000E-01  1.5900625000E-01  8.8087600000E-01
                       7.7882500000E-01  7.7882500000E-01  8.3266726847E-17
                       2.2117500000E-01  2.2117500000E-01  8.3266726847E-17
            znucl       19.00000   37.00000   21.00000    9.00000

- Timing analysis has been suppressed with timopt=0

 Suggested references for the acknowledgment of ABINIT usage.

 Calculation completed.
.Delivered   2 WARNINGs and   5 COMMENTs to log file.