.Version 9.5.2 of ABINIT

 ABINIT is a project of the Universite Catholique de Louvain,
 Corning Inc. and other collaborators, see ~abinit/doc/developers/contributors.txt .
 acknowledgments of the ABINIT effort.

.Starting date : Mon 24 May 2021.
- ( at 15h57 )

- input  file    -> /scratch/users/j/a/jabreu/flow_simple_10atoms/flow/w280/t1/run.abi
- output file    -> /scratch/users/j/a/jabreu/flow_simple_10atoms/flow/w280/t1/run.abo
- root for input  files -> /scratch/users/j/a/jabreu/flow_simple_10atoms/flow/w280/t1/indata/in
- root for output files -> /scratch/users/j/a/jabreu/flow_simple_10atoms/flow/w280/t1/outdata/out

 Symmetries : space group Fm -3 m (#225); Bravais cF (face-center cubic)
     intxc =       0      iscf =       7    lmnmax =      32     lnmax =       8
     mgfft =      90  mpssoang =       4    mqgrid =    3491     natom =      10
  nloc_mem =       1    nspden =       1   nspinor =       1    nsppol =       1
      nsym =      48    n1xccc =    2501    ntypat =       4    occopt =       1
   xclevel =       2
-    mband =          51        mffmem =           1         mkmem =           2
-   mkqmem =           2        mk1mem =           2           mpw =       28976
      nfft =      729000          nkpt =           2
  Rough estimation (10% accuracy) of disk space for files :

------------- Echo of variables that govern the present computation ------------
-
- outvars: echo of selected default values
-   iomode0 =  0 , fftalg0 =512 , wfoptalg0 =  0
-
- outvars: echo of global parameters not present in the input file
-  max_nthreads =    0
-
 -outvars: echo values of preprocessed input variables --------
            acell      1.0000000000E+00  1.0000000000E+00  1.0000000000E+00 Bohr
              amu      1.32905430E+02  2.29897680E+01  1.21753000E+02
                       3.54527000E+01
             ecut      4.40000000E+01 Hartree
-          fftalg         512
           irdden           1
           irdwfk           1
           istwfk        0    1
              ixc     -116133
              kpt      5.00000000E-01  2.50000000E-01  7.50000000E-01
                       5.00000000E-01  5.00000000E-01  5.00000000E-01
           kptopt           0
P           mkmem           2
P          mkqmem           2
P          mk1mem           2
            natom          10
            nband          51
           nbdbuf           4
            ngfft          90      90      90
             nkpt           2
            nstep        2000
             nsym          48
           ntypat           4
              occ      2.000000  2.000000  2.000000  2.000000  2.000000  2.000000
                       2.000000  2.000000  2.000000  2.000000  2.000000  2.000000
                       2.000000  2.000000  2.000000  2.000000  2.000000  2.000000
                       2.000000  2.000000  2.000000  2.000000  2.000000  2.000000
                       2.000000  2.000000  2.000000  2.000000  2.000000  2.000000
                       2.000000  2.000000  2.000000  2.000000  2.000000  2.000000
                       2.000000  2.000000  2.000000  2.000000  2.000000  2.000000
                       0.000000  0.000000  0.000000  0.000000  0.000000  0.000000
                       0.000000  0.000000  0.000000
        optdriver           1
            prtwf          -1
            rfdir           1       1       1
           rfelfd           2
            rprim      1.2397730713E+01  0.0000000000E+00  7.1578331643E+00
                       4.1325769042E+00  1.1688692611E+01  7.1578331643E+00
                       0.0000000000E+00  0.0000000000E+00  1.4315666329E+01
          spgroup         225
           symrel      1  0  0   0  1  0   0  0  1      -1  0  0   0 -1  0   0  0 -1
                       0 -1  1   0 -1  0   1 -1  0       0  1 -1   0  1  0  -1  1  0
                      -1  0  0  -1  0  1  -1  1  0       1  0  0   1  0 -1   1 -1  0
                       0  1 -1   1  0 -1   0  0 -1       0 -1  1  -1  0  1   0  0  1
                      -1  0  0  -1  1  0  -1  0  1       1  0  0   1 -1  0   1  0 -1
                       0 -1  1   1 -1  0   0 -1  0       0  1 -1  -1  1  0   0  1  0
                       1  0  0   0  0  1   0  1  0      -1  0  0   0  0 -1   0 -1  0
                       0  1 -1   0  0 -1   1  0 -1       0 -1  1   0  0  1  -1  0  1
                      -1  0  1  -1  1  0  -1  0  0       1  0 -1   1 -1  0   1  0  0
                       0 -1  0   1 -1  0   0 -1  1       0  1  0  -1  1  0   0  1 -1
                       1  0 -1   0  0 -1   0  1 -1      -1  0  1   0  0  1   0 -1  1
                       0  1  0   0  0  1   1  0  0       0 -1  0   0  0 -1  -1  0  0
                       1  0 -1   0  1 -1   0  0 -1      -1  0  1   0 -1  1   0  0  1
                       0 -1  0   0 -1  1   1 -1  0       0  1  0   0  1 -1  -1  1  0
                      -1  0  1  -1  0  0  -1  1  0       1  0 -1   1  0  0   1 -1  0
                       0  1  0   1  0  0   0  0  1       0 -1  0  -1  0  0   0  0 -1
                       0  0 -1   0  1 -1   1  0 -1       0  0  1   0 -1  1  -1  0  1
                       1 -1  0   0 -1  1   0 -1  0      -1  1  0   0  1 -1   0  1  0
                       0  0  1   1  0  0   0  1  0       0  0 -1  -1  0  0   0 -1  0
                      -1  1  0  -1  0  0  -1  0  1       1 -1  0   1  0  0   1  0 -1
                       0  0  1   0  1  0   1  0  0       0  0 -1   0 -1  0  -1  0  0
                       1 -1  0   0 -1  0   0 -1  1      -1  1  0   0  1  0   0  1 -1
                       0  0 -1   1  0 -1   0  1 -1       0  0  1  -1  0  1   0 -1  1
                      -1  1  0  -1  0  1  -1  0  0       1 -1  0   1  0 -1   1  0  0
           tolwfr      1.00000000E-20
            typat      1  1  2  3  4  4  4  4  4  4
           useylm           1
              wtk        0.50000    0.50000
           xangst      2.1868655105E+00  1.5463474320E+00  3.7877621734E+00
                       6.5605965314E+00  4.6390422960E+00  1.1363286520E+01
                       4.3737310209E+00  3.0926948640E+00  7.5755243469E+00
                       0.0000000000E+00  0.0000000000E+00  0.0000000000E+00
                       3.2619329691E+00  4.6650147474E+00  9.5012150603E+00
                       5.4855290727E+00  1.5203749805E+00  9.5012150603E+00
                       3.2619329691E+00  4.6650147474E+00  5.6498336334E+00
                       2.1501349173E+00  1.5203749805E+00  7.5755243469E+00
                       6.5973271245E+00  4.6650147474E+00  7.5755243469E+00
                       5.4855290727E+00  1.5203749805E+00  5.6498336334E+00
            xcart      4.1325769042E+00  2.9221731528E+00  7.1578331643E+00
                       1.2397730713E+01  8.7665194583E+00  2.1473499493E+01
                       8.2651538085E+00  5.8443463055E+00  1.4315666329E+01
                       0.0000000000E+00  0.0000000000E+00  0.0000000000E+00
                       6.1641599755E+00  8.8156002785E+00  1.7954694394E+01
                       1.0366147641E+01  2.8730923325E+00  1.7954694394E+01
                       6.1641599755E+00  8.8156002785E+00  1.0676638264E+01
                       4.0631661425E+00  2.8730923325E+00  1.4315666329E+01
                       1.2467141474E+01  8.8156002785E+00  1.4315666329E+01
                       1.0366147641E+01  2.8730923325E+00  1.0676638264E+01
             xred      2.5000000000E-01  2.5000000000E-01  2.5000000000E-01
                       7.5000000000E-01  7.5000000000E-01  7.5000000000E-01
                       5.0000000000E-01  5.0000000000E-01  5.0000000000E-01
                       0.0000000000E+00  0.0000000000E+00  0.0000000000E+00
                       2.4580100000E-01  7.5419900000E-01  7.5419900000E-01
                       7.5419900000E-01  2.4580100000E-01  7.5419900000E-01
                       2.4580100000E-01  7.5419900000E-01  2.4580100000E-01
                       2.4580100000E-01  2.4580100000E-01  7.5419900000E-01
                       7.5419900000E-01  7.5419900000E-01  2.4580100000E-01
                       7.5419900000E-01  2.4580100000E-01  2.4580100000E-01
            znucl       55.00000   11.00000   51.00000   17.00000

 chkinp: Checking input parameters for consistency.

== DATASET  1 ==================================================================
-   mpi_nproc: 1, omp_nthreads: -1 (-1 if OMP is not activated)

--- !DatasetInfo
iteration_state: {dtset: 1, }
dimensions: {natom: 10, nkpt: 2, mband: 51, nsppol: 1, nspinor: 1, nspden: 1, mpw: 28976, }
cutoff_energies: {ecut:  44.0, pawecutdg:  -1.0, }
electrons: {nelect:   8.40000000E+01, charge:   0.00000000E+00, occopt:   1.00000000E+00, tsmear:   1.00000000E-02, }
meta: {optdriver: 1, rfelfd: 2, }
...

 Real(R)+Recip(G) space primitive vectors, cartesian coordinates (Bohr,Bohr^-1):
 R(1)= 12.3977307  0.0000000  7.1578332  G(1)=  0.0806599 -0.0285176  0.0000000
 R(2)=  4.1325769 11.6886926  7.1578332  G(2)=  0.0000000  0.0855528  0.0000000
 R(3)=  0.0000000  0.0000000 14.3156663  G(3)= -0.0403300 -0.0285176  0.0698535
 Unit cell volume ucvol=  2.0745299E+03 bohr^3
 Angles (23,13,12)=  6.00000000E+01  6.00000000E+01  6.00000000E+01 degrees

 getcut: wavevector=  0.0000  0.0000  0.0000  ngfft=  90  90  90
         ecut(hartree)=     44.000   => boxcut(ratio)=   2.10568

--- Pseudopotential description ------------------------------------------------
- pspini: atom type   1  psp file is /scratch/users/j/a/jabreu/pseudos/PBEsol/Cs.psp8
- pspatm: opening atomic psp file    /scratch/users/j/a/jabreu/pseudos/PBEsol/Cs.psp8
- Cs    ONCVPSP-3.3.0  r_core=   2.27353   1.85623   2.01788   1.90105
- 55.00000   9.00000    180112                znucl, zion, pspdat
    8 -116133    3    4       600   0.00000   pspcod,pspxc,lmax,lloc,mmax,r2well
    5.99000000000000    5.00000000000000    0.00000000000000   rchrg,fchrg,qchrg
     nproj     2     2     2     2
     extension_switch     1
  pspatm : epsatm=   22.12462445
         --- l  ekb(1:nproj) -->
             0    6.214110    0.767882
             1    6.311966    0.793598
             2    3.769790    0.913105
             3   -9.247129   -2.432478
 pspatm: atomic psp has been read  and splines computed

- pspini: atom type   2  psp file is /scratch/users/j/a/jabreu/pseudos/PBEsol/Na.psp8
- pspatm: opening atomic psp file    /scratch/users/j/a/jabreu/pseudos/PBEsol/Na.psp8
- Na    ONCVPSP-3.3.0  r_core=   1.20708   1.55069
- 11.00000   9.00000    180112                znucl, zion, pspdat
    8 -116133    1    4       400   0.00000   pspcod,pspxc,lmax,lloc,mmax,r2well
    3.99000000000000    0.00000000000000    0.00000000000000   rchrg,fchrg,qchrg
     nproj     2     2
     extension_switch     1
  pspatm : epsatm=    9.32878306
         --- l  ekb(1:nproj) -->
             0    2.657905   -0.678300
             1   -6.761319   -2.404728
 pspatm: atomic psp has been read  and splines computed

[...]

- pspini: atom type   4  psp file is /scratch/users/j/a/jabreu/pseudos/PBEsol/Cl.psp8
- pspatm: opening atomic psp file    /scratch/users/j/a/jabreu/pseudos/PBEsol/Cl.psp8
- Cl    ONCVPSP-3.3.0  r_core=   1.56009   1.35202   1.75774
[...]

 Perturbation wavevector (in red.coord.)   0.000000  0.000000  0.000000
 Perturbation : derivative vs k along direction   2
 The set of symmetries contains only one element for this perturbation.
 symkpt : not enough symmetry to change the number of k points.

[...]

 Perturbation wavevector (in red.coord.)   0.000000  0.000000  0.000000
 Perturbation : derivative vs k along direction   3
 The set of symmetries contains only one element for this perturbation.
 symkpt : not enough symmetry to change the number of k points.

 Initialisation of the first-order wave-functions :
  ireadwf=   0

--- !BeginCycle
iteration_state: {dtset: 1, }
solver: {iscf: 7, nstep: 2000, nline: 4, wfoptalg: 0, }
tolerances: {tolwfr: 1.00E-20, }
...

     iter   2DEtotal(Ha)        deltaE(Ha) residm    vres2
-ETOT  1  -29.803919495765     -2.980E+01 1.161E-01 0.000E+00
 ETOT  2  -29.855774737168     -5.186E-02 2.864E-02 0.000E+00
 ETOT  3  -29.856463027978     -6.883E-04 5.403E-03 0.000E+00
 ETOT  4  -29.856523982902     -6.095E-05 2.275E-03 0.000E+00
 ETOT  5  -29.856530710546     -6.728E-06 5.048E-04 0.000E+00
 ETOT  6  -29.856531524582     -8.140E-07 2.341E-04 0.000E+00
 ETOT  7  -29.856531627497     -1.029E-07 5.186E-05 0.000E+00
 ETOT  8  -29.856531640881     -1.338E-08 2.489E-05 0.000E+00
 ETOT  9  -29.856531642665     -1.784E-09 5.450E-06 0.000E+00
 ETOT 10  -29.856531642906     -2.418E-10 2.688E-06 0.000E+00
 ETOT 11  -29.856531642940     -3.337E-11 5.820E-07 0.000E+00
 ETOT 12  -29.856531642944     -4.629E-12 2.937E-07 0.000E+00
 ETOT 13  -29.856531642945     -6.679E-13 6.274E-08 0.000E+00
 ETOT 14  -29.856531642945     -9.592E-14 3.232E-08 0.000E+00
 ETOT 15  -29.856531642945     -3.553E-15 6.812E-09 0.000E+00
 ETOT 16  -29.856531642945     -4.263E-14 3.576E-09 0.000E+00
 ETOT 17  -29.856531642945      1.421E-14 7.434E-10 0.000E+00
 ETOT 18  -29.856531642945      3.553E-15 3.969E-10 0.000E+00
 ETOT 19  -29.856531642945     -3.553E-15 8.147E-11 0.000E+00
 ETOT 20  -29.856531642945     -7.105E-15 4.415E-11 0.000E+00
 ETOT 21  -29.856531642945      7.105E-15 8.956E-12 0.000E+00
 ETOT 22  -29.856531642945      0.000E+00 4.919E-12 0.000E+00
 ETOT 23  -29.856531642945     -7.105E-15 9.870E-13 0.000E+00
 ETOT 24  -29.856531642945      3.553E-15 5.486E-13 0.000E+00
 ETOT 25  -29.856531642945      3.553E-15 1.090E-13 0.000E+00
 ETOT 26  -29.856531642945     -3.553E-15 6.121E-14 0.000E+00
 ETOT 27  -29.856531642945      0.000E+00 1.206E-14 0.000E+00
 ETOT 28  -29.856531642945      0.000E+00 6.833E-15 0.000E+00
 ETOT 29  -29.856531642945      7.105E-15 1.335E-15 0.000E+00
 ETOT 30  -29.856531642945     -7.105E-15 7.628E-16 0.000E+00
 ETOT 31  -29.856531642945      3.553E-15 1.480E-16 0.000E+00
 ETOT 32  -29.856531642945      0.000E+00 8.517E-17 0.000E+00
 ETOT 33  -29.856531642945     -7.105E-15 1.642E-17 0.000E+00
 ETOT 34  -29.856531642945      0.000E+00 9.510E-18 0.000E+00
 ETOT 35  -29.856531642945     -3.553E-15 1.823E-18 0.000E+00
 ETOT 36  -29.856531642945      3.553E-15 1.062E-18 0.000E+00
 ETOT 37  -29.856531642945     -7.105E-15 2.025E-19 0.000E+00
 ETOT 38  -29.856531642945      7.105E-15 1.185E-19 0.000E+00
 ETOT 39  -29.856531642945     -1.066E-14 2.251E-20 0.000E+00
 ETOT 40  -29.856531642945      1.066E-14 1.323E-20 0.000E+00
 ETOT 41  -29.856531642945     -3.553E-15 9.974E-21 0.000E+00

 At SCF step   41   max residual=  9.97E-21 < tolwfr=  1.00E-20 =>converged.

 ----iterations are completed or convergence reached----

 dfpt_looppert: DFPT cycle converged with prtwf=-1. Will skip output of the 1st-order WFK file.
 dfpt_looppert : ek2=    4.8544177044E+01
          f-sum rule ratio=    1.0045457945E+00
 prteigrs : about to open file /scratch/users/j/a/jabreu/flow_simple_10atoms/flow/w280/t1/tmpdata/tmp_1WF1_EIG
 Expectation of eigenvalue derivatives (hartree) for nkpt=   2  k points:
  (in case of degenerate eigenvalues, averaged derivative)
 kpt#   1, nband= 51, wtk=  0.50000, kpt=  0.5000  0.2500  0.7500 (reduced coord)
  -0.00000    0.00000   -0.00000    0.00000    0.00000   -0.00000    0.00000    0.00000
  -0.00000    0.00000    0.00000    0.00000    0.00000   -0.00000   -0.00000   -0.00000
   0.00000   -0.00000   -0.00000   -0.00000    0.00000    0.00000   -0.00000    0.00000
  -0.00000    0.00000    0.00000    0.00000    0.00000    0.00000   -0.00000    0.00000
   0.00000    0.00000    0.00000    0.00000   -0.00000   -0.00000   -0.00000   -0.00000
  -0.00000    0.00000    0.00000   -0.00000   -0.00000   -0.00000   -0.00000   -0.00000
  -0.00000    0.00000    0.00000
 prteigrs : prtvol=0 or 1, do not print more k-points.

 Eight components of 2nd-order total energy (hartree) are
 1,2,3: 0th-order hamiltonian combined with 1st-order wavefunctions
     kin0=   3.66541157E+01 eigvalue=   4.07138211E+00  local=  -2.09862619E+01
 4,5,6: 1st-order hamiltonian combined with 1st and 0th-order wfs
     kin1=  -4.87648489E+01  Hartree=   0.00000000E+00     xc=   0.00000000E+00
 7,8,9: eventually, occupation + non-local contributions
    edocc=   6.03079664E+00     enl0=   4.08649911E+00   enl1=  -1.09482144E+01
 1-9 gives the relaxation energy (to be shifted if some occ is /=2.0)
   erelax=  -2.98565316E+01
  No Ewald or frozen-wf contrib.: the relaxation energy is the total one
 2DEtotal=   -0.2985653164E+02 Ha. Also 2DEtotal=   -0.812437543264E+03 eV
    (  non-var. 2DEtotal :   -2.9856531643E+01 Ha)

 CALCULATION OF EFFECTIVE MASSES
 NOTE : Additional infos (eff. mass eigenvalues, eigenvectors and, if degenerate, average mass) are available in stdout.

 K-point ( 0.500, 0.250, 0.750) | band =    42
 Effective mass tensor:
             -2.2140862194              0.9150567270              1.1207110337
              0.9150567270             -2.8611290363             -1.5849247431
              1.1207110337             -1.5849247431             -3.5081718536
 Effective mass tensor eigenvalues:
             -5.4493003041             -1.5670434027             -1.5670434025
 Angular average effective mass 1/(<1/m>)=  -2.0550779606
 Angular average effective mass for Frohlich model (<m**0.5>)**2=  -2.2207535691
 Effective masses along directions: (cart. coord. / red. coord. -> eff. mass)
    1:   1.000000  0.000000  0.000000 /   0.948683  0.316228  0.000000 ->  -1.7781824720
    2:   0.000000  1.000000  0.000000 /   0.000000  1.000000  0.000000 ->  -2.0550779606
    3:   0.000000  0.000000  1.000000 /   0.408248  0.408248  0.816497 ->  -2.4341139624
    4:   0.577350  0.577350  0.577350 /   0.585539  0.688047  0.428644 ->  -1.9164537856
    5:   0.000000  0.707107  0.707107 /   0.289489  0.762222  0.578977 ->  -3.8006986565
    6:   0.707107  0.000000  0.707107 /   0.731423  0.422287  0.535439 ->  -1.6185387303
    7:   0.707107  0.707107  0.000000 /   0.616798  0.787122  0.000000 ->  -1.5831698395

 K-point ( 0.500, 0.500, 0.500) | band =    43
 Effective mass tensor:
              0.5597852508              0.0768496534              0.1882424376
              0.0768496534              0.5054443398              0.1331075041
              0.1882424376              0.1331075041              0.7771488949
 Effective mass tensor eigenvalues:
              0.4511034288              0.4511034288              0.9401716279
 Angular average effective mass 1/(<1/m>)=   0.5457315166
 Angular average effective mass for Frohlich model (<m**0.5>)**2=   0.5627898875
 Effective masses along directions: (cart. coord. / red. coord. -> eff. mass)
    1:   1.000000  0.000000  0.000000 /   0.948683  0.316228  0.000000 ->   0.5100659587
    2:   0.000000  1.000000  0.000000 /   0.000000  1.000000  0.000000 ->   0.4787761780
    3:   0.000000  0.000000  1.000000 /   0.408248  0.408248  0.816497 ->   0.6905985632
    4:   0.577350  0.577350  0.577350 /   0.585539  0.688047  0.428644 ->   0.8288629112
    5:   0.000000  0.707107  0.707107 /   0.289489  0.762222  0.578977 ->   0.6875257380
    6:   0.707107  0.000000  0.707107 /   0.731423  0.422287  0.535439 ->   0.7933819304
    7:   0.707107  0.707107  0.000000 /   0.616798  0.787122  0.000000 ->   0.5424774756

 END OF EFFECTIVE MASSES SECTION

 ---- first-order wavefunction calculations are completed ----

 Total localisation tensor (bohr^2) in cartesian coordinates
  WARNING : still subject to testing - especially symmetries.
      direction              matrix element
   alpha     beta       real part   imaginary part
     1        1       1.2303935618    0.0000000000
     1        2       0.3480078524    0.0000000000
     1        3       0.8524416649    0.0000000000
     2        1       0.3480078524    0.0000000000
     2        2       0.9843148492    0.0000000000
     2        3       0.6027672817    0.0000000000
     3        1       0.8524416649    0.0000000000
     3        2       0.6027672817    0.0000000000
     3        3       2.2147084107    0.0000000000

 respfn : d/dk was computed, but no 2DTE, so no DDB output.

== END DATASET(S) ==============================================================

 -outvars: echo values of variables after computation  --------
            acell      1.0000000000E+00  1.0000000000E+00  1.0000000000E+00 Bohr
              amu      1.32905430E+02  2.29897680E+01  1.21753000E+02
                       3.54527000E+01
             ecut      4.40000000E+01 Hartree
           etotal     -2.9856531643E+01
            fcart      0.0000000000E+00  0.0000000000E+00  0.0000000000E+00
                       0.0000000000E+00  0.0000000000E+00  0.0000000000E+00
                       0.0000000000E+00  0.0000000000E+00  0.0000000000E+00
                       0.0000000000E+00  0.0000000000E+00  0.0000000000E+00
                       0.0000000000E+00  0.0000000000E+00  0.0000000000E+00
                       0.0000000000E+00  0.0000000000E+00  0.0000000000E+00
                       0.0000000000E+00  0.0000000000E+00  0.0000000000E+00
                       0.0000000000E+00  0.0000000000E+00  0.0000000000E+00
                       0.0000000000E+00  0.0000000000E+00  0.0000000000E+00
                       0.0000000000E+00  0.0000000000E+00  0.0000000000E+00
-          fftalg         512
           irdden           1
           irdwfk           1
           istwfk        0    1
              ixc     -116133
              kpt      5.00000000E-01  2.50000000E-01  7.50000000E-01
                       5.00000000E-01  5.00000000E-01  5.00000000E-01
           kptopt           0
P           mkmem           2
P          mkqmem           2
P          mk1mem           2
            natom          10
            nband          51
           nbdbuf           4
            ngfft          90      90      90
             nkpt           2
            nstep        2000
             nsym          48
           ntypat           4
              occ      2.000000  2.000000  2.000000  2.000000  2.000000  2.000000
                       2.000000  2.000000  2.000000  2.000000  2.000000  2.000000
                       2.000000  2.000000  2.000000  2.000000  2.000000  2.000000
                       2.000000  2.000000  2.000000  2.000000  2.000000  2.000000
                       2.000000  2.000000  2.000000  2.000000  2.000000  2.000000
                       2.000000  2.000000  2.000000  2.000000  2.000000  2.000000
                       2.000000  2.000000  2.000000  2.000000  2.000000  2.000000
                       0.000000  0.000000  0.000000  0.000000  0.000000  0.000000
                       0.000000  0.000000  0.000000
        optdriver           1
            prtwf          -1
            rfdir           1       1       1
           rfelfd           2
            rprim      1.2397730713E+01  0.0000000000E+00  7.1578331643E+00
                       4.1325769042E+00  1.1688692611E+01  7.1578331643E+00
                       0.0000000000E+00  0.0000000000E+00  1.4315666329E+01
          spgroup         225
           strten      0.0000000000E+00  0.0000000000E+00  0.0000000000E+00
                       0.0000000000E+00  0.0000000000E+00  0.0000000000E+00
           symrel      1  0  0   0  1  0   0  0  1      -1  0  0   0 -1  0   0  0 -1
                       0 -1  1   0 -1  0   1 -1  0       0  1 -1   0  1  0  -1  1  0
                      -1  0  0  -1  0  1  -1  1  0       1  0  0   1  0 -1   1 -1  0
                       0  1 -1   1  0 -1   0  0 -1       0 -1  1  -1  0  1   0  0  1
                      -1  0  0  -1  1  0  -1  0  1       1  0  0   1 -1  0   1  0 -1
                       0 -1  1   1 -1  0   0 -1  0       0  1 -1  -1  1  0   0  1  0
                       1  0  0   0  0  1   0  1  0      -1  0  0   0  0 -1   0 -1  0
                       0  1 -1   0  0 -1   1  0 -1       0 -1  1   0  0  1  -1  0  1
                      -1  0  1  -1  1  0  -1  0  0       1  0 -1   1 -1  0   1  0  0
                       0 -1  0   1 -1  0   0 -1  1       0  1  0  -1  1  0   0  1 -1
                       1  0 -1   0  0 -1   0  1 -1      -1  0  1   0  0  1   0 -1  1
                       0  1  0   0  0  1   1  0  0       0 -1  0   0  0 -1  -1  0  0
                       1  0 -1   0  1 -1   0  0 -1      -1  0  1   0 -1  1   0  0  1
                       0 -1  0   0 -1  1   1 -1  0       0  1  0   0  1 -1  -1  1  0
                      -1  0  1  -1  0  0  -1  1  0       1  0 -1   1  0  0   1 -1  0
                       0  1  0   1  0  0   0  0  1       0 -1  0  -1  0  0   0  0 -1
                       0  0 -1   0  1 -1   1  0 -1       0  0  1   0 -1  1  -1  0  1
                       1 -1  0   0 -1  1   0 -1  0      -1  1  0   0  1 -1   0  1  0
                       0  0  1   1  0  0   0  1  0       0  0 -1  -1  0  0   0 -1  0
                      -1  1  0  -1  0  0  -1  0  1       1 -1  0   1  0  0   1  0 -1
                       0  0  1   0  1  0   1  0  0       0  0 -1   0 -1  0  -1  0  0
                       1 -1  0   0 -1  0   0 -1  1      -1  1  0   0  1  0   0  1 -1
                       0  0 -1   1  0 -1   0  1 -1       0  0  1  -1  0  1   0 -1  1
                      -1  1  0  -1  0  1  -1  0  0       1 -1  0   1  0 -1   1  0  0
           tolwfr      1.00000000E-20
            typat      1  1  2  3  4  4  4  4  4  4
           useylm           1
              wtk        0.50000    0.50000
           xangst      2.1868655105E+00  1.5463474320E+00  3.7877621734E+00
                       6.5605965314E+00  4.6390422960E+00  1.1363286520E+01
                       4.3737310209E+00  3.0926948640E+00  7.5755243469E+00
                       0.0000000000E+00  0.0000000000E+00  0.0000000000E+00
                       3.2619329691E+00  4.6650147474E+00  9.5012150603E+00
                       5.4855290727E+00  1.5203749805E+00  9.5012150603E+00
                       3.2619329691E+00  4.6650147474E+00  5.6498336334E+00
                       2.1501349173E+00  1.5203749805E+00  7.5755243469E+00
                       6.5973271245E+00  4.6650147474E+00  7.5755243469E+00
                       5.4855290727E+00  1.5203749805E+00  5.6498336334E+00
            xcart      4.1325769042E+00  2.9221731528E+00  7.1578331643E+00
                       1.2397730713E+01  8.7665194583E+00  2.1473499493E+01
                       8.2651538085E+00  5.8443463055E+00  1.4315666329E+01
                       0.0000000000E+00  0.0000000000E+00  0.0000000000E+00
                       6.1641599755E+00  8.8156002785E+00  1.7954694394E+01
                       1.0366147641E+01  2.8730923325E+00  1.7954694394E+01
                       6.1641599755E+00  8.8156002785E+00  1.0676638264E+01
                       4.0631661425E+00  2.8730923325E+00  1.4315666329E+01
                       1.2467141474E+01  8.8156002785E+00  1.4315666329E+01
                       1.0366147641E+01  2.8730923325E+00  1.0676638264E+01
             xred      2.5000000000E-01  2.5000000000E-01  2.5000000000E-01
                       7.5000000000E-01  7.5000000000E-01  7.5000000000E-01
                       5.0000000000E-01  5.0000000000E-01  5.0000000000E-01
                       0.0000000000E+00  0.0000000000E+00  0.0000000000E+00
                       2.4580100000E-01  7.5419900000E-01  7.5419900000E-01
                       7.5419900000E-01  2.4580100000E-01  7.5419900000E-01
                       2.4580100000E-01  7.5419900000E-01  2.4580100000E-01
                       2.4580100000E-01  2.4580100000E-01  7.5419900000E-01
                       7.5419900000E-01  7.5419900000E-01  2.4580100000E-01
                       7.5419900000E-01  2.4580100000E-01  2.4580100000E-01
            znucl       55.00000   11.00000   51.00000   17.00000

- Timing analysis has been suppressed with timopt=0

 Suggested references for the acknowledgment of ABINIT usage.

 Calculation completed.
.Delivered   2 WARNINGs and   7 COMMENTs to log file.