.Version 9.5.1 of ABINIT

 ABINIT is a project of the Universite Catholique de Louvain,
 Corning Inc. and other collaborators, see ~abinit/doc/developers/contributors.txt .
 acknowledgments of the ABINIT effort.

.Starting date : Wed  5 May 2021.
- ( at 19h45 )

- input  file    -> /scratch/users/j/a/jabreu/flow_simple_7atoms/flow/w132/t1/run.abi
- output file    -> /scratch/users/j/a/jabreu/flow_simple_7atoms/flow/w132/t1/run.abo
- root for input  files -> /scratch/users/j/a/jabreu/flow_simple_7atoms/flow/w132/t1/indata/in
- root for output files -> /scratch/users/j/a/jabreu/flow_simple_7atoms/flow/w132/t1/outdata/out

 Symmetries : space group I4/m m m (#139); Bravais tI (body-center tetrag.)
     intxc =       0      iscf =       7    lmnmax =      18     lnmax =       6
     mgfft =      80  mpssoang =       3    mqgrid =    3001     natom =       7
  nloc_mem =       1    nspden =       1   nspinor =       1    nsppol =       1
      nsym =      16    n1xccc =    2501    ntypat =       3    occopt =       1
   xclevel =       2
-    mband =          42        mffmem =           1         mkmem =           2
-   mkqmem =           2        mk1mem =           2           mpw =        9395
      nfft =      512000          nkpt =           2
  Rough estimation (10% accuracy) of disk space for files :

------------- Echo of variables that govern the present computation ------------
-
- outvars: echo of selected default values
-   iomode0 =  0 , fftalg0 =512 , wfoptalg0 =  0
-
- outvars: echo of global parameters not present in the input file
-  max_nthreads =    0
-
 -outvars: echo values of preprocessed input variables --------
            acell      1.0000000000E+00  1.0000000000E+00  1.0000000000E+00 Bohr
              amu      3.90983000E+01  6.53900000E+01  1.89984032E+01
             ecut      4.20000000E+01 Hartree
-          fftalg         512
           irdden           1
           irdwfk           1
           istwfk        0    1
              ixc     -116133
              kpt      2.50000000E-01  2.50000000E-01  2.50000000E-01
                       0.00000000E+00  0.00000000E+00  0.00000000E+00
           kptopt           0
P           mkmem           2
P          mkqmem           2
P          mk1mem           2
            natom           7
            nband          42
           nbdbuf           4
            ngfft          80      80      80
             nkpt           2
            nstep        2000
             nsym          16
           ntypat           3
              occ      2.000000  2.000000  2.000000  2.000000  2.000000  2.000000
                       2.000000  2.000000  2.000000  2.000000  2.000000  2.000000
                       2.000000  2.000000  2.000000  2.000000  2.000000  2.000000
                       2.000000  2.000000  2.000000  2.000000  2.000000  2.000000
                       2.000000  2.000000  2.000000  2.000000  2.000000  2.000000
                       2.000000  2.000000  2.000000  0.000000  0.000000  0.000000
                       0.000000  0.000000  0.000000  0.000000  0.000000  0.000000
        optdriver           1
            prtwf          -1
            rfdir           1       1       1
           rfelfd           2
            rprim      7.3478003019E+00  0.0000000000E+00 -1.1203446725E+01
                      -6.5546490500E-01  7.3185063390E+00 -1.1203446725E+01
                       0.0000000000E+00  0.0000000000E+00  1.3398036714E+01
          spgroup         139
           symrel      1  0  0   0  1  0   0  0  1      -1  0  0   0 -1  0   0  0 -1
                       0  0  1  -1 -1 -1   1  0  0       0  0 -1   1  1  1  -1  0  0
                       0  1  0   1  0  0  -1 -1 -1       0 -1  0  -1  0  0   1  1  1
                      -1 -1 -1   0  0  1   0  1  0       1  1  1   0  0 -1   0 -1  0
                       0  1  0   1  0  0   0  0  1       0 -1  0  -1  0  0   0  0 -1
                       0  0  1  -1 -1 -1   0  1  0       0  0 -1   1  1  1   0 -1  0
                       1  0  0   0  1  0  -1 -1 -1      -1  0  0   0 -1  0   1  1  1
                      -1 -1 -1   0  0  1   1  0  0       1  1  1   0  0 -1  -1  0  0
           tolwfr      1.00000000E-20
            typat      1  1  2  3  3  3  3
           useylm           1
              wtk        0.50000    0.50000
           xangst      2.2831572591E+00  2.4967817485E+00 -7.6443361548E+00
                       1.2582741052E+00  1.3760050070E+00 -4.2128811742E+00
                       0.0000000000E+00  0.0000000000E+00  0.0000000000E+00
                      -1.7342854438E-01  1.9363933778E+00  5.8066350224E-01
                       1.9441442265E+00  0.0000000000E+00  5.8066350224E-01
                       5.4912726448E-01  6.0050656874E-01 -1.8385564046E+00
                       2.9923040998E+00  3.2722801868E+00 -1.0018660924E+01
            xcart      4.3145419380E+00  4.7182337182E+00 -1.4445701800E+01
                       2.3777934589E+00  2.6002726208E+00 -7.9611916497E+00
                       0.0000000000E+00  0.0000000000E+00  0.0000000000E+00
                      -3.2773245250E-01  3.6592531695E+00  1.0972949946E+00
                       3.6739001510E+00  0.0000000000E+00  1.0972949946E+00
                       1.0377001420E+00  1.1347929559E+00 -3.4743680846E+00
                       5.6546352549E+00  6.1837133831E+00 -1.8932525365E+01
             xred      6.4469900000E-01  6.4469900000E-01 -5.5511151231E-17
                       3.5530100000E-01  3.5530100000E-01  0.0000000000E+00
                       0.0000000000E+00  0.0000000000E+00  0.0000000000E+00
                       1.3877787808E-17  5.0000000000E-01  5.0000000000E-01
                       5.0000000000E-01  0.0000000000E+00  5.0000000000E-01
                       1.5505800000E-01  1.5505800000E-01 -2.7755575616E-17
                       8.4494200000E-01  8.4494200000E-01  2.2204460493E-16
            znucl       19.00000   30.00000    9.00000

 chkinp: Checking input parameters for consistency.

== DATASET  1 ==================================================================
-   mpi_nproc: 1, omp_nthreads: -1 (-1 if OMP is not activated)

--- !DatasetInfo
iteration_state: {dtset: 1, }
dimensions: {natom: 7, nkpt: 2, mband: 42, nsppol: 1, nspinor: 1, nspden: 1, mpw: 9395, }
cutoff_energies: {ecut:  42.0, pawecutdg:  -1.0, }
electrons: {nelect:   6.60000000E+01, charge:   0.00000000E+00, occopt:   1.00000000E+00, tsmear:   1.00000000E-02, }
meta: {optdriver: 1, rfelfd: 2, }
...

 Real(R)+Recip(G) space primitive vectors, cartesian coordinates (Bohr,Bohr^-1):
 R(1)=  7.3478003  0.0000000-11.2034467  G(1)=  0.1360952  0.0121890  0.0000000
 R(2)= -0.6554649  7.3185063-11.2034467  G(2)=  0.0000000  0.1366399  0.0000000
 R(3)=  0.0000000  0.0000000 13.3980367  G(3)=  0.1138029  0.1244509  0.0746378
 Unit cell volume ucvol=  7.2047839E+02 bohr^3
 Angles (23,13,12)=  1.46741064E+02  1.46741064E+02  4.77473334E+01 degrees

 getcut: wavevector=  0.0000  0.0000  0.0000  ngfft=  80  80  80
         ecut(hartree)=     42.000   => boxcut(ratio)=   2.04766

--- Pseudopotential description ------------------------------------------------
- pspini: atom type   1  psp file is /scratch/users/j/a/jabreu/pseudos/PBEsol/K.psp8
- pspatm: opening atomic psp file    /scratch/users/j/a/jabreu/pseudos/PBEsol/K.psp8
- K     ONCVPSP-3.3.0  r_core=   1.36296   1.46408   1.61068
- 19.00000   9.00000    180112                znucl, zion, pspdat
    8 -116133    2    4       400   0.00000   pspcod,pspxc,lmax,lloc,mmax,r2well
    3.99000000000000    5.00000000000000    0.00000000000000   rchrg,fchrg,qchrg
     nproj     2     2     2
     extension_switch     1
  pspatm : epsatm=    8.32487830
         --- l  ekb(1:nproj) -->
             0   10.921326    0.816676
             1    4.431000    0.560368
             2   -3.384038   -1.043186
 pspatm: atomic psp has been read  and splines computed

- pspini: atom type   2  psp file is /scratch/users/j/a/jabreu/pseudos/PBEsol/Zn.psp8
- pspatm: opening atomic psp file    /scratch/users/j/a/jabreu/pseudos/PBEsol/Zn.psp8
- Zn    ONCVPSP-3.3.0  r_core=   1.35823   1.66358   1.85211
- 30.00000  20.00000    180112                znucl, zion, pspdat
    8 -116133    2    4       600   0.00000   pspcod,pspxc,lmax,lloc,mmax,r2well
    5.99000000000000    2.50000000000000    0.00000000000000   rchrg,fchrg,qchrg
     nproj     2     2     2
     extension_switch     1
  pspatm : epsatm=   26.57343589
         --- l  ekb(1:nproj) -->
             0    2.830835   -1.519107
             1   -4.626739   -1.324150
             2   -6.948510   -2.555500
 pspatm: atomic psp has been read  and splines computed

- pspini: atom type   3  psp file is /scratch/users/j/a/jabreu/pseudos/PBEsol/F.psp8
- pspatm: opening atomic psp file    /scratch/users/j/a/jabreu/pseudos/PBEsol/F.psp8
- F     ONCVPSP-3.3.0  r_core=   1.30942   1.45782   1.60379
-  9.00000   7.00000    180112                znucl, zion, pspdat
    8 -116133    2    4       600   0.00000   pspcod,pspxc,lmax,lloc,mmax,r2well
    5.99000000000000    2.50000000000000    0.00000000000000   rchrg,fchrg,qchrg
     nproj     2     2     1
     extension_switch     1
  pspatm : epsatm=    4.89824824
         --- l  ekb(1:nproj) -->
             0    6.506434    1.065875
             1   -3.978753   -1.295852
             2   -2.394754
 pspatm: atomic psp has been read  and splines computed

   4.14586824E+03                                ecore*ucvol(ha*bohr**3)

-inwffil : will read wavefunctions from disk file /scratch/users/j/a/jabreu/flow_simple_7atoms/flow/w132/t1/indata/in_WFK

 ==>  initialize data related to q vector <==

 The list of irreducible perturbations for this q vector is:
    1)    idir= 1    ipert=   8
    2)    idir= 2    ipert=   8
    3)    idir= 3    ipert=   8

 Perturbation wavevector (in red.coord.)   0.000000  0.000000  0.000000
 Perturbation : derivative vs k along direction   1

 dfpt_looppert : COMMENT -
  In a d/dk calculation, iscf is set to -3 automatically.
 The set of symmetries contains only one element for this perturbation.
 symkpt : not enough symmetry to change the number of k points.

[...]

 Initialisation of the first-order wave-functions :
  ireadwf=   0

--- !BeginCycle
iteration_state: {dtset: 1, }
solver: {iscf: 7, nstep: 2000, nline: 4, wfoptalg: 0, }
tolerances: {tolwfr: 1.00E-20, }
...

     iter   2DEtotal(Ha)        deltaE(Ha) residm    vres2
-ETOT  1  -53.606955642352     -5.361E+01 3.739E-01 0.000E+00
 ETOT  2  -53.698405991520     -9.145E-02 8.383E-03 0.000E+00
 ETOT  3  -53.699067534967     -6.615E-04 1.856E-03 0.000E+00
 ETOT  4  -53.699075579447     -8.044E-06 1.201E-04 0.000E+00
 ETOT  5  -53.699075704914     -1.255E-07 3.265E-05 0.000E+00
 ETOT  6  -53.699075707202     -2.287E-09 2.562E-06 0.000E+00
 ETOT  7  -53.699075707249     -4.702E-11 6.598E-07 0.000E+00
 ETOT  8  -53.699075707250     -1.052E-12 5.850E-08 0.000E+00
 ETOT  9  -53.699075707250     -6.395E-14 1.423E-08 0.000E+00
 ETOT 10  -53.699075707250     -2.132E-14 1.407E-09 0.000E+00
 ETOT 11  -53.699075707250      2.842E-14 3.274E-10 0.000E+00
 ETOT 12  -53.699075707250      2.842E-14 3.535E-11 0.000E+00
 ETOT 13  -53.699075707250      1.421E-14 7.944E-12 0.000E+00
 ETOT 14  -53.699075707250      7.105E-15 9.135E-13 0.000E+00
 ETOT 15  -53.699075707250     -2.132E-14 2.002E-13 0.000E+00
 ETOT 16  -53.699075707250      1.421E-14 2.403E-14 0.000E+00
 ETOT 17  -53.699075707250      7.105E-15 5.173E-15 0.000E+00
 ETOT 18  -53.699075707250      0.000E+00 6.393E-16 0.000E+00
 ETOT 19  -53.699075707250      0.000E+00 1.360E-16 0.000E+00
 ETOT 20  -53.699075707250      0.000E+00 1.715E-17 0.000E+00
 ETOT 21  -53.699075707250      0.000E+00 3.621E-18 0.000E+00
 ETOT 22  -53.699075707250     -2.132E-14 4.627E-19 0.000E+00
 ETOT 23  -53.699075707250      7.105E-15 9.722E-20 0.000E+00
 ETOT 24  -53.699075707250      0.000E+00 1.254E-20 0.000E+00
 ETOT 25  -53.699075707250      0.000E+00 9.661E-21 0.000E+00

 At SCF step   25   max residual=  9.66E-21 < tolwfr=  1.00E-20 =>converged.

 ----iterations are completed or convergence reached----

 dfpt_looppert: DFPT cycle converged with prtwf=-1. Will skip output of the 1st-order WFK file.
 dfpt_looppert : ek2=    9.7294605447E+01
          f-sum rule ratio=    1.0356127228E+00
 prteigrs : about to open file /scratch/users/j/a/jabreu/flow_simple_7atoms/flow/w132/t1/tmpdata/tmp_1WF1_EIG
 Expectation of eigenvalue derivatives (hartree) for nkpt=   2  k points:
  (in case of degenerate eigenvalues, averaged derivative)
 kpt#   1, nband= 42, wtk=  0.50000, kpt=  0.2500  0.2500  0.2500 (reduced coord)
   0.00000    0.00000    0.00000    0.00000   -0.00000    0.00000    0.00000    0.00000
  -0.00000   -0.00000   -0.00000   -0.00000    0.00000    0.00000    0.00000    0.00000
   0.00000    0.00000   -0.00000    0.00000    0.00000    0.00000   -0.00000   -0.00000
   0.00000    0.00000   -0.00000   -0.00000   -0.00000    0.00000    0.00000    0.00000
  -0.00000   -0.00000   -0.00000    0.00000    0.00000   -0.00000   -0.00000   -0.00000
  -0.00000   -0.01061
 prteigrs : prtvol=0 or 1, do not print more k-points.

 Eight components of 2nd-order total energy (hartree) are
 1,2,3: 0th-order hamiltonian combined with 1st-order wavefunctions
     kin0=   7.36193685E+01 eigvalue=   3.08125373E+00  local=  -3.03220935E+01
 4,5,6: 1st-order hamiltonian combined with 1st and 0th-order wfs
     kin1=  -1.00759531E+02  Hartree=   0.00000000E+00     xc=   0.00000000E+00
 7,8,9: eventually, occupation + non-local contributions
    edocc=   8.64447036E+00     enl0=  -1.32392341E+00   enl1=  -6.63862015E+00
 1-9 gives the relaxation energy (to be shifted if some occ is /=2.0)
   erelax=  -5.36990757E+01
  No Ewald or frozen-wf contrib.: the relaxation energy is the total one
 2DEtotal=   -0.5369907571E+02 Ha. Also 2DEtotal=   -0.146122616200E+04 eV
    (  non-var. 2DEtotal :   -5.3699075707E+01 Ha)

 Perturbation wavevector (in red.coord.)   0.000000  0.000000  0.000000
 Perturbation : derivative vs k along direction   2
 The set of symmetries contains only one element for this perturbation.
 symkpt : not enough symmetry to change the number of k points.

[...]

 Perturbation wavevector (in red.coord.)   0.000000  0.000000  0.000000
 Perturbation : derivative vs k along direction   3
 The set of symmetries contains only one element for this perturbation.
 symkpt : not enough symmetry to change the number of k points.

-inwffil : will read wavefunctions from disk file /scratch/users/j/a/jabreu/flow_simple_7atoms/flow/w132/t1/indata/in_WFK

 Initialisation of the first-order wave-functions :
  ireadwf=   0

--- !BeginCycle
iteration_state: {dtset: 1, }
solver: {iscf: 7, nstep: 2000, nline: 4, wfoptalg: 0, }
tolerances: {tolwfr: 1.00E-20, }
...

     iter   2DEtotal(Ha)        deltaE(Ha) residm    vres2
-ETOT  1  -97.879603257307     -9.788E+01 7.922E-01 0.000E+00
 ETOT  2  -98.027727357865     -1.481E-01 1.149E-02 0.000E+00
 ETOT  3  -98.028725276149     -9.979E-04 1.097E-03 0.000E+00
 ETOT  4  -98.028737191673     -1.192E-05 5.288E-05 0.000E+00
 ETOT  5  -98.028737376381     -1.847E-07 9.215E-06 0.000E+00
 ETOT  6  -98.028737379819     -3.438E-09 7.662E-07 0.000E+00
 ETOT  7  -98.028737379892     -7.321E-11 1.441E-07 0.000E+00
 ETOT  8  -98.028737379894     -1.648E-12 1.734E-08 0.000E+00
 ETOT  9  -98.028737379894      0.000E+00 3.141E-09 0.000E+00
 ETOT 10  -98.028737379894      9.948E-14 4.255E-10 0.000E+00
 ETOT 11  -98.028737379894     -8.527E-14 7.576E-11 0.000E+00
 ETOT 12  -98.028737379894      9.948E-14 1.087E-11 0.000E+00
 ETOT 13  -98.028737379894     -2.842E-14 1.930E-12 0.000E+00
 ETOT 14  -98.028737379894     -4.263E-14 2.874E-13 0.000E+00
 ETOT 15  -98.028737379894     -2.842E-14 5.115E-14 0.000E+00
 ETOT 16  -98.028737379894      7.105E-14 7.791E-15 0.000E+00
 ETOT 17  -98.028737379894     -2.842E-14 1.391E-15 0.000E+00
 ETOT 18  -98.028737379894      2.842E-14 2.146E-16 0.000E+00
 ETOT 19  -98.028737379894     -2.842E-14 3.850E-17 0.000E+00
 ETOT 20  -98.028737379894      0.000E+00 5.975E-18 0.000E+00
 ETOT 21  -98.028737379894      0.000E+00 1.077E-18 0.000E+00
 ETOT 22  -98.028737379894      1.421E-14 1.675E-19 0.000E+00
 ETOT 23  -98.028737379894      1.421E-14 3.035E-20 0.000E+00
 ETOT 24  -98.028737379894     -2.842E-14 9.611E-21 0.000E+00

 At SCF step   24   max residual=  9.61E-21 < tolwfr=  1.00E-20 =>converged.

 ----iterations are completed or convergence reached----

 dfpt_looppert: DFPT cycle converged with prtwf=-1. Will skip output of the 1st-order WFK file.
 dfpt_looppert : ek2=    1.7723076441E+02
          f-sum rule ratio=    1.0384576492E+00
 prteigrs : about to open file /scratch/users/j/a/jabreu/flow_simple_7atoms/flow/w132/t1/tmpdata/tmp_1WF1_EIG
 Expectation of eigenvalue derivatives (hartree) for nkpt=   2  k points:
  (in case of degenerate eigenvalues, averaged derivative)
 kpt#   1, nband= 42, wtk=  0.50000, kpt=  0.2500  0.2500  0.2500 (reduced coord)
   0.00000    0.00000    0.00000    0.00000   -0.00000    0.00000    0.00000    0.00000
   0.00000   -0.00000   -0.00000   -0.00000   -0.00000    0.00000    0.00000    0.00000
   0.00000   -0.00000    0.00000   -0.00000    0.00000    0.00000    0.00000   -0.00000
   0.00000    0.00000    0.00000    0.00000   -0.00000    0.00000    0.00000    0.00000
   0.00000   -0.00000   -0.00000    0.00000    0.00000   -0.00000   -0.00000   -0.00000
   0.00000    0.02843
 prteigrs : prtvol=0 or 1, do not print more k-points.

 Eight components of 2nd-order total energy (hartree) are
 1,2,3: 0th-order hamiltonian combined with 1st-order wavefunctions
     kin0=   1.33236062E+02 eigvalue=   5.44548784E+00  local=  -5.45811780E+01
 4,5,6: 1st-order hamiltonian combined with 1st and 0th-order wfs
     kin1=  -1.84046643E+02  Hartree=   0.00000000E+00     xc=   0.00000000E+00
 7,8,9: eventually, occupation + non-local contributions
    edocc=   1.64962776E+01     enl0=  -2.56791226E+00   enl1=  -1.20108318E+01
 1-9 gives the relaxation energy (to be shifted if some occ is /=2.0)
   erelax=  -9.80287374E+01
  No Ewald or frozen-wf contrib.: the relaxation energy is the total one
 2DEtotal=   -0.9802873738E+02 Ha. Also 2DEtotal=   -0.266749760216E+04 eV
    (  non-var. 2DEtotal :   -9.8028737380E+01 Ha)

 CALCULATION OF EFFECTIVE MASSES
 NOTE : Additional infos (eff. mass eigenvalues, eigenvectors and, if degenerate, average mass) are available in stdout.

--- !WARNING
src_file: m_efmas.F90
src_line: 0
message: |

    Band(s)    33,
    are not band extrema, but saddle points;
    the transport equivalent formalism breaks down in these conditions.
    The associated tensor(s) will therefore not be printed.
...

 K-point ( 0.250, 0.250, 0.250) | band =    33
 Effective mass tensor:
     *** SADDLE POINT: TRANSPORT EQV. EFF. MASS NOT DEFINED (see WARNING above) ***
 Angular average effective mass 1/(<1/m>)=  -1.2098213968
 Angular average effective mass for Frohlich model (<m**0.5>)**2=  -1.9953102261
 Effective masses along directions: (cart. coord. / red. coord. -> eff. mass)
    1:   1.000000  0.000000  0.000000 /   0.996045 -0.088853  0.000000 ->  -0.8715471868
    2:   0.000000  1.000000  0.000000 /   0.000000  1.000000  0.000000 ->  -0.8855527586
    3:   0.000000  0.000000  1.000000 /  -0.539938 -0.539938  0.645704 ->  -4.9241227303
    4:   0.577350  0.577350  0.577350 /  -0.262960 -0.309661  0.913763 ->  -0.8393976657
    5:   0.000000  0.707107  0.707107 /  -0.626177 -0.217135  0.748836 ->  -0.9952302738
    6:   0.707107  0.000000  0.707107 /  -0.210654 -0.647915  0.732005 ->  -1.0153395776
    7:   0.707107  0.707107  0.000000 /   0.740781  0.671746  0.000000 ->  -0.9641682744

 K-point ( 0.000, 0.000, 0.000) | band =    34
 Effective mass tensor:
              0.5153099706              0.0028514403             -0.0087301855
              0.0028514403              0.5158207358             -0.0095470287
             -0.0087301855             -0.0095470287              0.5419324058
 Effective mass tensor eigenvalues:
              0.5127024993              0.5127024995              0.5476581134
 Angular average effective mass 1/(<1/m>)=   0.5238477867
 Angular average effective mass for Frohlich model (<m**0.5>)**2=   0.5239979527
 Effective masses along directions: (cart. coord. / red. coord. -> eff. mass)
    1:   1.000000  0.000000  0.000000 /   0.996045 -0.088853  0.000000 ->   0.5151552201
    2:   0.000000  1.000000  0.000000 /   0.000000  1.000000  0.000000 ->   0.5156384232
    3:   0.000000  0.000000  1.000000 /  -0.539938 -0.539938  0.645704 ->   0.5416095802
    4:   0.577350  0.577350  0.577350 /  -0.262960 -0.309661  0.913763 ->   0.5139864113
    5:   0.000000  0.707107  0.707107 /  -0.626177 -0.217135  0.748836 ->   0.5189825479
    6:   0.707107  0.000000  0.707107 /  -0.210654 -0.647915  0.732005 ->   0.5195216869
    7:   0.707107  0.707107  0.000000 /   0.740781  0.671746  0.000000 ->   0.5181084710

 END OF EFFECTIVE MASSES SECTION

 ---- first-order wavefunction calculations are completed ----

 Total localisation tensor (bohr^2) in cartesian coordinates
  WARNING : still subject to testing - especially symmetries.
      direction              matrix element
   alpha     beta       real part   imaginary part
     1        1       0.4545853090    0.0000000000
     1        2      -0.0400709716    0.0000000000
     1        3      -0.6263078089    0.0000000000
     2        1      -0.0400709716    0.0000000000
     2        2       0.4474071112    0.0000000000
     2        3      -0.6849077533    0.0000000000
     3        1      -0.6263078089    0.0000000000
     3        2      -0.6849077533    0.0000000000
     3        3       4.8462686718    0.0000000000

 respfn : d/dk was computed, but no 2DTE, so no DDB output.

== END DATASET(S) ==============================================================

 -outvars: echo values of variables after computation  --------
            acell      1.0000000000E+00  1.0000000000E+00  1.0000000000E+00 Bohr
              amu      3.90983000E+01  6.53900000E+01  1.89984032E+01
             ecut      4.20000000E+01 Hartree
           etotal     -9.8028737380E+01
            fcart      0.0000000000E+00  0.0000000000E+00  0.0000000000E+00
                       0.0000000000E+00  0.0000000000E+00  0.0000000000E+00
                       0.0000000000E+00  0.0000000000E+00  0.0000000000E+00
                       0.0000000000E+00  0.0000000000E+00  0.0000000000E+00
                       0.0000000000E+00  0.0000000000E+00  0.0000000000E+00
                       0.0000000000E+00  0.0000000000E+00  0.0000000000E+00
                       0.0000000000E+00  0.0000000000E+00  0.0000000000E+00
-          fftalg         512
           irdden           1
           irdwfk           1
           istwfk        0    1
              ixc     -116133
              kpt      2.50000000E-01  2.50000000E-01  2.50000000E-01
                       0.00000000E+00  0.00000000E+00  0.00000000E+00
           kptopt           0
P           mkmem           2
P          mkqmem           2
P          mk1mem           2
            natom           7
            nband          42
           nbdbuf           4
            ngfft          80      80      80
             nkpt           2
            nstep        2000
             nsym          16
           ntypat           3
              occ      2.000000  2.000000  2.000000  2.000000  2.000000  2.000000
                       2.000000  2.000000  2.000000  2.000000  2.000000  2.000000
                       2.000000  2.000000  2.000000  2.000000  2.000000  2.000000
                       2.000000  2.000000  2.000000  2.000000  2.000000  2.000000
                       2.000000  2.000000  2.000000  2.000000  2.000000  2.000000
                       2.000000  2.000000  2.000000  0.000000  0.000000  0.000000
                       0.000000  0.000000  0.000000  0.000000  0.000000  0.000000
        optdriver           1
            prtwf          -1
            rfdir           1       1       1
           rfelfd           2
            rprim      7.3478003019E+00  0.0000000000E+00 -1.1203446725E+01
                      -6.5546490500E-01  7.3185063390E+00 -1.1203446725E+01
                       0.0000000000E+00  0.0000000000E+00  1.3398036714E+01
          spgroup         139
           strten      0.0000000000E+00  0.0000000000E+00  0.0000000000E+00
                       0.0000000000E+00  0.0000000000E+00  0.0000000000E+00
           symrel      1  0  0   0  1  0   0  0  1      -1  0  0   0 -1  0   0  0 -1
                       0  0  1  -1 -1 -1   1  0  0       0  0 -1   1  1  1  -1  0  0
                       0  1  0   1  0  0  -1 -1 -1       0 -1  0  -1  0  0   1  1  1
                      -1 -1 -1   0  0  1   0  1  0       1  1  1   0  0 -1   0 -1  0
                       0  1  0   1  0  0   0  0  1       0 -1  0  -1  0  0   0  0 -1
                       0  0  1  -1 -1 -1   0  1  0       0  0 -1   1  1  1   0 -1  0
                       1  0  0   0  1  0  -1 -1 -1      -1  0  0   0 -1  0   1  1  1
                      -1 -1 -1   0  0  1   1  0  0       1  1  1   0  0 -1  -1  0  0
           tolwfr      1.00000000E-20
            typat      1  1  2  3  3  3  3
           useylm           1
              wtk        0.50000    0.50000
           xangst      2.2831572591E+00  2.4967817485E+00 -7.6443361548E+00
                       1.2582741052E+00  1.3760050070E+00 -4.2128811742E+00
                       0.0000000000E+00  0.0000000000E+00  0.0000000000E+00
                      -1.7342854438E-01  1.9363933778E+00  5.8066350224E-01
                       1.9441442265E+00  0.0000000000E+00  5.8066350224E-01
                       5.4912726448E-01  6.0050656874E-01 -1.8385564046E+00
                       2.9923040998E+00  3.2722801868E+00 -1.0018660924E+01
            xcart      4.3145419380E+00  4.7182337182E+00 -1.4445701800E+01
                       2.3777934589E+00  2.6002726208E+00 -7.9611916497E+00
                       0.0000000000E+00  0.0000000000E+00  0.0000000000E+00
                      -3.2773245250E-01  3.6592531695E+00  1.0972949946E+00
                       3.6739001510E+00  0.0000000000E+00  1.0972949946E+00
                       1.0377001420E+00  1.1347929559E+00 -3.4743680846E+00
                       5.6546352549E+00  6.1837133831E+00 -1.8932525365E+01
             xred      6.4469900000E-01  6.4469900000E-01 -5.5511151231E-17
                       3.5530100000E-01  3.5530100000E-01  0.0000000000E+00
                       0.0000000000E+00  0.0000000000E+00  0.0000000000E+00
                       1.3877787808E-17  5.0000000000E-01  5.0000000000E-01
                       5.0000000000E-01  0.0000000000E+00  5.0000000000E-01
                       1.5505800000E-01  1.5505800000E-01 -2.7755575616E-17
                       8.4494200000E-01  8.4494200000E-01  2.2204460493E-16
            znucl       19.00000   30.00000    9.00000

- Timing analysis has been suppressed with timopt=0

 Suggested references for the acknowledgment of ABINIT usage.

 Calculation completed.
.Delivered  15 WARNINGs and   9 COMMENTs to log file.