.Version 9.5.2 of ABINIT

 ABINIT is a project of the Universite Catholique de Louvain,
 Corning Inc. and other collaborators, see ~abinit/doc/developers/contributors.txt .
 acknowledgments of the ABINIT effort.

.Starting date : Mon 24 May 2021.
- ( at 18h32 )

- input  file    -> /scratch/users/j/a/jabreu/flow_simple_10atoms/flow/w419/t1/run.abi
- output file    -> /scratch/users/j/a/jabreu/flow_simple_10atoms/flow/w419/t1/run.abo
- root for input  files -> /scratch/users/j/a/jabreu/flow_simple_10atoms/flow/w419/t1/indata/in
- root for output files -> /scratch/users/j/a/jabreu/flow_simple_10atoms/flow/w419/t1/outdata/out

 Symmetries : space group Cm c m (# 63); Bravais oC (1-face-center ortho.)
     intxc =       0      iscf =       7    lmnmax =      32     lnmax =       8
     mgfft =     120  mpssoang =       4    mqgrid =    5646     natom =      10
  nloc_mem =       1    nspden =       1   nspinor =       1    nsppol =       1
      nsym =       8    n1xccc =    2501    ntypat =       3    occopt =       1
   xclevel =       2
-    mband =          49        mffmem =           1         mkmem =           1
-   mkqmem =           1        mk1mem =           1           mpw =       24223
      nfft =      768000          nkpt =           1
  Rough estimation (10% accuracy) of disk space for files :

------------- Echo of variables that govern the present computation ------------
-
- outvars: echo of selected default values
-   iomode0 =  0 , fftalg0 =512 , wfoptalg0 =  0
-
- outvars: echo of global parameters not present in the input file
-  max_nthreads =    0
-
 -outvars: echo values of preprocessed input variables --------
            acell      1.0000000000E+00  1.0000000000E+00  1.0000000000E+00 Bohr
              amu      1.32905430E+02  8.76200000E+01  7.99040000E+01
             ecut      3.40000000E+01 Hartree
-          fftalg         512
           irdden           1
           irdwfk           1
           istwfk        1
              ixc     -116133
           kptopt           0
P           mkmem           1
P          mkqmem           1
P          mk1mem           1
            natom          10
            nband          49
           nbdbuf           4
            ngfft          80      80     120
             nkpt           1
            nstep        2000
             nsym           8
           ntypat           3
              occ      2.000000  2.000000  2.000000  2.000000  2.000000  2.000000
                       2.000000  2.000000  2.000000  2.000000  2.000000  2.000000
                       2.000000  2.000000  2.000000  2.000000  2.000000  2.000000
                       2.000000  2.000000  2.000000  2.000000  2.000000  2.000000
                       2.000000  2.000000  2.000000  2.000000  2.000000  2.000000
                       2.000000  2.000000  2.000000  2.000000  2.000000  2.000000
                       2.000000  2.000000  2.000000  2.000000  0.000000  0.000000
                       0.000000  0.000000  0.000000  0.000000  0.000000  0.000000
                       0.000000
        optdriver           1
            prtwf          -1
            rfdir           1       1       1
           rfelfd           2
            rprim      1.4644167399E+01  0.0000000000E+00  0.0000000000E+00
                      -1.2187391274E+01  8.1190598422E+00  0.0000000000E+00
                       0.0000000000E+00  0.0000000000E+00  2.1507058856E+01
          spgroup          63
           symrel      1  0  0   0  1  0   0  0  1      -1  0  0   0 -1  0   0  0 -1
                       0  1  0   1  0  0   0  0 -1       0 -1  0  -1  0  0   0  0  1
                      -1  0  0   0 -1  0   0  0  1       1  0  0   0  1  0   0  0 -1
                       0 -1  0  -1  0  0   0  0 -1       0  1  0   1  0  0   0  0  1
            tnons      0.0000000  0.0000000  0.0000000    -0.0000000  0.0000000  0.0000000
                      -0.0000000  0.0000000  0.0000000     0.0000000  0.0000000  0.0000000
                      -0.0000000  0.0000000  0.5000000     0.0000000  0.0000000  0.5000000
                       0.0000000  0.0000000  0.5000000    -0.0000000  0.0000000  0.5000000
           tolwfr      1.00000000E-20
            typat      1  1  2  2  3  3  3  3  3  3
           useylm           1
           xangst      4.1489797206E+00  1.0894521732E+00  2.8452613426E+00
                      -2.8489097891E+00  3.2069692504E+00  8.5357840277E+00
                       0.0000000000E+00  0.0000000000E+00  5.6905226851E+00
                       0.0000000000E+00  0.0000000000E+00  0.0000000000E+00
                       2.5485789624E+00  1.5737233140E+00  6.2210045909E+00
                      -1.2485090309E+00  2.7226981097E+00  5.3048190575E-01
                       2.5485789624E+00  1.5737233140E+00  1.0850563464E+01
                      -1.2485090309E+00  2.7226981097E+00  5.1600407794E+00
                      -5.5862815903E+00  4.0352806331E+00  2.8452613426E+00
                       6.8863515218E+00  2.6114079055E-01  8.5357840277E+00
            xcart      7.8404354027E+00  2.0587662423E+00  5.3767647139E+00
                      -5.3836592786E+00  6.0602935999E+00  1.6130294142E+01
                       0.0000000000E+00  0.0000000000E+00  1.0753529428E+01
                       0.0000000000E+00  0.0000000000E+00  0.0000000000E+00
                       4.8161162669E+00  2.9739060724E+00  1.1755994948E+01
                      -2.3593401428E+00  5.1451537698E+00  1.0024655203E+00
                       4.8161162669E+00  2.9739060724E+00  2.0504593335E+01
                      -2.3593401428E+00  5.1451537698E+00  9.7510639075E+00
                      -1.0556542307E+01  7.6255752659E+00  5.3767647139E+00
                       1.3013318431E+01  4.9348457627E-01  1.6130294142E+01
             xred      7.4642800000E-01  2.5357200000E-01  2.5000000000E-01
                       2.5357200000E-01  7.4642800000E-01  7.5000000000E-01
                       0.0000000000E+00  0.0000000000E+00  5.0000000000E-01
                       0.0000000000E+00  0.0000000000E+00  0.0000000000E+00
                       6.3371300000E-01  3.6628700000E-01  5.4661100000E-01
                       3.6628700000E-01  6.3371300000E-01  4.6611000000E-02
                       6.3371300000E-01  3.6628700000E-01  9.5338900000E-01
                       3.6628700000E-01  6.3371300000E-01  4.5338900000E-01
                       6.0781000000E-02  9.3921900000E-01  2.5000000000E-01
                       9.3921900000E-01  6.0781000000E-02  7.5000000000E-01
            znucl       55.00000   38.00000   35.00000

 chkinp: Checking input parameters for consistency.

== DATASET  1 ==================================================================
-   mpi_nproc: 1, omp_nthreads: -1 (-1 if OMP is not activated)

--- !DatasetInfo
iteration_state: {dtset: 1, }
dimensions: {natom: 10, nkpt: 1, mband: 49, nsppol: 1, nspinor: 1, nspden: 1, mpw: 24223, }
cutoff_energies: {ecut:  34.0, pawecutdg:  -1.0, }
electrons: {nelect:   8.00000000E+01, charge:   0.00000000E+00, occopt:   1.00000000E+00, tsmear:   1.00000000E-02, }
meta: {optdriver: 1, rfelfd: 2, }
...

 Real(R)+Recip(G) space primitive vectors, cartesian coordinates (Bohr,Bohr^-1):
 R(1)= 14.6441674  0.0000000  0.0000000  G(1)=  0.0682866  0.1025039  0.0000000
 R(2)=-12.1873913  8.1190598  0.0000000  G(2)=  0.0000000  0.1231670  0.0000000
 R(3)=  0.0000000  0.0000000 21.5070589  G(3)=  0.0000000  0.0000000  0.0464964
 Unit cell volume ucvol=  2.5571220E+03 bohr^3
 Angles (23,13,12)=  9.00000000E+01  9.00000000E+01  1.46329034E+02 degrees

 getcut: wavevector=  0.0000  0.0000  0.0000  ngfft=  80  80 120
         ecut(hartree)=     34.000   => boxcut(ratio)=   2.08141

--- Pseudopotential description ------------------------------------------------
- pspini: atom type   1  psp file is /scratch/users/j/a/jabreu/pseudos/PBEsol/Cs.psp8
- pspatm: opening atomic psp file    /scratch/users/j/a/jabreu/pseudos/PBEsol/Cs.psp8
- Cs    ONCVPSP-3.3.0  r_core=   2.27353   1.85623   2.01788   1.90105
- 55.00000   9.00000    180112                znucl, zion, pspdat
    8 -116133    3    4       600   0.00000   pspcod,pspxc,lmax,lloc,mmax,r2well
    5.99000000000000    5.00000000000000    0.00000000000000   rchrg,fchrg,qchrg
     nproj     2     2     2     2
     extension_switch     1
  pspatm : epsatm=   22.12462445
         --- l  ekb(1:nproj) -->
             0    6.214110    0.767882
             1    6.311966    0.793598
             2    3.769790    0.913105
             3   -9.247129   -2.432478
 pspatm: atomic psp has been read  and splines computed

- pspini: atom type   2  psp file is /scratch/users/j/a/jabreu/pseudos/PBEsol/Sr.psp8
- pspatm: opening atomic psp file    /scratch/users/j/a/jabreu/pseudos/PBEsol/Sr.psp8
- Sr    ONCVPSP-3.3.0  r_core=   1.66721   1.31335   1.51547
- 38.00000  10.00000    180112                znucl, zion, pspdat
    8 -116133    2    4       600   0.00000   pspcod,pspxc,lmax,lloc,mmax,r2well
    5.99000000000000    6.00000000000000    0.00000000000000   rchrg,fchrg,qchrg
     nproj     2     2     2
     extension_switch     1
  pspatm : epsatm=   12.46450977
         --- l  ekb(1:nproj) -->
             0   10.029206    1.044171
             1    7.472414    1.670829
             2    4.142950    0.968140
 pspatm: atomic psp has been read  and splines computed

- pspini: atom type   3  psp file is /scratch/users/j/a/jabreu/pseudos/PBEsol/Br.psp8
- pspatm: opening atomic psp file    /scratch/users/j/a/jabreu/pseudos/PBEsol/Br.psp8
- Br    ONCVPSP-3.3.0  r_core=   1.81012   1.51356   1.92136
- 35.00000   7.00000    180112                znucl, zion, pspdat
    8 -116133    2    4       600   0.00000   pspcod,pspxc,lmax,lloc,mmax,r2well
    5.99000000000000    8.00000000000000    0.00000000000000   rchrg,fchrg,qchrg
     nproj     2     2     2
     extension_switch     1
  pspatm : epsatm=   10.94933070
         --- l  ekb(1:nproj) -->
             0    8.508690    0.897946
             1    5.393311    0.892021
             2    2.527513    0.394763
 pspatm: atomic psp has been read  and splines computed

   1.07899402E+04                                ecore*ucvol(ha*bohr**3)

 ==>  initialize data related to q vector <==

 The list of irreducible perturbations for this q vector is:
    1)    idir= 1    ipert=  11
    2)    idir= 2    ipert=  11
    3)    idir= 3    ipert=  11

 Perturbation wavevector (in red.coord.)   0.000000  0.000000  0.000000
 Perturbation : derivative vs k along direction   1

 dfpt_looppert : COMMENT -
  In a d/dk calculation, iscf is set to -3 automatically.
 The set of symmetries contains only one element for this perturbation.
 symkpt : not enough symmetry to change the number of k points.

 Initialisation of the first-order wave-functions :
  ireadwf=   0

--- !BeginCycle
iteration_state: {dtset: 1, }
solver: {iscf: 7, nstep: 2000, nline: 4, wfoptalg: 0, }
tolerances: {tolwfr: 1.00E-20, }
...

     iter   2DEtotal(Ha)        deltaE(Ha) residm    vres2
-ETOT  1  -56.847735033284     -5.685E+01 3.000E-02 0.000E+00
 ETOT  2  -56.911612903435     -6.388E-02 4.330E-03 0.000E+00
[...]
 ETOT 34  -56.912926442916      7.105E-15 1.360E-18 0.000E+00
 ETOT 35  -56.912926442916      7.105E-15 7.089E-19 0.000E+00
 ETOT 36  -56.912926442916     -7.105E-15 2.019E-19 0.000E+00
 ETOT 37  -56.912926442916      0.000E+00 1.055E-19 0.000E+00
 ETOT 38  -56.912926442916      7.105E-15 2.998E-20 0.000E+00
 ETOT 39  -56.912926442916     -7.105E-15 1.572E-20 0.000E+00
 ETOT 40  -56.912926442916      0.000E+00 9.905E-21 0.000E+00

 At SCF step   40   max residual=  9.90E-21 < tolwfr=  1.00E-20 =>converged.

 ----iterations are completed or convergence reached----

 dfpt_looppert: DFPT cycle converged with prtwf=-1. Will skip output of the 1st-order WFK file.
 dfpt_looppert : ek2=    9.5822662647E+01
          f-sum rule ratio=    1.1211532813E+00
 prteigrs : about to open file /scratch/users/j/a/jabreu/flow_simple_10atoms/flow/w419/t1/tmpdata/tmp_1WF1_EIG
 Expectation of eigenvalue derivatives (hartree) for nkpt=   1  k points:
  (in case of degenerate eigenvalues, averaged derivative)
 kpt#   1, nband= 49, wtk=  1.00000, kpt=  0.0000  0.0000  0.0000 (reduced coord)
  -0.00000    0.00000    0.00000   -0.00000    0.00000    0.00000   -0.00000    0.00000
  -0.00000   -0.00000    0.00000    0.00000   -0.00000    0.00000    0.00000   -0.00000
  -0.00000   -0.00000    0.00000    0.00000   -0.00000   -0.00000    0.00000    0.00000
   0.00000   -0.00000   -0.00000    0.00000   -0.00000   -0.00000   -0.00000   -0.00000
  -0.00000    0.00000   -0.00000    0.00000   -0.00000    0.00000    0.00000   -0.00000
  -0.00000    0.00000   -0.00000   -0.00000    0.00000   -0.00000   -0.00000    0.00000
  -0.00000

 Eight components of 2nd-order total energy (hartree) are
 1,2,3: 0th-order hamiltonian combined with 1st-order wavefunctions
     kin0=   7.35606842E+01 eigvalue=   5.18930682E+00  local=  -4.91432113E+01
 4,5,6: 1st-order hamiltonian combined with 1st and 0th-order wfs
     kin1=  -1.07431893E+02  Hartree=   0.00000000E+00     xc=   0.00000000E+00
 7,8,9: eventually, occupation + non-local contributions
    edocc=   1.43958207E+01     enl0=   1.29103259E+01   enl1=  -6.39396023E+00
 1-9 gives the relaxation energy (to be shifted if some occ is /=2.0)
   erelax=  -5.69129264E+01
  No Ewald or frozen-wf contrib.: the relaxation energy is the total one
 2DEtotal=   -0.5691292644E+02 Ha. Also 2DEtotal=   -0.154867948803E+04 eV
    (  non-var. 2DEtotal :   -5.6912926443E+01 Ha)

 Perturbation wavevector (in red.coord.)   0.000000  0.000000  0.000000
 Perturbation : derivative vs k along direction   2
 The set of symmetries contains only one element for this perturbation.
 symkpt : not enough symmetry to change the number of k points.

[...]

 Perturbation wavevector (in red.coord.)   0.000000  0.000000  0.000000
 Perturbation : derivative vs k along direction   3
 The set of symmetries contains only one element for this perturbation.
 symkpt : not enough symmetry to change the number of k points.

 Initialisation of the first-order wave-functions :
  ireadwf=   0

--- !BeginCycle
iteration_state: {dtset: 1, }
solver: {iscf: 7, nstep: 2000, nline: 4, wfoptalg: 0, }
tolerances: {tolwfr: 1.00E-20, }
...

     iter   2DEtotal(Ha)        deltaE(Ha) residm    vres2
-ETOT  1  -7.3797733235687     -7.380E+00 3.004E-02 0.000E+00
 ETOT  2  -7.3899355746664     -1.016E-02 5.779E-04 0.000E+00
 ETOT  3  -7.3901319473984     -1.964E-04 6.201E-05 0.000E+00
 ETOT  4  -7.3901450968673     -1.315E-05 4.857E-06 0.000E+00
 ETOT  5  -7.3901462540054     -1.157E-06 1.184E-06 0.000E+00
 ETOT  6  -7.3901463691392     -1.151E-07 1.450E-07 0.000E+00
 ETOT  7  -7.3901463814108     -1.227E-08 3.735E-08 0.000E+00
 ETOT  8  -7.3901463827782     -1.367E-09 4.486E-09 0.000E+00
 ETOT  9  -7.3901463829353     -1.570E-10 1.264E-09 0.000E+00
 ETOT 10  -7.3901463829537     -1.842E-11 1.405E-10 0.000E+00
 ETOT 11  -7.3901463829559     -2.188E-12 4.497E-11 0.000E+00
 ETOT 12  -7.3901463829561     -2.514E-13 4.429E-12 0.000E+00
 ETOT 13  -7.3901463829561     -1.599E-14 1.665E-12 0.000E+00
 ETOT 14  -7.3901463829561     -6.217E-15 1.455E-13 0.000E+00
 ETOT 15  -7.3901463829561      4.441E-15 6.343E-14 0.000E+00
 ETOT 16  -7.3901463829561      8.882E-16 5.777E-15 0.000E+00
 ETOT 17  -7.3901463829561      8.882E-16 2.462E-15 0.000E+00
 ETOT 18  -7.3901463829561     -1.421E-14 2.326E-16 0.000E+00
 ETOT 19  -7.3901463829561     -2.665E-15 9.725E-17 0.000E+00
 ETOT 20  -7.3901463829561      8.882E-16 9.623E-18 0.000E+00
 ETOT 21  -7.3901463829561      5.329E-15 4.193E-18 0.000E+00
 ETOT 22  -7.3901463829561     -2.665E-15 5.125E-19 0.000E+00
 ETOT 23  -7.3901463829561      0.000E+00 3.579E-19 0.000E+00
 ETOT 24  -7.3901463829561      0.000E+00 8.964E-20 0.000E+00
 ETOT 25  -7.3901463829561      1.776E-15 9.187E-20 0.000E+00
 ETOT 26  -7.3901463829561     -2.665E-15 3.344E-20 0.000E+00
 ETOT 27  -7.3901463829561      1.776E-15 3.412E-20 0.000E+00
 ETOT 28  -7.3901463829561     -1.776E-15 1.297E-20 0.000E+00
 ETOT 29  -7.3901463829561      0.000E+00 9.969E-21 0.000E+00

 At SCF step   29   max residual=  9.97E-21 < tolwfr=  1.00E-20 =>converged.

 ----iterations are completed or convergence reached----

 dfpt_looppert: DFPT cycle converged with prtwf=-1. Will skip output of the 1st-order WFK file.
 dfpt_looppert : ek2=    1.3655816496E+01
          f-sum rule ratio=    1.0175263323E+00
 prteigrs : about to open file /scratch/users/j/a/jabreu/flow_simple_10atoms/flow/w419/t1/tmpdata/tmp_1WF1_EIG
 Expectation of eigenvalue derivatives (hartree) for nkpt=   1  k points:
  (in case of degenerate eigenvalues, averaged derivative)
 kpt#   1, nband= 49, wtk=  1.00000, kpt=  0.0000  0.0000  0.0000 (reduced coord)
  -0.00000    0.00000   -0.00000    0.00000   -0.00000    0.00000   -0.00000   -0.00000
  -0.00000    0.00000    0.00000    0.00000    0.00000   -0.00000   -0.00000   -0.00000
  -0.00000   -0.00000   -0.00000   -0.00000    0.00000   -0.00000    0.00000   -0.00000
  -0.00000   -0.00000   -0.00000    0.00000    0.00000    0.00000   -0.00000    0.00000
  -0.00000    0.00000    0.00000   -0.00000    0.00000   -0.00000    0.00000   -0.00000
   0.00000   -0.00000   -0.00000   -0.00000    0.00000    0.00000    0.00000   -0.00000
  -0.00000

 Eight components of 2nd-order total energy (hartree) are
 1,2,3: 0th-order hamiltonian combined with 1st-order wavefunctions
     kin0=   1.05602957E+01 eigvalue=   8.65149843E-01  local=  -7.33405319E+00
 4,5,6: 1st-order hamiltonian combined with 1st and 0th-order wfs
     kin1=  -1.38951529E+01  Hartree=   0.00000000E+00     xc=   0.00000000E+00
 7,8,9: eventually, occupation + non-local contributions
    edocc=   1.26784283E+00     enl0=   2.03091119E+00   enl1=  -8.85139893E-01
 1-9 gives the relaxation energy (to be shifted if some occ is /=2.0)
   erelax=  -7.39014638E+00
  No Ewald or frozen-wf contrib.: the relaxation energy is the total one
 2DEtotal=   -0.7390146383E+01 Ha. Also 2DEtotal=   -0.201096110008E+03 eV
    (  non-var. 2DEtotal :   -7.3901463830E+00 Ha)

 CALCULATION OF EFFECTIVE MASSES
 NOTE : Additional infos (eff. mass eigenvalues, eigenvectors and, if degenerate, average mass) are available in stdout.

 K-point ( 0.000, 0.000, 0.000) | band =    40
 Effective mass tensor:
             -2.6656390767              0.6242205868             -0.0000000027
              0.6242205868             -0.7916239473             -0.0000000044
             -0.0000000027             -0.0000000044             -2.3293423706
 Effective mass tensor eigenvalues:
             -2.8545242766             -2.3293423706             -0.6027387474
 Angular average effective mass 1/(<1/m>)=  -1.2301533256
 Angular average effective mass for Frohlich model (<m**0.5>)**2=  -1.4436316367
 Effective masses along directions: (cart. coord. / red. coord. -> eff. mass)
    1:   1.000000  0.000000  0.000000 /   0.768636 -0.639686  0.000000 ->  -2.1734213484
    2:   0.000000  1.000000  0.000000 /   0.000000  1.000000  0.000000 ->  -0.6454483662
    3:   0.000000  0.000000  1.000000 /   0.000000  0.000000  1.000000 ->  -2.3293423706
    4:   0.577350  0.577350  0.577350 /   0.556063 -0.154481  0.816658 ->  -0.9480668938
    5:   0.000000  0.707107  0.707107 /   0.000000  0.353179  0.935556 ->  -1.0108073915
    6:   0.707107  0.000000  0.707107 /   0.509678 -0.424172  0.748536 ->  -2.2486822609
    7:   0.707107  0.707107  0.000000 /   0.963509 -0.267675  0.000000 ->  -0.7312539483

 K-point ( 0.000, 0.000, 0.000) | band =    41
 Effective mass tensor:
              0.3472854437             -0.0139282130              0.0000000000
             -0.0139282130              0.3054706067             -0.0000000000
              0.0000000000             -0.0000000000              0.3556387924
 Effective mass tensor eigenvalues:
              0.3012560176              0.3515000329              0.3556387924
 Angular average effective mass 1/(<1/m>)=   0.3342161299
 Angular average effective mass for Frohlich model (<m**0.5>)**2=   0.3348052039
 Effective masses along directions: (cart. coord. / red. coord. -> eff. mass)
    1:   1.000000  0.000000  0.000000 /   0.768636 -0.639686  0.000000 ->   0.3466503741
    2:   0.000000  1.000000  0.000000 /   0.000000  1.000000  0.000000 ->   0.3049120025
    3:   0.000000  0.000000  1.000000 /   0.000000  0.000000  1.000000 ->   0.3556387924
    4:   0.577350  0.577350  0.577350 /   0.556063 -0.154481  0.816658 ->   0.3247001623
    5:   0.000000  0.707107  0.707107 /   0.000000  0.353179  0.935556 ->   0.3283276235
    6:   0.707107  0.000000  0.707107 /   0.509678 -0.424172  0.748536 ->   0.3510870630
    7:   0.707107  0.707107  0.000000 /   0.963509 -0.267675  0.000000 ->   0.3111653216

 END OF EFFECTIVE MASSES SECTION

 ---- first-order wavefunction calculations are completed ----

 Total localisation tensor (bohr^2) in cartesian coordinates
  WARNING : still subject to testing - especially symmetries.
      direction              matrix element
   alpha     beta       real part   imaginary part
     1        1       7.8595162533    0.0000000000
     1        2      -2.1425188797    0.0000000000
     1        3       0.0000000000    0.0000000000
     2        1      -2.1425188797    0.0000000000
     2        2       1.4273143945    0.0000000000
     2        3       0.0000000000    0.0000000000
     3        1       0.0000000000    0.0000000000
     3        2       0.0000000000    0.0000000000
     3        3       1.1739157369    0.0000000000

 respfn : d/dk was computed, but no 2DTE, so no DDB output.

== END DATASET(S) ==============================================================

 -outvars: echo values of variables after computation  --------
            acell      1.0000000000E+00  1.0000000000E+00  1.0000000000E+00 Bohr
              amu      1.32905430E+02  8.76200000E+01  7.99040000E+01
             ecut      3.40000000E+01 Hartree
           etotal     -7.3901463830E+00
            fcart      0.0000000000E+00  0.0000000000E+00  0.0000000000E+00
                       0.0000000000E+00  0.0000000000E+00  0.0000000000E+00
                       0.0000000000E+00  0.0000000000E+00  0.0000000000E+00
                       0.0000000000E+00  0.0000000000E+00  0.0000000000E+00
                       0.0000000000E+00  0.0000000000E+00  0.0000000000E+00
                       0.0000000000E+00  0.0000000000E+00  0.0000000000E+00
                       0.0000000000E+00  0.0000000000E+00  0.0000000000E+00
                       0.0000000000E+00  0.0000000000E+00  0.0000000000E+00
                       0.0000000000E+00  0.0000000000E+00  0.0000000000E+00
                       0.0000000000E+00  0.0000000000E+00  0.0000000000E+00
-          fftalg         512
           irdden           1
           irdwfk           1
           istwfk        1
              ixc     -116133
           kptopt           0
P           mkmem           1
P          mkqmem           1
P          mk1mem           1
            natom          10
            nband          49
           nbdbuf           4
            ngfft          80      80     120
             nkpt           1
            nstep        2000
             nsym           8
           ntypat           3
              occ      2.000000  2.000000  2.000000  2.000000  2.000000  2.000000
                       2.000000  2.000000  2.000000  2.000000  2.000000  2.000000
                       2.000000  2.000000  2.000000  2.000000  2.000000  2.000000
                       2.000000  2.000000  2.000000  2.000000  2.000000  2.000000
                       2.000000  2.000000  2.000000  2.000000  2.000000  2.000000
                       2.000000  2.000000  2.000000  2.000000  2.000000  2.000000
                       2.000000  2.000000  2.000000  2.000000  0.000000  0.000000
                       0.000000  0.000000  0.000000  0.000000  0.000000  0.000000
                       0.000000
        optdriver           1
            prtwf          -1
            rfdir           1       1       1
           rfelfd           2
            rprim      1.4644167399E+01  0.0000000000E+00  0.0000000000E+00
                      -1.2187391274E+01  8.1190598422E+00  0.0000000000E+00
                       0.0000000000E+00  0.0000000000E+00  2.1507058856E+01
          spgroup          63
           strten      0.0000000000E+00  0.0000000000E+00  0.0000000000E+00
                       0.0000000000E+00  0.0000000000E+00  0.0000000000E+00
           symrel      1  0  0   0  1  0   0  0  1      -1  0  0   0 -1  0   0  0 -1
                       0  1  0   1  0  0   0  0 -1       0 -1  0  -1  0  0   0  0  1
                      -1  0  0   0 -1  0   0  0  1       1  0  0   0  1  0   0  0 -1
                       0 -1  0  -1  0  0   0  0 -1       0  1  0   1  0  0   0  0  1
            tnons      0.0000000  0.0000000  0.0000000    -0.0000000  0.0000000  0.0000000
                      -0.0000000  0.0000000  0.0000000     0.0000000  0.0000000  0.0000000
                      -0.0000000  0.0000000  0.5000000     0.0000000  0.0000000  0.5000000
                       0.0000000  0.0000000  0.5000000    -0.0000000  0.0000000  0.5000000
           tolwfr      1.00000000E-20
            typat      1  1  2  2  3  3  3  3  3  3
           useylm           1
           xangst      4.1489797206E+00  1.0894521732E+00  2.8452613426E+00
                      -2.8489097891E+00  3.2069692504E+00  8.5357840277E+00
                       0.0000000000E+00  0.0000000000E+00  5.6905226851E+00
                       0.0000000000E+00  0.0000000000E+00  0.0000000000E+00
                       2.5485789624E+00  1.5737233140E+00  6.2210045909E+00
                      -1.2485090309E+00  2.7226981097E+00  5.3048190575E-01
                       2.5485789624E+00  1.5737233140E+00  1.0850563464E+01
                      -1.2485090309E+00  2.7226981097E+00  5.1600407794E+00
                      -5.5862815903E+00  4.0352806331E+00  2.8452613426E+00
                       6.8863515218E+00  2.6114079055E-01  8.5357840277E+00
            xcart      7.8404354027E+00  2.0587662423E+00  5.3767647139E+00
                      -5.3836592786E+00  6.0602935999E+00  1.6130294142E+01
                       0.0000000000E+00  0.0000000000E+00  1.0753529428E+01
                       0.0000000000E+00  0.0000000000E+00  0.0000000000E+00
                       4.8161162669E+00  2.9739060724E+00  1.1755994948E+01
                      -2.3593401428E+00  5.1451537698E+00  1.0024655203E+00
                       4.8161162669E+00  2.9739060724E+00  2.0504593335E+01
                      -2.3593401428E+00  5.1451537698E+00  9.7510639075E+00
                      -1.0556542307E+01  7.6255752659E+00  5.3767647139E+00
                       1.3013318431E+01  4.9348457627E-01  1.6130294142E+01
             xred      7.4642800000E-01  2.5357200000E-01  2.5000000000E-01
                       2.5357200000E-01  7.4642800000E-01  7.5000000000E-01
                       0.0000000000E+00  0.0000000000E+00  5.0000000000E-01
                       0.0000000000E+00  0.0000000000E+00  0.0000000000E+00
                       6.3371300000E-01  3.6628700000E-01  5.4661100000E-01
                       3.6628700000E-01  6.3371300000E-01  4.6611000000E-02
                       6.3371300000E-01  3.6628700000E-01  9.5338900000E-01
                       3.6628700000E-01  6.3371300000E-01  4.5338900000E-01
                       6.0781000000E-02  9.3921900000E-01  2.5000000000E-01
                       9.3921900000E-01  6.0781000000E-02  7.5000000000E-01
            znucl       55.00000   38.00000   35.00000

- Timing analysis has been suppressed with timopt=0

 Suggested references for the acknowledgment of ABINIT usage.

 Calculation completed.
.Delivered   2 WARNINGs and   5 COMMENTs to log file.