.Version 9.5.2 of ABINIT

 ABINIT is a project of the Universite Catholique de Louvain,
 Corning Inc. and other collaborators, see ~abinit/doc/developers/contributors.txt .
 acknowledgments of the ABINIT effort.

.Starting date : Mon 24 May 2021.
- ( at 10h48 )

- input  file    -> /scratch/users/j/a/jabreu/flow_simple_10atoms/flow/w259/t1/run.abi
- output file    -> /scratch/users/j/a/jabreu/flow_simple_10atoms/flow/w259/t1/run.abo
- root for input  files -> /scratch/users/j/a/jabreu/flow_simple_10atoms/flow/w259/t1/indata/in
- root for output files -> /scratch/users/j/a/jabreu/flow_simple_10atoms/flow/w259/t1/outdata/out

 Symmetries : space group Fm -3 m (#225); Bravais cF (face-center cubic)
     intxc =       0      iscf =       7    lmnmax =      18     lnmax =       6
     mgfft =      64  mpssoang =       3    mqgrid =    3001     natom =      10
  nloc_mem =       1    nspden =       1   nspinor =       1    nsppol =       1
      nsym =      48    n1xccc =    2501    ntypat =       4    occopt =       1
   xclevel =       2
-    mband =          42        mffmem =           1         mkmem =           1
-   mkqmem =           1        mk1mem =           1           mpw =       10489
      nfft =      262144          nkpt =           1
  Rough estimation (10% accuracy) of disk space for files :

------------- Echo of variables that govern the present computation ------------
-
- outvars: echo of selected default values
-   iomode0 =  0 , fftalg0 =512 , wfoptalg0 =  0
-
- outvars: echo of global parameters not present in the input file
-  max_nthreads =    0
-
 -outvars: echo values of preprocessed input variables --------
            acell      1.0000000000E+00  1.0000000000E+00  1.0000000000E+00 Bohr
              amu      3.90983000E+01  6.94100000E+00  2.69815390E+01
                       1.89984032E+01
             ecut      4.20000000E+01 Hartree
-          fftalg         512
           irdden           1
           irdwfk           1
           istwfk        1
              ixc     -116133
           kptopt           0
P           mkmem           1
P          mkqmem           1
P          mk1mem           1
            natom          10
            nband          42
           nbdbuf           4
            ngfft          64      64      64
             nkpt           1
            nstep        2000
             nsym          48
           ntypat           4
              occ      2.000000  2.000000  2.000000  2.000000  2.000000  2.000000
                       2.000000  2.000000  2.000000  2.000000  2.000000  2.000000
                       2.000000  2.000000  2.000000  2.000000  2.000000  2.000000
                       2.000000  2.000000  2.000000  2.000000  2.000000  2.000000
                       2.000000  2.000000  2.000000  2.000000  2.000000  2.000000
                       2.000000  2.000000  2.000000  0.000000  0.000000  0.000000
                       0.000000  0.000000  0.000000  0.000000  0.000000  0.000000
        optdriver           1
            prtwf          -1
            rfdir           1       1       1
           rfelfd           2
            rprim      9.0543131077E+00  0.0000000000E+00  5.2275101100E+00
                       3.0181043692E+00  8.5364882632E+00  5.2275101100E+00
                       0.0000000000E+00  0.0000000000E+00  1.0455020220E+01
          spgroup         225
           symrel      1  0  0   0  1  0   0  0  1      -1  0  0   0 -1  0   0  0 -1
                       0 -1  1   0 -1  0   1 -1  0       0  1 -1   0  1  0  -1  1  0
                      -1  0  0  -1  0  1  -1  1  0       1  0  0   1  0 -1   1 -1  0
                       0  1 -1   1  0 -1   0  0 -1       0 -1  1  -1  0  1   0  0  1
                      -1  0  0  -1  1  0  -1  0  1       1  0  0   1 -1  0   1  0 -1
                       0 -1  1   1 -1  0   0 -1  0       0  1 -1  -1  1  0   0  1  0
                       1  0  0   0  0  1   0  1  0      -1  0  0   0  0 -1   0 -1  0
                       0  1 -1   0  0 -1   1  0 -1       0 -1  1   0  0  1  -1  0  1
                      -1  0  1  -1  1  0  -1  0  0       1  0 -1   1 -1  0   1  0  0
                       0 -1  0   1 -1  0   0 -1  1       0  1  0  -1  1  0   0  1 -1
                       1  0 -1   0  0 -1   0  1 -1      -1  0  1   0  0  1   0 -1  1
                       0  1  0   0  0  1   1  0  0       0 -1  0   0  0 -1  -1  0  0
                       1  0 -1   0  1 -1   0  0 -1      -1  0  1   0 -1  1   0  0  1
                       0 -1  0   0 -1  1   1 -1  0       0  1  0   0  1 -1  -1  1  0
                      -1  0  1  -1  0  0  -1  1  0       1  0 -1   1  0  0   1 -1  0
                       0  1  0   1  0  0   0  0  1       0 -1  0  -1  0  0   0  0 -1
                       0  0 -1   0  1 -1   1  0 -1       0  0  1   0 -1  1  -1  0  1
                       1 -1  0   0 -1  1   0 -1  0      -1  1  0   0  1 -1   0  1  0
                       0  0  1   1  0  0   0  1  0       0  0 -1  -1  0  0   0 -1  0
                      -1  1  0  -1  0  0  -1  0  1       1 -1  0   1  0  0   1  0 -1
                       0  0  1   0  1  0   1  0  0       0  0 -1   0 -1  0  -1  0  0
                       1 -1  0   0 -1  0   0 -1  1      -1  1  0   0  1  0   0  1 -1
                       0  0 -1   1  0 -1   0  1 -1       0  0  1  -1  0  1   0 -1  1
                      -1  1  0  -1  0  1  -1  0  0       1 -1  0   1  0 -1   1  0  0
           tolwfr      1.00000000E-20
            typat      1  1  2  3  4  4  4  4  4  4
           useylm           1
           xangst      4.7913361360E+00  3.3879862727E+00  8.2988376237E+00
                       1.5971120453E+00  1.1293287576E+00  2.7662792079E+00
                       3.1942240907E+00  2.2586575151E+00  5.5325584158E+00
                       0.0000000000E+00  0.0000000000E+00  0.0000000000E+00
                       4.8996139442E+00  3.4645502452E+00  5.5325584158E+00
                       2.3415291639E+00  3.4645502452E+00  7.0094693523E+00
                       1.4888342371E+00  1.0527647851E+00  5.5325584158E+00
                       4.0469190175E+00  1.0527647851E+00  7.0094693523E+00
                       2.3415291639E+00  3.4645502452E+00  4.0556474793E+00
                       4.0469190175E+00  1.0527647851E+00  4.0556474793E+00
            xcart      9.0543131077E+00  6.4023661974E+00  1.5682530330E+01
                       3.0181043692E+00  2.1341220658E+00  5.2275101100E+00
                       6.0362087385E+00  4.2682441316E+00  1.0455020220E+01
                       0.0000000000E+00  0.0000000000E+00  0.0000000000E+00
                       9.2589285115E+00  6.5470511370E+00  1.0455020220E+01
                       4.4248488519E+00  6.5470511370E+00  1.3245977413E+01
                       2.8134889654E+00  1.9894371262E+00  1.0455020220E+01
                       7.6475686250E+00  1.9894371262E+00  1.3245977413E+01
                       4.4248488519E+00  6.5470511370E+00  7.6640630273E+00
                       7.6475686250E+00  1.9894371262E+00  7.6640630273E+00
             xred      7.5000000000E-01  7.5000000000E-01  7.5000000000E-01
                       2.5000000000E-01  2.5000000000E-01  2.5000000000E-01
                       5.0000000000E-01  5.0000000000E-01  5.0000000000E-01
                       0.0000000000E+00  0.0000000000E+00  0.0000000000E+00
                       7.6694900000E-01  7.6694900000E-01  2.3305100000E-01
                       2.3305100000E-01  7.6694900000E-01  7.6694900000E-01
                       2.3305100000E-01  2.3305100000E-01  7.6694900000E-01
                       7.6694900000E-01  2.3305100000E-01  7.6694900000E-01
                       2.3305100000E-01  7.6694900000E-01  2.3305100000E-01
                       7.6694900000E-01  2.3305100000E-01  2.3305100000E-01
            znucl       19.00000    3.00000   13.00000    9.00000

 chkinp: Checking input parameters for consistency.

== DATASET  1 ==================================================================
-   mpi_nproc: 1, omp_nthreads: -1 (-1 if OMP is not activated)

--- !DatasetInfo
iteration_state: {dtset: 1, }
dimensions: {natom: 10, nkpt: 1, mband: 42, nsppol: 1, nspinor: 1, nspden: 1, mpw: 10489, }
cutoff_energies: {ecut:  42.0, pawecutdg:  -1.0, }
electrons: {nelect:   6.60000000E+01, charge:   0.00000000E+00, occopt:   1.00000000E+00, tsmear:   1.00000000E-02, }
meta: {optdriver: 1, rfelfd: 2, }
...

 Real(R)+Recip(G) space primitive vectors, cartesian coordinates (Bohr,Bohr^-1):
 R(1)=  9.0543131  0.0000000  5.2275101  G(1)=  0.1104446 -0.0390481  0.0000000
 R(2)=  3.0181044  8.5364883  5.2275101  G(2)=  0.0000000  0.1171442  0.0000000
 R(3)=  0.0000000  0.0000000 10.4550202  G(3)= -0.0552223 -0.0390481  0.0956478
 Unit cell volume ucvol=  8.0808982E+02 bohr^3
 Angles (23,13,12)=  6.00000000E+01  6.00000000E+01  6.00000000E+01 degrees

 getcut: wavevector=  0.0000  0.0000  0.0000  ngfft=  64  64  64
         ecut(hartree)=     42.000   => boxcut(ratio)=   2.09829

--- Pseudopotential description ------------------------------------------------
- pspini: atom type   1  psp file is /scratch/users/j/a/jabreu/pseudos/PBEsol/K.psp8
- pspatm: opening atomic psp file    /scratch/users/j/a/jabreu/pseudos/PBEsol/K.psp8
- K     ONCVPSP-3.3.0  r_core=   1.36296   1.46408   1.61068
- 19.00000   9.00000    180112                znucl, zion, pspdat
    8 -116133    2    4       400   0.00000   pspcod,pspxc,lmax,lloc,mmax,r2well
    3.99000000000000    5.00000000000000    0.00000000000000   rchrg,fchrg,qchrg
     nproj     2     2     2
     extension_switch     1
  pspatm : epsatm=    8.32487830
         --- l  ekb(1:nproj) -->
             0   10.921326    0.816676
             1    4.431000    0.560368
             2   -3.384038   -1.043186
 pspatm: atomic psp has been read  and splines computed

- pspini: atom type   2  psp file is /scratch/users/j/a/jabreu/pseudos/PBEsol/Li.psp8
- pspatm: opening atomic psp file    /scratch/users/j/a/jabreu/pseudos/PBEsol/Li.psp8
- Li    ONCVPSP-3.3.0  r_core=   1.40824   1.10935
-  3.00000   3.00000    180112                znucl, zion, pspdat
    8 -116133    1    4       400   0.00000   pspcod,pspxc,lmax,lloc,mmax,r2well
    3.99000000000000    0.00000000000000    0.00000000000000   rchrg,fchrg,qchrg
     nproj     2     2
     extension_switch     1
  pspatm : epsatm=    2.60859637
         --- l  ekb(1:nproj) -->
             0   -4.855856   -1.482423
             1   -2.171544   -0.427615
 pspatm: atomic psp has been read  and splines computed

[...]

- pspini: atom type   4  psp file is /scratch/users/j/a/jabreu/pseudos/PBEsol/F.psp8
- pspatm: opening atomic psp file    /scratch/users/j/a/jabreu/pseudos/PBEsol/F.psp8
- F     ONCVPSP-3.3.0  r_core=   1.30942   1.45782   1.60379
-  9.00000   7.00000    180112                znucl, zion, pspdat
    8 -116133    2    4       600   0.00000   pspcod,pspxc,lmax,lloc,mmax,r2well
    5.99000000000000    2.50000000000000    0.00000000000000   rchrg,fchrg,qchrg
     nproj     2     2     1
     extension_switch     1
  pspatm : epsatm=    4.89824824
         --- l  ekb(1:nproj) -->
             0    6.506434    1.065875
[...]

 Perturbation wavevector (in red.coord.)   0.000000  0.000000  0.000000
 Perturbation : derivative vs k along direction   2
 The set of symmetries contains only one element for this perturbation.
 symkpt : not enough symmetry to change the number of k points.

[...]

 Perturbation wavevector (in red.coord.)   0.000000  0.000000  0.000000
 Perturbation : derivative vs k along direction   3
 The set of symmetries contains only one element for this perturbation.
 symkpt : not enough symmetry to change the number of k points.

 Initialisation of the first-order wave-functions :
  ireadwf=   0

--- !BeginCycle
iteration_state: {dtset: 1, }
solver: {iscf: 7, nstep: 2000, nline: 4, wfoptalg: 0, }
tolerances: {tolwfr: 1.00E-20, }
...

     iter   2DEtotal(Ha)        deltaE(Ha) residm    vres2
-ETOT  1  -38.860756465095     -3.886E+01 4.092E-02 0.000E+00
 ETOT  2  -38.897375945049     -3.662E-02 2.256E-03 0.000E+00
 ETOT  3  -38.897524120656     -1.482E-04 7.266E-05 0.000E+00
 ETOT  4  -38.897525219554     -1.099E-06 5.318E-06 0.000E+00
 ETOT  5  -38.897525230286     -1.073E-08 2.432E-07 0.000E+00
 ETOT  6  -38.897525230411     -1.250E-10 2.193E-08 0.000E+00
 ETOT  7  -38.897525230413     -1.705E-12 1.210E-09 0.000E+00
 ETOT  8  -38.897525230413     -2.842E-14 1.198E-10 0.000E+00
 ETOT  9  -38.897525230413     -2.132E-14 7.025E-12 0.000E+00
 ETOT 10  -38.897525230413      0.000E+00 7.191E-13 0.000E+00
 ETOT 11  -38.897525230413      2.132E-14 4.288E-14 0.000E+00
 ETOT 12  -38.897525230413      7.105E-15 4.414E-15 0.000E+00
 ETOT 13  -38.897525230413     -7.105E-15 2.654E-16 0.000E+00
 ETOT 14  -38.897525230413      7.105E-15 2.732E-17 0.000E+00
 ETOT 15  -38.897525230413      7.105E-15 1.652E-18 0.000E+00
 ETOT 16  -38.897525230413     -1.421E-14 1.700E-19 0.000E+00
 ETOT 17  -38.897525230413     -7.105E-15 1.031E-20 0.000E+00
 ETOT 18  -38.897525230413      7.105E-15 9.682E-21 0.000E+00

 At SCF step   18   max residual=  9.68E-21 < tolwfr=  1.00E-20 =>converged.

 ----iterations are completed or convergence reached----

 dfpt_looppert: DFPT cycle converged with prtwf=-1. Will skip output of the 1st-order WFK file.
 dfpt_looppert : ek2=    7.1511382278E+01
          f-sum rule ratio=    1.0929606701E+00
 prteigrs : about to open file /scratch/users/j/a/jabreu/flow_simple_10atoms/flow/w259/t1/tmpdata/tmp_1WF1_EIG
 Expectation of eigenvalue derivatives (hartree) for nkpt=   1  k points:
  (in case of degenerate eigenvalues, averaged derivative)
 kpt#   1, nband= 42, wtk=  1.00000, kpt=  0.0000  0.0000  0.0000 (reduced coord)
  -0.00000   -0.00000   -0.00000    0.00000    0.00000    0.00000    0.00000    0.00000
   0.00000    0.00000    0.00000    0.00000    0.00000    0.00000    0.00000   -0.00000
  -0.00000   -0.00000   -0.00000    0.00000    0.00000    0.00000    0.00000    0.00000
  -0.00000   -0.00000   -0.00000   -0.00000   -0.00000   -0.00000    0.00000    0.00000
   0.00000    0.00000   -0.00000   -0.00000   -0.00000   -0.00000   -0.00000    0.00000
   0.00000    0.00000

 Eight components of 2nd-order total energy (hartree) are
 1,2,3: 0th-order hamiltonian combined with 1st-order wavefunctions
     kin0=   4.72321745E+01 eigvalue=   2.16497188E+00  local=  -1.99746997E+01
 4,5,6: 1st-order hamiltonian combined with 1st and 0th-order wfs
     kin1=  -7.81591283E+01  Hartree=   0.00000000E+00     xc=   0.00000000E+00
 7,8,9: eventually, occupation + non-local contributions
    edocc=   8.79802052E+00     enl0=   6.77057984E-01   enl1=   3.64077837E-01
 1-9 gives the relaxation energy (to be shifted if some occ is /=2.0)
   erelax=  -3.88975252E+01
  No Ewald or frozen-wf contrib.: the relaxation energy is the total one
 2DEtotal=   -0.3889752523E+02 Ha. Also 2DEtotal=   -0.105845549025E+04 eV
    (  non-var. 2DEtotal :   -3.8897525230E+01 Ha)

 CALCULATION OF EFFECTIVE MASSES
 NOTE : Additional infos (eff. mass eigenvalues, eigenvectors and, if degenerate, average mass) are available in stdout.

 COMMENTS:
 - At k-point ( 0.000, 0.000, 0.000), bands    31 through    33
   are DEGENERATE (effective mass tensor is therefore not defined).
   See Section IIIB Eqs. (67)-(70) and Appendix E of PRB 93 205147 (2016).
 - Angular average effective mass for Frohlich model is to be averaged over degenerate bands. See later.
 - Associated theta integrals calculated with ntheta=   1000 points.

 K-point ( 0.000, 0.000, 0.000) | band =    31
 Transport equivalent effective mass tensor:
             -2.0646426564             -0.0000005464             -0.0000000009
             -0.0000005464             -2.0646421500             -0.0000000007
             -0.0000000009             -0.0000000007             -2.0646398459
 Transport equivalent effective mass tensor eigenvalues:
             -2.0646430054             -2.0646418010             -2.0646398459
 Angular average effective mass 1/(<1/m>)=  -1.9873322808
 Angular average effective mass for Frohlich model (<m**0.5>)**2=  -1.9903880587
 Effective masses along directions: (cart. coord. / red. coord. -> eff. mass)
    1:   1.000000  0.000000  0.000000 /   0.948683  0.316228  0.000000 ->  -2.0954272496
    2:   0.000000  1.000000  0.000000 /   0.000000  1.000000  0.000000 ->  -2.3246879930
    3:   0.000000  0.000000  1.000000 /   0.408248  0.408248  0.816497 ->  -1.9073266835
    4:   0.577350  0.577350  0.577350 /   0.585539  0.688047  0.428644 ->  -2.0374094996
    5:   0.000000  0.707107  0.707107 /   0.289489  0.762222  0.578977 ->  -1.9186070790
    6:   0.707107  0.000000  0.707107 /   0.731423  0.422287  0.535439 ->  -1.9678267549
    7:   0.707107  0.707107  0.000000 /   0.616798  0.787122  0.000000 ->  -1.9221286205

[...]

 K-point ( 0.000, 0.000, 0.000) | band =    33
 Transport equivalent effective mass tensor:
            -76.2985552828             -0.0000000276             -0.0000000342
             -0.0000000276            -76.2985552781             -0.0000000212
             -0.0000000342             -0.0000000212            -76.2985553401
 Transport equivalent effective mass tensor eigenvalues:
            -76.2985553671            -76.2985552821            -76.2985552518
 Angular average effective mass 1/(<1/m>)=  -7.9242080055
 Angular average effective mass for Frohlich model (<m**0.5>)**2=  -9.5906085178
 Effective masses along directions: (cart. coord. / red. coord. -> eff. mass)
    1:   1.000000  0.000000  0.000000 /   0.948683  0.316228  0.000000 ->  -6.7584520764
    2:   0.000000  1.000000  0.000000 /   0.000000  1.000000  0.000000 ->  -4.7455073974
    3:   0.000000  0.000000  1.000000 /   0.408248  0.408248  0.816497 ->  -6.1101825266
    4:   0.577350  0.577350  0.577350 /   0.585539  0.688047  0.428644 ->  -6.5678228825
    5:   0.000000  0.707107  0.707107 /   0.289489  0.762222  0.578977 -> -11.0528278459
    6:   0.707107  0.000000  0.707107 /   0.731423  0.422287  0.535439 ->  -6.4353087002
    7:   0.707107  0.707107  0.000000 /   0.616798  0.787122  0.000000 -> -29.3849274408

 Angular average effective mass for Frohlich model, averaged over degenerate bands.
 Value of     (<<m**0.5>>)**2 =     4.022287E+00
 Absolute Value of <<m**0.5>> =     2.005564E+00

 K-point ( 0.000, 0.000, 0.000) | band =    34
 Effective mass tensor:
              0.5614876413              0.0000000002              0.0000000004
              0.0000000002              0.5614876412              0.0000000003
              0.0000000004              0.0000000003              0.5614876418
 Effective mass tensor eigenvalues:
              0.5614876410              0.5614876411              0.5614876421
 Angular average effective mass 1/(<1/m>)=   0.5614876414
 Angular average effective mass for Frohlich model (<m**0.5>)**2=   0.5614876414
 Effective masses along directions: (cart. coord. / red. coord. -> eff. mass)
    1:   1.000000  0.000000  0.000000 /   0.948683  0.316228  0.000000 ->   0.5614876413
    2:   0.000000  1.000000  0.000000 /   0.000000  1.000000  0.000000 ->   0.5614876412
    3:   0.000000  0.000000  1.000000 /   0.408248  0.408248  0.816497 ->   0.5614876418
    4:   0.577350  0.577350  0.577350 /   0.585539  0.688047  0.428644 ->   0.5614876420
    5:   0.000000  0.707107  0.707107 /   0.289489  0.762222  0.578977 ->   0.5614876418
    6:   0.707107  0.000000  0.707107 /   0.731423  0.422287  0.535439 ->   0.5614876419
    7:   0.707107  0.707107  0.000000 /   0.616798  0.787122  0.000000 ->   0.5614876414

 END OF EFFECTIVE MASSES SECTION

 ---- first-order wavefunction calculations are completed ----

 Total localisation tensor (bohr^2) in cartesian coordinates
  WARNING : still subject to testing - especially symmetries.
      direction              matrix element
   alpha     beta       real part   imaginary part
     1        1       0.6750320810    0.0000000000
     1        2       0.1909279227    0.0000000000
     1        3       0.4676759517    0.0000000000
     2        1       0.1909279227    0.0000000000
     2        2       0.5400257155    0.0000000000
     2        3       0.3306968627    0.0000000000
     3        1       0.4676759517    0.0000000000
     3        2       0.3306968627    0.0000000000
     3        3       1.2150574059    0.0000000000

 respfn : d/dk was computed, but no 2DTE, so no DDB output.

== END DATASET(S) ==============================================================

 -outvars: echo values of variables after computation  --------
            acell      1.0000000000E+00  1.0000000000E+00  1.0000000000E+00 Bohr
              amu      3.90983000E+01  6.94100000E+00  2.69815390E+01
                       1.89984032E+01
             ecut      4.20000000E+01 Hartree
           etotal     -3.8897525230E+01
            fcart      0.0000000000E+00  0.0000000000E+00  0.0000000000E+00
                       0.0000000000E+00  0.0000000000E+00  0.0000000000E+00
                       0.0000000000E+00  0.0000000000E+00  0.0000000000E+00
                       0.0000000000E+00  0.0000000000E+00  0.0000000000E+00
                       0.0000000000E+00  0.0000000000E+00  0.0000000000E+00
                       0.0000000000E+00  0.0000000000E+00  0.0000000000E+00
                       0.0000000000E+00  0.0000000000E+00  0.0000000000E+00
                       0.0000000000E+00  0.0000000000E+00  0.0000000000E+00
                       0.0000000000E+00  0.0000000000E+00  0.0000000000E+00
                       0.0000000000E+00  0.0000000000E+00  0.0000000000E+00
-          fftalg         512
           irdden           1
           irdwfk           1
           istwfk        1
              ixc     -116133
           kptopt           0
P           mkmem           1
P          mkqmem           1
P          mk1mem           1
            natom          10
            nband          42
           nbdbuf           4
            ngfft          64      64      64
             nkpt           1
            nstep        2000
             nsym          48
           ntypat           4
              occ      2.000000  2.000000  2.000000  2.000000  2.000000  2.000000
                       2.000000  2.000000  2.000000  2.000000  2.000000  2.000000
                       2.000000  2.000000  2.000000  2.000000  2.000000  2.000000
                       2.000000  2.000000  2.000000  2.000000  2.000000  2.000000
                       2.000000  2.000000  2.000000  2.000000  2.000000  2.000000
                       2.000000  2.000000  2.000000  0.000000  0.000000  0.000000
                       0.000000  0.000000  0.000000  0.000000  0.000000  0.000000
        optdriver           1
            prtwf          -1
            rfdir           1       1       1
           rfelfd           2
            rprim      9.0543131077E+00  0.0000000000E+00  5.2275101100E+00
                       3.0181043692E+00  8.5364882632E+00  5.2275101100E+00
                       0.0000000000E+00  0.0000000000E+00  1.0455020220E+01
          spgroup         225
           strten      0.0000000000E+00  0.0000000000E+00  0.0000000000E+00
                       0.0000000000E+00  0.0000000000E+00  0.0000000000E+00
           symrel      1  0  0   0  1  0   0  0  1      -1  0  0   0 -1  0   0  0 -1
                       0 -1  1   0 -1  0   1 -1  0       0  1 -1   0  1  0  -1  1  0
                      -1  0  0  -1  0  1  -1  1  0       1  0  0   1  0 -1   1 -1  0
                       0  1 -1   1  0 -1   0  0 -1       0 -1  1  -1  0  1   0  0  1
                      -1  0  0  -1  1  0  -1  0  1       1  0  0   1 -1  0   1  0 -1
                       0 -1  1   1 -1  0   0 -1  0       0  1 -1  -1  1  0   0  1  0
                       1  0  0   0  0  1   0  1  0      -1  0  0   0  0 -1   0 -1  0
                       0  1 -1   0  0 -1   1  0 -1       0 -1  1   0  0  1  -1  0  1
                      -1  0  1  -1  1  0  -1  0  0       1  0 -1   1 -1  0   1  0  0
                       0 -1  0   1 -1  0   0 -1  1       0  1  0  -1  1  0   0  1 -1
                       1  0 -1   0  0 -1   0  1 -1      -1  0  1   0  0  1   0 -1  1
                       0  1  0   0  0  1   1  0  0       0 -1  0   0  0 -1  -1  0  0
                       1  0 -1   0  1 -1   0  0 -1      -1  0  1   0 -1  1   0  0  1
                       0 -1  0   0 -1  1   1 -1  0       0  1  0   0  1 -1  -1  1  0
                      -1  0  1  -1  0  0  -1  1  0       1  0 -1   1  0  0   1 -1  0
                       0  1  0   1  0  0   0  0  1       0 -1  0  -1  0  0   0  0 -1
                       0  0 -1   0  1 -1   1  0 -1       0  0  1   0 -1  1  -1  0  1
                       1 -1  0   0 -1  1   0 -1  0      -1  1  0   0  1 -1   0  1  0
                       0  0  1   1  0  0   0  1  0       0  0 -1  -1  0  0   0 -1  0
                      -1  1  0  -1  0  0  -1  0  1       1 -1  0   1  0  0   1  0 -1
                       0  0  1   0  1  0   1  0  0       0  0 -1   0 -1  0  -1  0  0
                       1 -1  0   0 -1  0   0 -1  1      -1  1  0   0  1  0   0  1 -1
                       0  0 -1   1  0 -1   0  1 -1       0  0  1  -1  0  1   0 -1  1
                      -1  1  0  -1  0  1  -1  0  0       1 -1  0   1  0 -1   1  0  0
           tolwfr      1.00000000E-20
            typat      1  1  2  3  4  4  4  4  4  4
           useylm           1
           xangst      4.7913361360E+00  3.3879862727E+00  8.2988376237E+00
                       1.5971120453E+00  1.1293287576E+00  2.7662792079E+00
                       3.1942240907E+00  2.2586575151E+00  5.5325584158E+00
                       0.0000000000E+00  0.0000000000E+00  0.0000000000E+00
                       4.8996139442E+00  3.4645502452E+00  5.5325584158E+00
                       2.3415291639E+00  3.4645502452E+00  7.0094693523E+00
                       1.4888342371E+00  1.0527647851E+00  5.5325584158E+00
                       4.0469190175E+00  1.0527647851E+00  7.0094693523E+00
                       2.3415291639E+00  3.4645502452E+00  4.0556474793E+00
                       4.0469190175E+00  1.0527647851E+00  4.0556474793E+00
            xcart      9.0543131077E+00  6.4023661974E+00  1.5682530330E+01
                       3.0181043692E+00  2.1341220658E+00  5.2275101100E+00
                       6.0362087385E+00  4.2682441316E+00  1.0455020220E+01
                       0.0000000000E+00  0.0000000000E+00  0.0000000000E+00
                       9.2589285115E+00  6.5470511370E+00  1.0455020220E+01
                       4.4248488519E+00  6.5470511370E+00  1.3245977413E+01
                       2.8134889654E+00  1.9894371262E+00  1.0455020220E+01
                       7.6475686250E+00  1.9894371262E+00  1.3245977413E+01
                       4.4248488519E+00  6.5470511370E+00  7.6640630273E+00
                       7.6475686250E+00  1.9894371262E+00  7.6640630273E+00
             xred      7.5000000000E-01  7.5000000000E-01  7.5000000000E-01
                       2.5000000000E-01  2.5000000000E-01  2.5000000000E-01
                       5.0000000000E-01  5.0000000000E-01  5.0000000000E-01
                       0.0000000000E+00  0.0000000000E+00  0.0000000000E+00
                       7.6694900000E-01  7.6694900000E-01  2.3305100000E-01
                       2.3305100000E-01  7.6694900000E-01  7.6694900000E-01
                       2.3305100000E-01  2.3305100000E-01  7.6694900000E-01
                       7.6694900000E-01  2.3305100000E-01  7.6694900000E-01
                       2.3305100000E-01  7.6694900000E-01  2.3305100000E-01
                       7.6694900000E-01  2.3305100000E-01  2.3305100000E-01
            znucl       19.00000    3.00000   13.00000    9.00000

- Timing analysis has been suppressed with timopt=0

 Suggested references for the acknowledgment of ABINIT usage.

 Calculation completed.
.Delivered   2 WARNINGs and   5 COMMENTs to log file.