.Version 9.5.2 of ABINIT

 ABINIT is a project of the Universite Catholique de Louvain,
 Corning Inc. and other collaborators, see ~abinit/doc/developers/contributors.txt .
 acknowledgments of the ABINIT effort.

.Starting date : Wed 26 May 2021.
- ( at 02h52 )

- input  file    -> /scratch/users/j/a/jabreu/flow_simple_11atoms/flow/w269/t1/run.abi
- output file    -> /scratch/users/j/a/jabreu/flow_simple_11atoms/flow/w269/t1/run.abo
- root for input  files -> /scratch/users/j/a/jabreu/flow_simple_11atoms/flow/w269/t1/indata/in
- root for output files -> /scratch/users/j/a/jabreu/flow_simple_11atoms/flow/w269/t1/outdata/out

 Symmetries : space group I4_1/a (# 88); Bravais tI (body-center tetrag.)
     intxc =       0      iscf =       7    lmnmax =      32     lnmax =       8
     mgfft =      72  mpssoang =       4    mqgrid =    3001     natom =      12
  nloc_mem =       1    nspden =       1   nspinor =       1    nsppol =       1
      nsym =       8    n1xccc =    2501    ntypat =       3    occopt =       1
   xclevel =       2
-    mband =          59        mffmem =           1         mkmem =           1
-   mkqmem =           1        mk1mem =           1           mpw =       11625
      nfft =      373248          nkpt =           1
  Rough estimation (10% accuracy) of disk space for files :

------------- Echo of variables that govern the present computation ------------
-
- outvars: echo of selected default values
-   iomode0 =  0 , fftalg0 =512 , wfoptalg0 =  0
-
- outvars: echo of global parameters not present in the input file
-  max_nthreads =    0
-
 -outvars: echo values of preprocessed input variables --------
            acell      1.0000000000E+00  1.0000000000E+00  1.0000000000E+00 Bohr
              amu      1.78490000E+02  7.26100000E+01  1.59994000E+01
             ecut      4.40000000E+01 Hartree
-          fftalg         512
           irdden           1
           irdwfk           1
           istwfk        1
              ixc     -116133
           kptopt           0
P           mkmem           1
P          mkqmem           1
P          mk1mem           1
            natom          12
            nband          59
           nbdbuf           4
            ngfft          72      72      72
             nkpt           1
            nstep        2000
             nsym           8
           ntypat           3
              occ      2.000000  2.000000  2.000000  2.000000  2.000000  2.000000
                       2.000000  2.000000  2.000000  2.000000  2.000000  2.000000
                       2.000000  2.000000  2.000000  2.000000  2.000000  2.000000
                       2.000000  2.000000  2.000000  2.000000  2.000000  2.000000
                       2.000000  2.000000  2.000000  2.000000  2.000000  2.000000
                       2.000000  2.000000  2.000000  2.000000  2.000000  2.000000
                       2.000000  2.000000  2.000000  2.000000  2.000000  2.000000
                       2.000000  2.000000  2.000000  2.000000  2.000000  2.000000
                       2.000000  2.000000  0.000000  0.000000  0.000000  0.000000
                       0.000000  0.000000  0.000000  0.000000  0.000000
        optdriver           1
            prtwf          -1
            rfdir           1       1       1
           rfelfd           2
            rprim      8.4368543364E+00  0.0000000000E+00 -8.2728061319E+00
                      -1.4880919987E+00  8.3045826685E+00 -8.2728061319E+00
                       0.0000000000E+00  0.0000000000E+00  1.1816083632E+01
          spgroup          88
           symrel      1  0  0   0  1  0   0  0  1      -1  0  0   0 -1  0   0  0 -1
                       0  1  0   1  0  0  -1 -1 -1       0 -1  0  -1  0  0   1  1  1
                       0  0  1  -1 -1 -1   0  1  0       0  0 -1   1  1  1   0 -1  0
                      -1 -1 -1   0  0  1   1  0  0       1  1  1   0  0 -1  -1  0  0
            tnons      0.0000000  0.0000000  0.0000000    -0.2500000  0.2500000  0.5000000
                       0.0000000  0.0000000  0.0000000    -0.2500000  0.2500000  0.5000000
                       0.0000000  0.0000000  0.0000000    -0.2500000  0.2500000  0.5000000
                       0.0000000  0.0000000  0.0000000    -0.2500000  0.2500000  0.5000000
           tolwfr      1.00000000E-20
            typat      1  1  2  2  3  3  3  3  3  3  3  3
           useylm           1
           xangst      3.1515771778E+00  1.0986489688E+00 -1.2513793797E+00
                      -2.4783458769E-16  0.0000000000E+00  2.4301563295E-16
                       5.2554947926E-01  3.2959469063E+00 -1.2513793797E+00
                       1.8385633285E+00  2.1972979375E+00 -4.3777804561E+00
                       2.8724917281E+00  1.0638075140E+00 -3.4772759084E+00
                       4.1155072171E+00  1.7505927601E+00 -5.7369285178E+00
                       7.9140503336E-01  4.1137405486E+00  3.0594245571E-01
                       1.9585719388E-01  2.6032278571E+00  2.4240703024E+00
                       2.1682556139E+00  2.8900169866E+00 -1.8004279856E+00
                       1.5727077744E+00  1.3795042952E+00  3.1769986115E-01
                       2.7131966177E+00  3.7426520837E+00 -4.2700117741E+00
                       2.7908544970E-01  3.4841454746E-02  2.2258965287E+00
            xcart      5.9556177526E+00  2.0761456671E+00 -2.3647643161E+00
                      -4.6833949698E-16  0.0000000000E+00  4.5923299229E-16
                       9.9314458507E-01  6.2284370014E+00 -2.3647643160E+00
                       3.4743811688E+00  4.1522913343E+00 -8.2728061319E+00
                       5.4282226850E+00  2.0103048596E+00 -6.5710991554E+00
                       7.7771815382E+00  3.3081408867E+00 -1.0841223743E+01
                       1.4955387732E+00  7.7738430186E+00  5.7814745372E-01
                       3.7011645758E-01  4.9193877115E+00  4.5808289985E+00
                       4.0974092963E+00  5.4613406241E+00 -3.4023158147E+00
                       2.9719869807E+00  2.6068853170E+00  6.0036573003E-01
                       5.1271985521E+00  7.0725874489E+00 -8.0691528373E+00
                       5.2739506761E-01  6.5840807542E-02  4.2063348393E+00
             xred      7.5000000000E-01  2.5000000000E-01  5.0000000000E-01
                      -5.5511151231E-17  0.0000000000E+00  0.0000000000E+00
                       2.5000000000E-01  7.5000000000E-01  5.0000000000E-01
                       5.0000000000E-01  5.0000000000E-01  0.0000000000E+00
                       6.8609075000E-01  2.4207175000E-01  9.3720500000E-02
                       9.9207175000E-01  3.9835125000E-01  5.5981000000E-02
                       3.4237025000E-01  9.3609075000E-01  9.4401900000E-01
                       1.4835125000E-01  5.9237025000E-01  9.0627950000E-01
                       6.0164875000E-01  6.5762975000E-01  5.9372050000E-01
                       4.0762975000E-01  3.1390925000E-01  5.5598100000E-01
                       7.5792825000E-01  8.5164875000E-01  4.4401900000E-01
                       6.3909250000E-02  7.9282500000E-03  4.0627950000E-01
            znucl       72.00000   32.00000    8.00000

 chkinp: Checking input parameters for consistency.

== DATASET  1 ==================================================================
-   mpi_nproc: 1, omp_nthreads: -1 (-1 if OMP is not activated)

--- !DatasetInfo
iteration_state: {dtset: 1, }
dimensions: {natom: 12, nkpt: 1, mband: 59, nsppol: 1, nspinor: 1, nspden: 1, mpw: 11625, }
cutoff_energies: {ecut:  44.0, pawecutdg:  -1.0, }
electrons: {nelect:   1.00000000E+02, charge:   0.00000000E+00, occopt:   1.00000000E+00, tsmear:   1.00000000E-02, }
meta: {optdriver: 1, rfelfd: 2, }
...

 Real(R)+Recip(G) space primitive vectors, cartesian coordinates (Bohr,Bohr^-1):
 R(1)=  8.4368543  0.0000000 -8.2728061  G(1)=  0.1185276  0.0212389  0.0000000
 R(2)= -1.4880920  8.3045827 -8.2728061  G(2)=  0.0000000  0.1204154  0.0000000
 R(3)=  0.0000000  0.0000000 11.8160836  G(3)=  0.0829848  0.0991766  0.0846304
 Unit cell volume ucvol=  8.2788863E+02 bohr^3
 Angles (23,13,12)=  1.34437513E+02  1.34437513E+02  6.64054450E+01 degrees

 getcut: wavevector=  0.0000  0.0000  0.0000  ngfft=  72  72  72
         ecut(hartree)=     44.000   => boxcut(ratio)=   2.04080

--- Pseudopotential description ------------------------------------------------
- pspini: atom type   1  psp file is /scratch/users/j/a/jabreu/pseudos/PBEsol/Hf.psp8
- pspatm: opening atomic psp file    /scratch/users/j/a/jabreu/pseudos/PBEsol/Hf.psp8
- Hf    ONCVPSP-3.3.0  r_core=   1.71613   1.71613   1.71613   2.42541
- 72.00000  12.00000    180112                znucl, zion, pspdat
    8 -116133    3    4       600   0.00000   pspcod,pspxc,lmax,lloc,mmax,r2well
    5.99000000000000    5.40000000000000    0.00000000000000   rchrg,fchrg,qchrg
     nproj     2     2     2     2
     extension_switch     1
  pspatm : epsatm=   21.99082902
         --- l  ekb(1:nproj) -->
             0    5.882750   -0.519107
             1    2.555685   -1.768609
             2    1.383259    0.138001
             3    9.464546    0.347497
 pspatm: atomic psp has been read  and splines computed

- pspini: atom type   2  psp file is /scratch/users/j/a/jabreu/pseudos/PBEsol/Ge.psp8
- pspatm: opening atomic psp file    /scratch/users/j/a/jabreu/pseudos/PBEsol/Ge.psp8
- Ge    ONCVPSP-3.3.0  r_core=   1.91022   1.82122   1.91022
- 32.00000  14.00000    180112                znucl, zion, pspdat
    8 -116133    2    4       600   0.00000   pspcod,pspxc,lmax,lloc,mmax,r2well
    5.99000000000000    5.00000000000000    0.00000000000000   rchrg,fchrg,qchrg
     nproj     2     2     2
     extension_switch     1
  pspatm : epsatm=   30.86751540
         --- l  ekb(1:nproj) -->
             0    6.339734    0.583066
             1    3.813259    0.738801
             2   -9.332373   -3.602819
 pspatm: atomic psp has been read  and splines computed

- pspini: atom type   3  psp file is /scratch/users/j/a/jabreu/pseudos/PBEsol/O.psp8
- pspatm: opening atomic psp file    /scratch/users/j/a/jabreu/pseudos/PBEsol/O.psp8
- O     ONCVPSP-3.3.0  r_core=   1.35509   1.45563   1.26150
-  8.00000   6.00000    180112                znucl, zion, pspdat
    8 -116133    2    4       600   0.00000   pspcod,pspxc,lmax,lloc,mmax,r2well
    5.99000000000000    4.00000000000000    0.00000000000000   rchrg,fchrg,qchrg
     nproj     2     2     1
     extension_switch     1
  pspatm : epsatm=    6.22910522
         --- l  ekb(1:nproj) -->
             0    6.050032    0.820363
             1   -4.739617   -1.153841
             2   -1.335834
 pspatm: atomic psp has been read  and splines computed

   1.55549531E+04                                ecore*ucvol(ha*bohr**3)

 ==>  initialize data related to q vector <==

 The list of irreducible perturbations for this q vector is:
    1)    idir= 1    ipert=  13
    2)    idir= 2    ipert=  13
    3)    idir= 3    ipert=  13

 Perturbation wavevector (in red.coord.)   0.000000  0.000000  0.000000
 Perturbation : derivative vs k along direction   1

 dfpt_looppert : COMMENT -
[...]
 ETOT  5  -142.41672824611     -3.164E-06 9.444E-04 0.000E+00
 ETOT  6  -142.41672836171     -1.156E-07 2.670E-04 0.000E+00
 ETOT  7  -142.41672836623     -4.513E-09 1.025E-04 0.000E+00
 ETOT  8  -142.41672836641     -1.848E-10 2.684E-05 0.000E+00
 ETOT  9  -142.41672836642     -8.015E-12 1.012E-05 0.000E+00
 ETOT 10  -142.41672836642     -3.979E-13 2.674E-06 0.000E+00
 ETOT 11  -142.41672836642     -5.684E-14 9.982E-07 0.000E+00
 ETOT 12  -142.41672836642      5.684E-14 2.706E-07 0.000E+00
 ETOT 13  -142.41672836642     -2.842E-14 9.957E-08 0.000E+00
 ETOT 14  -142.41672836642      2.842E-14 2.752E-08 0.000E+00
 ETOT 15  -142.41672836642     -2.842E-14 1.004E-08 0.000E+00
 ETOT 16  -142.41672836642      0.000E+00 2.796E-09 0.000E+00
 ETOT 17  -142.41672836642     -2.842E-14 1.020E-09 0.000E+00
 ETOT 18  -142.41672836642      0.000E+00 2.849E-10 0.000E+00
 ETOT 19  -142.41672836642      0.000E+00 1.043E-10 0.000E+00
 ETOT 20  -142.41672836642      0.000E+00 2.915E-11 0.000E+00
 ETOT 21  -142.41672836642      0.000E+00 1.071E-11 0.000E+00
 ETOT 22  -142.41672836642      0.000E+00 2.997E-12 0.000E+00
 ETOT 23  -142.41672836642      2.842E-14 1.103E-12 0.000E+00
 ETOT 24  -142.41672836642     -2.842E-14 3.096E-13 0.000E+00
 ETOT 25  -142.41672836642      0.000E+00 1.141E-13 0.000E+00
 ETOT 26  -142.41672836642      2.842E-14 3.214E-14 0.000E+00
 ETOT 27  -142.41672836642     -2.842E-14 1.183E-14 0.000E+00
 ETOT 28  -142.41672836642      0.000E+00 3.352E-15 0.000E+00
 ETOT 29  -142.41672836642     -2.842E-14 1.231E-15 0.000E+00
 ETOT 30  -142.41672836642      5.684E-14 3.514E-16 0.000E+00
 ETOT 31  -142.41672836642      0.000E+00 1.285E-16 0.000E+00
 ETOT 32  -142.41672836642     -2.842E-14 3.702E-17 0.000E+00
 ETOT 33  -142.41672836642      0.000E+00 1.347E-17 0.000E+00
 ETOT 34  -142.41672836642      0.000E+00 3.919E-18 0.000E+00
 ETOT 35  -142.41672836642      0.000E+00 1.418E-18 0.000E+00
 ETOT 36  -142.41672836642      0.000E+00 4.170E-19 0.000E+00
 ETOT 37  -142.41672836642      0.000E+00 1.499E-19 0.000E+00
 ETOT 38  -142.41672836642      2.842E-14 4.457E-20 0.000E+00
 ETOT 39  -142.41672836642     -2.842E-14 1.591E-20 0.000E+00
 ETOT 40  -142.41672836642      2.842E-14 9.808E-21 0.000E+00

 At SCF step   40   max residual=  9.81E-21 < tolwfr=  1.00E-20 =>converged.

 ----iterations are completed or convergence reached----

 dfpt_looppert: DFPT cycle converged with prtwf=-1. Will skip output of the 1st-order WFK file.
 dfpt_looppert : ek2=    1.8858667773E+02
          f-sum rule ratio=    1.0376803935E+00
 prteigrs : about to open file /scratch/users/j/a/jabreu/flow_simple_11atoms/flow/w269/t1/tmpdata/tmp_1WF1_EIG
 Expectation of eigenvalue derivatives (hartree) for nkpt=   1  k points:
  (in case of degenerate eigenvalues, averaged derivative)
 kpt#   1, nband= 59, wtk=  1.00000, kpt=  0.0000  0.0000  0.0000 (reduced coord)
  -0.00000   -0.00000   -0.00000   -0.00000   -0.00000    0.00000    0.00000   -0.00000
  -0.00000    0.00000   -0.00000   -0.00000   -0.00000   -0.00000   -0.00000   -0.00000
   0.00000    0.00000   -0.00000    0.00000    0.00000    0.00000   -0.00000    0.00000
   0.00000   -0.00000    0.00000   -0.00000    0.00000   -0.00000   -0.00000   -0.00000
  -0.00000    0.00000   -0.00000   -0.00000    0.00000    0.00000    0.00000    0.00000
   0.00000   -0.00000   -0.00000   -0.00000    0.00000    0.00000    0.00000   -0.00000
  -0.00000   -0.00000    0.00000   -0.00000    0.00000   -0.00000   -0.00000    0.00000
   0.00000    0.00000   -0.00005

 Eight components of 2nd-order total energy (hartree) are
 1,2,3: 0th-order hamiltonian combined with 1st-order wavefunctions
     kin0=   1.94391923E+02 eigvalue=   3.49518708E+00  local=  -7.94890991E+01
 4,5,6: 1st-order hamiltonian combined with 1st and 0th-order wfs
     kin1=  -1.95692698E+02  Hartree=   0.00000000E+00     xc=   0.00000000E+00
 7,8,9: eventually, occupation + non-local contributions
    edocc=   2.10073790E+01     enl0=   3.01133857E+00   enl1=  -8.91407588E+01
 1-9 gives the relaxation energy (to be shifted if some occ is /=2.0)
   erelax=  -1.42416728E+02
  No Ewald or frozen-wf contrib.: the relaxation energy is the total one
 2DEtotal=   -0.1424167284E+03 Ha. Also 2DEtotal=   -0.387535626366E+04 eV
    (  non-var. 2DEtotal :   -1.4241672837E+02 Ha)

 CALCULATION OF EFFECTIVE MASSES
 NOTE : Additional infos (eff. mass eigenvalues, eigenvectors and, if degenerate, average mass) are available in stdout.

 COMMENTS:
 - At k-point ( 0.000, 0.000, 0.000), bands    49 through    50
   are DEGENERATE (effective mass tensor is therefore not defined).
   See Section IIIB Eqs. (67)-(70) and Appendix E of PRB 93 205147 (2016).
 - Angular average effective mass for Frohlich model is to be averaged over degenerate bands. See later.
 - Associated theta integrals calculated with ntheta=   1000 points.

 K-point ( 0.000, 0.000, 0.000) | band =    49
 Transport equivalent effective mass tensor:
            -57.9505674727            -68.5251342411            136.5247152416
            -68.5251342411            -82.5089780984            163.1634971950
            136.5247152416            163.1634971950           -325.6890291825
 Transport equivalent effective mass tensor eigenvalues:
           -464.9221750593             -0.6132431248             -0.6131565694
 Angular average effective mass 1/(<1/m>)=  -0.8397554379
 Angular average effective mass for Frohlich model (<m**0.5>)**2=  -1.3354250301
 Effective masses along directions: (cart. coord. / red. coord. -> eff. mass)
    1:   1.000000  0.000000  0.000000 /   0.984799 -0.173699  0.000000 ->  -0.5622656536
    2:   0.000000  1.000000  0.000000 /   0.000000  1.000000  0.000000 ->  -0.5861312636
    3:   0.000000  0.000000  1.000000 /  -0.497515 -0.497515  0.710603 ->  -2.3515883276
    4:   0.577350  0.577350  0.577350 /   0.013778 -0.122311  0.992396 ->  -0.7016621192
    5:   0.000000  0.707107  0.707107 /  -0.573533  0.002203  0.819180 ->  -0.5627781090
    6:   0.707107  0.000000  0.707107 /   0.010703 -0.636837  0.770924 ->  -0.5633423409
    7:   0.707107  0.707107  0.000000 /   0.777846  0.628455  0.000000 ->  -0.9801792720

 K-point ( 0.000, 0.000, 0.000) | band =    50
 Transport equivalent effective mass tensor:
           -295.4945377034           -343.8721281319            685.1151464511
           -343.8721281319           -418.7296415703            818.7912751085
            685.1151464511            818.7912751085          -1639.0862381779
 Transport equivalent effective mass tensor eigenvalues:
          -2337.7841241284             -7.7632711575             -7.7630221656
 Angular average effective mass 1/(<1/m>)=  -3.4633453985
 Angular average effective mass for Frohlich model (<m**0.5>)**2=  -6.5159333271
 Effective masses along directions: (cart. coord. / red. coord. -> eff. mass)
    1:   1.000000  0.000000  0.000000 /   0.984799 -0.173699  0.000000 ->  -6.0536001884
    2:   0.000000  1.000000  0.000000 /   0.000000  1.000000  0.000000 ->  -8.2905352210
    3:   0.000000  0.000000  1.000000 /  -0.497515 -0.497515  0.710603 ->  -4.1151071728
    4:   0.577350  0.577350  0.577350 /   0.013778 -0.122311  0.992396 ->  -1.2682059435
    5:   0.000000  0.707107  0.707107 /  -0.573533  0.002203  0.819180 ->  -4.0345102840
    6:   0.707107  0.000000  0.707107 /   0.010703 -0.636837  0.770924 ->  -5.5176640460
    7:   0.707107  0.707107  0.000000 /   0.777846  0.628455  0.000000 ->  -1.8568107010

 Angular average effective mass for Frohlich model, averaged over degenerate bands.
 Value of     (<<m**0.5>>)**2 =     3.437758E+00
 Absolute Value of <<m**0.5>> =     1.854119E+00

 K-point ( 0.000, 0.000, 0.000) | band =    51
 Effective mass tensor:
              0.4513767298              0.0109767229             -0.0218730274
              0.0109767229              0.4553030735             -0.0261320553
             -0.0218730274             -0.0261320553              0.4942616861
 Effective mass tensor eigenvalues:
              0.4421890051              0.4421890122              0.5165634722
 Angular average effective mass 1/(<1/m>)=   0.4644808914
 Angular average effective mass for Frohlich model (<m**0.5>)**2=   0.4652088319
 Effective masses along directions: (cart. coord. / red. coord. -> eff. mass)
    1:   1.000000  0.000000  0.000000 /   0.984799 -0.173699  0.000000 ->   0.4501963073
    2:   0.000000  1.000000  0.000000 /   0.000000  1.000000  0.000000 ->   0.4537073367
    3:   0.000000  0.000000  1.000000 /  -0.497515 -0.497515  0.710603 ->   0.4917614996
    4:   0.577350  0.577350  0.577350 /   0.013778 -0.122311  0.992396 ->   0.4422796928
    5:   0.000000  0.707107  0.707107 /  -0.573533  0.002203  0.819180 ->   0.4477900888
    6:   0.707107  0.000000  0.707107 /   0.010703 -0.636837  0.770924 ->   0.4498146036
    7:   0.707107  0.707107  0.000000 /   0.777846  0.628455  0.000000 ->   0.4619784082

 END OF EFFECTIVE MASSES SECTION

 ---- first-order wavefunction calculations are completed ----

 Total localisation tensor (bohr^2) in cartesian coordinates
  WARNING : still subject to testing - especially symmetries.
      direction              matrix element
   alpha     beta       real part   imaginary part
     1        1       0.7410049046    0.0000000000
     1        2      -0.1247676866    0.0000000000
     1        3      -0.5803840378    0.0000000000
     2        1      -0.1247676866    0.0000000000
     2        2       0.6962899934    0.0000000000
     2        3      -0.6936257193    0.0000000000
     3        1      -0.5803840378    0.0000000000
     3        2      -0.6936257193    0.0000000000
     3        3       3.7237467546    0.0000000000

 respfn : d/dk was computed, but no 2DTE, so no DDB output.

== END DATASET(S) ==============================================================

 -outvars: echo values of variables after computation  --------
            acell      1.0000000000E+00  1.0000000000E+00  1.0000000000E+00 Bohr
              amu      1.78490000E+02  7.26100000E+01  1.59994000E+01
             ecut      4.40000000E+01 Hartree
           etotal     -1.4241672837E+02
            fcart      0.0000000000E+00  0.0000000000E+00  0.0000000000E+00
                       0.0000000000E+00  0.0000000000E+00  0.0000000000E+00
                       0.0000000000E+00  0.0000000000E+00  0.0000000000E+00
                       0.0000000000E+00  0.0000000000E+00  0.0000000000E+00
                       0.0000000000E+00  0.0000000000E+00  0.0000000000E+00
                       0.0000000000E+00  0.0000000000E+00  0.0000000000E+00
                       0.0000000000E+00  0.0000000000E+00  0.0000000000E+00
                       0.0000000000E+00  0.0000000000E+00  0.0000000000E+00
                       0.0000000000E+00  0.0000000000E+00  0.0000000000E+00
                       0.0000000000E+00  0.0000000000E+00  0.0000000000E+00
                       0.0000000000E+00  0.0000000000E+00  0.0000000000E+00
                       0.0000000000E+00  0.0000000000E+00  0.0000000000E+00
-          fftalg         512
           irdden           1
           irdwfk           1
           istwfk        1
              ixc     -116133
           kptopt           0
P           mkmem           1
P          mkqmem           1
P          mk1mem           1
            natom          12
            nband          59
           nbdbuf           4
            ngfft          72      72      72
             nkpt           1
            nstep        2000
             nsym           8
           ntypat           3
              occ      2.000000  2.000000  2.000000  2.000000  2.000000  2.000000
                       2.000000  2.000000  2.000000  2.000000  2.000000  2.000000
                       2.000000  2.000000  2.000000  2.000000  2.000000  2.000000
                       2.000000  2.000000  2.000000  2.000000  2.000000  2.000000
                       2.000000  2.000000  2.000000  2.000000  2.000000  2.000000
                       2.000000  2.000000  2.000000  2.000000  2.000000  2.000000
                       2.000000  2.000000  2.000000  2.000000  2.000000  2.000000
                       2.000000  2.000000  2.000000  2.000000  2.000000  2.000000
                       2.000000  2.000000  0.000000  0.000000  0.000000  0.000000
                       0.000000  0.000000  0.000000  0.000000  0.000000
        optdriver           1
            prtwf          -1
            rfdir           1       1       1
           rfelfd           2
            rprim      8.4368543364E+00  0.0000000000E+00 -8.2728061319E+00
                      -1.4880919987E+00  8.3045826685E+00 -8.2728061319E+00
                       0.0000000000E+00  0.0000000000E+00  1.1816083632E+01
          spgroup          88
           strten      0.0000000000E+00  0.0000000000E+00  0.0000000000E+00
                       0.0000000000E+00  0.0000000000E+00  0.0000000000E+00
           symrel      1  0  0   0  1  0   0  0  1      -1  0  0   0 -1  0   0  0 -1
                       0  1  0   1  0  0  -1 -1 -1       0 -1  0  -1  0  0   1  1  1
                       0  0  1  -1 -1 -1   0  1  0       0  0 -1   1  1  1   0 -1  0
                      -1 -1 -1   0  0  1   1  0  0       1  1  1   0  0 -1  -1  0  0
            tnons      0.0000000  0.0000000  0.0000000    -0.2500000  0.2500000  0.5000000
                       0.0000000  0.0000000  0.0000000    -0.2500000  0.2500000  0.5000000
                       0.0000000  0.0000000  0.0000000    -0.2500000  0.2500000  0.5000000
                       0.0000000  0.0000000  0.0000000    -0.2500000  0.2500000  0.5000000
           tolwfr      1.00000000E-20
            typat      1  1  2  2  3  3  3  3  3  3  3  3
           useylm           1
           xangst      3.1515771778E+00  1.0986489688E+00 -1.2513793797E+00
                      -2.4783458769E-16  0.0000000000E+00  2.4301563295E-16
                       5.2554947926E-01  3.2959469063E+00 -1.2513793797E+00
                       1.8385633285E+00  2.1972979375E+00 -4.3777804561E+00
                       2.8724917281E+00  1.0638075140E+00 -3.4772759084E+00
                       4.1155072171E+00  1.7505927601E+00 -5.7369285178E+00
                       7.9140503336E-01  4.1137405486E+00  3.0594245571E-01
                       1.9585719388E-01  2.6032278571E+00  2.4240703024E+00
                       2.1682556139E+00  2.8900169866E+00 -1.8004279856E+00
                       1.5727077744E+00  1.3795042952E+00  3.1769986115E-01
                       2.7131966177E+00  3.7426520837E+00 -4.2700117741E+00
                       2.7908544970E-01  3.4841454746E-02  2.2258965287E+00
            xcart      5.9556177526E+00  2.0761456671E+00 -2.3647643161E+00
                      -4.6833949698E-16  0.0000000000E+00  4.5923299229E-16
                       9.9314458507E-01  6.2284370014E+00 -2.3647643160E+00
                       3.4743811688E+00  4.1522913343E+00 -8.2728061319E+00
                       5.4282226850E+00  2.0103048596E+00 -6.5710991554E+00
                       7.7771815382E+00  3.3081408867E+00 -1.0841223743E+01
                       1.4955387732E+00  7.7738430186E+00  5.7814745372E-01
                       3.7011645758E-01  4.9193877115E+00  4.5808289985E+00
                       4.0974092963E+00  5.4613406241E+00 -3.4023158147E+00
                       2.9719869807E+00  2.6068853170E+00  6.0036573003E-01
                       5.1271985521E+00  7.0725874489E+00 -8.0691528373E+00
                       5.2739506761E-01  6.5840807542E-02  4.2063348393E+00
             xred      7.5000000000E-01  2.5000000000E-01  5.0000000000E-01
                      -5.5511151231E-17  0.0000000000E+00  0.0000000000E+00
                       2.5000000000E-01  7.5000000000E-01  5.0000000000E-01
                       5.0000000000E-01  5.0000000000E-01  0.0000000000E+00
                       6.8609075000E-01  2.4207175000E-01  9.3720500000E-02
                       9.9207175000E-01  3.9835125000E-01  5.5981000000E-02
                       3.4237025000E-01  9.3609075000E-01  9.4401900000E-01
                       1.4835125000E-01  5.9237025000E-01  9.0627950000E-01
                       6.0164875000E-01  6.5762975000E-01  5.9372050000E-01
                       4.0762975000E-01  3.1390925000E-01  5.5598100000E-01
                       7.5792825000E-01  8.5164875000E-01  4.4401900000E-01
                       6.3909250000E-02  7.9282500000E-03  4.0627950000E-01
            znucl       72.00000   32.00000    8.00000

- Timing analysis has been suppressed with timopt=0

 Suggested references for the acknowledgment of ABINIT usage.

 Calculation completed.
.Delivered   2 WARNINGs and   5 COMMENTs to log file.