.Version 9.5.1 of ABINIT

 ABINIT is a project of the Universite Catholique de Louvain,
 Corning Inc. and other collaborators, see ~abinit/doc/developers/contributors.txt .
 acknowledgments of the ABINIT effort.

.Starting date : Tue 11 May 2021.
- ( at 21h35 )

- input  file    -> /scratch/users/j/a/jabreu/flow_simple_8atoms/flow/w327/t1/run.abi
- output file    -> /scratch/users/j/a/jabreu/flow_simple_8atoms/flow/w327/t1/run.abo
- root for input  files -> /scratch/users/j/a/jabreu/flow_simple_8atoms/flow/w327/t1/indata/in
- root for output files -> /scratch/users/j/a/jabreu/flow_simple_8atoms/flow/w327/t1/outdata/out

 Symmetries : space group R-3 (#148); Bravais hR (rhombohedral)
     intxc =       0      iscf =       7    lmnmax =      32     lnmax =       8
     mgfft =      60  mpssoang =       4    mqgrid =    3001     natom =       8
  nloc_mem =       1    nspden =       1   nspinor =       1    nsppol =       1
      nsym =       6    n1xccc =    2501    ntypat =       3    occopt =       1
   xclevel =       2
-    mband =          42        mffmem =           1         mkmem =           1
-   mkqmem =           1        mk1mem =           1           mpw =       13125
      nfft =      216000          nkpt =           1
  Rough estimation (10% accuracy) of disk space for files :

------------- Echo of variables that govern the present computation ------------
-
- outvars: echo of selected default values
-   iomode0 =  0 , fftalg0 =512 , wfoptalg0 =  0
-
- outvars: echo of global parameters not present in the input file
-  max_nthreads =    0
-
 -outvars: echo values of preprocessed input variables --------
            acell      1.0000000000E+00  1.0000000000E+00  1.0000000000E+00 Bohr
              amu      1.32905430E+02  1.21753000E+02  1.89984032E+01
             ecut      4.20000000E+01 Hartree
-          fftalg         512
           irdden           1
           irdwfk           1
           istwfk        1
              ixc     -116133
           kptopt           0
P           mkmem           1
P          mkqmem           1
P          mk1mem           1
            natom           8
            nband          42
           nbdbuf           4
            ngfft          60      60      60
             nkpt           1
            nstep        2000
             nsym           6
           ntypat           3
              occ      2.000000  2.000000  2.000000  2.000000  2.000000  2.000000
                       2.000000  2.000000  2.000000  2.000000  2.000000  2.000000
                       2.000000  2.000000  2.000000  2.000000  2.000000  2.000000
                       2.000000  2.000000  2.000000  2.000000  2.000000  2.000000
                       2.000000  2.000000  2.000000  2.000000  2.000000  2.000000
                       2.000000  2.000000  2.000000  0.000000  0.000000  0.000000
                       0.000000  0.000000  0.000000  0.000000  0.000000  0.000000
        optdriver           1
            prtwf          -1
            rfdir           1       1       1
           rfelfd           2
            rprim      1.0037759951E+01  0.0000000000E+00 -1.1624647942E+00
                      -1.3048582841E+00  9.9525860809E+00 -1.1624647942E+00
                       0.0000000000E+00  0.0000000000E+00  1.0104847809E+01
          spgroup         148
           symrel      1  0  0   0  1  0   0  0  1      -1  0  0   0 -1  0   0  0 -1
                       0  0  1   1  0  0   0  1  0       0  0 -1  -1  0  0   0 -1  0
                       0  1  0   0  0  1   1  0  0       0 -1  0   0  0 -1  -1  0  0
           tolwfr      1.00000000E-20
            typat      1  2  3  3  3  3  3  3
           useylm           1
           xangst      2.3106262636E+00  2.6333408603E+00  2.0584777034E+00
                       0.0000000000E+00  0.0000000000E+00  0.0000000000E+00
                      -1.2548583125E-01  4.1858848979E+00  3.2596362244E+00
                       3.7313197655E+00  3.7403499578E+00 -4.9964226079E-01
                       9.0392159795E-01  4.8469587875E+00  3.5292952887E-01
                       8.8993276164E-01  1.5263317627E+00  4.6165976677E+00
                       4.7467383584E+00  1.0807968226E+00  8.5731918252E-01
                       3.7173309292E+00  4.1972293304E-01  3.7640258780E+00
            xcart      4.3664508336E+00  4.9762930404E+00  3.8899591102E+00
                       0.0000000000E+00  0.0000000000E+00  0.0000000000E+00
                      -2.3713385463E-01  7.9101760809E+00  6.1598197569E+00
                       7.0511724710E+00  7.0682370614E+00 -9.4418703731E-01
                       1.7081642657E+00  9.1594246858E+00  6.6694015378E-01
                       1.6817291962E+00  2.8843490195E+00  8.7241052576E+00
                       8.9700355218E+00  2.0424100000E+00  1.6200984634E+00
                       7.0247374015E+00  7.9316139513E-01  7.1129780665E+00
             xred      5.0000000000E-01  5.0000000000E-01  5.0000000000E-01
                       0.0000000000E+00  0.0000000000E+00  0.0000000000E+00
                       7.9694000000E-02  7.9478600000E-01  7.1019100000E-01
                       7.9478600000E-01  7.1019100000E-01  7.9694000000E-02
                       2.8980900000E-01  9.2030600000E-01  2.0521400000E-01
                       2.0521400000E-01  2.8980900000E-01  9.2030600000E-01
                       9.2030600000E-01  2.0521400000E-01  2.8980900000E-01
                       7.1019100000E-01  7.9694000000E-02  7.9478600000E-01
            znucl       55.00000   51.00000    9.00000

 chkinp: Checking input parameters for consistency.

== DATASET  1 ==================================================================
-   mpi_nproc: 1, omp_nthreads: -1 (-1 if OMP is not activated)

--- !DatasetInfo
iteration_state: {dtset: 1, }
dimensions: {natom: 8, nkpt: 1, mband: 42, nsppol: 1, nspinor: 1, nspden: 1, mpw: 13125, }
cutoff_energies: {ecut:  42.0, pawecutdg:  -1.0, }
electrons: {nelect:   6.60000000E+01, charge:   0.00000000E+00, occopt:   1.00000000E+00, tsmear:   1.00000000E-02, }
meta: {optdriver: 1, rfelfd: 2, }
...

 Real(R)+Recip(G) space primitive vectors, cartesian coordinates (Bohr,Bohr^-1):
 R(1)= 10.0377600  0.0000000 -1.1624648  G(1)=  0.0996238  0.0130614  0.0000000
 R(2)= -1.3048583  9.9525861 -1.1624648  G(2)=  0.0000000  0.1004764  0.0000000
 R(3)=  0.0000000  0.0000000 10.1048478  G(3)=  0.0114608  0.0130614  0.0989624
 Unit cell volume ucvol=  1.0094912E+03 bohr^3
 Angles (23,13,12)=  9.66059499E+01  9.66059499E+01  9.66059499E+01 degrees

 getcut: wavevector=  0.0000  0.0000  0.0000  ngfft=  60  60  60
         ecut(hartree)=     42.000   => boxcut(ratio)=   2.03583

--- Pseudopotential description ------------------------------------------------
- pspini: atom type   1  psp file is /scratch/users/j/a/jabreu/pseudos/PBEsol/Cs.psp8
- pspatm: opening atomic psp file    /scratch/users/j/a/jabreu/pseudos/PBEsol/Cs.psp8
- Cs    ONCVPSP-3.3.0  r_core=   2.27353   1.85623   2.01788   1.90105
- 55.00000   9.00000    180112                znucl, zion, pspdat
    8 -116133    3    4       600   0.00000   pspcod,pspxc,lmax,lloc,mmax,r2well
    5.99000000000000    5.00000000000000    0.00000000000000   rchrg,fchrg,qchrg
     nproj     2     2     2     2
     extension_switch     1
  pspatm : epsatm=   22.12462445
         --- l  ekb(1:nproj) -->
             0    6.214110    0.767882
             1    6.311966    0.793598
             2    3.769790    0.913105
             3   -9.247129   -2.432478
 pspatm: atomic psp has been read  and splines computed

- pspini: atom type   2  psp file is /scratch/users/j/a/jabreu/pseudos/PBEsol/Sb.psp8
- pspatm: opening atomic psp file    /scratch/users/j/a/jabreu/pseudos/PBEsol/Sb.psp8
- Sb    ONCVPSP-3.3.0  r_core=   1.81962   2.12485   1.81962
- 51.00000  15.00000    180112                znucl, zion, pspdat
    8 -116133    2    4       600   0.00000   pspcod,pspxc,lmax,lloc,mmax,r2well
    5.99000000000000    5.00000000000000    0.00000000000000   rchrg,fchrg,qchrg
     nproj     2     2     2
     extension_switch     1
  pspatm : epsatm=   26.35641246
         --- l  ekb(1:nproj) -->
             0    9.727814    1.485032
             1    5.505335    0.704623
             2   -4.710637   -1.436443
 pspatm: atomic psp has been read  and splines computed

- pspini: atom type   3  psp file is /scratch/users/j/a/jabreu/pseudos/PBEsol/F.psp8
- pspatm: opening atomic psp file    /scratch/users/j/a/jabreu/pseudos/PBEsol/F.psp8
- F     ONCVPSP-3.3.0  r_core=   1.30942   1.45782   1.60379
-  9.00000   7.00000    180112                znucl, zion, pspdat
    8 -116133    2    4       600   0.00000   pspcod,pspxc,lmax,lloc,mmax,r2well
    5.99000000000000    2.50000000000000    0.00000000000000   rchrg,fchrg,qchrg
     nproj     2     2     1
     extension_switch     1
  pspatm : epsatm=    4.89824824
         --- l  ekb(1:nproj) -->
             0    6.506434    1.065875
             1   -3.978753   -1.295852
             2   -2.394754
 pspatm: atomic psp has been read  and splines computed

   5.13945474E+03                                ecore*ucvol(ha*bohr**3)

-inwffil : will read wavefunctions from disk file /scratch/users/j/a/jabreu/flow_simple_8atoms/flow/w327/t1/indata/in_WFK

 ==>  initialize data related to q vector <==

 The list of irreducible perturbations for this q vector is:
    1)    idir= 1    ipert=   9
    2)    idir= 2    ipert=   9
    3)    idir= 3    ipert=   9

 Perturbation wavevector (in red.coord.)   0.000000  0.000000  0.000000
 Perturbation : derivative vs k along direction   1

 dfpt_looppert : COMMENT -
  In a d/dk calculation, iscf is set to -3 automatically.
 The set of symmetries contains only one element for this perturbation.
 symkpt : not enough symmetry to change the number of k points.

[...]

 Initialisation of the first-order wave-functions :
  ireadwf=   0

--- !BeginCycle
iteration_state: {dtset: 1, }
solver: {iscf: 7, nstep: 2000, nline: 4, wfoptalg: 0, }
tolerances: {tolwfr: 1.00E-20, }
...

     iter   2DEtotal(Ha)        deltaE(Ha) residm    vres2
-ETOT  1  -35.100714772060     -3.510E+01 6.720E-02 0.000E+00
 ETOT  2  -35.126107300245     -2.539E-02 5.349E-03 0.000E+00
 ETOT  3  -35.126265026140     -1.577E-04 1.051E-03 0.000E+00
 ETOT  4  -35.126269528655     -4.503E-06 2.993E-04 0.000E+00
 ETOT  5  -35.126269726314     -1.977E-07 1.061E-04 0.000E+00
 ETOT  6  -35.126269737110     -1.080E-08 3.072E-05 0.000E+00
 ETOT  7  -35.126269737743     -6.334E-10 1.213E-05 0.000E+00
 ETOT  8  -35.126269737783     -4.032E-11 3.507E-06 0.000E+00
 ETOT  9  -35.126269737786     -2.743E-12 1.424E-06 0.000E+00
 ETOT 10  -35.126269737786     -1.990E-13 4.071E-07 0.000E+00
 ETOT 11  -35.126269737786     -2.842E-14 1.663E-07 0.000E+00
 ETOT 12  -35.126269737786      0.000E+00 4.744E-08 0.000E+00
 ETOT 13  -35.126269737786     -7.105E-15 1.939E-08 0.000E+00
 ETOT 14  -35.126269737786      1.421E-14 5.547E-09 0.000E+00
 ETOT 15  -35.126269737786     -1.421E-14 2.264E-09 0.000E+00
 ETOT 16  -35.126269737786     -7.105E-15 6.503E-10 0.000E+00
 ETOT 17  -35.126269737786      0.000E+00 2.649E-10 0.000E+00
[...]
 ETOT 26  -35.126269737786     -1.421E-14 1.467E-14 0.000E+00
 ETOT 27  -35.126269737786      0.000E+00 5.908E-15 0.000E+00
 ETOT 28  -35.126269737786      1.421E-14 1.728E-15 0.000E+00
 ETOT 29  -35.126269737786     -1.421E-14 6.946E-16 0.000E+00
 ETOT 30  -35.126269737786      7.105E-15 2.036E-16 0.000E+00
 ETOT 31  -35.126269737786      7.105E-15 8.166E-17 0.000E+00
 ETOT 32  -35.126269737786      0.000E+00 2.398E-17 0.000E+00
 ETOT 33  -35.126269737786     -7.105E-15 9.603E-18 0.000E+00
 ETOT 34  -35.126269737786      7.105E-15 2.824E-18 0.000E+00
 ETOT 35  -35.126269737786      0.000E+00 1.129E-18 0.000E+00
 ETOT 36  -35.126269737786      0.000E+00 3.326E-19 0.000E+00
 ETOT 37  -35.126269737786     -7.105E-15 1.329E-19 0.000E+00
 ETOT 38  -35.126269737786     -1.421E-14 3.918E-20 0.000E+00
 ETOT 39  -35.126269737786      7.105E-15 1.564E-20 0.000E+00
 ETOT 40  -35.126269737786      7.105E-15 9.684E-21 0.000E+00

 At SCF step   40   max residual=  9.68E-21 < tolwfr=  1.00E-20 =>converged.

 ----iterations are completed or convergence reached----

 dfpt_looppert: DFPT cycle converged with prtwf=-1. Will skip output of the 1st-order WFK file.
 dfpt_looppert : ek2=    5.2609210309E+01
          f-sum rule ratio=    1.0099490663E+00
 prteigrs : about to open file /scratch/users/j/a/jabreu/flow_simple_8atoms/flow/w327/t1/tmpdata/tmp_1WF1_EIG
 Expectation of eigenvalue derivatives (hartree) for nkpt=   1  k points:
  (in case of degenerate eigenvalues, averaged derivative)
 kpt#   1, nband= 42, wtk=  1.00000, kpt=  0.0000  0.0000  0.0000 (reduced coord)
  -0.00000   -0.00000   -0.00000   -0.00000   -0.00000   -0.00000    0.00000   -0.00000
  -0.00000   -0.00000   -0.00000    0.00000    0.00000    0.00000    0.00000    0.00000
  -0.00000    0.00000    0.00000    0.00000    0.00000    0.00000   -0.00000   -0.00000
  -0.00000   -0.00000   -0.00000   -0.00000   -0.00000   -0.00000   -0.00000   -0.00000
  -0.00000   -0.00000   -0.00000   -0.00000   -0.00000   -0.00000   -0.00000    0.00000
   0.00004    0.00000

 Eight components of 2nd-order total energy (hartree) are
 1,2,3: 0th-order hamiltonian combined with 1st-order wavefunctions
     kin0=   4.32901820E+01 eigvalue=   4.86218564E+00  local=  -2.12348280E+01
 4,5,6: 1st-order hamiltonian combined with 1st and 0th-order wfs
     kin1=  -5.31326228E+01  Hartree=   0.00000000E+00     xc=   0.00000000E+00
 7,8,9: eventually, occupation + non-local contributions
    edocc=   5.25131152E+00     enl0=   2.95741863E+00   enl1=  -1.71199166E+01
 1-9 gives the relaxation energy (to be shifted if some occ is /=2.0)
   erelax=  -3.51262697E+01
  No Ewald or frozen-wf contrib.: the relaxation energy is the total one
 2DEtotal=   -0.3512626974E+02 Ha. Also 2DEtotal=   -0.955834409405E+03 eV
    (  non-var. 2DEtotal :   -3.5126269738E+01 Ha)

 Perturbation wavevector (in red.coord.)   0.000000  0.000000  0.000000
 Perturbation : derivative vs k along direction   2
 The set of symmetries contains only one element for this perturbation.
 symkpt : not enough symmetry to change the number of k points.

[...]

 Perturbation wavevector (in red.coord.)   0.000000  0.000000  0.000000
 Perturbation : derivative vs k along direction   3
 The set of symmetries contains only one element for this perturbation.
 symkpt : not enough symmetry to change the number of k points.

-inwffil : will read wavefunctions from disk file /scratch/users/j/a/jabreu/flow_simple_8atoms/flow/w327/t1/indata/in_WFK

 Initialisation of the first-order wave-functions :
  ireadwf=   0

--- !BeginCycle
iteration_state: {dtset: 1, }
solver: {iscf: 7, nstep: 2000, nline: 4, wfoptalg: 0, }
tolerances: {tolwfr: 1.00E-20, }
...

     iter   2DEtotal(Ha)        deltaE(Ha) residm    vres2
-ETOT  1  -35.100800943221     -3.510E+01 6.060E-02 0.000E+00
 ETOT  2  -35.125840785826     -2.504E-02 2.175E-02 0.000E+00
 ETOT  3  -35.126006988648     -1.662E-04 3.344E-03 0.000E+00
 ETOT  4  -35.126011865214     -4.877E-06 1.721E-03 0.000E+00
 ETOT  5  -35.126012078134     -2.129E-07 3.387E-04 0.000E+00
 ETOT  6  -35.126012089192     -1.106E-08 1.925E-04 0.000E+00
 ETOT  7  -35.126012089797     -6.050E-10 3.558E-05 0.000E+00
 ETOT  8  -35.126012089832     -3.519E-11 2.181E-05 0.000E+00
 ETOT  9  -35.126012089834     -2.153E-12 3.860E-06 0.000E+00
 ETOT 10  -35.126012089834     -1.421E-13 2.480E-06 0.000E+00
 ETOT 11  -35.126012089834     -2.842E-14 4.268E-07 0.000E+00
 ETOT 12  -35.126012089834      3.553E-14 2.823E-07 0.000E+00
 ETOT 13  -35.126012089834     -1.421E-14 4.771E-08 0.000E+00
 ETOT 14  -35.126012089834      2.842E-14 3.217E-08 0.000E+00
 ETOT 15  -35.126012089834     -7.105E-15 5.371E-09 0.000E+00
 ETOT 16  -35.126012089834      7.105E-15 3.668E-09 0.000E+00
 ETOT 17  -35.126012089834      0.000E+00 6.074E-10 0.000E+00
 ETOT 18  -35.126012089834      0.000E+00 4.185E-10 0.000E+00
 ETOT 19  -35.126012089834     -1.421E-14 6.892E-11 0.000E+00
 ETOT 20  -35.126012089834      1.421E-14 4.778E-11 0.000E+00
 ETOT 21  -35.126012089834      0.000E+00 7.839E-12 0.000E+00
 ETOT 22  -35.126012089834      0.000E+00 5.457E-12 0.000E+00
 ETOT 23  -35.126012089834      0.000E+00 8.931E-13 0.000E+00
 ETOT 24  -35.126012089834      0.000E+00 6.236E-13 0.000E+00
 ETOT 25  -35.126012089834      0.000E+00 1.019E-13 0.000E+00
 ETOT 26  -35.126012089834      0.000E+00 7.129E-14 0.000E+00
 ETOT 27  -35.126012089834      0.000E+00 1.164E-14 0.000E+00
 ETOT 28  -35.126012089834      0.000E+00 8.152E-15 0.000E+00
 ETOT 29  -35.126012089834     -7.105E-15 1.330E-15 0.000E+00
 ETOT 30  -35.126012089834      0.000E+00 9.325E-16 0.000E+00
 ETOT 31  -35.126012089834      0.000E+00 1.521E-16 0.000E+00
 ETOT 32  -35.126012089834     -7.105E-15 1.067E-16 0.000E+00
 ETOT 33  -35.126012089834      7.105E-15 1.741E-17 0.000E+00
 ETOT 34  -35.126012089834      0.000E+00 1.221E-17 0.000E+00
 ETOT 35  -35.126012089834      7.105E-15 1.993E-18 0.000E+00
 ETOT 36  -35.126012089834     -1.421E-14 1.398E-18 0.000E+00
 ETOT 37  -35.126012089834      0.000E+00 2.283E-19 0.000E+00
 ETOT 38  -35.126012089834      0.000E+00 1.601E-19 0.000E+00
 ETOT 39  -35.126012089834      0.000E+00 2.616E-20 0.000E+00
 ETOT 40  -35.126012089834      1.421E-14 1.833E-20 0.000E+00
 ETOT 41  -35.126012089834     -1.421E-14 9.889E-21 0.000E+00

 At SCF step   41   max residual=  9.89E-21 < tolwfr=  1.00E-20 =>converged.

 ----iterations are completed or convergence reached----

 dfpt_looppert: DFPT cycle converged with prtwf=-1. Will skip output of the 1st-order WFK file.
 dfpt_looppert : ek2=    5.2609210309E+01
          f-sum rule ratio=    1.0099422664E+00
 prteigrs : about to open file /scratch/users/j/a/jabreu/flow_simple_8atoms/flow/w327/t1/tmpdata/tmp_1WF1_EIG
 Expectation of eigenvalue derivatives (hartree) for nkpt=   1  k points:
  (in case of degenerate eigenvalues, averaged derivative)
 kpt#   1, nband= 42, wtk=  1.00000, kpt=  0.0000  0.0000  0.0000 (reduced coord)
   0.00000    0.00000   -0.00000    0.00000    0.00000   -0.00000    0.00000   -0.00000
  -0.00000   -0.00000   -0.00000   -0.00000   -0.00000   -0.00000   -0.00000    0.00000
  -0.00000   -0.00000   -0.00000    0.00000    0.00000    0.00000    0.00000    0.00000
   0.00000    0.00000   -0.00000   -0.00000   -0.00000   -0.00000   -0.00000   -0.00000
  -0.00000    0.00000    0.00000    0.00000    0.00000    0.00000    0.00000    0.00000
  -0.00007    0.00000

 Eight components of 2nd-order total energy (hartree) are
 1,2,3: 0th-order hamiltonian combined with 1st-order wavefunctions
     kin0=   4.27674840E+01 eigvalue=   4.77342047E+00  local=  -2.08368450E+01
 4,5,6: 1st-order hamiltonian combined with 1st and 0th-order wfs
     kin1=  -5.31322651E+01  Hartree=   0.00000000E+00     xc=   0.00000000E+00
 7,8,9: eventually, occupation + non-local contributions
    edocc=   5.55212480E+00     enl0=   2.86982790E+00   enl1=  -1.71197591E+01
 1-9 gives the relaxation energy (to be shifted if some occ is /=2.0)
   erelax=  -3.51260121E+01
  No Ewald or frozen-wf contrib.: the relaxation energy is the total one
 2DEtotal=   -0.3512601209E+02 Ha. Also 2DEtotal=   -0.955827398447E+03 eV
    (  non-var. 2DEtotal :   -3.5126012090E+01 Ha)

 CALCULATION OF EFFECTIVE MASSES
 NOTE : Additional infos (eff. mass eigenvalues, eigenvectors and, if degenerate, average mass) are available in stdout.

 K-point ( 0.000, 0.000, 0.000) | band =    33
 Effective mass tensor:
            -24.7083618236              4.7830004433              3.7388874327
              4.7830004433            -23.4540986759              4.2610441482
              3.7388874327              4.2610441482            -25.5743467788
 Effective mass tensor eigenvalues:
            -28.9052308890            -28.9051390004            -15.9264373888
 Angular average effective mass 1/(<1/m>)= -22.7306444776
 Angular average effective mass for Frohlich model (<m**0.5>)**2= -23.3232603163
 Effective masses along directions: (cart. coord. / red. coord. -> eff. mass)
    1:   1.000000  0.000000  0.000000 /   0.991656 -0.128910  0.000000 -> -22.8768329295
    2:   0.000000  1.000000  0.000000 /   0.000000  1.000000  0.000000 -> -21.5346210983
    3:   0.000000  0.000000  1.000000 /  -0.113547 -0.113547  0.987023 -> -23.9055878650
    4:   0.577350  0.577350  0.577350 /   0.576624  0.486315  0.656508 -> -15.9986919188
    5:   0.000000  0.707107  0.707107 /  -0.086471  0.653861  0.751658 -> -18.7300921487
    6:   0.707107  0.000000  0.707107 /   0.649084 -0.180445  0.739006 -> -19.6488853362
    7:   0.707107  0.707107  0.000000 /   0.757616  0.652701  0.000000 -> -18.0295886162

 K-point ( 0.000, 0.000, 0.000) | band =    34
 Effective mass tensor:
              0.8957729627              0.0499814185              0.0390703454
              0.0499814185              0.9088788372              0.0445271199
              0.0390703454              0.0445271199              0.8867237572
 Effective mass tensor eigenvalues:
              0.8519167422              0.8519169510              0.9875418638
 Angular average effective mass 1/(<1/m>)=   0.8927874563
 Angular average effective mass for Frohlich model (<m**0.5>)**2=   0.8940527186
 Effective masses along directions: (cart. coord. / red. coord. -> eff. mass)
    1:   1.000000  0.000000  0.000000 /   0.991656 -0.128910  0.000000 ->   0.8915081591
    2:   0.000000  1.000000  0.000000 /   0.000000  1.000000  0.000000 ->   0.9040637676
    3:   0.000000  0.000000  1.000000 /  -0.113547 -0.113547  0.987023 ->   0.8830405125
    4:   0.577350  0.577350  0.577350 /   0.576624  0.486315  0.656508 ->   0.9859631401
    5:   0.000000  0.707107  0.707107 /  -0.086471  0.653861  0.751658 ->   0.9377718656
    6:   0.707107  0.000000  0.707107 /   0.649084 -0.180445  0.739006 ->   0.9253839273
    7:   0.707107  0.707107  0.000000 /   0.757616  0.652701  0.000000 ->   0.9483201651

 END OF EFFECTIVE MASSES SECTION

 ---- first-order wavefunction calculations are completed ----

 Total localisation tensor (bohr^2) in cartesian coordinates
  WARNING : still subject to testing - especially symmetries.
      direction              matrix element
   alpha     beta       real part   imaginary part
     1        1       0.5688652797    0.0000000000
     1        2      -0.0721073809    0.0000000000
     1        3      -0.0563628235    0.0000000000
     2        1      -0.0721073809    0.0000000000
     2        2       0.5499868642    0.0000000000
     2        3      -0.0642386171    0.0000000000
     3        1      -0.0563628235    0.0000000000
     3        2      -0.0642386171    0.0000000000
     3        3       0.5819012332    0.0000000000

 respfn : d/dk was computed, but no 2DTE, so no DDB output.

== END DATASET(S) ==============================================================

 -outvars: echo values of variables after computation  --------
            acell      1.0000000000E+00  1.0000000000E+00  1.0000000000E+00 Bohr
              amu      1.32905430E+02  1.21753000E+02  1.89984032E+01
             ecut      4.20000000E+01 Hartree
           etotal     -3.5126012090E+01
            fcart      0.0000000000E+00  0.0000000000E+00  0.0000000000E+00
                       0.0000000000E+00  0.0000000000E+00  0.0000000000E+00
                       0.0000000000E+00  0.0000000000E+00  0.0000000000E+00
                       0.0000000000E+00  0.0000000000E+00  0.0000000000E+00
                       0.0000000000E+00  0.0000000000E+00  0.0000000000E+00
                       0.0000000000E+00  0.0000000000E+00  0.0000000000E+00
                       0.0000000000E+00  0.0000000000E+00  0.0000000000E+00
                       0.0000000000E+00  0.0000000000E+00  0.0000000000E+00
-          fftalg         512
           irdden           1
           irdwfk           1
           istwfk        1
              ixc     -116133
           kptopt           0
P           mkmem           1
P          mkqmem           1
P          mk1mem           1
            natom           8
            nband          42
           nbdbuf           4
            ngfft          60      60      60
             nkpt           1
            nstep        2000
             nsym           6
           ntypat           3
              occ      2.000000  2.000000  2.000000  2.000000  2.000000  2.000000
                       2.000000  2.000000  2.000000  2.000000  2.000000  2.000000
                       2.000000  2.000000  2.000000  2.000000  2.000000  2.000000
                       2.000000  2.000000  2.000000  2.000000  2.000000  2.000000
                       2.000000  2.000000  2.000000  2.000000  2.000000  2.000000
                       2.000000  2.000000  2.000000  0.000000  0.000000  0.000000
                       0.000000  0.000000  0.000000  0.000000  0.000000  0.000000
        optdriver           1
            prtwf          -1
            rfdir           1       1       1
           rfelfd           2
            rprim      1.0037759951E+01  0.0000000000E+00 -1.1624647942E+00
                      -1.3048582841E+00  9.9525860809E+00 -1.1624647942E+00
                       0.0000000000E+00  0.0000000000E+00  1.0104847809E+01
          spgroup         148
           strten      0.0000000000E+00  0.0000000000E+00  0.0000000000E+00
                       0.0000000000E+00  0.0000000000E+00  0.0000000000E+00
           symrel      1  0  0   0  1  0   0  0  1      -1  0  0   0 -1  0   0  0 -1
                       0  0  1   1  0  0   0  1  0       0  0 -1  -1  0  0   0 -1  0
                       0  1  0   0  0  1   1  0  0       0 -1  0   0  0 -1  -1  0  0
           tolwfr      1.00000000E-20
            typat      1  2  3  3  3  3  3  3
           useylm           1
           xangst      2.3106262636E+00  2.6333408603E+00  2.0584777034E+00
                       0.0000000000E+00  0.0000000000E+00  0.0000000000E+00
                      -1.2548583125E-01  4.1858848979E+00  3.2596362244E+00
                       3.7313197655E+00  3.7403499578E+00 -4.9964226079E-01
                       9.0392159795E-01  4.8469587875E+00  3.5292952887E-01
                       8.8993276164E-01  1.5263317627E+00  4.6165976677E+00
                       4.7467383584E+00  1.0807968226E+00  8.5731918252E-01
                       3.7173309292E+00  4.1972293304E-01  3.7640258780E+00
            xcart      4.3664508336E+00  4.9762930404E+00  3.8899591102E+00
                       0.0000000000E+00  0.0000000000E+00  0.0000000000E+00
                      -2.3713385463E-01  7.9101760809E+00  6.1598197569E+00
                       7.0511724710E+00  7.0682370614E+00 -9.4418703731E-01
                       1.7081642657E+00  9.1594246858E+00  6.6694015378E-01
                       1.6817291962E+00  2.8843490195E+00  8.7241052576E+00
                       8.9700355218E+00  2.0424100000E+00  1.6200984634E+00
                       7.0247374015E+00  7.9316139513E-01  7.1129780665E+00
             xred      5.0000000000E-01  5.0000000000E-01  5.0000000000E-01
                       0.0000000000E+00  0.0000000000E+00  0.0000000000E+00
                       7.9694000000E-02  7.9478600000E-01  7.1019100000E-01
                       7.9478600000E-01  7.1019100000E-01  7.9694000000E-02
                       2.8980900000E-01  9.2030600000E-01  2.0521400000E-01
                       2.0521400000E-01  2.8980900000E-01  9.2030600000E-01
                       9.2030600000E-01  2.0521400000E-01  2.8980900000E-01
                       7.1019100000E-01  7.9694000000E-02  7.9478600000E-01
            znucl       55.00000   51.00000    9.00000

- Timing analysis has been suppressed with timopt=0

 Suggested references for the acknowledgment of ABINIT usage.

 Calculation completed.
.Delivered   6 WARNINGs and   5 COMMENTs to log file.