.Version 9.5.1 of ABINIT

 ABINIT is a project of the Universite Catholique de Louvain,
 Corning Inc. and other collaborators, see ~abinit/doc/developers/contributors.txt .
 acknowledgments of the ABINIT effort.

.Starting date : Tue 27 Apr 2021.
- ( at 18h32 )

- input  file    -> /scratch/users/j/a/jabreu/flow_simple_4atoms/flow/w189/t1/run.abi
- output file    -> /scratch/users/j/a/jabreu/flow_simple_4atoms/flow/w189/t1/run.abo
- root for input  files -> /scratch/users/j/a/jabreu/flow_simple_4atoms/flow/w189/t1/indata/in
- root for output files -> /scratch/users/j/a/jabreu/flow_simple_4atoms/flow/w189/t1/outdata/out

 Symmetries : space group R-3 m (#166); Bravais hR (rhombohedral)
     intxc =       0      iscf =       7    lmnmax =      18     lnmax =       6
     mgfft =      75  mpssoang =       3    mqgrid =    3001     natom =       4
  nloc_mem =       1    nspden =       1   nspinor =       1    nsppol =       1
      nsym =      12    n1xccc =    2501    ntypat =       3    occopt =       1
   xclevel =       2
-    mband =          30        mffmem =           1         mkmem =           2
-   mkqmem =           2        mk1mem =           2           mpw =        5086
      nfft =      421875          nkpt =           2
  Rough estimation (10% accuracy) of disk space for files :

------------- Echo of variables that govern the present computation ------------
-
- outvars: echo of selected default values
-   iomode0 =  0 , fftalg0 =512 , wfoptalg0 =  0
-
- outvars: echo of global parameters not present in the input file
-  max_nthreads =    0
-
 -outvars: echo values of preprocessed input variables --------
            acell      1.0000000000E+00  1.0000000000E+00  1.0000000000E+00 Bohr
              amu      4.49559100E+01  1.07868200E+02  1.59994000E+01
             ecut      4.40000000E+01 Hartree
-          fftalg         512
           irdden           1
           irdwfk           1
           istwfk        1    1
              ixc     -116133
              kpt      5.00000000E-01  0.00000000E+00  0.00000000E+00
                       0.00000000E+00  0.00000000E+00  0.00000000E+00
           kptopt           0
P           mkmem           2
P          mkqmem           2
P          mk1mem           2
            natom           4
            nband          30
           nbdbuf           4
            ngfft          75      75      75
             nkpt           2
            nstep         100
             nsym          12
           ntypat           3
              occ      2.000000  2.000000  2.000000  2.000000  2.000000  2.000000
                       2.000000  2.000000  2.000000  2.000000  2.000000  2.000000
                       2.000000  2.000000  2.000000  2.000000  2.000000  2.000000
                       2.000000  2.000000  2.000000  0.000000  0.000000  0.000000
                       0.000000  0.000000  0.000000  0.000000  0.000000  0.000000
        optdriver           1
            prtwf          -1
            rfdir           1       1       1
           rfelfd           2
            rprim      5.8359354086E+00  0.0000000000E+00  1.0606849176E+01
                       2.7253282148E+00  5.1604968962E+00  1.0606849176E+01
                       0.0000000000E+00  0.0000000000E+00  1.2106336834E+01
          spgroup         166
           symrel      1  0  0   0  1  0   0  0  1      -1  0  0   0 -1  0   0  0 -1
                       0  1  0   1  0  0   0  0  1       0 -1  0  -1  0  0   0  0 -1
                       0  0  1   1  0  0   0  1  0       0  0 -1  -1  0  0   0 -1  0
                       1  0  0   0  0  1   0  1  0      -1  0  0   0  0 -1   0 -1  0
                       0  1  0   0  0  1   1  0  0       0 -1  0   0  0 -1  -1  0  0
                       0  0  1   0  1  0   1  0  0       0  0 -1   0 -1  0  -1  0  0
           tolwfr      1.00000000E-20
            typat      1  2  3  3
           useylm           1
              wtk        0.50000    0.50000
           xangst      2.2652127931E+00  1.3654086712E+00  8.8161016049E+00
                       0.0000000000E+00  0.0000000000E+00  0.0000000000E+00
                       5.0501107052E-01  3.0440693998E-01  1.9654793240E+00
                       4.0254145157E+00  2.4264104025E+00  1.5666723886E+01
            xcart      4.2806318117E+00  2.5802484481E+00  1.6660017593E+01
                       0.0000000000E+00  0.0000000000E+00  0.0000000000E+00
                       9.5433261736E-01  5.7524574952E-01  3.7142176422E+00
                       7.6069310060E+00  4.5852511467E+00  2.9605817544E+01
             xred      5.0000000000E-01  5.0000000000E-01  5.0000000000E-01
                       0.0000000000E+00  0.0000000000E+00  0.0000000000E+00
                       1.1147100000E-01  1.1147100000E-01  1.1147100000E-01
                       8.8852900000E-01  8.8852900000E-01  8.8852900000E-01
            znucl       21.00000   47.00000    8.00000

 chkinp: Checking input parameters for consistency.

== DATASET  1 ==================================================================
-   mpi_nproc: 1, omp_nthreads: -1 (-1 if OMP is not activated)

--- !DatasetInfo
iteration_state: {dtset: 1, }
dimensions: {natom: 4, nkpt: 2, mband: 30, nsppol: 1, nspinor: 1, nspden: 1, mpw: 5086, }
cutoff_energies: {ecut:  44.0, pawecutdg:  -1.0, }
electrons: {nelect:   4.20000000E+01, charge:   0.00000000E+00, occopt:   1.00000000E+00, tsmear:   1.00000000E-02, }
meta: {optdriver: 1, rfelfd: 2, }
...

 Real(R)+Recip(G) space primitive vectors, cartesian coordinates (Bohr,Bohr^-1):
 R(1)=  5.8359354  0.0000000 10.6068492  G(1)=  0.1713521 -0.0904934  0.0000000
 R(2)=  2.7253282  5.1604969 10.6068492  G(2)=  0.0000000  0.1937798  0.0000000
 R(3)=  0.0000000  0.0000000 12.1063368  G(3)= -0.1501285 -0.0904934  0.0826014
 Unit cell volume ucvol=  3.6459839E+02 bohr^3
 Angles (23,13,12)=  2.88197857E+01  2.88197857E+01  2.88197857E+01 degrees

 getcut: wavevector=  0.0000  0.0000  0.0000  ngfft=  75  75  75
         ecut(hartree)=     44.000   => boxcut(ratio)=   2.04781

--- Pseudopotential description ------------------------------------------------
- pspini: atom type   1  psp file is /scratch/users/j/a/jabreu/pseudos/PBEsol/Sc.psp8
- pspatm: opening atomic psp file    /scratch/users/j/a/jabreu/pseudos/PBEsol/Sc.psp8
- Sc    ONCVPSP-3.3.0  r_core=   1.35663   1.35663   1.66161
- 21.00000  11.00000    180112                znucl, zion, pspdat
    8 -116133    2    4       600   0.00000   pspcod,pspxc,lmax,lloc,mmax,r2well
    5.99000000000000    5.00000000000000    0.00000000000000   rchrg,fchrg,qchrg
     nproj     2     2     2
     extension_switch     1
  pspatm : epsatm=   13.58981094
         --- l  ekb(1:nproj) -->
             0   10.810997    0.948773
             1    2.871172    0.364831
             2   -4.789751   -1.321945
 pspatm: atomic psp has been read  and splines computed

- pspini: atom type   2  psp file is /scratch/users/j/a/jabreu/pseudos/PBEsol/Ag.psp8
- pspatm: opening atomic psp file    /scratch/users/j/a/jabreu/pseudos/PBEsol/Ag.psp8
- Ag    ONCVPSP-3.3.0  r_core=   1.41384   1.46535   1.61207
- 47.00000  19.00000    180112                znucl, zion, pspdat
    8 -116133    2    4       600   0.00000   pspcod,pspxc,lmax,lloc,mmax,r2well
    5.99000000000000    7.00000000000000    0.00000000000000   rchrg,fchrg,qchrg
     nproj     2     2     2
     extension_switch     1
  pspatm : epsatm=   27.64581383
         --- l  ekb(1:nproj) -->
             0    9.559407   -0.398585
             1    3.418858   -0.136622
             2   -1.644397   -0.401551
 pspatm: atomic psp has been read  and splines computed

- pspini: atom type   3  psp file is /scratch/users/j/a/jabreu/pseudos/PBEsol/O.psp8
- pspatm: opening atomic psp file    /scratch/users/j/a/jabreu/pseudos/PBEsol/O.psp8
- O     ONCVPSP-3.3.0  r_core=   1.35509   1.45563   1.26150
-  8.00000   6.00000    180112                znucl, zion, pspdat
    8 -116133    2    4       600   0.00000   pspcod,pspxc,lmax,lloc,mmax,r2well
    5.99000000000000    4.00000000000000    0.00000000000000   rchrg,fchrg,qchrg
     nproj     2     2     1
     extension_switch     1
  pspatm : epsatm=    6.22910522
         --- l  ekb(1:nproj) -->
             0    6.050032    0.820363
             1   -4.739617   -1.153841
             2   -1.335834
 pspatm: atomic psp has been read  and splines computed

   2.25514108E+03                                ecore*ucvol(ha*bohr**3)

-inwffil : will read wavefunctions from disk file /scratch/users/j/a/jabreu/flow_simple_4atoms/flow/w189/t1/indata/in_WFK

 ==>  initialize data related to q vector <==

 The list of irreducible perturbations for this q vector is:
    1)    idir= 1    ipert=   5
    2)    idir= 2    ipert=   5
    3)    idir= 3    ipert=   5

 Perturbation wavevector (in red.coord.)   0.000000  0.000000  0.000000
 Perturbation : derivative vs k along direction   1

 dfpt_looppert : COMMENT -
  In a d/dk calculation, iscf is set to -3 automatically.
 The set of symmetries contains only one element for this perturbation.
 symkpt : not enough symmetry to change the number of k points.

[...]

 Initialisation of the first-order wave-functions :
  ireadwf=   0

--- !BeginCycle
iteration_state: {dtset: 1, }
solver: {iscf: 7, nstep: 100, nline: 4, wfoptalg: 0, }
tolerances: {tolwfr: 1.00E-20, }
...

     iter   2DEtotal(Ha)        deltaE(Ha) residm    vres2
-ETOT  1  -67.677959476182     -6.768E+01 8.676E-02 0.000E+00
 ETOT  2  -67.712086108738     -3.413E-02 6.007E-04 0.000E+00
 ETOT  3  -67.712152667957     -6.656E-05 6.518E-06 0.000E+00
 ETOT  4  -67.712153007185     -3.392E-07 1.350E-07 0.000E+00
 ETOT  5  -67.712153009608     -2.423E-09 2.932E-09 0.000E+00
 ETOT  6  -67.712153009627     -1.921E-11 9.065E-11 0.000E+00
 ETOT  7  -67.712153009627     -1.990E-13 1.489E-12 0.000E+00
 ETOT  8  -67.712153009627      0.000E+00 6.606E-14 0.000E+00
 ETOT  9  -67.712153009627     -1.421E-14 1.042E-15 0.000E+00
 ETOT 10  -67.712153009627      1.421E-14 5.205E-17 0.000E+00
 ETOT 11  -67.712153009627     -2.842E-14 9.093E-19 0.000E+00
 ETOT 12  -67.712153009627      1.421E-14 4.545E-20 0.000E+00
 ETOT 13  -67.712153009627     -2.842E-14 9.900E-21 0.000E+00

 At SCF step   13   max residual=  9.90E-21 < tolwfr=  1.00E-20 =>converged.

 ----iterations are completed or convergence reached----

 dfpt_looppert: DFPT cycle converged with prtwf=-1. Will skip output of the 1st-order WFK file.
 dfpt_looppert : ek2=    1.2452483657E+02
          f-sum rule ratio=    1.0984416949E+00
 prteigrs : about to open file /scratch/users/j/a/jabreu/flow_simple_4atoms/flow/w189/t1/tmpdata/tmp_1WF1_EIG
 Expectation of eigenvalue derivatives (hartree) for nkpt=   2  k points:
  (in case of degenerate eigenvalues, averaged derivative)
 kpt#   1, nband= 30, wtk=  0.50000, kpt=  0.5000  0.0000  0.0000 (reduced coord)
  -0.00000   -0.00000    0.00000    0.00000   -0.00000    0.00000   -0.00000   -0.00000
  -0.00000   -0.00000    0.00000   -0.00000   -0.00000   -0.00000    0.00000   -0.00000
   0.00000   -0.00000    0.00000   -0.00000   -0.00000    0.00000    0.00000   -0.00000
  -0.00000    0.00000    0.00000    0.00000    0.00000    0.00002
 prteigrs : prtvol=0 or 1, do not print more k-points.

 Eight components of 2nd-order total energy (hartree) are
 1,2,3: 0th-order hamiltonian combined with 1st-order wavefunctions
     kin0=   8.19664904E+01 eigvalue=  -1.56660524E+00  local=  -3.48165954E+01
 4,5,6: 1st-order hamiltonian combined with 1st and 0th-order wfs
     kin1=  -1.36783273E+02  Hartree=   0.00000000E+00     xc=   0.00000000E+00
 7,8,9: eventually, occupation + non-local contributions
    edocc=   2.30276053E+01     enl0=  -8.98742032E-01   enl1=   1.35896652E+00
 1-9 gives the relaxation energy (to be shifted if some occ is /=2.0)
   erelax=  -6.77121530E+01
  No Ewald or frozen-wf contrib.: the relaxation energy is the total one
 2DEtotal=   -0.6771215301E+02 Ha. Also 2DEtotal=   -0.184254138753E+04 eV
    (  non-var. 2DEtotal :   -6.7712153010E+01 Ha)

 Perturbation wavevector (in red.coord.)   0.000000  0.000000  0.000000
 Perturbation : derivative vs k along direction   2
 The set of symmetries contains only one element for this perturbation.
 symkpt : not enough symmetry to change the number of k points.

[...]

 Perturbation wavevector (in red.coord.)   0.000000  0.000000  0.000000
 Perturbation : derivative vs k along direction   3
 The set of symmetries contains only one element for this perturbation.
 symkpt : not enough symmetry to change the number of k points.

-inwffil : will read wavefunctions from disk file /scratch/users/j/a/jabreu/flow_simple_4atoms/flow/w189/t1/indata/in_WFK

 Initialisation of the first-order wave-functions :
  ireadwf=   0

--- !BeginCycle
iteration_state: {dtset: 1, }
solver: {iscf: 7, nstep: 100, nline: 4, wfoptalg: 0, }
tolerances: {tolwfr: 1.00E-20, }
...

     iter   2DEtotal(Ha)        deltaE(Ha) residm    vres2
-ETOT  1  -64.778029313506     -6.478E+01 7.403E-02 0.000E+00
 ETOT  2  -64.811344126554     -3.331E-02 2.135E-03 0.000E+00
 ETOT  3  -64.811412951394     -6.882E-05 2.586E-05 0.000E+00
 ETOT  4  -64.811413286440     -3.350E-07 1.089E-06 0.000E+00
 ETOT  5  -64.811413288589     -2.148E-09 1.613E-08 0.000E+00
 ETOT  6  -64.811413288604     -1.531E-11 8.330E-10 0.000E+00
 ETOT  7  -64.811413288604     -1.563E-13 1.452E-11 0.000E+00
 ETOT  8  -64.811413288604      0.000E+00 8.117E-13 0.000E+00
 ETOT  9  -64.811413288604      0.000E+00 1.500E-14 0.000E+00
 ETOT 10  -64.811413288604      2.842E-14 9.349E-16 0.000E+00
 ETOT 11  -64.811413288604     -1.421E-14 1.684E-17 0.000E+00
 ETOT 12  -64.811413288604      0.000E+00 1.145E-18 0.000E+00
 ETOT 13  -64.811413288604      0.000E+00 1.982E-20 0.000E+00
 ETOT 14  -64.811413288604      0.000E+00 9.987E-21 0.000E+00

 At SCF step   14   max residual=  9.99E-21 < tolwfr=  1.00E-20 =>converged.

 ----iterations are completed or convergence reached----

 dfpt_looppert: DFPT cycle converged with prtwf=-1. Will skip output of the 1st-order WFK file.
 dfpt_looppert : ek2=    1.2452483657E+02
          f-sum rule ratio=    1.0488872168E+00
 prteigrs : about to open file /scratch/users/j/a/jabreu/flow_simple_4atoms/flow/w189/t1/tmpdata/tmp_1WF1_EIG
 Expectation of eigenvalue derivatives (hartree) for nkpt=   2  k points:
  (in case of degenerate eigenvalues, averaged derivative)
 kpt#   1, nband= 30, wtk=  0.50000, kpt=  0.5000  0.0000  0.0000 (reduced coord)
   0.00000    0.00000    0.00000    0.00000    0.00000   -0.00000    0.00000    0.00000
  -0.00000   -0.00000    0.00000    0.00000   -0.00000   -0.00000   -0.00000    0.00000
  -0.00000   -0.00000    0.00000   -0.00000   -0.00000    0.00000   -0.00000   -0.00000
   0.00000   -0.00000   -0.00000    0.00000   -0.00000    0.00000
 prteigrs : prtvol=0 or 1, do not print more k-points.

 Eight components of 2nd-order total energy (hartree) are
 1,2,3: 0th-order hamiltonian combined with 1st-order wavefunctions
     kin0=   8.22473303E+01 eigvalue=  -1.62606265E+00  local=  -3.46727630E+01
 4,5,6: 1st-order hamiltonian combined with 1st and 0th-order wfs
     kin1=  -1.30612509E+02  Hartree=   0.00000000E+00     xc=   0.00000000E+00
 7,8,9: eventually, occupation + non-local contributions
    edocc=   1.96820955E+01     enl0=  -8.19186954E-01   enl1=   9.89682674E-01
 1-9 gives the relaxation energy (to be shifted if some occ is /=2.0)
   erelax=  -6.48114133E+01
  No Ewald or frozen-wf contrib.: the relaxation energy is the total one
 2DEtotal=   -0.6481141329E+02 Ha. Also 2DEtotal=   -0.176360824551E+04 eV
    (  non-var. 2DEtotal :   -6.4811413289E+01 Ha)

 CALCULATION OF EFFECTIVE MASSES
 NOTE : Additional infos (eff. mass eigenvalues, eigenvectors and, if degenerate, average mass) are available in stdout.

 K-point ( 0.500, 0.000, 0.000) | band =    21
 Effective mass tensor:
             -1.7302636292             -2.6930908233              0.9898783215
             -2.6930908233             -5.6458432188              1.0539697973
              0.9898783215              1.0539697973             -1.9479999753
 Effective mass tensor eigenvalues:
             -7.3743534092             -1.7060072036             -0.2437462106
 Angular average effective mass 1/(<1/m>)=  -0.6218393734
 Angular average effective mass for Frohlich model (<m**0.5>)**2=  -1.0052197386
 Effective masses along directions: (cart. coord. / red. coord. -> eff. mass)
    1:   1.000000  0.000000  0.000000 /   0.906071  0.423127  0.000000 ->  -0.3101466965
    2:   0.000000  1.000000  0.000000 /   0.000000  1.000000  0.000000 ->  -1.2826808568
    3:   0.000000  0.000000  1.000000 /   0.550255  0.550255  0.628044 ->  -1.2187702939
    4:   0.577350  0.577350  0.577350 /   0.596872  0.671282  0.439459 ->  -0.9015156360
    5:   0.000000  0.707107  0.707107 /   0.470752  0.699785  0.537302 ->  -1.9032502642
    6:   0.707107  0.000000  0.707107 /   0.674272  0.546715  0.496447 ->  -0.3425521385
    7:   0.707107  0.707107  0.000000 /   0.594871  0.803821  0.000000 ->  -1.5838258760

 K-point ( 0.000, 0.000, 0.000) | band =    22
 Effective mass tensor:
              1.1834139642             -0.0348606196             -0.2250862839
             -0.0348606196              1.2202346937             -0.1356758908
             -0.2250862839             -0.1356758908              0.3652225018
 Effective mass tensor eigenvalues:
              0.2863757055              1.2412477270              1.2412477272
 Angular average effective mass 1/(<1/m>)=   0.5878666413
 Angular average effective mass for Frohlich model (<m**0.5>)**2=   0.6915838297
 Effective masses along directions: (cart. coord. / red. coord. -> eff. mass)
    1:   1.000000  0.000000  0.000000 /   0.906071  0.423127  0.000000 ->   1.0326944089
    2:   0.000000  1.000000  0.000000 /   0.000000  1.000000  0.000000 ->   1.1563962778
    3:   0.000000  0.000000  1.000000 /   0.550255  0.550255  0.628044 ->   0.3058008507
    4:   0.577350  0.577350  0.577350 /   0.596872  0.671282  0.439459 ->   0.4093241490
    5:   0.000000  0.707107  0.707107 /   0.470752  0.699785  0.537302 ->   0.4083105290
    6:   0.707107  0.000000  0.707107 /   0.674272  0.546715  0.496447 ->   0.3633138672
    7:   0.707107  0.707107  0.000000 /   0.594871  0.803821  0.000000 ->   0.9855915996

 END OF EFFECTIVE MASSES SECTION

 ---- first-order wavefunction calculations are completed ----

 Total localisation tensor (bohr^2) in cartesian coordinates
  WARNING : still subject to testing - especially symmetries.
      direction              matrix element
   alpha     beta       real part   imaginary part
     1        1       1.5400285773    0.0000000000
     1        2       0.3873519488    0.0000000000
     1        3       3.2233724422    0.0000000000
     2        1       0.3873519488    0.0000000000
     2        2       0.7334634114    0.0000000000
     2        3       1.5075555586    0.0000000000
     3        1       3.2233724422    0.0000000000
     3        2       1.5075555586    0.0000000000
     3        3      11.5467398940    0.0000000000

 respfn : d/dk was computed, but no 2DTE, so no DDB output.

== END DATASET(S) ==============================================================

 -outvars: echo values of variables after computation  --------
            acell      1.0000000000E+00  1.0000000000E+00  1.0000000000E+00 Bohr
              amu      4.49559100E+01  1.07868200E+02  1.59994000E+01
             ecut      4.40000000E+01 Hartree
           etotal     -6.4811413289E+01
            fcart      0.0000000000E+00  0.0000000000E+00  0.0000000000E+00
                       0.0000000000E+00  0.0000000000E+00  0.0000000000E+00
                       0.0000000000E+00  0.0000000000E+00  0.0000000000E+00
                       0.0000000000E+00  0.0000000000E+00  0.0000000000E+00
-          fftalg         512
           irdden           1
           irdwfk           1
           istwfk        1    1
              ixc     -116133
              kpt      5.00000000E-01  0.00000000E+00  0.00000000E+00
                       0.00000000E+00  0.00000000E+00  0.00000000E+00
           kptopt           0
P           mkmem           2
P          mkqmem           2
P          mk1mem           2
            natom           4
            nband          30
           nbdbuf           4
            ngfft          75      75      75
             nkpt           2
            nstep         100
             nsym          12
           ntypat           3
              occ      2.000000  2.000000  2.000000  2.000000  2.000000  2.000000
                       2.000000  2.000000  2.000000  2.000000  2.000000  2.000000
                       2.000000  2.000000  2.000000  2.000000  2.000000  2.000000
                       2.000000  2.000000  2.000000  0.000000  0.000000  0.000000
                       0.000000  0.000000  0.000000  0.000000  0.000000  0.000000
        optdriver           1
            prtwf          -1
            rfdir           1       1       1
           rfelfd           2
            rprim      5.8359354086E+00  0.0000000000E+00  1.0606849176E+01
                       2.7253282148E+00  5.1604968962E+00  1.0606849176E+01
                       0.0000000000E+00  0.0000000000E+00  1.2106336834E+01
          spgroup         166
           strten      0.0000000000E+00  0.0000000000E+00  0.0000000000E+00
                       0.0000000000E+00  0.0000000000E+00  0.0000000000E+00
           symrel      1  0  0   0  1  0   0  0  1      -1  0  0   0 -1  0   0  0 -1
                       0  1  0   1  0  0   0  0  1       0 -1  0  -1  0  0   0  0 -1
                       0  0  1   1  0  0   0  1  0       0  0 -1  -1  0  0   0 -1  0
                       1  0  0   0  0  1   0  1  0      -1  0  0   0  0 -1   0 -1  0
                       0  1  0   0  0  1   1  0  0       0 -1  0   0  0 -1  -1  0  0
                       0  0  1   0  1  0   1  0  0       0  0 -1   0 -1  0  -1  0  0
           tolwfr      1.00000000E-20
            typat      1  2  3  3
           useylm           1
              wtk        0.50000    0.50000
           xangst      2.2652127931E+00  1.3654086712E+00  8.8161016049E+00
                       0.0000000000E+00  0.0000000000E+00  0.0000000000E+00
                       5.0501107052E-01  3.0440693998E-01  1.9654793240E+00
                       4.0254145157E+00  2.4264104025E+00  1.5666723886E+01
            xcart      4.2806318117E+00  2.5802484481E+00  1.6660017593E+01
                       0.0000000000E+00  0.0000000000E+00  0.0000000000E+00
                       9.5433261736E-01  5.7524574952E-01  3.7142176422E+00
                       7.6069310060E+00  4.5852511467E+00  2.9605817544E+01
             xred      5.0000000000E-01  5.0000000000E-01  5.0000000000E-01
                       0.0000000000E+00  0.0000000000E+00  0.0000000000E+00
                       1.1147100000E-01  1.1147100000E-01  1.1147100000E-01
                       8.8852900000E-01  8.8852900000E-01  8.8852900000E-01
            znucl       21.00000   47.00000    8.00000

- Timing analysis has been suppressed with timopt=0

 Suggested references for the acknowledgment of ABINIT usage.

 Calculation completed.
.Delivered  14 WARNINGs and   9 COMMENTs to log file.