.Version 9.5.1 of ABINIT

 ABINIT is a project of the Universite Catholique de Louvain,
 Corning Inc. and other collaborators, see ~abinit/doc/developers/contributors.txt .
 acknowledgments of the ABINIT effort.

.Starting date : Tue  4 May 2021.
- ( at 19h17 )

- input  file    -> /scratch/users/j/a/jabreu/flow_simple_6atoms/flow/w183/t1/run.abi
- output file    -> /scratch/users/j/a/jabreu/flow_simple_6atoms/flow/w183/t1/run.abo
- root for input  files -> /scratch/users/j/a/jabreu/flow_simple_6atoms/flow/w183/t1/indata/in
- root for output files -> /scratch/users/j/a/jabreu/flow_simple_6atoms/flow/w183/t1/outdata/out

 Symmetries : space group Cm c m (# 63); Bravais oC (1-face-center ortho.)
     intxc =       0      iscf =       7    lmnmax =      25     lnmax =       7
     mgfft =      72  mpssoang =       4    mqgrid =    3456     natom =       6
  nloc_mem =       1    nspden =       1   nspinor =       1    nsppol =       1
      nsym =       8    n1xccc =    2501    ntypat =       3    occopt =       1
   xclevel =       2
-    mband =          43        mffmem =           1         mkmem =           2
-   mkqmem =           2        mk1mem =           2           mpw =       13352
      nfft =      259200          nkpt =           2
  Rough estimation (10% accuracy) of disk space for files :

------------- Echo of variables that govern the present computation ------------
-
- outvars: echo of selected default values
-   iomode0 =  0 , fftalg0 =512 , wfoptalg0 =  0
-
- outvars: echo of global parameters not present in the input file
-  max_nthreads =    0
-
 -outvars: echo values of preprocessed input variables --------
            acell      1.0000000000E+00  1.0000000000E+00  1.0000000000E+00 Bohr
              amu      8.54678000E+01  1.96966540E+02  3.20660000E+01
             ecut      3.80000000E+01 Hartree
-          fftalg         512
           irdden           1
           irdwfk           1
              ixc     -116133
              kpt     -5.00000000E-01  5.00000000E-01  0.00000000E+00
                      -6.25000000E-02  6.25000000E-02  0.00000000E+00
           kptopt           0
P           mkmem           2
P          mkqmem           2
P          mk1mem           2
            natom           6
            nband          43
           nbdbuf           4
            ngfft          60      60      72
             nkpt           2
            nstep        1000
             nsym           8
           ntypat           3
              occ      2.000000  2.000000  2.000000  2.000000  2.000000  2.000000
                       2.000000  2.000000  2.000000  2.000000  2.000000  2.000000
                       2.000000  2.000000  2.000000  2.000000  2.000000  2.000000
                       2.000000  2.000000  2.000000  2.000000  2.000000  2.000000
                       2.000000  2.000000  2.000000  2.000000  2.000000  2.000000
                       2.000000  2.000000  2.000000  2.000000  0.000000  0.000000
                       0.000000  0.000000  0.000000  0.000000  0.000000  0.000000
                       0.000000
        optdriver           1
            prtwf          -1
            rfdir           1       1       1
           rfelfd           2
            rprim      9.8807097741E+00  0.0000000000E+00  0.0000000000E+00
                      -2.0584712768E+00  9.6639081971E+00  0.0000000000E+00
                       0.0000000000E+00  0.0000000000E+00  1.2453041617E+01
          spgroup          63
           symrel      1  0  0   0  1  0   0  0  1      -1  0  0   0 -1  0   0  0 -1
                       0 -1  0  -1  0  0   0  0 -1       0  1  0   1  0  0   0  0  1
                      -1  0  0   0 -1  0   0  0  1       1  0  0   0  1  0   0  0 -1
                       0  1  0   1  0  0   0  0 -1       0 -1  0  -1  0  0   0  0  1
            tnons      0.0000000  0.0000000  0.0000000     0.0000000  0.0000000  0.0000000
                       0.0000000  0.0000000  0.5000000     0.0000000  0.0000000  0.5000000
                       0.0000000  0.0000000  0.5000000     0.0000000  0.0000000  0.5000000
                       0.0000000  0.0000000  0.0000000     0.0000000  0.0000000  0.0000000
           tolwfr      1.00000000E-20
            typat      1  1  2  2  3  3
           useylm           1
              wtk        0.50000    0.50000
           xangst     -2.8616555139E-01  4.4638435719E+00  1.6474664503E+00
                       4.4255158843E+00  6.5007639188E-01  4.9423993509E+00
                       2.0696751665E+00  2.5569599819E+00  0.0000000000E+00
                       2.0696751665E+00  2.5569599819E+00  3.2949329006E+00
                       3.3210889915E+00  1.5440305129E+00  1.6474664503E+00
                       8.1826134139E-01  3.5698894509E+00  4.9423993509E+00
            xcart     -5.4077452079E-01  8.4354418510E+00  3.1132604042E+00
                       8.3630130181E+00  1.2284663461E+00  9.3397812125E+00
                       3.9111192486E+00  4.8319540985E+00  0.0000000000E+00
                       3.9111192486E+00  4.8319540985E+00  6.2265208084E+00
                       6.2759486569E+00  2.9177948102E+00  3.1132604042E+00
                       1.5462898404E+00  6.7461133869E+00  9.3397812125E+00
             xred      1.2711900000E-01  8.7288100000E-01  2.5000000000E-01
                       8.7288100000E-01  1.2711900000E-01  7.5000000000E-01
                       5.0000000000E-01  5.0000000000E-01  0.0000000000E+00
                       5.0000000000E-01  5.0000000000E-01  5.0000000000E-01
                       6.9807300000E-01  3.0192700000E-01  2.5000000000E-01
                       3.0192700000E-01  6.9807300000E-01  7.5000000000E-01
            znucl       37.00000   79.00000   16.00000

 chkinp: Checking input parameters for consistency.

== DATASET  1 ==================================================================
-   mpi_nproc: 1, omp_nthreads: -1 (-1 if OMP is not activated)

--- !DatasetInfo
iteration_state: {dtset: 1, }
dimensions: {natom: 6, nkpt: 2, mband: 43, nsppol: 1, nspinor: 1, nspden: 1, mpw: 13352, }
cutoff_energies: {ecut:  38.0, pawecutdg:  -1.0, }
electrons: {nelect:   6.80000000E+01, charge:   0.00000000E+00, occopt:   1.00000000E+00, tsmear:   1.00000000E-02, }
meta: {optdriver: 1, rfelfd: 2, }
...

 Real(R)+Recip(G) space primitive vectors, cartesian coordinates (Bohr,Bohr^-1):
 R(1)=  9.8807098  0.0000000  0.0000000  G(1)=  0.1012073  0.0215578  0.0000000
 R(2)= -2.0584713  9.6639082  0.0000000  G(2)=  0.0000000  0.1034778  0.0000000
 R(3)=  0.0000000  0.0000000 12.4530416  G(3)=  0.0000000  0.0000000  0.0803017
 Unit cell volume ucvol=  1.1890945E+03 bohr^3
 Angles (23,13,12)=  9.00000000E+01  9.00000000E+01  1.02024640E+02 degrees

 getcut: wavevector=  0.0000  0.0000  0.0000  ngfft=  60  60  72
         ecut(hartree)=     38.000   => boxcut(ratio)=   2.08353

--- Pseudopotential description ------------------------------------------------
- pspini: atom type   1  psp file is /scratch/users/j/a/jabreu/pseudos/PBEsol/Rb.psp8
- pspatm: opening atomic psp file    /scratch/users/j/a/jabreu/pseudos/PBEsol/Rb.psp8
- Rb    ONCVPSP-3.3.0  r_core=   1.71227   1.75361   1.90633
- 37.00000   9.00000    180112                znucl, zion, pspdat
    8 -116133    2    4       600   0.00000   pspcod,pspxc,lmax,lloc,mmax,r2well
    5.99000000000000    7.00000000000000    0.00000000000000   rchrg,fchrg,qchrg
     nproj     2     2     2
     extension_switch     1
  pspatm : epsatm=   34.48400912
         --- l  ekb(1:nproj) -->
             0    8.196957   -0.477221
             1    3.231347   -0.378736
             2   -1.047201    0.996637
 pspatm: atomic psp has been read  and splines computed

- pspini: atom type   2  psp file is /scratch/users/j/a/jabreu/pseudos/PBEsol/Au.psp8
- pspatm: opening atomic psp file    /scratch/users/j/a/jabreu/pseudos/PBEsol/Au.psp8
- Au    ONCVPSP-3.3.0  r_core=   1.45604   1.56407   1.56407   1.60183
- 79.00000  19.00000    180112                znucl, zion, pspdat
    8 -116133    3    4       500   0.00000   pspcod,pspxc,lmax,lloc,mmax,r2well
    4.99000000000000    5.00000000000000    0.00000000000000   rchrg,fchrg,qchrg
     nproj     2     2     2     1
     extension_switch     1
  pspatm : epsatm=   32.21965837
         --- l  ekb(1:nproj) -->
             0    9.413866   -0.196587
             1    2.474292   -1.517497
             2    1.503483    0.298081
             3    1.177996
 pspatm: atomic psp has been read  and splines computed

- pspini: atom type   3  psp file is /scratch/users/j/a/jabreu/pseudos/PBEsol/S.psp8
- pspatm: opening atomic psp file    /scratch/users/j/a/jabreu/pseudos/PBEsol/S.psp8
- S     ONCVPSP-3.3.0  r_core=   1.45376   1.45376   1.61851
- 16.00000   6.00000    180112                znucl, zion, pspdat
    8 -116133    2    4       600   0.00000   pspcod,pspxc,lmax,lloc,mmax,r2well
    5.99000000000000    6.00000000000000    0.00000000000000   rchrg,fchrg,qchrg
     nproj     2     2     2
     extension_switch     1
  pspatm : epsatm=    8.71840985
         --- l  ekb(1:nproj) -->
             0    6.834532    0.579453
             1    3.282851    0.896984
             2   -3.496974   -0.974265
 pspatm: atomic psp has been read  and splines computed

   1.02574025E+04                                ecore*ucvol(ha*bohr**3)

-inwffil : will read wavefunctions from disk file /scratch/users/j/a/jabreu/flow_simple_6atoms/flow/w183/t1/indata/in_WFK

 ==>  initialize data related to q vector <==

 The list of irreducible perturbations for this q vector is:
    1)    idir= 1    ipert=   7
    2)    idir= 2    ipert=   7
    3)    idir= 3    ipert=   7

 Perturbation wavevector (in red.coord.)   0.000000  0.000000  0.000000
 Perturbation : derivative vs k along direction   1

 dfpt_looppert : COMMENT -
  In a d/dk calculation, iscf is set to -3 automatically.
 The set of symmetries contains only one element for this perturbation.
 symkpt : not enough symmetry to change the number of k points.

[...]

 Initialisation of the first-order wave-functions :
  ireadwf=   0

--- !BeginCycle
iteration_state: {dtset: 1, }
solver: {iscf: 7, nstep: 1000, nline: 4, wfoptalg: 0, }
tolerances: {tolwfr: 1.00E-20, }
...

     iter   2DEtotal(Ha)        deltaE(Ha) residm    vres2
-ETOT  1  -30.789978207733     -3.079E+01 7.645E-02 0.000E+00
 ETOT  2  -30.830922571501     -4.094E-02 1.997E-03 0.000E+00
 ETOT  3  -30.831253377927     -3.308E-04 5.877E-05 0.000E+00
 ETOT  4  -30.831257621451     -4.244E-06 2.274E-06 0.000E+00
 ETOT  5  -30.831257688490     -6.704E-08 8.716E-08 0.000E+00
 ETOT  6  -30.831257689685     -1.195E-09 4.423E-09 0.000E+00
 ETOT  7  -30.831257689708     -2.302E-11 2.449E-10 0.000E+00
 ETOT  8  -30.831257689709     -4.583E-13 1.661E-11 0.000E+00
 ETOT  9  -30.831257689709     -1.776E-14 1.622E-12 0.000E+00
 ETOT 10  -30.831257689709     -2.842E-14 1.101E-13 0.000E+00
 ETOT 11  -30.831257689709     -3.553E-15 1.110E-14 0.000E+00
 ETOT 12  -30.831257689709      0.000E+00 7.563E-16 0.000E+00
 ETOT 13  -30.831257689709     -3.553E-15 7.774E-17 0.000E+00
 ETOT 14  -30.831257689709     -3.553E-15 5.448E-18 0.000E+00
 ETOT 15  -30.831257689709      7.105E-15 5.884E-19 0.000E+00
 ETOT 16  -30.831257689709     -7.105E-15 4.812E-20 0.000E+00
 ETOT 17  -30.831257689709      0.000E+00 9.827E-21 0.000E+00

 At SCF step   17   max residual=  9.83E-21 < tolwfr=  1.00E-20 =>converged.

 ----iterations are completed or convergence reached----

 dfpt_looppert: DFPT cycle converged with prtwf=-1. Will skip output of the 1st-order WFK file.
 dfpt_looppert : ek2=    5.7490098628E+01
          f-sum rule ratio=    1.0494726455E+00
 prteigrs : about to open file /scratch/users/j/a/jabreu/flow_simple_6atoms/flow/w183/t1/tmpdata/tmp_1WF1_EIG
 Expectation of eigenvalue derivatives (hartree) for nkpt=   2  k points:
  (in case of degenerate eigenvalues, averaged derivative)
 kpt#   1, nband= 43, wtk=  0.50000, kpt= -0.5000  0.5000  0.0000 (reduced coord)
  -0.00000   -0.00000    0.00000    0.00000    0.00000   -0.00000   -0.00000   -0.00000
  -0.00000   -0.00000   -0.00000   -0.00000   -0.00000    0.00000   -0.00000    0.00000
   0.00000   -0.00000   -0.00000    0.00000    0.00000    0.00000    0.00000    0.00000
   0.00000    0.00000   -0.00000   -0.00000   -0.00000    0.00000    0.00000    0.00000
   0.00000    0.00000   -0.00000    0.00000    0.00000   -0.00000   -0.00000    0.00000
   0.00000    0.00000    0.00031
 prteigrs : prtvol=0 or 1, do not print more k-points.

 Eight components of 2nd-order total energy (hartree) are
 1,2,3: 0th-order hamiltonian combined with 1st-order wavefunctions
     kin0=   4.35853127E+01 eigvalue=   2.01362915E+00  local=  -2.39055939E+01
 4,5,6: 1st-order hamiltonian combined with 1st and 0th-order wfs
     kin1=  -6.03342859E+01  Hartree=   0.00000000E+00     xc=   0.00000000E+00
 7,8,9: eventually, occupation + non-local contributions
    edocc=   7.65471115E+00     enl0=   1.48319861E+00   enl1=  -1.32822948E+00
 1-9 gives the relaxation energy (to be shifted if some occ is /=2.0)
   erelax=  -3.08312577E+01
  No Ewald or frozen-wf contrib.: the relaxation energy is the total one
 2DEtotal=   -0.3083125769E+02 Ha. Also 2DEtotal=   -0.838961187881E+03 eV
    (  non-var. 2DEtotal :   -3.0831257689E+01 Ha)

 Perturbation wavevector (in red.coord.)   0.000000  0.000000  0.000000
 Perturbation : derivative vs k along direction   2
 The set of symmetries contains only one element for this perturbation.
 symkpt : not enough symmetry to change the number of k points.

[...]

 Perturbation wavevector (in red.coord.)   0.000000  0.000000  0.000000
 Perturbation : derivative vs k along direction   3
 The set of symmetries contains only one element for this perturbation.
 symkpt : not enough symmetry to change the number of k points.

-inwffil : will read wavefunctions from disk file /scratch/users/j/a/jabreu/flow_simple_6atoms/flow/w183/t1/indata/in_WFK

 Initialisation of the first-order wave-functions :
  ireadwf=   0

--- !BeginCycle
iteration_state: {dtset: 1, }
solver: {iscf: 7, nstep: 1000, nline: 4, wfoptalg: 0, }
tolerances: {tolwfr: 1.00E-20, }
...

     iter   2DEtotal(Ha)        deltaE(Ha) residm    vres2
-ETOT  1  -18.544101109786     -1.854E+01 1.930E-01 0.000E+00
 ETOT  2  -18.560539056851     -1.644E-02 1.451E-02 0.000E+00
 ETOT  3  -18.560697999222     -1.589E-04 2.254E-03 0.000E+00
 ETOT  4  -18.560700764577     -2.765E-06 2.340E-04 0.000E+00
 ETOT  5  -18.560700820615     -5.604E-08 5.232E-05 0.000E+00
 ETOT  6  -18.560700821832     -1.217E-09 5.876E-06 0.000E+00
 ETOT  7  -18.560700821859     -2.756E-11 1.383E-06 0.000E+00
 ETOT  8  -18.560700821860     -6.288E-13 1.584E-07 0.000E+00
 ETOT  9  -18.560700821860     -1.066E-14 3.781E-08 0.000E+00
 ETOT 10  -18.560700821860     -3.553E-15 4.381E-09 0.000E+00
 ETOT 11  -18.560700821860      0.000E+00 1.051E-09 0.000E+00
 ETOT 12  -18.560700821860      3.553E-15 1.228E-10 0.000E+00
 ETOT 13  -18.560700821860      1.421E-14 2.950E-11 0.000E+00
 ETOT 14  -18.560700821860      3.553E-15 3.470E-12 0.000E+00
 ETOT 15  -18.560700821860     -7.105E-15 8.339E-13 0.000E+00
 ETOT 16  -18.560700821860     -3.553E-15 9.856E-14 0.000E+00
 ETOT 17  -18.560700821860     -3.553E-15 2.368E-14 0.000E+00
 ETOT 18  -18.560700821860      3.553E-15 2.810E-15 0.000E+00
 ETOT 19  -18.560700821860      0.000E+00 6.749E-16 0.000E+00
 ETOT 20  -18.560700821860      0.000E+00 8.029E-17 0.000E+00
 ETOT 21  -18.560700821860      0.000E+00 1.928E-17 0.000E+00
 ETOT 22  -18.560700821860      0.000E+00 2.298E-18 0.000E+00
 ETOT 23  -18.560700821860      0.000E+00 5.520E-19 0.000E+00
 ETOT 24  -18.560700821860      0.000E+00 6.589E-20 0.000E+00
 ETOT 25  -18.560700821860      7.105E-15 1.582E-20 0.000E+00
 ETOT 26  -18.560700821860     -7.105E-15 9.840E-21 0.000E+00

 At SCF step   26   max residual=  9.84E-21 < tolwfr=  1.00E-20 =>converged.

 ----iterations are completed or convergence reached----

 dfpt_looppert: DFPT cycle converged with prtwf=-1. Will skip output of the 1st-order WFK file.
 dfpt_looppert : ek2=    3.4621650359E+01
          f-sum rule ratio=    1.0463893928E+00
 prteigrs : about to open file /scratch/users/j/a/jabreu/flow_simple_6atoms/flow/w183/t1/tmpdata/tmp_1WF1_EIG
 Expectation of eigenvalue derivatives (hartree) for nkpt=   2  k points:
  (in case of degenerate eigenvalues, averaged derivative)
 kpt#   1, nband= 43, wtk=  0.50000, kpt= -0.5000  0.5000  0.0000 (reduced coord)
  -0.00000    0.00000   -0.00000    0.00000    0.00000    0.00000   -0.00000   -0.00000
  -0.00000    0.00000    0.00000   -0.00000   -0.00000   -0.00000    0.00000   -0.00000
   0.00000   -0.00000   -0.00000   -0.00000    0.00000   -0.00000    0.00000    0.00000
  -0.00000   -0.00000   -0.00000    0.00000   -0.00000   -0.00000   -0.00000   -0.00000
  -0.00000   -0.00000   -0.00000   -0.00000    0.00000   -0.00000    0.00000   -0.00000
  -0.00000   -0.00000   -0.00001
 prteigrs : prtvol=0 or 1, do not print more k-points.

 Eight components of 2nd-order total energy (hartree) are
 1,2,3: 0th-order hamiltonian combined with 1st-order wavefunctions
     kin0=   2.44357880E+01 eigvalue=   1.14881990E+00  local=  -1.33391455E+01
 4,5,6: 1st-order hamiltonian combined with 1st and 0th-order wfs
     kin1=  -3.62277277E+01  Hartree=   0.00000000E+00     xc=   0.00000000E+00
 7,8,9: eventually, occupation + non-local contributions
    edocc=   5.57206096E+00     enl0=   7.43177387E-01   enl1=  -8.93673947E-01
 1-9 gives the relaxation energy (to be shifted if some occ is /=2.0)
   erelax=  -1.85607008E+01
  No Ewald or frozen-wf contrib.: the relaxation energy is the total one
 2DEtotal=   -0.1856070082E+02 Ha. Also 2DEtotal=   -0.505062354774E+03 eV
    (  non-var. 2DEtotal :   -1.8560700822E+01 Ha)

 CALCULATION OF EFFECTIVE MASSES
 NOTE : Additional infos (eff. mass eigenvalues, eigenvectors and, if degenerate, average mass) are available in stdout.

 K-point (-0.500, 0.500, 0.000) | band =    34
 Effective mass tensor:
             -2.0659971037              0.8969432540              0.0000028430
              0.8969432540             -1.6836989719              0.0000034991
              0.0000028430              0.0000034991             -0.4653216500
 Effective mass tensor eigenvalues:
             -2.7919331845             -0.9577628912             -0.4653216499
 Angular average effective mass 1/(<1/m>)=  -0.8447549820
 Angular average effective mass for Frohlich model (<m**0.5>)**2=  -0.9680822079
 Effective masses along directions: (cart. coord. / red. coord. -> eff. mass)
    1:   1.000000  0.000000  0.000000 /   0.978981 -0.203953  0.000000 ->  -1.5881758219
    2:   0.000000  1.000000  0.000000 /   0.000000  1.000000  0.000000 ->  -1.2942951341
    3:   0.000000  0.000000  1.000000 /   0.000000  0.000000  1.000000 ->  -0.4653216500
    4:   0.577350  0.577350  0.577350 /   0.560690  0.431578  0.706659 ->  -0.7105276784
    5:   0.000000  0.707107  0.707107 /   0.000000  0.613079  0.790022 ->  -0.6845357610
    6:   0.707107  0.000000  0.707107 /   0.616409 -0.128418  0.776884 ->  -0.7197566260
    7:   0.707107  0.707107  0.000000 /   0.792434  0.609957  0.000000 ->  -0.9647227071

 K-point (-0.062, 0.062, 0.000) | band =    35
 Effective mass tensor:
              0.6148217813              0.1762340085             -0.0000000168
              0.1762340085              0.6899024473              0.0000000126
             -0.0000000168              0.0000000126              0.2431905668
 Effective mass tensor eigenvalues:
              0.2431905668              0.4721741504              0.8325500782
 Angular average effective mass 1/(<1/m>)=   0.4037145395
 Angular average effective mass for Frohlich model (<m**0.5>)**2=   0.4348584345
 Effective masses along directions: (cart. coord. / red. coord. -> eff. mass)
    1:   1.000000  0.000000  0.000000 /   0.978981 -0.203953  0.000000 ->   0.5698032053
    2:   0.000000  1.000000  0.000000 /   0.000000  1.000000  0.000000 ->   0.6393863031
    3:   0.000000  0.000000  1.000000 /   0.000000  0.000000  1.000000 ->   0.2431905668
    4:   0.577350  0.577350  0.577350 /   0.560690  0.431578  0.706659 ->   0.4591104093
    5:   0.000000  0.707107  0.707107 /   0.000000  0.613079  0.790022 ->   0.3523607493
    6:   0.707107  0.000000  0.707107 /   0.616409 -0.128418  0.776884 ->   0.3408900840
    7:   0.707107  0.707107  0.000000 /   0.792434  0.609957  0.000000 ->   0.8256362542

 END OF EFFECTIVE MASSES SECTION

 ---- first-order wavefunction calculations are completed ----

 Total localisation tensor (bohr^2) in cartesian coordinates
  WARNING : still subject to testing - especially symmetries.
      direction              matrix element
   alpha     beta       real part   imaginary part
     1        1       1.1019545978    0.0000000000
     1        2      -0.2151955480    0.0000000000
     1        3       0.0000000000    0.0000000000
     2        1      -0.2151955480    0.0000000000
     2        2       1.0102788624    0.0000000000
     2        3       0.0000000000    0.0000000000
     3        1       0.0000000000    0.0000000000
     3        2       0.0000000000    0.0000000000
     3        3       1.2527059434    0.0000000000

 respfn : d/dk was computed, but no 2DTE, so no DDB output.

== END DATASET(S) ==============================================================

 -outvars: echo values of variables after computation  --------
            acell      1.0000000000E+00  1.0000000000E+00  1.0000000000E+00 Bohr
              amu      8.54678000E+01  1.96966540E+02  3.20660000E+01
             ecut      3.80000000E+01 Hartree
           etotal     -1.8560700822E+01
            fcart      0.0000000000E+00  0.0000000000E+00  0.0000000000E+00
                       0.0000000000E+00  0.0000000000E+00  0.0000000000E+00
                       0.0000000000E+00  0.0000000000E+00  0.0000000000E+00
                       0.0000000000E+00  0.0000000000E+00  0.0000000000E+00
                       0.0000000000E+00  0.0000000000E+00  0.0000000000E+00
                       0.0000000000E+00  0.0000000000E+00  0.0000000000E+00
-          fftalg         512
           irdden           1
           irdwfk           1
              ixc     -116133
              kpt     -5.00000000E-01  5.00000000E-01  0.00000000E+00
                      -6.25000000E-02  6.25000000E-02  0.00000000E+00
           kptopt           0
P           mkmem           2
P          mkqmem           2
P          mk1mem           2
            natom           6
            nband          43
           nbdbuf           4
            ngfft          60      60      72
             nkpt           2
            nstep        1000
             nsym           8
           ntypat           3
              occ      2.000000  2.000000  2.000000  2.000000  2.000000  2.000000
                       2.000000  2.000000  2.000000  2.000000  2.000000  2.000000
                       2.000000  2.000000  2.000000  2.000000  2.000000  2.000000
                       2.000000  2.000000  2.000000  2.000000  2.000000  2.000000
                       2.000000  2.000000  2.000000  2.000000  2.000000  2.000000
                       2.000000  2.000000  2.000000  2.000000  0.000000  0.000000
                       0.000000  0.000000  0.000000  0.000000  0.000000  0.000000
                       0.000000
        optdriver           1
            prtwf          -1
            rfdir           1       1       1
           rfelfd           2
            rprim      9.8807097741E+00  0.0000000000E+00  0.0000000000E+00
                      -2.0584712768E+00  9.6639081971E+00  0.0000000000E+00
                       0.0000000000E+00  0.0000000000E+00  1.2453041617E+01
          spgroup          63
           strten      0.0000000000E+00  0.0000000000E+00  0.0000000000E+00
                       0.0000000000E+00  0.0000000000E+00  0.0000000000E+00
           symrel      1  0  0   0  1  0   0  0  1      -1  0  0   0 -1  0   0  0 -1
                       0 -1  0  -1  0  0   0  0 -1       0  1  0   1  0  0   0  0  1
                      -1  0  0   0 -1  0   0  0  1       1  0  0   0  1  0   0  0 -1
                       0  1  0   1  0  0   0  0 -1       0 -1  0  -1  0  0   0  0  1
            tnons      0.0000000  0.0000000  0.0000000     0.0000000  0.0000000  0.0000000
                       0.0000000  0.0000000  0.5000000     0.0000000  0.0000000  0.5000000
                       0.0000000  0.0000000  0.5000000     0.0000000  0.0000000  0.5000000
                       0.0000000  0.0000000  0.0000000     0.0000000  0.0000000  0.0000000
           tolwfr      1.00000000E-20
            typat      1  1  2  2  3  3
           useylm           1
              wtk        0.50000    0.50000
           xangst     -2.8616555139E-01  4.4638435719E+00  1.6474664503E+00
                       4.4255158843E+00  6.5007639188E-01  4.9423993509E+00
                       2.0696751665E+00  2.5569599819E+00  0.0000000000E+00
                       2.0696751665E+00  2.5569599819E+00  3.2949329006E+00
                       3.3210889915E+00  1.5440305129E+00  1.6474664503E+00
                       8.1826134139E-01  3.5698894509E+00  4.9423993509E+00
            xcart     -5.4077452079E-01  8.4354418510E+00  3.1132604042E+00
                       8.3630130181E+00  1.2284663461E+00  9.3397812125E+00
                       3.9111192486E+00  4.8319540985E+00  0.0000000000E+00
                       3.9111192486E+00  4.8319540985E+00  6.2265208084E+00
                       6.2759486569E+00  2.9177948102E+00  3.1132604042E+00
                       1.5462898404E+00  6.7461133869E+00  9.3397812125E+00
             xred      1.2711900000E-01  8.7288100000E-01  2.5000000000E-01
                       8.7288100000E-01  1.2711900000E-01  7.5000000000E-01
                       5.0000000000E-01  5.0000000000E-01  0.0000000000E+00
                       5.0000000000E-01  5.0000000000E-01  5.0000000000E-01
                       6.9807300000E-01  3.0192700000E-01  2.5000000000E-01
                       3.0192700000E-01  6.9807300000E-01  7.5000000000E-01
            znucl       37.00000   79.00000   16.00000

- Timing analysis has been suppressed with timopt=0

 Suggested references for the acknowledgment of ABINIT usage.

 Calculation completed.
.Delivered  14 WARNINGs and   9 COMMENTs to log file.