.Version 9.5.1 of ABINIT

 ABINIT is a project of the Universite Catholique de Louvain,
 Corning Inc. and other collaborators, see ~abinit/doc/developers/contributors.txt .
 acknowledgments of the ABINIT effort.

.Starting date : Tue  4 May 2021.
- ( at 19h31 )

- input  file    -> /scratch/users/j/a/jabreu/flow_simple_6atoms/flow/w203/t1/run.abi
- output file    -> /scratch/users/j/a/jabreu/flow_simple_6atoms/flow/w203/t1/run.abo
- root for input  files -> /scratch/users/j/a/jabreu/flow_simple_6atoms/flow/w203/t1/indata/in
- root for output files -> /scratch/users/j/a/jabreu/flow_simple_6atoms/flow/w203/t1/outdata/out

 Symmetries : space group P4/n m m (#129); Bravais tP (primitive tetrag.)
     intxc =       0      iscf =       7    lmnmax =      18     lnmax =       6
     mgfft =      72  mpssoang =       3    mqgrid =    3364     natom =       6
  nloc_mem =       1    nspden =       1   nspinor =       1    nsppol =       1
      nsym =      16    n1xccc =    2501    ntypat =       3    occopt =       1
   xclevel =       2
-    mband =          21        mffmem =           1         mkmem =           2
-   mkqmem =           2        mk1mem =           2           mpw =        7210
      nfft =      145800          nkpt =           2
  Rough estimation (10% accuracy) of disk space for files :

------------- Echo of variables that govern the present computation ------------
-
- outvars: echo of selected default values
-   iomode0 =  0 , fftalg0 =512 , wfoptalg0 =  0
-
- outvars: echo of global parameters not present in the input file
-  max_nthreads =    0
-
 -outvars: echo values of preprocessed input variables --------
            acell      1.0000000000E+00  1.0000000000E+00  1.0000000000E+00 Bohr
              amu      6.94100000E+00  9.01218200E+00  3.09737620E+01
             ecut      4.40000000E+01 Hartree
-          fftalg         512
           irdden           1
           irdwfk           1
           istwfk        0    1
              ixc     -116133
              kpt      0.00000000E+00  1.48148148E-01  0.00000000E+00
                       0.00000000E+00  3.08148791E-33  5.00000000E-01
           kptopt           0
P           mkmem           2
P          mkqmem           2
P          mk1mem           2
            natom           6
            nband          21
           nbdbuf           4
            ngfft          45      45      72
             nkpt           2
            nstep        1000
             nsym          16
           ntypat           3
              occ      2.000000  2.000000  2.000000  2.000000  2.000000  2.000000
                       2.000000  2.000000  2.000000  2.000000  2.000000  2.000000
                       0.000000  0.000000  0.000000  0.000000  0.000000  0.000000
                       0.000000  0.000000  0.000000
        optdriver           1
            prtwf          -1
            rfdir           1       1       1
           rfelfd           2
            rprim      6.7684770927E+00  0.0000000000E+00  0.0000000000E+00
                       0.0000000000E+00  6.7684770927E+00  0.0000000000E+00
                       0.0000000000E+00  0.0000000000E+00  1.1263808469E+01
          spgroup         129
           symrel      1  0  0   0  1  0   0  0  1      -1  0  0   0 -1  0   0  0 -1
                      -1  0  0   0  1  0   0  0 -1       1  0  0   0 -1  0   0  0  1
                      -1  0  0   0 -1  0   0  0  1       1  0  0   0  1  0   0  0 -1
                       1  0  0   0 -1  0   0  0 -1      -1  0  0   0  1  0   0  0  1
                       0  1  0   1  0  0   0  0  1       0 -1  0  -1  0  0   0  0 -1
                       0 -1  0   1  0  0   0  0 -1       0  1  0  -1  0  0   0  0  1
                       0 -1  0  -1  0  0   0  0  1       0  1  0   1  0  0   0  0 -1
                       0  1  0  -1  0  0   0  0 -1       0 -1  0   1  0  0   0  0  1
            tnons      0.0000000  0.0000000  0.0000000     0.5000000  0.5000000 -0.0000000
                       0.5000000  0.5000000 -0.0000000     0.0000000  0.0000000  0.0000000
                       0.0000000  0.0000000  0.0000000     0.5000000  0.5000000 -0.0000000
                       0.5000000  0.5000000 -0.0000000     0.0000000  0.0000000  0.0000000
                       0.5000000  0.5000000  0.0000000     0.0000000  0.0000000 -0.0000000
                       0.0000000  0.0000000 -0.0000000     0.5000000  0.5000000  0.0000000
                       0.5000000  0.5000000  0.0000000     0.0000000  0.0000000 -0.0000000
                       0.0000000  0.0000000 -0.0000000     0.5000000  0.5000000  0.0000000
           tolwfr      1.00000000E-20
            typat      1  1  2  2  3  3
           useylm           1
              wtk        0.50000    0.50000
           xangst      1.7908619072E+00  0.0000000000E+00  2.0962243602E+00
                       0.0000000000E+00  1.7908619072E+00  3.8643263637E+00
                       1.7908619072E+00  1.7908619072E+00  0.0000000000E+00
                       0.0000000000E+00  0.0000000000E+00  0.0000000000E+00
                       1.7908619072E+00  0.0000000000E+00  4.6526270786E+00
                       0.0000000000E+00  1.7908619072E+00  1.3079236454E+00
            xcart      3.3842385464E+00  0.0000000000E+00  3.9612899539E+00
                       0.0000000000E+00  3.3842385464E+00  7.3025185155E+00
                       3.3842385464E+00  3.3842385464E+00  0.0000000000E+00
                       0.0000000000E+00  0.0000000000E+00  0.0000000000E+00
                       3.3842385464E+00  0.0000000000E+00  8.7921909770E+00
                       0.0000000000E+00  3.3842385464E+00  2.4716174924E+00
             xred      5.0000000000E-01  0.0000000000E+00  3.5168300000E-01
                       0.0000000000E+00  5.0000000000E-01  6.4831700000E-01
                       5.0000000000E-01  5.0000000000E-01  0.0000000000E+00
                       0.0000000000E+00  0.0000000000E+00  0.0000000000E+00
                       5.0000000000E-01  0.0000000000E+00  7.8057000000E-01
                       0.0000000000E+00  5.0000000000E-01  2.1943000000E-01
            znucl        3.00000    4.00000   15.00000

 chkinp: Checking input parameters for consistency.

== DATASET  1 ==================================================================
-   mpi_nproc: 1, omp_nthreads: -1 (-1 if OMP is not activated)

--- !DatasetInfo
iteration_state: {dtset: 1, }
dimensions: {natom: 6, nkpt: 2, mband: 21, nsppol: 1, nspinor: 1, nspden: 1, mpw: 7210, }
cutoff_energies: {ecut:  44.0, pawecutdg:  -1.0, }
electrons: {nelect:   2.40000000E+01, charge:   0.00000000E+00, occopt:   1.00000000E+00, tsmear:   1.00000000E-02, }
meta: {optdriver: 1, rfelfd: 2, }
...

 Real(R)+Recip(G) space primitive vectors, cartesian coordinates (Bohr,Bohr^-1):
 R(1)=  6.7684771  0.0000000  0.0000000  G(1)=  0.1477437  0.0000000  0.0000000
 R(2)=  0.0000000  6.7684771  0.0000000  G(2)=  0.0000000  0.1477437  0.0000000
 R(3)=  0.0000000  0.0000000 11.2638085  G(3)=  0.0000000  0.0000000  0.0887799
 Unit cell volume ucvol=  5.1602077E+02 bohr^3
 Angles (23,13,12)=  9.00000000E+01  9.00000000E+01  9.00000000E+01 degrees

 getcut: wavevector=  0.0000  0.0000  0.0000  ngfft=  45  45  72
         ecut(hartree)=     44.000   => boxcut(ratio)=   2.14070

--- Pseudopotential description ------------------------------------------------
- pspini: atom type   1  psp file is /scratch/users/j/a/jabreu/pseudos/PBEsol/Li.psp8
- pspatm: opening atomic psp file    /scratch/users/j/a/jabreu/pseudos/PBEsol/Li.psp8
- Li    ONCVPSP-3.3.0  r_core=   1.40824   1.10935
-  3.00000   3.00000    180112                znucl, zion, pspdat
    8 -116133    1    4       400   0.00000   pspcod,pspxc,lmax,lloc,mmax,r2well
    3.99000000000000    0.00000000000000    0.00000000000000   rchrg,fchrg,qchrg
     nproj     2     2
     extension_switch     1
  pspatm : epsatm=    2.60859637
         --- l  ekb(1:nproj) -->
             0   -4.855856   -1.482423
             1   -2.171544   -0.427615
 pspatm: atomic psp has been read  and splines computed

- pspini: atom type   2  psp file is /scratch/users/j/a/jabreu/pseudos/PBEsol/Be.psp8
- pspatm: opening atomic psp file    /scratch/users/j/a/jabreu/pseudos/PBEsol/Be.psp8
- Be    ONCVPSP-3.3.0  r_core=   1.35684   1.10780
-  4.00000   4.00000    180112                znucl, zion, pspdat
    8 -116133    1    4       400   0.00000   pspcod,pspxc,lmax,lloc,mmax,r2well
    3.99000000000000    0.00000000000000    0.00000000000000   rchrg,fchrg,qchrg
     nproj     2     2
     extension_switch     1
  pspatm : epsatm=    3.86293307
         --- l  ekb(1:nproj) -->
             0   -7.966826   -2.672546
             1   -3.431835   -0.651830
 pspatm: atomic psp has been read  and splines computed

- pspini: atom type   3  psp file is /scratch/users/j/a/jabreu/pseudos/PBEsol/P.psp8
- pspatm: opening atomic psp file    /scratch/users/j/a/jabreu/pseudos/PBEsol/P.psp8
- P     ONCVPSP-3.3.0  r_core=   1.46089   1.55067   1.70594
- 15.00000   5.00000    180112                znucl, zion, pspdat
    8 -116133    2    4       600   0.00000   pspcod,pspxc,lmax,lloc,mmax,r2well
    5.99000000000000    5.00000000000000    0.00000000000000   rchrg,fchrg,qchrg
     nproj     2     2     2
     extension_switch     1
  pspatm : epsatm=    7.31221086
         --- l  ekb(1:nproj) -->
             0    6.742364    1.063650
             1    3.449117    0.910422
             2   -3.077645   -0.799176
 pspatm: atomic psp has been read  and splines computed

   6.61619534E+02                                ecore*ucvol(ha*bohr**3)

-inwffil : will read wavefunctions from disk file /scratch/users/j/a/jabreu/flow_simple_6atoms/flow/w203/t1/indata/in_WFK

 ==>  initialize data related to q vector <==

 The list of irreducible perturbations for this q vector is:
    1)    idir= 1    ipert=   7
    2)    idir= 2    ipert=   7
    3)    idir= 3    ipert=   7

 Perturbation wavevector (in red.coord.)   0.000000  0.000000  0.000000
 Perturbation : derivative vs k along direction   1

 dfpt_looppert : COMMENT -
  In a d/dk calculation, iscf is set to -3 automatically.
 The set of symmetries contains only one element for this perturbation.
 symkpt : not enough symmetry to change the number of k points.

[...]

 Initialisation of the first-order wave-functions :
  ireadwf=   0

--- !BeginCycle
iteration_state: {dtset: 1, }
solver: {iscf: 7, nstep: 1000, nline: 4, wfoptalg: 0, }
tolerances: {tolwfr: 1.00E-20, }
...

     iter   2DEtotal(Ha)        deltaE(Ha) residm    vres2
-ETOT  1  -36.240470286421     -3.624E+01 5.294E-02 0.000E+00
 ETOT  2  -36.244640976325     -4.171E-03 3.602E-05 0.000E+00
 ETOT  3  -36.244642992775     -2.016E-06 8.786E-08 0.000E+00
 ETOT  4  -36.244642994076     -1.301E-09 2.022E-10 0.000E+00
 ETOT  5  -36.244642994077     -9.379E-13 7.190E-13 0.000E+00
 ETOT  6  -36.244642994077     -4.263E-14 2.616E-15 0.000E+00
 ETOT  7  -36.244642994077      5.684E-14 8.313E-18 0.000E+00
 ETOT  8  -36.244642994077     -5.684E-14 3.430E-20 0.000E+00
 ETOT  9  -36.244642994077      0.000E+00 9.927E-21 0.000E+00

 At SCF step    9   max residual=  9.93E-21 < tolwfr=  1.00E-20 =>converged.

 ----iterations are completed or convergence reached----

 dfpt_looppert: DFPT cycle converged with prtwf=-1. Will skip output of the 1st-order WFK file.
 dfpt_looppert : ek2=    4.1363668342E+01
          f-sum rule ratio=    1.7496553600E+00
 prteigrs : about to open file /scratch/users/j/a/jabreu/flow_simple_6atoms/flow/w203/t1/tmpdata/tmp_1WF1_EIG
 Expectation of eigenvalue derivatives (hartree) for nkpt=   2  k points:
  (in case of degenerate eigenvalues, averaged derivative)
 kpt#   1, nband= 21, wtk=  0.50000, kpt=  0.0000  0.1481  0.0000 (reduced coord)
   0.00000    0.00000   -0.00000    0.00000   -0.00000   -0.00000   -0.00000   -0.00000
  -0.00000   -0.00000    0.00000   -0.00000   -0.00000   -0.00000    0.00000    0.00000
   0.00000   -0.00000   -0.00000    0.00000   -0.00001
 prteigrs : prtvol=0 or 1, do not print more k-points.

 Eight components of 2nd-order total energy (hartree) are
 1,2,3: 0th-order hamiltonian combined with 1st-order wavefunctions
     kin0=   1.16002351E+01 eigvalue=   3.28431558E+00  local=  -4.04557235E+00
 4,5,6: 1st-order hamiltonian combined with 1st and 0th-order wfs
     kin1=  -7.23721640E+01  Hartree=   0.00000000E+00     xc=   0.00000000E+00
 7,8,9: eventually, occupation + non-local contributions
    edocc=   2.64008693E+01     enl0=  -9.95204662E-01   enl1=  -1.17121963E-01
 1-9 gives the relaxation energy (to be shifted if some occ is /=2.0)
   erelax=  -3.62446430E+01
  No Ewald or frozen-wf contrib.: the relaxation energy is the total one
 2DEtotal=   -0.3624464299E+02 Ha. Also 2DEtotal=   -0.986266893380E+03 eV
    (  non-var. 2DEtotal :   -3.6244642994E+01 Ha)

 Perturbation wavevector (in red.coord.)   0.000000  0.000000  0.000000
 Perturbation : derivative vs k along direction   2
 The set of symmetries contains only one element for this perturbation.
 symkpt : not enough symmetry to change the number of k points.

[...]

 Perturbation wavevector (in red.coord.)   0.000000  0.000000  0.000000
 Perturbation : derivative vs k along direction   3
 The set of symmetries contains only one element for this perturbation.
 symkpt : not enough symmetry to change the number of k points.

-inwffil : will read wavefunctions from disk file /scratch/users/j/a/jabreu/flow_simple_6atoms/flow/w203/t1/indata/in_WFK

 Initialisation of the first-order wave-functions :
  ireadwf=   0

--- !BeginCycle
iteration_state: {dtset: 1, }
solver: {iscf: 7, nstep: 1000, nline: 4, wfoptalg: 0, }
tolerances: {tolwfr: 1.00E-20, }
...

     iter   2DEtotal(Ha)        deltaE(Ha) residm    vres2
-ETOT  1  -7.3150453976970     -7.315E+00 1.902E-02 0.000E+00
 ETOT  2  -7.3165349211608     -1.490E-03 1.146E-05 0.000E+00
 ETOT  3  -7.3165355457425     -6.246E-07 8.541E-09 0.000E+00
 ETOT  4  -7.3165355462196     -4.771E-10 5.576E-11 0.000E+00
 ETOT  5  -7.3165355462202     -5.231E-13 1.056E-13 0.000E+00
 ETOT  6  -7.3165355462201      7.994E-15 7.706E-16 0.000E+00
 ETOT  7  -7.3165355462202     -5.329E-15 1.758E-18 0.000E+00
 ETOT  8  -7.3165355462202     -1.776E-15 1.251E-20 0.000E+00
 ETOT  9  -7.3165355462202      8.882E-16 9.906E-21 0.000E+00

 At SCF step    9   max residual=  9.91E-21 < tolwfr=  1.00E-20 =>converged.

 ----iterations are completed or convergence reached----

 dfpt_looppert: DFPT cycle converged with prtwf=-1. Will skip output of the 1st-order WFK file.
 dfpt_looppert : ek2=    1.4935867765E+01
          f-sum rule ratio=    9.4458468382E-01
 prteigrs : about to open file /scratch/users/j/a/jabreu/flow_simple_6atoms/flow/w203/t1/tmpdata/tmp_1WF1_EIG
 Expectation of eigenvalue derivatives (hartree) for nkpt=   2  k points:
  (in case of degenerate eigenvalues, averaged derivative)
 kpt#   1, nband= 21, wtk=  0.50000, kpt=  0.0000  0.1481  0.0000 (reduced coord)
  -0.00000   -0.00000    0.00000    0.00000    0.00000   -0.00000    0.00000   -0.00000
  -0.00000    0.00000   -0.00000    0.00000    0.00000    0.00000    0.00000    0.00000
  -0.00000    0.00000    0.00000    0.00000    0.00000
 prteigrs : prtvol=0 or 1, do not print more k-points.

 Eight components of 2nd-order total energy (hartree) are
 1,2,3: 0th-order hamiltonian combined with 1st-order wavefunctions
     kin0=   4.46542080E+00 eigvalue=   1.24999992E+00  local=  -1.71320846E+00
 4,5,6: 1st-order hamiltonian combined with 1st and 0th-order wfs
     kin1=  -1.41081919E+01  Hartree=   0.00000000E+00     xc=   0.00000000E+00
 7,8,9: eventually, occupation + non-local contributions
    edocc=   3.63154038E+00     enl0=  -3.17217086E-01   enl1=  -5.24879162E-01
 1-9 gives the relaxation energy (to be shifted if some occ is /=2.0)
   erelax=  -7.31653555E+00
  No Ewald or frozen-wf contrib.: the relaxation energy is the total one
 2DEtotal=   -0.7316535546E+01 Ha. Also 2DEtotal=   -0.199093057274E+03 eV
    (  non-var. 2DEtotal :   -7.3165355462E+00 Ha)

 CALCULATION OF EFFECTIVE MASSES
 NOTE : Additional infos (eff. mass eigenvalues, eigenvectors and, if degenerate, average mass) are available in stdout.

 K-point ( 0.000, 0.148, 0.000) | band =    12
 Effective mass tensor:
             -0.1403638327             -0.0000000169             -0.0000000014
             -0.0000000169             -3.8965324749             -0.0000000014
             -0.0000000014             -0.0000000014             -0.8733811128
 Effective mass tensor eigenvalues:
             -3.8965324749             -0.8733811128             -0.1403638327
 Angular average effective mass 1/(<1/m>)=  -0.3518666862
 Angular average effective mass for Frohlich model (<m**0.5>)**2=  -0.5515358058
 Effective masses along directions: (cart. coord. / red. coord. -> eff. mass)
    1:   1.000000  0.000000  0.000000 /   1.000000  0.000000  0.000000 ->  -0.1403638327
    2:   0.000000  1.000000  0.000000 /   0.000000  1.000000  0.000000 ->  -3.8965324749
    3:   0.000000  0.000000  1.000000 /   0.000000  0.000000  1.000000 ->  -0.8733811128
    4:   0.577350  0.577350  0.577350 /   0.457896  0.457896  0.762012 ->  -0.3518666897
    5:   0.000000  0.707107  0.707107 /   0.000000  0.515066  0.857151 ->  -1.4269264247
    6:   0.707107  0.000000  0.707107 /   0.515066  0.000000  0.857151 ->  -0.2418579176
    7:   0.707107  0.707107  0.000000 /   0.707107  0.707107  0.000000 ->  -0.2709667008

 K-point ( 0.000, 0.000, 0.500) | band =    13
 Effective mass tensor:
              0.2263979496              0.0000000000             -0.0000000000
              0.0000000000              0.2263979496             -0.0000000000
             -0.0000000000             -0.0000000000              1.6301015809
 Effective mass tensor eigenvalues:
              0.2263979496              0.2263979496              1.6301015809
 Angular average effective mass 1/(<1/m>)=   0.3175456357
 Angular average effective mass for Frohlich model (<m**0.5>)**2=   0.3716275554
 Effective masses along directions: (cart. coord. / red. coord. -> eff. mass)
    1:   1.000000  0.000000  0.000000 /   1.000000  0.000000  0.000000 ->   0.2263979496
    2:   0.000000  1.000000  0.000000 /   0.000000  1.000000  0.000000 ->   0.2263979496
    3:   0.000000  0.000000  1.000000 /   0.000000  0.000000  1.000000 ->   1.6301015809
    4:   0.577350  0.577350  0.577350 /   0.457896  0.457896  0.762012 ->   0.3175456357
    5:   0.000000  0.707107  0.707107 /   0.000000  0.515066  0.857151 ->   0.3975779680
    6:   0.707107  0.000000  0.707107 /   0.515066  0.000000  0.857151 ->   0.3975779681
    7:   0.707107  0.707107  0.000000 /   0.707107  0.707107  0.000000 ->   0.2263979496

 END OF EFFECTIVE MASSES SECTION

 ---- first-order wavefunction calculations are completed ----

 Total localisation tensor (bohr^2) in cartesian coordinates
  WARNING : still subject to testing - especially symmetries.
      direction              matrix element
   alpha     beta       real part   imaginary part
     1        1       4.0263702939    0.0000000000
     1        2       0.0000000000    0.0000000000
     1        3       0.0000000000    0.0000000000
     2        1       0.0000000000    0.0000000000
     2        2       2.7586653681    0.0000000000
     2        3       0.0000000000    0.0000000000
     3        1       0.0000000000    0.0000000000
     3        2       0.0000000000    0.0000000000
     3        3       1.2847362415    0.0000000000

 respfn : d/dk was computed, but no 2DTE, so no DDB output.

== END DATASET(S) ==============================================================

 -outvars: echo values of variables after computation  --------
            acell      1.0000000000E+00  1.0000000000E+00  1.0000000000E+00 Bohr
              amu      6.94100000E+00  9.01218200E+00  3.09737620E+01
             ecut      4.40000000E+01 Hartree
           etotal     -7.3165355462E+00
            fcart      0.0000000000E+00  0.0000000000E+00  0.0000000000E+00
                       0.0000000000E+00  0.0000000000E+00  0.0000000000E+00
                       0.0000000000E+00  0.0000000000E+00  0.0000000000E+00
                       0.0000000000E+00  0.0000000000E+00  0.0000000000E+00
                       0.0000000000E+00  0.0000000000E+00  0.0000000000E+00
                       0.0000000000E+00  0.0000000000E+00  0.0000000000E+00
-          fftalg         512
           irdden           1
           irdwfk           1
           istwfk        0    1
              ixc     -116133
              kpt      0.00000000E+00  1.48148148E-01  0.00000000E+00
                       0.00000000E+00  3.08148791E-33  5.00000000E-01
           kptopt           0
P           mkmem           2
P          mkqmem           2
P          mk1mem           2
            natom           6
            nband          21
           nbdbuf           4
            ngfft          45      45      72
             nkpt           2
            nstep        1000
             nsym          16
           ntypat           3
              occ      2.000000  2.000000  2.000000  2.000000  2.000000  2.000000
                       2.000000  2.000000  2.000000  2.000000  2.000000  2.000000
                       0.000000  0.000000  0.000000  0.000000  0.000000  0.000000
                       0.000000  0.000000  0.000000
        optdriver           1
            prtwf          -1
            rfdir           1       1       1
           rfelfd           2
            rprim      6.7684770927E+00  0.0000000000E+00  0.0000000000E+00
                       0.0000000000E+00  6.7684770927E+00  0.0000000000E+00
                       0.0000000000E+00  0.0000000000E+00  1.1263808469E+01
          spgroup         129
           strten      0.0000000000E+00  0.0000000000E+00  0.0000000000E+00
                       0.0000000000E+00  0.0000000000E+00  0.0000000000E+00
           symrel      1  0  0   0  1  0   0  0  1      -1  0  0   0 -1  0   0  0 -1
                      -1  0  0   0  1  0   0  0 -1       1  0  0   0 -1  0   0  0  1
                      -1  0  0   0 -1  0   0  0  1       1  0  0   0  1  0   0  0 -1
                       1  0  0   0 -1  0   0  0 -1      -1  0  0   0  1  0   0  0  1
                       0  1  0   1  0  0   0  0  1       0 -1  0  -1  0  0   0  0 -1
                       0 -1  0   1  0  0   0  0 -1       0  1  0  -1  0  0   0  0  1
                       0 -1  0  -1  0  0   0  0  1       0  1  0   1  0  0   0  0 -1
                       0  1  0  -1  0  0   0  0 -1       0 -1  0   1  0  0   0  0  1
            tnons      0.0000000  0.0000000  0.0000000     0.5000000  0.5000000 -0.0000000
                       0.5000000  0.5000000 -0.0000000     0.0000000  0.0000000  0.0000000
                       0.0000000  0.0000000  0.0000000     0.5000000  0.5000000 -0.0000000
                       0.5000000  0.5000000 -0.0000000     0.0000000  0.0000000  0.0000000
                       0.5000000  0.5000000  0.0000000     0.0000000  0.0000000 -0.0000000
                       0.0000000  0.0000000 -0.0000000     0.5000000  0.5000000  0.0000000
                       0.5000000  0.5000000  0.0000000     0.0000000  0.0000000 -0.0000000
                       0.0000000  0.0000000 -0.0000000     0.5000000  0.5000000  0.0000000
           tolwfr      1.00000000E-20
            typat      1  1  2  2  3  3
           useylm           1
              wtk        0.50000    0.50000
           xangst      1.7908619072E+00  0.0000000000E+00  2.0962243602E+00
                       0.0000000000E+00  1.7908619072E+00  3.8643263637E+00
                       1.7908619072E+00  1.7908619072E+00  0.0000000000E+00
                       0.0000000000E+00  0.0000000000E+00  0.0000000000E+00
                       1.7908619072E+00  0.0000000000E+00  4.6526270786E+00
                       0.0000000000E+00  1.7908619072E+00  1.3079236454E+00
            xcart      3.3842385464E+00  0.0000000000E+00  3.9612899539E+00
                       0.0000000000E+00  3.3842385464E+00  7.3025185155E+00
                       3.3842385464E+00  3.3842385464E+00  0.0000000000E+00
                       0.0000000000E+00  0.0000000000E+00  0.0000000000E+00
                       3.3842385464E+00  0.0000000000E+00  8.7921909770E+00
                       0.0000000000E+00  3.3842385464E+00  2.4716174924E+00
             xred      5.0000000000E-01  0.0000000000E+00  3.5168300000E-01
                       0.0000000000E+00  5.0000000000E-01  6.4831700000E-01
                       5.0000000000E-01  5.0000000000E-01  0.0000000000E+00
                       0.0000000000E+00  0.0000000000E+00  0.0000000000E+00
                       5.0000000000E-01  0.0000000000E+00  7.8057000000E-01
                       0.0000000000E+00  5.0000000000E-01  2.1943000000E-01
            znucl        3.00000    4.00000   15.00000

- Timing analysis has been suppressed with timopt=0

 Suggested references for the acknowledgment of ABINIT usage.

 Calculation completed.
.Delivered  14 WARNINGs and   9 COMMENTs to log file.