.Version 9.5.1 of ABINIT

 ABINIT is a project of the Universite Catholique de Louvain,
 Corning Inc. and other collaborators, see ~abinit/doc/developers/contributors.txt .
 acknowledgments of the ABINIT effort.

.Starting date : Wed 19 May 2021.
- ( at 13h10 )

- input  file    -> /scratch/users/j/a/jabreu/flow_simple_9atoms/flow/w147/t1/run.abi
- output file    -> /scratch/users/j/a/jabreu/flow_simple_9atoms/flow/w147/t1/run.abo
- root for input  files -> /scratch/users/j/a/jabreu/flow_simple_9atoms/flow/w147/t1/indata/in
- root for output files -> /scratch/users/j/a/jabreu/flow_simple_9atoms/flow/w147/t1/outdata/out

 Symmetries : space group P-3 1 m (#162); Bravais hP (primitive hexag.)
     intxc =       0      iscf =       7    lmnmax =      18     lnmax =       6
     mgfft =      72  mpssoang =       3    mqgrid =    3255     natom =       9
  nloc_mem =       1    nspden =       1   nspinor =       1    nsppol =       1
      nsym =      12    n1xccc =    2501    ntypat =       3    occopt =       1
   xclevel =       2
-    mband =          47        mffmem =           1         mkmem =           2
-   mkqmem =           2        mk1mem =           2           mpw =       13427
      nfft =      294912          nkpt =           2
  Rough estimation (10% accuracy) of disk space for files :

------------- Echo of variables that govern the present computation ------------
-
- outvars: echo of selected default values
-   iomode0 =  0 , fftalg0 =512 , wfoptalg0 =  0
-
- outvars: echo of global parameters not present in the input file
-  max_nthreads =    0
-
 -outvars: echo values of preprocessed input variables --------
            acell      1.0000000000E+00  1.0000000000E+00  1.0000000000E+00 Bohr
              amu      1.37327000E+02  1.21753000E+02  1.59994000E+01
             ecut      4.40000000E+01 Hartree
-          fftalg         512
           irdden           1
           irdwfk           1
           istwfk        0    1
              ixc     -116133
              kpt      1.52777778E-01  1.52777778E-01  0.00000000E+00
                       0.00000000E+00  0.00000000E+00  0.00000000E+00
           kptopt           0
P           mkmem           2
P          mkqmem           2
P          mk1mem           2
            natom           9
            nband          47
           nbdbuf           4
            ngfft          64      64      72
             nkpt           2
            nstep        2000
             nsym          12
           ntypat           3
              occ      2.000000  2.000000  2.000000  2.000000  2.000000  2.000000
                       2.000000  2.000000  2.000000  2.000000  2.000000  2.000000
                       2.000000  2.000000  2.000000  2.000000  2.000000  2.000000
                       2.000000  2.000000  2.000000  2.000000  2.000000  2.000000
                       2.000000  2.000000  2.000000  2.000000  2.000000  2.000000
                       2.000000  2.000000  2.000000  2.000000  2.000000  2.000000
                       2.000000  2.000000  0.000000  0.000000  0.000000  0.000000
                       0.000000  0.000000  0.000000  0.000000  0.000000
        optdriver           1
            prtwf          -1
            rfdir           1       1       1
           rfelfd           2
            rprim      1.0101840121E+01  0.0000000000E+00  0.0000000000E+00
                      -5.0509200603E+00  8.7484501694E+00  0.0000000000E+00
                       0.0000000000E+00  0.0000000000E+00  1.0900253093E+01
          spgroup         162
           symrel      1  0  0   0  1  0   0  0  1      -1  0  0   0 -1  0   0  0 -1
                       0  1  0   1  0  0   0  0  1       0 -1  0  -1  0  0   0  0 -1
                       0  1  0  -1 -1  0   0  0  1       0 -1  0   1  1  0   0  0 -1
                      -1 -1  0   0  1  0   0  0  1       1  1  0   0 -1  0   0  0 -1
                      -1 -1  0   1  0  0   0  0  1       1  1  0  -1  0  0   0  0 -1
                       1  0  0  -1 -1  0   0  0  1      -1  0  0   1  1  0   0  0 -1
           tolwfr      1.00000000E-20
            typat      1  2  2  3  3  3  3  3  3
           useylm           1
              wtk        0.50000    0.50000
           xangst      0.0000000000E+00  0.0000000000E+00  0.0000000000E+00
                       0.0000000000E+00  3.0863202934E+00  2.8840827524E+00
                       2.6728317783E+00  1.5431601467E+00  2.8840827524E+00
                       1.6453016936E+00  2.8497461271E+00  4.0175561149E+00
                       2.0550601694E+00  0.0000000000E+00  4.0175561149E+00
                      -1.0275300847E+00  1.7797343130E+00  4.0175561149E+00
                       3.2906033872E+00  0.0000000000E+00  1.7506093899E+00
                      -1.6453016936E+00  2.8497461271E+00  1.7506093899E+00
                       1.0275300847E+00  1.7797343130E+00  1.7506093899E+00
            xcart      0.0000000000E+00  0.0000000000E+00  0.0000000000E+00
                       0.0000000000E+00  5.8323001129E+00  5.4501265466E+00
                       5.0509200603E+00  2.9161500565E+00  5.4501265466E+00
                       3.1091696069E+00  5.3852397285E+00  7.5920807807E+00
                       3.8835009068E+00  0.0000000000E+00  7.5920807807E+00
                      -1.9417504534E+00  3.3632104409E+00  7.5920807807E+00
                       6.2183392138E+00  0.0000000000E+00  3.3081723125E+00
                      -3.1091696069E+00  5.3852397285E+00  3.3081723125E+00
                       1.9417504534E+00  3.3632104409E+00  3.3081723125E+00
             xred      0.0000000000E+00  0.0000000000E+00  0.0000000000E+00
                       3.3333333333E-01  6.6666666667E-01  5.0000000000E-01
                       6.6666666667E-01  3.3333333333E-01  5.0000000000E-01
                       6.1556500000E-01  6.1556500000E-01  6.9650500000E-01
                       3.8443500000E-01  0.0000000000E+00  6.9650500000E-01
                       0.0000000000E+00  3.8443500000E-01  6.9650500000E-01
                       6.1556500000E-01  0.0000000000E+00  3.0349500000E-01
                       0.0000000000E+00  6.1556500000E-01  3.0349500000E-01
                       3.8443500000E-01  3.8443500000E-01  3.0349500000E-01
            znucl       56.00000   51.00000    8.00000

 chkinp: Checking input parameters for consistency.

== DATASET  1 ==================================================================
-   mpi_nproc: 1, omp_nthreads: -1 (-1 if OMP is not activated)

--- !DatasetInfo
iteration_state: {dtset: 1, }
dimensions: {natom: 9, nkpt: 2, mband: 47, nsppol: 1, nspinor: 1, nspden: 1, mpw: 13427, }
cutoff_energies: {ecut:  44.0, pawecutdg:  -1.0, }
electrons: {nelect:   7.60000000E+01, charge:   0.00000000E+00, occopt:   1.00000000E+00, tsmear:   1.00000000E-02, }
meta: {optdriver: 1, rfelfd: 2, }
...

 Real(R)+Recip(G) space primitive vectors, cartesian coordinates (Bohr,Bohr^-1):
 R(1)= 10.1018401  0.0000000  0.0000000  G(1)=  0.0989919  0.0571530  0.0000000
 R(2)= -5.0509201  8.7484502  0.0000000  G(2)=  0.0000000  0.1143060  0.0000000
 R(3)=  0.0000000  0.0000000 10.9002531  G(3)=  0.0000000  0.0000000  0.0917410
 Unit cell volume ucvol=  9.6331472E+02 bohr^3
 Angles (23,13,12)=  9.00000000E+01  9.00000000E+01  1.20000000E+02 degrees

 getcut: wavevector=  0.0000  0.0000  0.0000  ngfft=  64  64  72
         ecut(hartree)=     44.000   => boxcut(ratio)=   2.12172

--- Pseudopotential description ------------------------------------------------
- pspini: atom type   1  psp file is /scratch/users/j/a/jabreu/pseudos/PBEsol/Ba.psp8
- pspatm: opening atomic psp file    /scratch/users/j/a/jabreu/pseudos/PBEsol/Ba.psp8
- Ba    ONCVPSP-3.3.0  r_core=   2.15444   1.91218   2.15444
- 56.00000  10.00000    180112                znucl, zion, pspdat
    8 -116133    2    4       600   0.00000   pspcod,pspxc,lmax,lloc,mmax,r2well
    5.99000000000000    5.00000000000000    0.00000000000000   rchrg,fchrg,qchrg
     nproj     2     2     2
     extension_switch     1
  pspatm : epsatm=   26.37418029
         --- l  ekb(1:nproj) -->
             0    6.652372    0.677024
             1    5.027722    0.408462
             2    2.543237    0.416854
 pspatm: atomic psp has been read  and splines computed

- pspini: atom type   2  psp file is /scratch/users/j/a/jabreu/pseudos/PBEsol/Sb.psp8
- pspatm: opening atomic psp file    /scratch/users/j/a/jabreu/pseudos/PBEsol/Sb.psp8
- Sb    ONCVPSP-3.3.0  r_core=   1.81962   2.12485   1.81962
- 51.00000  15.00000    180112                znucl, zion, pspdat
    8 -116133    2    4       600   0.00000   pspcod,pspxc,lmax,lloc,mmax,r2well
    5.99000000000000    5.00000000000000    0.00000000000000   rchrg,fchrg,qchrg
     nproj     2     2     2
     extension_switch     1
  pspatm : epsatm=   26.35641246
         --- l  ekb(1:nproj) -->
             0    9.727814    1.485032
             1    5.505335    0.704623
             2   -4.710637   -1.436443
 pspatm: atomic psp has been read  and splines computed

- pspini: atom type   3  psp file is /scratch/users/j/a/jabreu/pseudos/PBEsol/O.psp8
- pspatm: opening atomic psp file    /scratch/users/j/a/jabreu/pseudos/PBEsol/O.psp8
- O     ONCVPSP-3.3.0  r_core=   1.35509   1.45563   1.26150
-  8.00000   6.00000    180112                znucl, zion, pspdat
    8 -116133    2    4       600   0.00000   pspcod,pspxc,lmax,lloc,mmax,r2well
    5.99000000000000    4.00000000000000    0.00000000000000   rchrg,fchrg,qchrg
     nproj     2     2     1
     extension_switch     1
  pspatm : epsatm=    6.22910522
         --- l  ekb(1:nproj) -->
             0    6.050032    0.820363
             1   -4.739617   -1.153841
             2   -1.335834
 pspatm: atomic psp has been read  and splines computed

   8.85108437E+03                                ecore*ucvol(ha*bohr**3)

-inwffil : will read wavefunctions from disk file /scratch/users/j/a/jabreu/flow_simple_9atoms/flow/w147/t1/indata/in_WFK

 ==>  initialize data related to q vector <==

 The list of irreducible perturbations for this q vector is:
    1)    idir= 1    ipert=  10
    2)    idir= 2    ipert=  10
    3)    idir= 3    ipert=  10

 Perturbation wavevector (in red.coord.)   0.000000  0.000000  0.000000
 Perturbation : derivative vs k along direction   1

 dfpt_looppert : COMMENT -
  In a d/dk calculation, iscf is set to -3 automatically.
 The set of symmetries contains only one element for this perturbation.
 symkpt : not enough symmetry to change the number of k points.

[...]

 Initialisation of the first-order wave-functions :
  ireadwf=   0

--- !BeginCycle
iteration_state: {dtset: 1, }
solver: {iscf: 7, nstep: 2000, nline: 4, wfoptalg: 0, }
tolerances: {tolwfr: 1.00E-20, }
...

     iter   2DEtotal(Ha)        deltaE(Ha) residm    vres2
-ETOT  1  -59.313934786680     -5.931E+01 8.360E-02 0.000E+00
 ETOT  2  -59.428478074274     -1.145E-01 7.085E-03 0.000E+00
 ETOT  3  -59.429566567814     -1.088E-03 6.704E-04 0.000E+00
 ETOT  4  -59.429587059989     -2.049E-05 1.297E-04 0.000E+00
 ETOT  5  -59.429587515616     -4.556E-07 1.339E-05 0.000E+00
 ETOT  6  -59.429587526627     -1.101E-08 2.977E-06 0.000E+00
[...]
 ETOT 14  -59.429587526916      2.842E-14 2.917E-12 0.000E+00
 ETOT 15  -59.429587526916     -1.421E-14 6.729E-13 0.000E+00
 ETOT 16  -59.429587526916      0.000E+00 1.164E-13 0.000E+00
 ETOT 17  -59.429587526916      1.421E-14 2.659E-14 0.000E+00
 ETOT 18  -59.429587526916      0.000E+00 4.668E-15 0.000E+00
 ETOT 19  -59.429587526916     -1.421E-14 1.052E-15 0.000E+00
 ETOT 20  -59.429587526916      1.421E-14 1.879E-16 0.000E+00
 ETOT 21  -59.429587526916     -1.421E-14 4.168E-17 0.000E+00
 ETOT 22  -59.429587526916      0.000E+00 7.583E-18 0.000E+00
 ETOT 23  -59.429587526916      0.000E+00 1.653E-18 0.000E+00
 ETOT 24  -59.429587526916      7.105E-15 3.068E-19 0.000E+00
 ETOT 25  -59.429587526916     -7.105E-15 6.568E-20 0.000E+00
 ETOT 26  -59.429587526916      1.421E-14 1.244E-20 0.000E+00
 ETOT 27  -59.429587526916      0.000E+00 9.970E-21 0.000E+00

 At SCF step   27   max residual=  9.97E-21 < tolwfr=  1.00E-20 =>converged.

 ----iterations are completed or convergence reached----

 dfpt_looppert: DFPT cycle converged with prtwf=-1. Will skip output of the 1st-order WFK file.
 dfpt_looppert : ek2=    7.8404516279E+01
          f-sum rule ratio=    1.0258292604E+00
 prteigrs : about to open file /scratch/users/j/a/jabreu/flow_simple_9atoms/flow/w147/t1/tmpdata/tmp_1WF1_EIG
 Expectation of eigenvalue derivatives (hartree) for nkpt=   2  k points:
  (in case of degenerate eigenvalues, averaged derivative)
 kpt#   1, nband= 47, wtk=  0.50000, kpt=  0.1528  0.1528  0.0000 (reduced coord)
  -0.00719    0.00030    0.00091    0.00831   -0.00325   -0.00163   -0.00189    0.00192
   0.00239    0.00047    0.00080    0.05099   -0.08812   -0.01356    0.03505   -0.03071
   0.01476   -0.01645   -0.01086   -0.00749    0.12382   -0.06859    0.01812    0.03901
   0.08291   -0.01375    0.08579   -0.10976   -0.12798    0.01922    0.06444   -0.03528
  -0.03660   -0.01524   -0.01977    0.01131   -0.01354   -0.00304    0.16064   -0.03242
  -0.05623   -0.06510    0.04414    0.05992    0.04208   -0.01422    0.05261
 prteigrs : prtvol=0 or 1, do not print more k-points.

 Eight components of 2nd-order total energy (hartree) are
 1,2,3: 0th-order hamiltonian combined with 1st-order wavefunctions
     kin0=   7.80933060E+01 eigvalue=   6.47133884E+00  local=  -4.09950032E+01
 4,5,6: 1st-order hamiltonian combined with 1st and 0th-order wfs
     kin1=  -8.04296470E+01  Hartree=   0.00000000E+00     xc=   0.00000000E+00
 7,8,9: eventually, occupation + non-local contributions
    edocc=   9.36437002E+00     enl0=   6.49557588E+00   enl1=  -3.84295281E+01
 1-9 gives the relaxation energy (to be shifted if some occ is /=2.0)
   erelax=  -5.94295875E+01
  No Ewald or frozen-wf contrib.: the relaxation energy is the total one
 2DEtotal=   -0.5942958753E+02 Ha. Also 2DEtotal=   -0.161716131884E+04 eV
    (  non-var. 2DEtotal :   -5.9429587526E+01 Ha)

 Perturbation wavevector (in red.coord.)   0.000000  0.000000  0.000000
 Perturbation : derivative vs k along direction   2
 The set of symmetries contains only one element for this perturbation.
 symkpt : not enough symmetry to change the number of k points.

[...]

 Perturbation wavevector (in red.coord.)   0.000000  0.000000  0.000000
 Perturbation : derivative vs k along direction   3
 The set of symmetries contains only one element for this perturbation.
 symkpt : not enough symmetry to change the number of k points.

-inwffil : will read wavefunctions from disk file /scratch/users/j/a/jabreu/flow_simple_9atoms/flow/w147/t1/indata/in_WFK

 Initialisation of the first-order wave-functions :
  ireadwf=   0

--- !BeginCycle
iteration_state: {dtset: 1, }
solver: {iscf: 7, nstep: 2000, nline: 4, wfoptalg: 0, }
tolerances: {tolwfr: 1.00E-20, }
...

     iter   2DEtotal(Ha)        deltaE(Ha) residm    vres2
-ETOT  1  -38.415223927583     -3.842E+01 6.817E-02 0.000E+00
 ETOT  2  -38.467061341382     -5.184E-02 2.916E-03 0.000E+00
 ETOT  3  -38.467446430073     -3.851E-04 1.681E-04 0.000E+00
 ETOT  4  -38.467452418628     -5.989E-06 2.113E-05 0.000E+00
 ETOT  5  -38.467452533585     -1.150E-07 1.485E-06 0.000E+00
 ETOT  6  -38.467452536094     -2.510E-09 2.579E-07 0.000E+00
 ETOT  7  -38.467452536154     -5.910E-11 2.239E-08 0.000E+00
 ETOT  8  -38.467452536155     -1.506E-12 4.799E-09 0.000E+00
 ETOT  9  -38.467452536155     -7.105E-15 6.456E-10 0.000E+00
 ETOT 10  -38.467452536155     -2.132E-14 1.693E-10 0.000E+00
 ETOT 11  -38.467452536155      2.132E-14 2.337E-11 0.000E+00
 ETOT 12  -38.467452536155      0.000E+00 6.822E-12 0.000E+00
 ETOT 13  -38.467452536155      0.000E+00 9.276E-13 0.000E+00
 ETOT 14  -38.467452536155     -7.105E-15 2.792E-13 0.000E+00
 ETOT 15  -38.467452536155      0.000E+00 3.726E-14 0.000E+00
 ETOT 16  -38.467452536155      0.000E+00 1.147E-14 0.000E+00
 ETOT 17  -38.467452536155      0.000E+00 1.503E-15 0.000E+00
 ETOT 18  -38.467452536155     -7.105E-15 4.721E-16 0.000E+00
 ETOT 19  -38.467452536155      0.000E+00 6.089E-17 0.000E+00
 ETOT 20  -38.467452536155      1.421E-14 1.946E-17 0.000E+00
 ETOT 21  -38.467452536155     -1.421E-14 2.474E-18 0.000E+00
 ETOT 22  -38.467452536155      0.000E+00 8.033E-19 0.000E+00
 ETOT 23  -38.467452536155      0.000E+00 1.008E-19 0.000E+00
 ETOT 24  -38.467452536155      1.421E-14 3.319E-20 0.000E+00
 ETOT 25  -38.467452536155      0.000E+00 9.855E-21 0.000E+00

 At SCF step   25   max residual=  9.85E-21 < tolwfr=  1.00E-20 =>converged.

 ----iterations are completed or convergence reached----

 dfpt_looppert: DFPT cycle converged with prtwf=-1. Will skip output of the 1st-order WFK file.
 dfpt_looppert : ek2=    5.0504509868E+01
          f-sum rule ratio=    1.0333266393E+00
 prteigrs : about to open file /scratch/users/j/a/jabreu/flow_simple_9atoms/flow/w147/t1/tmpdata/tmp_1WF1_EIG
 Expectation of eigenvalue derivatives (hartree) for nkpt=   2  k points:
  (in case of degenerate eigenvalues, averaged derivative)
 kpt#   1, nband= 47, wtk=  0.50000, kpt=  0.1528  0.1528  0.0000 (reduced coord)
   0.00001   -0.00000   -0.00000   -0.00000   -0.00000    0.00000    0.00000   -0.00000
  -0.00000    0.00000   -0.00005    0.00014    0.00194   -0.00201    0.00370   -0.00397
  -0.00204   -0.00957    0.01947    0.00991   -0.01173   -0.00910    0.00016    0.02195
  -0.03784   -0.00140   -0.00558    0.01805   -0.01489    0.01114   -0.00559   -0.02745
  -0.01615    0.02035    0.04999   -0.00475    0.01749   -0.00523   -0.00875    0.00132
  -0.05081    0.05947    0.01845    0.00260   -0.08220   -0.06182    0.05921
 prteigrs : prtvol=0 or 1, do not print more k-points.

 Eight components of 2nd-order total energy (hartree) are
 1,2,3: 0th-order hamiltonian combined with 1st-order wavefunctions
     kin0=   5.02947264E+01 eigvalue=   4.23093450E+00  local=  -2.63187135E+01
 4,5,6: 1st-order hamiltonian combined with 1st and 0th-order wfs
     kin1=  -5.21876555E+01  Hartree=   0.00000000E+00     xc=   0.00000000E+00
 7,8,9: eventually, occupation + non-local contributions
    edocc=   6.27982124E+00     enl0=   3.98068390E+00   enl1=  -2.47472496E+01
 1-9 gives the relaxation energy (to be shifted if some occ is /=2.0)
   erelax=  -3.84674525E+01
  No Ewald or frozen-wf contrib.: the relaxation energy is the total one
 2DEtotal=   -0.3846745254E+02 Ha. Also 2DEtotal=   -0.104675261708E+04 eV
    (  non-var. 2DEtotal :   -3.8467452536E+01 Ha)

 CALCULATION OF EFFECTIVE MASSES
 NOTE : Additional infos (eff. mass eigenvalues, eigenvectors and, if degenerate, average mass) are available in stdout.

--- !WARNING
src_file: m_efmas.F90
src_line: 0
message: |

    Band(s)    38,
    are not band extrema, but saddle points;
    the transport equivalent formalism breaks down in these conditions.
    The associated tensor(s) will therefore not be printed.
...

 K-point ( 0.153, 0.153, 0.000) | band =    38
 Effective mass tensor:
     *** SADDLE POINT: TRANSPORT EQV. EFF. MASS NOT DEFINED (see WARNING above) ***
 Angular average effective mass 1/(<1/m>)=  -3.9743398782
 Angular average effective mass for Frohlich model (<m**0.5>)**2= -10.0487750303
 Effective masses along directions: (cart. coord. / red. coord. -> eff. mass)
    1:   1.000000  0.000000  0.000000 /   0.894427 -0.447214  0.000000 ->  -3.8403482680
    2:   0.000000  1.000000  0.000000 /   0.000000  1.000000  0.000000 ->  -1.9410267642
    3:   0.000000  0.000000  1.000000 /   0.000000  0.000000  1.000000 ->  48.2114486097
    4:   0.577350  0.577350  0.577350 /   0.659625  0.241440  0.711760 ->  -2.9133889425
    5:   0.000000  0.707107  0.707107 /   0.000000  0.625927  0.779882 ->  -5.1429275520
    6:   0.707107  0.000000  0.707107 /   0.643580 -0.321790  0.694446 -> -11.1896327191
    7:   0.707107  0.707107  0.000000 /   0.939071  0.343724  0.000000 ->  -1.6434521871

 K-point ( 0.000, 0.000, 0.000) | band =    39
 Effective mass tensor:
              0.3765455802              0.0000000000             -0.0000000000
              0.0000000000              0.3765455802             -0.0000000000
             -0.0000000000             -0.0000000000              0.5538148505
 Effective mass tensor eigenvalues:
              0.3765455802              0.3765455802              0.5538148505
 Angular average effective mass 1/(<1/m>)=   0.4215200257
 Angular average effective mass for Frohlich model (<m**0.5>)**2=   0.4254172034
 Effective masses along directions: (cart. coord. / red. coord. -> eff. mass)
    1:   1.000000  0.000000  0.000000 /   0.894427 -0.447214  0.000000 ->   0.3765455802
    2:   0.000000  1.000000  0.000000 /   0.000000  1.000000  0.000000 ->   0.3765455802
    3:   0.000000  0.000000  1.000000 /   0.000000  0.000000  1.000000 ->   0.5538148505
    4:   0.577350  0.577350  0.577350 /   0.659625  0.241440  0.711760 ->   0.4215200257
    5:   0.000000  0.707107  0.707107 /   0.000000  0.625927  0.779882 ->   0.4482919250
    6:   0.707107  0.000000  0.707107 /   0.643580 -0.321790  0.694446 ->   0.4482919250
    7:   0.707107  0.707107  0.000000 /   0.939071  0.343724  0.000000 ->   0.3765455802

 END OF EFFECTIVE MASSES SECTION

 ---- first-order wavefunction calculations are completed ----

 Total localisation tensor (bohr^2) in cartesian coordinates
  WARNING : still subject to testing - especially symmetries.
      direction              matrix element
   alpha     beta       real part   imaginary part
     1        1       1.2930188659    0.0000000000
     1        2      -0.4479175494    0.0000000000
     1        3       0.0000000000    0.0000000000
     2        1      -0.4479175494    0.0000000000
     2        2       0.7758159532    0.0000000000
     2        3       0.0000000000    0.0000000000
     3        1       0.0000000000    0.0000000000
     3        2       0.0000000000    0.0000000000
     3        3       0.7629561319    0.0000000000

 respfn : d/dk was computed, but no 2DTE, so no DDB output.

== END DATASET(S) ==============================================================

 -outvars: echo values of variables after computation  --------
            acell      1.0000000000E+00  1.0000000000E+00  1.0000000000E+00 Bohr
              amu      1.37327000E+02  1.21753000E+02  1.59994000E+01
             ecut      4.40000000E+01 Hartree
           etotal     -3.8467452536E+01
            fcart      0.0000000000E+00  0.0000000000E+00  0.0000000000E+00
                       0.0000000000E+00  0.0000000000E+00  0.0000000000E+00
                       0.0000000000E+00  0.0000000000E+00  0.0000000000E+00
                       0.0000000000E+00  0.0000000000E+00  0.0000000000E+00
                       0.0000000000E+00  0.0000000000E+00  0.0000000000E+00
                       0.0000000000E+00  0.0000000000E+00  0.0000000000E+00
                       0.0000000000E+00  0.0000000000E+00  0.0000000000E+00
                       0.0000000000E+00  0.0000000000E+00  0.0000000000E+00
                       0.0000000000E+00  0.0000000000E+00  0.0000000000E+00
-          fftalg         512
           irdden           1
           irdwfk           1
           istwfk        0    1
              ixc     -116133
              kpt      1.52777778E-01  1.52777778E-01  0.00000000E+00
                       0.00000000E+00  0.00000000E+00  0.00000000E+00
           kptopt           0
P           mkmem           2
P          mkqmem           2
P          mk1mem           2
            natom           9
            nband          47
           nbdbuf           4
            ngfft          64      64      72
             nkpt           2
            nstep        2000
             nsym          12
           ntypat           3
              occ      2.000000  2.000000  2.000000  2.000000  2.000000  2.000000
                       2.000000  2.000000  2.000000  2.000000  2.000000  2.000000
                       2.000000  2.000000  2.000000  2.000000  2.000000  2.000000
                       2.000000  2.000000  2.000000  2.000000  2.000000  2.000000
                       2.000000  2.000000  2.000000  2.000000  2.000000  2.000000
                       2.000000  2.000000  2.000000  2.000000  2.000000  2.000000
                       2.000000  2.000000  0.000000  0.000000  0.000000  0.000000
                       0.000000  0.000000  0.000000  0.000000  0.000000
        optdriver           1
            prtwf          -1
            rfdir           1       1       1
           rfelfd           2
            rprim      1.0101840121E+01  0.0000000000E+00  0.0000000000E+00
                      -5.0509200603E+00  8.7484501694E+00  0.0000000000E+00
                       0.0000000000E+00  0.0000000000E+00  1.0900253093E+01
          spgroup         162
           strten      0.0000000000E+00  0.0000000000E+00  0.0000000000E+00
                       0.0000000000E+00  0.0000000000E+00  0.0000000000E+00
           symrel      1  0  0   0  1  0   0  0  1      -1  0  0   0 -1  0   0  0 -1
                       0  1  0   1  0  0   0  0  1       0 -1  0  -1  0  0   0  0 -1
                       0  1  0  -1 -1  0   0  0  1       0 -1  0   1  1  0   0  0 -1
                      -1 -1  0   0  1  0   0  0  1       1  1  0   0 -1  0   0  0 -1
                      -1 -1  0   1  0  0   0  0  1       1  1  0  -1  0  0   0  0 -1
                       1  0  0  -1 -1  0   0  0  1      -1  0  0   1  1  0   0  0 -1
           tolwfr      1.00000000E-20
            typat      1  2  2  3  3  3  3  3  3
           useylm           1
              wtk        0.50000    0.50000
           xangst      0.0000000000E+00  0.0000000000E+00  0.0000000000E+00
                       0.0000000000E+00  3.0863202934E+00  2.8840827524E+00
                       2.6728317783E+00  1.5431601467E+00  2.8840827524E+00
                       1.6453016936E+00  2.8497461271E+00  4.0175561149E+00
                       2.0550601694E+00  0.0000000000E+00  4.0175561149E+00
                      -1.0275300847E+00  1.7797343130E+00  4.0175561149E+00
                       3.2906033872E+00  0.0000000000E+00  1.7506093899E+00
                      -1.6453016936E+00  2.8497461271E+00  1.7506093899E+00
                       1.0275300847E+00  1.7797343130E+00  1.7506093899E+00
            xcart      0.0000000000E+00  0.0000000000E+00  0.0000000000E+00
                       0.0000000000E+00  5.8323001129E+00  5.4501265466E+00
                       5.0509200603E+00  2.9161500565E+00  5.4501265466E+00
                       3.1091696069E+00  5.3852397285E+00  7.5920807807E+00
                       3.8835009068E+00  0.0000000000E+00  7.5920807807E+00
                      -1.9417504534E+00  3.3632104409E+00  7.5920807807E+00
                       6.2183392138E+00  0.0000000000E+00  3.3081723125E+00
                      -3.1091696069E+00  5.3852397285E+00  3.3081723125E+00
                       1.9417504534E+00  3.3632104409E+00  3.3081723125E+00
             xred      0.0000000000E+00  0.0000000000E+00  0.0000000000E+00
                       3.3333333333E-01  6.6666666667E-01  5.0000000000E-01
                       6.6666666667E-01  3.3333333333E-01  5.0000000000E-01
                       6.1556500000E-01  6.1556500000E-01  6.9650500000E-01
                       3.8443500000E-01  0.0000000000E+00  6.9650500000E-01
                       0.0000000000E+00  3.8443500000E-01  6.9650500000E-01
                       6.1556500000E-01  0.0000000000E+00  3.0349500000E-01
                       0.0000000000E+00  6.1556500000E-01  3.0349500000E-01
                       3.8443500000E-01  3.8443500000E-01  3.0349500000E-01
            znucl       56.00000   51.00000    8.00000

- Timing analysis has been suppressed with timopt=0

 Suggested references for the acknowledgment of ABINIT usage.

 Calculation completed.
.Delivered  15 WARNINGs and  11 COMMENTs to log file.