.Version 9.5.1 of ABINIT

 ABINIT is a project of the Universite Catholique de Louvain,
 Corning Inc. and other collaborators, see ~abinit/doc/developers/contributors.txt .
 acknowledgments of the ABINIT effort.

.Starting date : Tue 27 Apr 2021.
- ( at 15h30 )

- input  file    -> /scratch/users/j/a/jabreu/flow_simple/flow/w135/t1/run.abi
- output file    -> /scratch/users/j/a/jabreu/flow_simple/flow/w135/t1/run.abo
- root for input  files -> /scratch/users/j/a/jabreu/flow_simple/flow/w135/t1/indata/in
- root for output files -> /scratch/users/j/a/jabreu/flow_simple/flow/w135/t1/outdata/out

 Symmetries : space group F-4 3 m (#216); Bravais cF (face-center cubic)
     intxc =       0      iscf =       7    lmnmax =      18     lnmax =       6
     mgfft =      50  mpssoang =       3    mqgrid =    3001     natom =       3
  nloc_mem =       1    nspden =       1   nspinor =       1    nsppol =       1
      nsym =      24    n1xccc =    2501    ntypat =       3    occopt =       1
   xclevel =       2
-    mband =          31        mffmem =           1         mkmem =           2
-   mkqmem =           2        mk1mem =           2           mpw =        5646
      nfft =      125000          nkpt =           2
  Rough estimation (10% accuracy) of disk space for files :

------------- Echo of variables that govern the present computation ------------
-
- outvars: echo of selected default values
-   iomode0 =  0 , fftalg0 =512 , wfoptalg0 =  0
-
- outvars: echo of global parameters not present in the input file
-  max_nthreads =    0
-
 -outvars: echo values of preprocessed input variables --------
            acell      1.0000000000E+00  1.0000000000E+00  1.0000000000E+00 Bohr
              amu      9.12240000E+01  5.58470000E+01  1.27600000E+02
             ecut      4.70000000E+01 Hartree
-          fftalg         512
           irdden           1
           irdwfk           1
           istwfk        1    0
              ixc     -116133
              kpt      5.00000000E-01  5.00000000E-01  5.00000000E-01
                       2.50000000E-01  3.08148791E-33  2.50000000E-01
           kptopt           0
P           mkmem           2
P          mkqmem           2
P          mk1mem           2
            natom           3
            nband          31
           nbdbuf           4
            ngfft          50      50      50
             nkpt           2
            nstep         100
             nsym          24
           ntypat           3
              occ      2.000000  2.000000  2.000000  2.000000  2.000000  2.000000
                       2.000000  2.000000  2.000000  2.000000  2.000000  2.000000
                       2.000000  2.000000  2.000000  2.000000  2.000000  2.000000
                       2.000000  2.000000  2.000000  2.000000  0.000000  0.000000
                       0.000000  0.000000  0.000000  0.000000  0.000000  0.000000
                       0.000000
        optdriver           1
            prtwf          -1
            rfdir           1       1       1
           rfelfd           2
            rprim      6.9625741408E+00  0.0000000000E+00  4.0198440545E+00
                       2.3208580469E+00  6.5643778526E+00  4.0198440545E+00
                       0.0000000000E+00  0.0000000000E+00  8.0396881089E+00
          spgroup         216
           symrel      1  0  0   0  1  0   0  0  1       0 -1  1   0 -1  0   1 -1  0
                      -1  0  0  -1  0  1  -1  1  0       0  1 -1   1  0 -1   0  0 -1
                      -1  0  0  -1  1  0  -1  0  1       0 -1  1   1 -1  0   0 -1  0
                       1  0  0   0  0  1   0  1  0       0  1 -1   0  0 -1   1  0 -1
                      -1  0  1  -1  1  0  -1  0  0       0 -1  0   1 -1  0   0 -1  1
                       1  0 -1   0  0 -1   0  1 -1       0  1  0   0  0  1   1  0  0
                       1  0 -1   0  1 -1   0  0 -1       0 -1  0   0 -1  1   1 -1  0
                      -1  0  1  -1  0  0  -1  1  0       0  1  0   1  0  0   0  0  1
                       0  0 -1   0  1 -1   1  0 -1       1 -1  0   0 -1  1   0 -1  0
                       0  0  1   1  0  0   0  1  0      -1  1  0  -1  0  0  -1  0  1
                       0  0  1   0  1  0   1  0  0       1 -1  0   0 -1  0   0 -1  1
                       0  0 -1   1  0 -1   0  1 -1      -1  1  0  -1  0  1  -1  0  0
           tolwfr      1.00000000E-20
            typat      1  2  3
           useylm           1
              wtk        0.50000    0.50000
           xangst      2.4562903656E+00  1.7368595741E+00  4.2544197114E+00
                       3.6844355484E+00  2.6052893611E+00  6.3816295671E+00
                       0.0000000000E+00  0.0000000000E+00  0.0000000000E+00
            xcart      4.6417160939E+00  3.2821889263E+00  8.0396881089E+00
                       6.9625741408E+00  4.9232833894E+00  1.2059532163E+01
                       0.0000000000E+00  0.0000000000E+00  0.0000000000E+00
             xred      5.0000000000E-01  5.0000000000E-01  5.0000000000E-01
                       7.5000000000E-01  7.5000000000E-01  7.5000000000E-01
                       0.0000000000E+00  0.0000000000E+00  0.0000000000E+00
            znucl       40.00000   26.00000   52.00000

 chkinp: Checking input parameters for consistency.

== DATASET  1 ==================================================================
-   mpi_nproc: 1, omp_nthreads: -1 (-1 if OMP is not activated)

--- !DatasetInfo
iteration_state: {dtset: 1, }
dimensions: {natom: 3, nkpt: 2, mband: 31, nsppol: 1, nspinor: 1, nspden: 1, mpw: 5646, }
cutoff_energies: {ecut:  47.0, pawecutdg:  -1.0, }
electrons: {nelect:   4.40000000E+01, charge:   0.00000000E+00, occopt:   1.00000000E+00, tsmear:   1.00000000E-02, }
meta: {optdriver: 1, rfelfd: 2, }
...

 Real(R)+Recip(G) space primitive vectors, cartesian coordinates (Bohr,Bohr^-1):
 R(1)=  6.9625741  0.0000000  4.0198441  G(1)=  0.1436250 -0.0507791  0.0000000
 R(2)=  2.3208580  6.5643779  4.0198441  G(2)=  0.0000000  0.1523374  0.0000000
 R(3)=  0.0000000  0.0000000  8.0396881  G(3)= -0.0718125 -0.0507791  0.1243829
 Unit cell volume ucvol=  3.6745368E+02 bohr^3
 Angles (23,13,12)=  6.00000000E+01  6.00000000E+01  6.00000000E+01 degrees

 getcut: wavevector=  0.0000  0.0000  0.0000  ngfft=  50  50  50
         ecut(hartree)=     47.000   => boxcut(ratio)=   2.01600

--- Pseudopotential description ------------------------------------------------
- pspini: atom type   1  psp file is /scratch/users/j/a/jabreu/pseudos/PBEsol/Zr.psp8
- pspatm: opening atomic psp file    /scratch/users/j/a/jabreu/pseudos/PBEsol/Zr.psp8
- Zr    ONCVPSP-3.3.0  r_core=   1.56507   1.56507   1.51006
- 40.00000  12.00000    180112                znucl, zion, pspdat
    8 -116133    2    4       600   0.00000   pspcod,pspxc,lmax,lloc,mmax,r2well
    5.99000000000000    5.00000000000000    0.00000000000000   rchrg,fchrg,qchrg
     nproj     2     2     2
     extension_switch     1
  pspatm : epsatm=   18.88750170
         --- l  ekb(1:nproj) -->
             0   10.584966    0.890424
             1    5.814585    0.741293
             2    1.525459    0.487901
 pspatm: atomic psp has been read  and splines computed

- pspini: atom type   2  psp file is /scratch/users/j/a/jabreu/pseudos/PBEsol/Fe.psp8
- pspatm: opening atomic psp file    /scratch/users/j/a/jabreu/pseudos/PBEsol/Fe.psp8
- Fe    ONCVPSP-3.3.0  r_core=   1.26437   1.20546   1.56719
- 26.00000  16.00000    180112                znucl, zion, pspdat
    8 -116133    2    4       600   0.00000   pspcod,pspxc,lmax,lloc,mmax,r2well
    5.99000000000000    3.00000000000000    0.00000000000000   rchrg,fchrg,qchrg
     nproj     2     2     2
     extension_switch     1
  pspatm : epsatm=   15.04792780
         --- l  ekb(1:nproj) -->
             0   10.133364    1.456638
             1    1.580231   -0.508538
             2   -5.545701   -2.037616
 pspatm: atomic psp has been read  and splines computed

- pspini: atom type   3  psp file is /scratch/users/j/a/jabreu/pseudos/PBEsol/Te.psp8
- pspatm: opening atomic psp file    /scratch/users/j/a/jabreu/pseudos/PBEsol/Te.psp8
- Te    ONCVPSP-3.3.0  r_core=   2.26547   1.91704   1.80604
- 52.00000  16.00000    180112                znucl, zion, pspdat
    8 -116133    2    4       600   0.00000   pspcod,pspxc,lmax,lloc,mmax,r2well
    5.99000000000000    5.00000000000000    0.00000000000000   rchrg,fchrg,qchrg
     nproj     2     2     2
     extension_switch     1
  pspatm : epsatm=   36.82679836
         --- l  ekb(1:nproj) -->
             0    6.345999    0.785432
             1    5.709019    1.070069
             2   -6.035173   -1.870937
 pspatm: atomic psp has been read  and splines computed

   3.11353803E+03                                ecore*ucvol(ha*bohr**3)

-inwffil : will read wavefunctions from disk file /scratch/users/j/a/jabreu/flow_simple/flow/w135/t1/indata/in_WFK

 ==>  initialize data related to q vector <==

 The list of irreducible perturbations for this q vector is:
    1)    idir= 1    ipert=   4
    2)    idir= 2    ipert=   4
    3)    idir= 3    ipert=   4

 Perturbation wavevector (in red.coord.)   0.000000  0.000000  0.000000
 Perturbation : derivative vs k along direction   1

 dfpt_looppert : COMMENT -
  In a d/dk calculation, iscf is set to -3 automatically.
 The set of symmetries contains only one element for this perturbation.
 symkpt : not enough symmetry to change the number of k points.

[...]

 Initialisation of the first-order wave-functions :
  ireadwf=   0

--- !BeginCycle
iteration_state: {dtset: 1, }
solver: {iscf: 7, nstep: 100, nline: 4, wfoptalg: 0, }
tolerances: {tolwfr: 1.00E-20, }
...

     iter   2DEtotal(Ha)        deltaE(Ha) residm    vres2
-ETOT  1  -60.622547320903     -6.062E+01 2.371E-01 0.000E+00
 ETOT  2  -60.683404590193     -6.086E-02 2.949E-03 0.000E+00
 ETOT  3  -60.684043469577     -6.389E-04 1.802E-04 0.000E+00
 ETOT  4  -60.684056038524     -1.257E-05 1.080E-05 0.000E+00
 ETOT  5  -60.684056336598     -2.981E-07 1.215E-06 0.000E+00
 ETOT  6  -60.684056344269     -7.671E-09 7.685E-08 0.000E+00
 ETOT  7  -60.684056344480     -2.102E-10 8.814E-09 0.000E+00
 ETOT  8  -60.684056344486     -6.082E-12 5.792E-10 0.000E+00
 ETOT  9  -60.684056344486     -1.634E-13 6.647E-11 0.000E+00
 ETOT 10  -60.684056344486     -7.105E-15 4.486E-12 0.000E+00
 ETOT 11  -60.684056344486      0.000E+00 5.182E-13 0.000E+00
 ETOT 12  -60.684056344486     -1.421E-14 3.566E-14 0.000E+00
 ETOT 13  -60.684056344486      1.421E-14 4.154E-15 0.000E+00
 ETOT 14  -60.684056344486      1.421E-14 2.894E-16 0.000E+00
 ETOT 15  -60.684056344486     -2.132E-14 3.389E-17 0.000E+00
 ETOT 16  -60.684056344486      7.105E-15 2.379E-18 0.000E+00
 ETOT 17  -60.684056344486      0.000E+00 2.793E-19 0.000E+00
 ETOT 18  -60.684056344486      0.000E+00 1.971E-20 0.000E+00
 ETOT 19  -60.684056344486      0.000E+00 9.885E-21 0.000E+00

 At SCF step   19   max residual=  9.89E-21 < tolwfr=  1.00E-20 =>converged.

 ----iterations are completed or convergence reached----

 dfpt_looppert: DFPT cycle converged with prtwf=-1. Will skip output of the 1st-order WFK file.
 dfpt_looppert : ek2=    8.0622315253E+01
          f-sum rule ratio=    1.0162588967E+00
 prteigrs : about to open file /scratch/users/j/a/jabreu/flow_simple/flow/w135/t1/tmpdata/tmp_1WF1_EIG
 Expectation of eigenvalue derivatives (hartree) for nkpt=   2  k points:
  (in case of degenerate eigenvalues, averaged derivative)
 kpt#   1, nband= 31, wtk=  0.50000, kpt=  0.5000  0.5000  0.5000 (reduced coord)
   0.00000    0.00000    0.00000    0.00000    0.00000   -0.00000   -0.00000   -0.00000
  -0.00000   -0.00000   -0.00000   -0.00000   -0.00000   -0.00000   -0.00000    0.00000
   0.00000   -0.00000   -0.00000    0.00000    0.00000    0.00000   -0.00000    0.00000
   0.00000    0.00000    0.00000    0.00000    0.00000    0.00000    0.00001
 prteigrs : prtvol=0 or 1, do not print more k-points.

 Eight components of 2nd-order total energy (hartree) are
 1,2,3: 0th-order hamiltonian combined with 1st-order wavefunctions
     kin0=   6.16793170E+01 eigvalue=   3.32139506E+00  local=  -2.80289488E+01
 4,5,6: 1st-order hamiltonian combined with 1st and 0th-order wfs
     kin1=  -8.19331452E+01  Hartree=   0.00000000E+00     xc=   0.00000000E+00
 7,8,9: eventually, occupation + non-local contributions
    edocc=   1.72096526E+01     enl0=   6.50264046E+00   enl1=  -3.94349675E+01
 1-9 gives the relaxation energy (to be shifted if some occ is /=2.0)
   erelax=  -6.06840563E+01
  No Ewald or frozen-wf contrib.: the relaxation energy is the total one
 2DEtotal=   -0.6068405634E+02 Ha. Also 2DEtotal=   -0.165129715137E+04 eV
    (  non-var. 2DEtotal :   -6.0684056344E+01 Ha)

 Perturbation wavevector (in red.coord.)   0.000000  0.000000  0.000000
 Perturbation : derivative vs k along direction   2
 The set of symmetries contains only one element for this perturbation.
 symkpt : not enough symmetry to change the number of k points.

[...]

 Perturbation wavevector (in red.coord.)   0.000000  0.000000  0.000000
 Perturbation : derivative vs k along direction   3
 The set of symmetries contains only one element for this perturbation.
 symkpt : not enough symmetry to change the number of k points.

-inwffil : will read wavefunctions from disk file /scratch/users/j/a/jabreu/flow_simple/flow/w135/t1/indata/in_WFK

 Initialisation of the first-order wave-functions :
  ireadwf=   0

--- !BeginCycle
iteration_state: {dtset: 1, }
solver: {iscf: 7, nstep: 100, nline: 4, wfoptalg: 0, }
tolerances: {tolwfr: 1.00E-20, }
...

     iter   2DEtotal(Ha)        deltaE(Ha) residm    vres2
-ETOT  1  -60.622173661396     -6.062E+01 1.207E-01 0.000E+00
 ETOT  2  -60.683407121434     -6.123E-02 2.181E-03 0.000E+00
 ETOT  3  -60.684052087069     -6.450E-04 1.803E-04 0.000E+00
 ETOT  4  -60.684064815830     -1.273E-05 1.081E-05 0.000E+00
 ETOT  5  -60.684065118340     -3.025E-07 1.216E-06 0.000E+00
 ETOT  6  -60.684065126134     -7.795E-09 7.690E-08 0.000E+00
 ETOT  7  -60.684065126348     -2.136E-10 8.819E-09 0.000E+00
 ETOT  8  -60.684065126354     -6.125E-12 5.795E-10 0.000E+00
 ETOT  9  -60.684065126354     -1.990E-13 6.651E-11 0.000E+00
 ETOT 10  -60.684065126354      0.000E+00 4.489E-12 0.000E+00
 ETOT 11  -60.684065126354      7.105E-15 5.185E-13 0.000E+00
 ETOT 12  -60.684065126354      7.105E-15 3.569E-14 0.000E+00
 ETOT 13  -60.684065126354     -2.132E-14 4.156E-15 0.000E+00
 ETOT 14  -60.684065126354      2.842E-14 2.896E-16 0.000E+00
 ETOT 15  -60.684065126354      0.000E+00 3.391E-17 0.000E+00
 ETOT 16  -60.684065126354      0.000E+00 2.381E-18 0.000E+00
 ETOT 17  -60.684065126354      0.000E+00 2.795E-19 0.000E+00
 ETOT 18  -60.684065126354      7.105E-15 1.972E-20 0.000E+00
 ETOT 19  -60.684065126354      7.105E-15 1.000E-20 0.000E+00

 At SCF step   19   max residual=  1.00E-20 < tolwfr=  1.00E-20 =>converged.

 ----iterations are completed or convergence reached----

 dfpt_looppert: DFPT cycle converged with prtwf=-1. Will skip output of the 1st-order WFK file.
 dfpt_looppert : ek2=    8.0622315254E+01
          f-sum rule ratio=    1.0162591307E+00
 prteigrs : about to open file /scratch/users/j/a/jabreu/flow_simple/flow/w135/t1/tmpdata/tmp_1WF1_EIG
 Expectation of eigenvalue derivatives (hartree) for nkpt=   2  k points:
  (in case of degenerate eigenvalues, averaged derivative)
 kpt#   1, nband= 31, wtk=  0.50000, kpt=  0.5000  0.5000  0.5000 (reduced coord)
  -0.00000   -0.00000   -0.00000   -0.00000    0.00000   -0.00000   -0.00000    0.00000
  -0.00000   -0.00000    0.00000    0.00000    0.00000    0.00000    0.00000    0.00000
   0.00000    0.00000    0.00000   -0.00000   -0.00000   -0.00000    0.00000    0.00000
   0.00000   -0.00000    0.00000    0.00000    0.00000    0.00000   -0.00000
 prteigrs : prtvol=0 or 1, do not print more k-points.

 Eight components of 2nd-order total energy (hartree) are
 1,2,3: 0th-order hamiltonian combined with 1st-order wavefunctions
     kin0=   6.16789898E+01 eigvalue=   3.32142945E+00  local=  -2.80287684E+01
 4,5,6: 1st-order hamiltonian combined with 1st and 0th-order wfs
     kin1=  -8.19331640E+01  Hartree=   0.00000000E+00     xc=   0.00000000E+00
 7,8,9: eventually, occupation + non-local contributions
    edocc=   1.72097616E+01     enl0=   6.50265281E+00   enl1=  -3.94349662E+01
 1-9 gives the relaxation energy (to be shifted if some occ is /=2.0)
   erelax=  -6.06840651E+01
  No Ewald or frozen-wf contrib.: the relaxation energy is the total one
 2DEtotal=   -0.6068406513E+02 Ha. Also 2DEtotal=   -0.165129739034E+04 eV
    (  non-var. 2DEtotal :   -6.0684065126E+01 Ha)

 CALCULATION OF EFFECTIVE MASSES
 NOTE : Additional infos (eff. mass eigenvalues, eigenvectors and, if degenerate, average mass) are available in stdout.

 COMMENTS:
 - At k-point ( 0.500, 0.500, 0.500), bands    21 through    22
   are DEGENERATE (effective mass tensor is therefore not defined).
   See Section IIIB Eqs. (67)-(70) and Appendix E of PRB 93 205147 (2016).
 - Angular average effective mass for Frohlich model is to be averaged over degenerate bands. See later.
 - Associated theta integrals calculated with ntheta=   1000 points.

 K-point ( 0.500, 0.500, 0.500) | band =    21
 Transport equivalent effective mass tensor:
             -0.8581993584             -0.0331535414             -0.0812070409
             -0.0331535414             -0.8347569370             -0.0574220699
             -0.0812070409             -0.0574220699             -0.9519681232
 Transport equivalent effective mass tensor eigenvalues:
             -1.0222961328             -0.8113147232             -0.8113135627
 Angular average effective mass 1/(<1/m>)=  -0.8571081561
 Angular average effective mass for Frohlich model (<m**0.5>)**2=  -0.8606859019
 Effective masses along directions: (cart. coord. / red. coord. -> eff. mass)
    1:   1.000000  0.000000  0.000000 /   0.948683  0.316228  0.000000 ->  -0.8100405218
    2:   0.000000  1.000000  0.000000 /   0.000000  1.000000  0.000000 ->  -0.7853934176
    3:   0.000000  0.000000  1.000000 /   0.408248  0.408248  0.816497 ->  -0.8759589990
    4:   0.577350  0.577350  0.577350 /   0.585539  0.688047  0.428644 ->  -0.9742729090
    5:   0.000000  0.707107  0.707107 /   0.289489  0.762222  0.578977 ->  -0.9305577697
    6:   0.707107  0.000000  0.707107 /   0.731423  0.422287  0.535439 ->  -0.9397452484
    7:   0.707107  0.707107  0.000000 /   0.616798  0.787122  0.000000 ->  -0.9061513286

 K-point ( 0.500, 0.500, 0.500) | band =    22
 Transport equivalent effective mass tensor:
             -1.2254076790              0.0216940263              0.0531395119
              0.0216940263             -1.2407468494              0.0375754600
              0.0531395119              0.0375754600             -1.1640478570
 Transport equivalent effective mass tensor eigenvalues:
             -1.2560879385             -1.2560870434             -1.1180274035
 Angular average effective mass 1/(<1/m>)=  -1.1731609828
 Angular average effective mass for Frohlich model (<m**0.5>)**2=  -1.1764671055
 Effective masses along directions: (cart. coord. / red. coord. -> eff. mass)
    1:   1.000000  0.000000  0.000000 /   0.948683  0.316228  0.000000 ->  -1.2500025425
    2:   0.000000  1.000000  0.000000 /   0.000000  1.000000  0.000000 ->  -1.2875791751
    3:   0.000000  0.000000  1.000000 /   0.408248  0.408248  0.816497 ->  -1.2028967551
    4:   0.577350  0.577350  0.577350 /   0.585539  0.688047  0.428644 ->  -1.0899105351
    5:   0.000000  0.707107  0.707107 /   0.289489  0.762222  0.578977 ->  -1.1122402049
    6:   0.707107  0.000000  0.707107 /   0.731423  0.422287  0.535439 ->  -1.1283150507
    7:   0.707107  0.707107  0.000000 /   0.616798  0.787122  0.000000 ->  -1.0906759421

 Angular average effective mass for Frohlich model, averaged over degenerate bands.
 Value of     (<<m**0.5>>)**2 =     1.012421E+00
 Absolute Value of <<m**0.5>> =     1.006191E+00

 K-point ( 0.250, 0.000, 0.250) | band =    23
 Effective mass tensor:
              1.2574926213             -1.0896333314              1.3345228916
             -1.0896333314              2.0279795163             -1.8873002200
              1.3345228916             -1.8873002200              2.7984668287
 Effective mass tensor eigenvalues:
              0.4870054220              0.4870054484              5.1099280960
 Angular average effective mass 1/(<1/m>)=   0.6972807279
 Angular average effective mass for Frohlich model (<m**0.5>)**2=   0.8504919770
 Effective masses along directions: (cart. coord. / red. coord. -> eff. mass)
    1:   1.000000  0.000000  0.000000 /   0.948683  0.316228  0.000000 ->   0.5734754397
    2:   0.000000  1.000000  0.000000 /   0.000000  1.000000  0.000000 ->   0.6972806859
    3:   0.000000  0.000000  1.000000 /   0.408248  0.408248  0.816497 ->   0.8892593855
    4:   0.577350  0.577350  0.577350 /   0.585539  0.688047  0.428644 ->   0.5335804217
    5:   0.000000  0.707107  0.707107 /   0.289489  0.762222  0.578977 ->   0.4907429582
    6:   0.707107  0.000000  0.707107 /   0.731423  0.422287  0.535439 ->   1.1137344600
    7:   0.707107  0.707107  0.000000 /   0.616798  0.787122  0.000000 ->   0.4933874309

 END OF EFFECTIVE MASSES SECTION

 ---- first-order wavefunction calculations are completed ----

 Total localisation tensor (bohr^2) in cartesian coordinates
  WARNING : still subject to testing - especially symmetries.
      direction              matrix element
   alpha     beta       real part   imaginary part
     1        1       1.3925937118    0.0000000000
     1        2       0.3938850190    0.0000000000
     1        3       0.9648172400    0.0000000000
     2        1       0.3938850190    0.0000000000
     2        2       1.1140750717    0.0000000000
     2        3       0.6822288652    0.0000000000
     3        1       0.9648172400    0.0000000000
     3        2       0.6822288652    0.0000000000
     3        3       2.5066694379    0.0000000000

 respfn : d/dk was computed, but no 2DTE, so no DDB output.

== END DATASET(S) ==============================================================

 -outvars: echo values of variables after computation  --------
            acell      1.0000000000E+00  1.0000000000E+00  1.0000000000E+00 Bohr
              amu      9.12240000E+01  5.58470000E+01  1.27600000E+02
             ecut      4.70000000E+01 Hartree
           etotal     -6.0684065126E+01
            fcart      0.0000000000E+00  0.0000000000E+00  0.0000000000E+00
                       0.0000000000E+00  0.0000000000E+00  0.0000000000E+00
                       0.0000000000E+00  0.0000000000E+00  0.0000000000E+00
-          fftalg         512
           irdden           1
           irdwfk           1
           istwfk        1    0
              ixc     -116133
              kpt      5.00000000E-01  5.00000000E-01  5.00000000E-01
                       2.50000000E-01  3.08148791E-33  2.50000000E-01
           kptopt           0
P           mkmem           2
P          mkqmem           2
P          mk1mem           2
            natom           3
            nband          31
           nbdbuf           4
            ngfft          50      50      50
             nkpt           2
            nstep         100
             nsym          24
           ntypat           3
              occ      2.000000  2.000000  2.000000  2.000000  2.000000  2.000000
                       2.000000  2.000000  2.000000  2.000000  2.000000  2.000000
                       2.000000  2.000000  2.000000  2.000000  2.000000  2.000000
                       2.000000  2.000000  2.000000  2.000000  0.000000  0.000000
                       0.000000  0.000000  0.000000  0.000000  0.000000  0.000000
                       0.000000
        optdriver           1
            prtwf          -1
            rfdir           1       1       1
           rfelfd           2
            rprim      6.9625741408E+00  0.0000000000E+00  4.0198440545E+00
                       2.3208580469E+00  6.5643778526E+00  4.0198440545E+00
                       0.0000000000E+00  0.0000000000E+00  8.0396881089E+00
          spgroup         216
           strten      0.0000000000E+00  0.0000000000E+00  0.0000000000E+00
                       0.0000000000E+00  0.0000000000E+00  0.0000000000E+00
           symrel      1  0  0   0  1  0   0  0  1       0 -1  1   0 -1  0   1 -1  0
                      -1  0  0  -1  0  1  -1  1  0       0  1 -1   1  0 -1   0  0 -1
                      -1  0  0  -1  1  0  -1  0  1       0 -1  1   1 -1  0   0 -1  0
                       1  0  0   0  0  1   0  1  0       0  1 -1   0  0 -1   1  0 -1
                      -1  0  1  -1  1  0  -1  0  0       0 -1  0   1 -1  0   0 -1  1
                       1  0 -1   0  0 -1   0  1 -1       0  1  0   0  0  1   1  0  0
                       1  0 -1   0  1 -1   0  0 -1       0 -1  0   0 -1  1   1 -1  0
                      -1  0  1  -1  0  0  -1  1  0       0  1  0   1  0  0   0  0  1
                       0  0 -1   0  1 -1   1  0 -1       1 -1  0   0 -1  1   0 -1  0
                       0  0  1   1  0  0   0  1  0      -1  1  0  -1  0  0  -1  0  1
                       0  0  1   0  1  0   1  0  0       1 -1  0   0 -1  0   0 -1  1
                       0  0 -1   1  0 -1   0  1 -1      -1  1  0  -1  0  1  -1  0  0
           tolwfr      1.00000000E-20
            typat      1  2  3
           useylm           1
              wtk        0.50000    0.50000
           xangst      2.4562903656E+00  1.7368595741E+00  4.2544197114E+00
                       3.6844355484E+00  2.6052893611E+00  6.3816295671E+00
                       0.0000000000E+00  0.0000000000E+00  0.0000000000E+00
            xcart      4.6417160939E+00  3.2821889263E+00  8.0396881089E+00
                       6.9625741408E+00  4.9232833894E+00  1.2059532163E+01
                       0.0000000000E+00  0.0000000000E+00  0.0000000000E+00
             xred      5.0000000000E-01  5.0000000000E-01  5.0000000000E-01
                       7.5000000000E-01  7.5000000000E-01  7.5000000000E-01
                       0.0000000000E+00  0.0000000000E+00  0.0000000000E+00
            znucl       40.00000   26.00000   52.00000

- Timing analysis has been suppressed with timopt=0

 Suggested references for the acknowledgment of ABINIT usage.

 Calculation completed.
.Delivered  14 WARNINGs and   9 COMMENTs to log file.