.Version 9.5.2 of ABINIT

 ABINIT is a project of the Universite Catholique de Louvain,
 Corning Inc. and other collaborators, see ~abinit/doc/developers/contributors.txt .
 acknowledgments of the ABINIT effort.

.Starting date : Thu 27 May 2021.
- ( at 15h19 )

- input  file    -> /scratch/users/j/a/jabreu/flow_simple_11atoms/flow/w283/t1/run.abi
- output file    -> /scratch/users/j/a/jabreu/flow_simple_11atoms/flow/w283/t1/run.abo
- root for input  files -> /scratch/users/j/a/jabreu/flow_simple_11atoms/flow/w283/t1/indata/in
- root for output files -> /scratch/users/j/a/jabreu/flow_simple_11atoms/flow/w283/t1/outdata/out

 Symmetries : space group P2_1/m (# 11); Bravais mP (primitive monocl.)
     intxc =       0      iscf =       7    lmnmax =      32     lnmax =       8
     mgfft =     125  mpssoang =       4    mqgrid =    5583     natom =      12
  nloc_mem =       1    nspden =       1   nspinor =       1    nsppol =       1
      nsym =       4    n1xccc =    2501    ntypat =       4    occopt =       1
   xclevel =       2
-    mband =          97        mffmem =           1         mkmem =           2
-   mkqmem =           2        mk1mem =           2           mpw =       34198
      nfft =      648000          nkpt =           2
  Rough estimation (10% accuracy) of disk space for files :

------------- Echo of variables that govern the present computation ------------
-
- outvars: echo of selected default values
-   iomode0 =  0 , fftalg0 =512 , wfoptalg0 =  0
-
- outvars: echo of global parameters not present in the input file
-  max_nthreads =    0
-
 -outvars: echo values of preprocessed input variables --------
            acell      1.0000000000E+00  1.0000000000E+00  1.0000000000E+00 Bohr
              amu      8.54678000E+01  1.78490000E+02  1.07868200E+02
                       1.27600000E+02
             ecut      4.30000000E+01 Hartree
-          fftalg         512
           irdden           1
           irdwfk           1
           istwfk        1    1
              ixc     -116133
              kpt      0.00000000E+00  0.00000000E+00  0.00000000E+00
                       0.00000000E+00  0.00000000E+00  5.00000000E-01
           kptopt           0
P           mkmem           2
P          mkqmem           2
P          mk1mem           2
            natom          12
            nband          97
           nbdbuf           4
            ngfft          48     108     125
             nkpt           2
            nstep        2000
             nsym           4
           ntypat           4
              occ      2.000000  2.000000  2.000000  2.000000  2.000000  2.000000
                       2.000000  2.000000  2.000000  2.000000  2.000000  2.000000
                       2.000000  2.000000  2.000000  2.000000  2.000000  2.000000
                       2.000000  2.000000  2.000000  2.000000  2.000000  2.000000
                       2.000000  2.000000  2.000000  2.000000  2.000000  2.000000
                       2.000000  2.000000  2.000000  2.000000  2.000000  2.000000
                       2.000000  2.000000  2.000000  2.000000  2.000000  2.000000
                       2.000000  2.000000  2.000000  2.000000  2.000000  2.000000
                       2.000000  2.000000  2.000000  2.000000  2.000000  2.000000
                       2.000000  2.000000  2.000000  2.000000  2.000000  2.000000
                       2.000000  2.000000  2.000000  2.000000  2.000000  2.000000
                       2.000000  2.000000  2.000000  2.000000  2.000000  2.000000
                       2.000000  2.000000  2.000000  2.000000  2.000000  2.000000
                       2.000000  2.000000  2.000000  2.000000  2.000000  2.000000
                       2.000000  2.000000  2.000000  2.000000  0.000000  0.000000
                       0.000000  0.000000  0.000000  0.000000  0.000000  0.000000
                       0.000000
        optdriver           1
            prtwf          -1
            rfdir           1       1       1
           rfelfd           2
            rprim      7.8648661625E+00  0.0000000000E+00  0.0000000000E+00
                       0.0000000000E+00  1.5759196065E+01  6.4952359616E+00
                       0.0000000000E+00  0.0000000000E+00  2.0453844472E+01
          spgroup          11
           symrel      1  0  0   0  1  0   0  0  1      -1  0  0   0 -1  0   0  0 -1
                       1  0  0   0 -1  0   0  0 -1      -1  0  0   0  1  0   0  0  1
            tnons      0.0000000  0.0000000  0.0000000    -0.0000000  0.0000000 -0.0000000
                       0.5000000  0.0000000 -0.0000000     0.5000000  0.0000000  0.0000000
           tolwfr      1.00000000E-20
            typat      1  1  2  2  3  3  4  4  4  4  4  4
           useylm           1
              wtk        0.50000    0.50000
           xangst      1.0404769805E+00  2.1267323497E+00  3.2123651782E+00
                       3.1214309414E+00  6.2126750336E+00  1.1048473980E+01
                       3.1214309414E+00  2.5249974281E+00  8.2745541390E+00
                       1.0404769805E+00  5.8144099552E+00  5.9862850190E+00
                       3.1214309414E+00  7.7151527042E+00  4.2856776014E+00
                       1.0404769805E+00  6.2425467908E-01  9.9751615566E+00
                       3.1214309414E+00  2.1841825272E+00  1.1056367662E+01
                       1.0404769805E+00  8.1916330844E-01  7.2258737591E+00
                       1.0404769805E+00  4.5431340148E+00  8.6473820972E+00
                       1.0404769805E+00  6.1552248561E+00  3.2044714956E+00
                       3.1214309414E+00  3.7962733684E+00  5.6134570608E+00
                       3.1214309414E+00  7.5202440748E+00  7.0349653989E+00
            xcart      1.9662165406E+00  4.0189416989E+00  6.0704904255E+00
                       5.8986496219E+00  1.1740254366E+01  2.0878590008E+01
                       5.8986496219E+00  4.7715536253E+00  1.5636641194E+01
                       1.9662165406E+00  1.0987642440E+01  1.1312439239E+01
                       5.8986496219E+00  1.4579525684E+01  8.0987569605E+00
                       1.9662165406E+00  1.1796703806E+00  1.8850323473E+01
                       5.8986496219E+00  4.1275068006E+00  2.0893506906E+01
                       1.9662165406E+00  1.5479943111E+00  1.3654922475E+01
                       1.9662165406E+00  8.5852790730E+00  1.6341183930E+01
                       1.9662165406E+00  1.1631689264E+01  6.0555735273E+00
                       5.8986496219E+00  7.1739169919E+00  1.0607896504E+01
                       5.8986496219E+00  1.4211201754E+01  1.3294157958E+01
             xred      2.5000000000E-01  2.5502200000E-01  2.1580600000E-01
                       7.5000000000E-01  7.4497800000E-01  7.8419400000E-01
                       7.5000000000E-01  3.0277900000E-01  6.6833500000E-01
                       2.5000000000E-01  6.9722100000E-01  3.3166500000E-01
                       7.5000000000E-01  9.2514400000E-01  1.0216800000E-01
                       2.5000000000E-01  7.4856000000E-02  8.9783200000E-01
                       7.5000000000E-01  2.6191100000E-01  9.3832400000E-01
                       2.5000000000E-01  9.8228000000E-02  6.3640400000E-01
                       2.5000000000E-01  5.4477900000E-01  6.2593200000E-01
                       2.5000000000E-01  7.3808900000E-01  6.1676000000E-02
                       7.5000000000E-01  4.5522100000E-01  3.7406800000E-01
                       7.5000000000E-01  9.0177200000E-01  3.6359600000E-01
            znucl       37.00000   72.00000   47.00000   52.00000

 chkinp: Checking input parameters for consistency.

== DATASET  1 ==================================================================
-   mpi_nproc: 1, omp_nthreads: -1 (-1 if OMP is not activated)

--- !DatasetInfo
iteration_state: {dtset: 1, }
dimensions: {natom: 12, nkpt: 2, mband: 97, nsppol: 1, nspinor: 1, nspden: 1, mpw: 34198, }
cutoff_energies: {ecut:  43.0, pawecutdg:  -1.0, }
electrons: {nelect:   1.76000000E+02, charge:   0.00000000E+00, occopt:   1.00000000E+00, tsmear:   1.00000000E-02, }
meta: {optdriver: 1, rfelfd: 2, }
...

 Real(R)+Recip(G) space primitive vectors, cartesian coordinates (Bohr,Bohr^-1):
 R(1)=  7.8648662  0.0000000  0.0000000  G(1)=  0.1271477  0.0000000  0.0000000
 R(2)=  0.0000000 15.7591961  6.4952360  G(2)=  0.0000000  0.0634550  0.0000000
 R(3)=  0.0000000  0.0000000 20.4538445  G(3)=  0.0000000 -0.0201505  0.0488906
 Unit cell volume ucvol=  2.5351306E+03 bohr^3
 Angles (23,13,12)=  6.76007332E+01  9.00000000E+01  9.00000000E+01 degrees

 getcut: wavevector=  0.0000  0.0000  0.0000  ngfft=  48 108 125
         ecut(hartree)=     43.000   => boxcut(ratio)=   2.05379

--- Pseudopotential description ------------------------------------------------
- pspini: atom type   1  psp file is /scratch/users/j/a/jabreu/pseudos/PBEsol/Rb.psp8
- pspatm: opening atomic psp file    /scratch/users/j/a/jabreu/pseudos/PBEsol/Rb.psp8
- Rb    ONCVPSP-3.3.0  r_core=   1.71227   1.75361   1.90633
- 37.00000   9.00000    180112                znucl, zion, pspdat
    8 -116133    2    4       600   0.00000   pspcod,pspxc,lmax,lloc,mmax,r2well
    5.99000000000000    7.00000000000000    0.00000000000000   rchrg,fchrg,qchrg
     nproj     2     2     2
     extension_switch     1
  pspatm : epsatm=   34.48400912
         --- l  ekb(1:nproj) -->
             0    8.196957   -0.477221
             1    3.231347   -0.378736
             2   -1.047201    0.996637
 pspatm: atomic psp has been read  and splines computed

- pspini: atom type   2  psp file is /scratch/users/j/a/jabreu/pseudos/PBEsol/Hf.psp8
- pspatm: opening atomic psp file    /scratch/users/j/a/jabreu/pseudos/PBEsol/Hf.psp8
- Hf    ONCVPSP-3.3.0  r_core=   1.71613   1.71613   1.71613   2.42541
- 72.00000  12.00000    180112                znucl, zion, pspdat
    8 -116133    3    4       600   0.00000   pspcod,pspxc,lmax,lloc,mmax,r2well
    5.99000000000000    5.40000000000000    0.00000000000000   rchrg,fchrg,qchrg
     nproj     2     2     2     2
     extension_switch     1
  pspatm : epsatm=   21.99082902
         --- l  ekb(1:nproj) -->
             0    5.882750   -0.519107
             1    2.555685   -1.768609
             2    1.383259    0.138001
             3    9.464546    0.347497
 pspatm: atomic psp has been read  and splines computed

[...]

- pspini: atom type   4  psp file is /scratch/users/j/a/jabreu/pseudos/PBEsol/Te.psp8
- pspatm: opening atomic psp file    /scratch/users/j/a/jabreu/pseudos/PBEsol/Te.psp8
- Te    ONCVPSP-3.3.0  r_core=   2.26547   1.91704   1.80604
- 52.00000  16.00000    180112                znucl, zion, pspdat
    8 -116133    2    4       600   0.00000   pspcod,pspxc,lmax,lloc,mmax,r2well
    5.99000000000000    5.00000000000000    0.00000000000000   rchrg,fchrg,qchrg
     nproj     2     2     2
     extension_switch     1
  pspatm : epsatm=   36.82679836
         --- l  ekb(1:nproj) -->
             0    6.345999    0.785432
             1    5.709019    1.070069
             2   -6.035173   -1.870937
 pspatm: atomic psp has been read  and splines computed

[...]
 7,8,9: eventually, occupation + non-local contributions
    edocc=   3.03613623E+01     enl0=   3.21276507E+01   enl1=  -1.73402383E+02
 1-9 gives the relaxation energy (to be shifted if some occ is /=2.0)
   erelax=  -2.26075272E+02
  No Ewald or frozen-wf contrib.: the relaxation energy is the total one
 2DEtotal=   -0.2260752717E+03 Ha. Also 2DEtotal=   -0.615182099869E+04 eV
    (  non-var. 2DEtotal :   -2.2607527167E+02 Ha)

 Perturbation wavevector (in red.coord.)   0.000000  0.000000  0.000000
 Perturbation : derivative vs k along direction   2
 The set of symmetries contains only one element for this perturbation.
 symkpt : not enough symmetry to change the number of k points.

[...]

 Perturbation wavevector (in red.coord.)   0.000000  0.000000  0.000000
 Perturbation : derivative vs k along direction   3
 The set of symmetries contains only one element for this perturbation.
 symkpt : not enough symmetry to change the number of k points.

 Initialisation of the first-order wave-functions :
  ireadwf=   0

--- !BeginCycle
iteration_state: {dtset: 1, }
solver: {iscf: 7, nstep: 2000, nline: 4, wfoptalg: 0, }
tolerances: {tolwfr: 1.00E-20, }
...

     iter   2DEtotal(Ha)        deltaE(Ha) residm    vres2
-ETOT  1  -34.041605732951     -3.404E+01 8.112E-02 0.000E+00
 ETOT  2  -34.101362907629     -5.976E-02 1.010E-02 0.000E+00
 ETOT  3  -34.102245313314     -8.824E-04 1.424E-03 0.000E+00
 ETOT  4  -34.102276603459     -3.129E-05 3.190E-04 0.000E+00
 ETOT  5  -34.102277995905     -1.392E-06 6.530E-05 0.000E+00
 ETOT  6  -34.102278064742     -6.884E-08 1.774E-05 0.000E+00
 ETOT  7  -34.102278068443     -3.701E-09 3.961E-06 0.000E+00
 ETOT  8  -34.102278068658     -2.144E-10 1.182E-06 0.000E+00
 ETOT  9  -34.102278068671     -1.338E-11 2.484E-07 0.000E+00
 ETOT 10  -34.102278068672     -9.734E-13 8.201E-08 0.000E+00
 ETOT 11  -34.102278068672     -7.105E-15 1.429E-08 0.000E+00
 ETOT 12  -34.102278068672     -6.395E-14 4.752E-09 0.000E+00
 ETOT 13  -34.102278068672      4.974E-14 7.589E-10 0.000E+00
 ETOT 14  -34.102278068672     -2.842E-14 1.707E-10 0.000E+00
 ETOT 15  -34.102278068672      7.105E-15 5.282E-11 0.000E+00
 ETOT 16  -34.102278068672     -7.105E-15 1.187E-11 0.000E+00
 ETOT 17  -34.102278068672      7.105E-15 3.963E-12 0.000E+00
 ETOT 18  -34.102278068672     -1.421E-14 9.066E-13 0.000E+00
 ETOT 19  -34.102278068672      7.105E-15 2.999E-13 0.000E+00
 ETOT 20  -34.102278068672      7.105E-15 6.929E-14 0.000E+00
 ETOT 21  -34.102278068672      0.000E+00 2.276E-14 0.000E+00
 ETOT 22  -34.102278068672      0.000E+00 5.302E-15 0.000E+00
 ETOT 23  -34.102278068672     -1.421E-14 1.731E-15 0.000E+00
 ETOT 24  -34.102278068672      1.421E-14 4.062E-16 0.000E+00
 ETOT 25  -34.102278068672      0.000E+00 1.318E-16 0.000E+00
 ETOT 26  -34.102278068672     -7.105E-15 3.114E-17 0.000E+00
 ETOT 27  -34.102278068672      0.000E+00 1.005E-17 0.000E+00
 ETOT 28  -34.102278068672      7.105E-15 2.389E-18 0.000E+00
 ETOT 29  -34.102278068672      7.105E-15 7.674E-19 0.000E+00
 ETOT 30  -34.102278068672      7.105E-15 1.834E-19 0.000E+00
 ETOT 31  -34.102278068672     -1.421E-14 5.863E-20 0.000E+00
 ETOT 32  -34.102278068672     -7.105E-15 1.409E-20 0.000E+00
 ETOT 33  -34.102278068672      1.421E-14 9.857E-21 0.000E+00

 At SCF step   33   max residual=  9.86E-21 < tolwfr=  1.00E-20 =>converged.

 ----iterations are completed or convergence reached----

 dfpt_looppert: DFPT cycle converged with prtwf=-1. Will skip output of the 1st-order WFK file.
 dfpt_looppert : ek2=    3.8858930245E+01
          f-sum rule ratio=    1.0027974983E+00
 prteigrs : about to open file /scratch/users/j/a/jabreu/flow_simple_11atoms/flow/w283/t1/tmpdata/tmp_1WF1_EIG
 Expectation of eigenvalue derivatives (hartree) for nkpt=   2  k points:
  (in case of degenerate eigenvalues, averaged derivative)
 kpt#   1, nband= 97, wtk=  0.50000, kpt=  0.0000  0.0000  0.0000 (reduced coord)
  -0.00000   -0.00000   -0.00000   -0.00000   -0.00000    0.00000   -0.00000   -0.00000
   0.00000    0.00000   -0.00000   -0.00000   -0.00000    0.00000    0.00000   -0.00000
   0.00000    0.00000    0.00000    0.00000   -0.00000    0.00000   -0.00000   -0.00000
   0.00000   -0.00000    0.00000    0.00000   -0.00000    0.00000    0.00000   -0.00000
  -0.00000   -0.00000    0.00000   -0.00000    0.00000   -0.00000   -0.00000    0.00000
   0.00000   -0.00000    0.00000   -0.00000    0.00000    0.00000    0.00000   -0.00000
  -0.00000   -0.00000   -0.00000    0.00000   -0.00000   -0.00000   -0.00000    0.00000
  -0.00000    0.00000   -0.00000    0.00000   -0.00000   -0.00000    0.00000    0.00000
  -0.00000   -0.00000    0.00000   -0.00000    0.00000   -0.00000    0.00000    0.00000
   0.00000    0.00000   -0.00000   -0.00000    0.00000    0.00000   -0.00000    0.00000
   0.00000   -0.00000    0.00000   -0.00000    0.00000    0.00000   -0.00000    0.00000
  -0.00000   -0.00000    0.00000    0.00000   -0.00000   -0.00000    0.00000   -0.00047
  -0.00068
 prteigrs : prtvol=0 or 1, do not print more k-points.

 Eight components of 2nd-order total energy (hartree) are
 1,2,3: 0th-order hamiltonian combined with 1st-order wavefunctions
     kin0=   4.85720285E+01 eigvalue=   4.76425579E+00  local=  -2.73396735E+01
 4,5,6: 1st-order hamiltonian combined with 1st and 0th-order wfs
     kin1=  -3.89676380E+01  Hartree=   0.00000000E+00     xc=   0.00000000E+00
 7,8,9: eventually, occupation + non-local contributions
    edocc=   3.09756360E+00     enl0=   5.00810372E+00   enl1=  -2.92369181E+01
 1-9 gives the relaxation energy (to be shifted if some occ is /=2.0)
   erelax=  -3.41022781E+01
  No Ewald or frozen-wf contrib.: the relaxation energy is the total one
 2DEtotal=   -0.3410227807E+02 Ha. Also 2DEtotal=   -0.927970179027E+03 eV
    (  non-var. 2DEtotal :   -3.4102278068E+01 Ha)

 CALCULATION OF EFFECTIVE MASSES
 NOTE : Additional infos (eff. mass eigenvalues, eigenvectors and, if degenerate, average mass) are available in stdout.

 K-point ( 0.000, 0.000, 0.000) | band =    88
 Effective mass tensor:
             -0.1182427487              0.0000000294              0.0000000299
              0.0000000294             -1.7587600476             -0.9751214189
              0.0000000299             -0.9751214189             -1.8561648005
 Effective mass tensor eigenvalues:
             -2.7837993040             -0.8311255442             -0.1182427487
 Angular average effective mass 1/(<1/m>)=  -0.2994135331
 Angular average effective mass for Frohlich model (<m**0.5>)**2=  -0.4693971374
 Effective masses along directions: (cart. coord. / red. coord. -> eff. mass)
    1:   1.000000  0.000000  0.000000 /   1.000000  0.000000  0.000000 ->  -0.1182427487
    2:   0.000000  1.000000  0.000000 /   0.000000  1.000000  0.000000 ->  -1.2464877638
    3:   0.000000  0.000000  1.000000 /   0.000000  0.302662  0.953098 ->  -1.3155215315
    4:   0.577350  0.577350  0.577350 /   0.251816  0.712538  0.654888 ->  -0.3269159067
    5:   0.000000  0.707107  0.707107 /   0.000000  0.736264  0.676694 ->  -2.7797341438
    6:   0.707107  0.000000  0.707107 /   0.344103  0.284179  0.894894 ->  -0.2169824999
    7:   0.707107  0.707107  0.000000 /   0.446544  0.894762  0.000000 ->  -0.2159959569

 K-point ( 0.000, 0.000, 0.500) | band =    89
 Effective mass tensor:
              0.1943130064             -0.0000105006              0.0000331464
             -0.0000105006              4.1810686529            -11.8238626772
              0.0000331464            -11.8238626772             43.3138405901
 Effective mass tensor eigenvalues:
              0.1943130064              0.8859763560             46.6089328870
 Angular average effective mass 1/(<1/m>)=   0.4764559828
 Angular average effective mass for Frohlich model (<m**0.5>)**2=   0.8470767757
 Effective masses along directions: (cart. coord. / red. coord. -> eff. mass)
    1:   1.000000  0.000000  0.000000 /   1.000000  0.000000  0.000000 ->   0.1943130064
    2:   0.000000  1.000000  0.000000 /   0.000000  1.000000  0.000000 ->   0.9533768411
    3:   0.000000  0.000000  1.000000 /   0.000000  0.302662  0.953098 ->   9.8765210391
    4:   0.577350  0.577350  0.577350 /   0.251816  0.712538  0.654888 ->   0.4367344312
    5:   0.000000  0.707107  0.707107 /   0.000000  0.736264  0.676694 ->   1.1608907303
    6:   0.707107  0.000000  0.707107 /   0.344103  0.284179  0.894894 ->   0.3811278792
    7:   0.707107  0.707107  0.000000 /   0.446544  0.894762  0.000000 ->   0.3228277252

 END OF EFFECTIVE MASSES SECTION

 ---- first-order wavefunction calculations are completed ----

 Total localisation tensor (bohr^2) in cartesian coordinates
  WARNING : still subject to testing - especially symmetries.
      direction              matrix element
   alpha     beta       real part   imaginary part
     1        1       3.4977714274    0.0000000000
     1        2       0.0000000000    0.0000000000
     1        3       0.0000000000    0.0000000000
     2        1       0.0000000000    0.0000000000
     2        2       1.3694333812    0.0000000000
     2        3       0.5644192069    0.0000000000
     3        1       0.0000000000    0.0000000000
     3        2       0.5644192069    0.0000000000
     3        3       1.5376653445    0.0000000000

 respfn : d/dk was computed, but no 2DTE, so no DDB output.

== END DATASET(S) ==============================================================

 -outvars: echo values of variables after computation  --------
            acell      1.0000000000E+00  1.0000000000E+00  1.0000000000E+00 Bohr
              amu      8.54678000E+01  1.78490000E+02  1.07868200E+02
                       1.27600000E+02
             ecut      4.30000000E+01 Hartree
           etotal     -3.4102278069E+01
            fcart      0.0000000000E+00  0.0000000000E+00  0.0000000000E+00
                       0.0000000000E+00  0.0000000000E+00  0.0000000000E+00
                       0.0000000000E+00  0.0000000000E+00  0.0000000000E+00
                       0.0000000000E+00  0.0000000000E+00  0.0000000000E+00
                       0.0000000000E+00  0.0000000000E+00  0.0000000000E+00
                       0.0000000000E+00  0.0000000000E+00  0.0000000000E+00
                       0.0000000000E+00  0.0000000000E+00  0.0000000000E+00
                       0.0000000000E+00  0.0000000000E+00  0.0000000000E+00
                       0.0000000000E+00  0.0000000000E+00  0.0000000000E+00
                       0.0000000000E+00  0.0000000000E+00  0.0000000000E+00
                       0.0000000000E+00  0.0000000000E+00  0.0000000000E+00
                       0.0000000000E+00  0.0000000000E+00  0.0000000000E+00
-          fftalg         512
           irdden           1
           irdwfk           1
           istwfk        1    1
              ixc     -116133
              kpt      0.00000000E+00  0.00000000E+00  0.00000000E+00
                       0.00000000E+00  0.00000000E+00  5.00000000E-01
           kptopt           0
P           mkmem           2
P          mkqmem           2
P          mk1mem           2
            natom          12
            nband          97
           nbdbuf           4
            ngfft          48     108     125
             nkpt           2
            nstep        2000
             nsym           4
           ntypat           4
              occ      2.000000  2.000000  2.000000  2.000000  2.000000  2.000000
                       2.000000  2.000000  2.000000  2.000000  2.000000  2.000000
                       2.000000  2.000000  2.000000  2.000000  2.000000  2.000000
                       2.000000  2.000000  2.000000  2.000000  2.000000  2.000000
                       2.000000  2.000000  2.000000  2.000000  2.000000  2.000000
                       2.000000  2.000000  2.000000  2.000000  2.000000  2.000000
                       2.000000  2.000000  2.000000  2.000000  2.000000  2.000000
                       2.000000  2.000000  2.000000  2.000000  2.000000  2.000000
                       2.000000  2.000000  2.000000  2.000000  2.000000  2.000000
                       2.000000  2.000000  2.000000  2.000000  2.000000  2.000000
                       2.000000  2.000000  2.000000  2.000000  2.000000  2.000000
                       2.000000  2.000000  2.000000  2.000000  2.000000  2.000000
                       2.000000  2.000000  2.000000  2.000000  2.000000  2.000000
                       2.000000  2.000000  2.000000  2.000000  2.000000  2.000000
                       2.000000  2.000000  2.000000  2.000000  0.000000  0.000000
                       0.000000  0.000000  0.000000  0.000000  0.000000  0.000000
                       0.000000
        optdriver           1
            prtwf          -1
            rfdir           1       1       1
           rfelfd           2
            rprim      7.8648661625E+00  0.0000000000E+00  0.0000000000E+00
                       0.0000000000E+00  1.5759196065E+01  6.4952359616E+00
                       0.0000000000E+00  0.0000000000E+00  2.0453844472E+01
          spgroup          11
           strten      0.0000000000E+00  0.0000000000E+00  0.0000000000E+00
                       0.0000000000E+00  0.0000000000E+00  0.0000000000E+00
           symrel      1  0  0   0  1  0   0  0  1      -1  0  0   0 -1  0   0  0 -1
                       1  0  0   0 -1  0   0  0 -1      -1  0  0   0  1  0   0  0  1
            tnons      0.0000000  0.0000000  0.0000000    -0.0000000  0.0000000 -0.0000000
                       0.5000000  0.0000000 -0.0000000     0.5000000  0.0000000  0.0000000
           tolwfr      1.00000000E-20
            typat      1  1  2  2  3  3  4  4  4  4  4  4
           useylm           1
              wtk        0.50000    0.50000
           xangst      1.0404769805E+00  2.1267323497E+00  3.2123651782E+00
                       3.1214309414E+00  6.2126750336E+00  1.1048473980E+01
                       3.1214309414E+00  2.5249974281E+00  8.2745541390E+00
                       1.0404769805E+00  5.8144099552E+00  5.9862850190E+00
                       3.1214309414E+00  7.7151527042E+00  4.2856776014E+00
                       1.0404769805E+00  6.2425467908E-01  9.9751615566E+00
                       3.1214309414E+00  2.1841825272E+00  1.1056367662E+01
                       1.0404769805E+00  8.1916330844E-01  7.2258737591E+00
                       1.0404769805E+00  4.5431340148E+00  8.6473820972E+00
                       1.0404769805E+00  6.1552248561E+00  3.2044714956E+00
                       3.1214309414E+00  3.7962733684E+00  5.6134570608E+00
                       3.1214309414E+00  7.5202440748E+00  7.0349653989E+00
            xcart      1.9662165406E+00  4.0189416989E+00  6.0704904255E+00
                       5.8986496219E+00  1.1740254366E+01  2.0878590008E+01
                       5.8986496219E+00  4.7715536253E+00  1.5636641194E+01
                       1.9662165406E+00  1.0987642440E+01  1.1312439239E+01
                       5.8986496219E+00  1.4579525684E+01  8.0987569605E+00
                       1.9662165406E+00  1.1796703806E+00  1.8850323473E+01
                       5.8986496219E+00  4.1275068006E+00  2.0893506906E+01
                       1.9662165406E+00  1.5479943111E+00  1.3654922475E+01
                       1.9662165406E+00  8.5852790730E+00  1.6341183930E+01
                       1.9662165406E+00  1.1631689264E+01  6.0555735273E+00
                       5.8986496219E+00  7.1739169919E+00  1.0607896504E+01
                       5.8986496219E+00  1.4211201754E+01  1.3294157958E+01
             xred      2.5000000000E-01  2.5502200000E-01  2.1580600000E-01
                       7.5000000000E-01  7.4497800000E-01  7.8419400000E-01
                       7.5000000000E-01  3.0277900000E-01  6.6833500000E-01
                       2.5000000000E-01  6.9722100000E-01  3.3166500000E-01
                       7.5000000000E-01  9.2514400000E-01  1.0216800000E-01
                       2.5000000000E-01  7.4856000000E-02  8.9783200000E-01
                       7.5000000000E-01  2.6191100000E-01  9.3832400000E-01
                       2.5000000000E-01  9.8228000000E-02  6.3640400000E-01
                       2.5000000000E-01  5.4477900000E-01  6.2593200000E-01
                       2.5000000000E-01  7.3808900000E-01  6.1676000000E-02
                       7.5000000000E-01  4.5522100000E-01  3.7406800000E-01
                       7.5000000000E-01  9.0177200000E-01  3.6359600000E-01
            znucl       37.00000   72.00000   47.00000   52.00000

- Timing analysis has been suppressed with timopt=0

 Suggested references for the acknowledgment of ABINIT usage.

 Calculation completed.
.Delivered   2 WARNINGs and   7 COMMENTs to log file.