.Version 9.5.1 of ABINIT

 ABINIT is a project of the Universite Catholique de Louvain,
 Corning Inc. and other collaborators, see ~abinit/doc/developers/contributors.txt .
 acknowledgments of the ABINIT effort.

.Starting date : Tue 27 Apr 2021.
- ( at 18h28 )

- input  file    -> /scratch/users/j/a/jabreu/flow_simple_4atoms/flow/w168/t1/run.abi
- output file    -> /scratch/users/j/a/jabreu/flow_simple_4atoms/flow/w168/t1/run.abo
- root for input  files -> /scratch/users/j/a/jabreu/flow_simple_4atoms/flow/w168/t1/indata/in
- root for output files -> /scratch/users/j/a/jabreu/flow_simple_4atoms/flow/w168/t1/outdata/out

 Symmetries : space group C2/m (# 12); Bravais mC (1-face-center monocl.)
     intxc =       0      iscf =       7    lmnmax =      25     lnmax =       7
     mgfft =      72  mpssoang =       4    mqgrid =    3032     natom =       4
  nloc_mem =       1    nspden =       1   nspinor =       1    nsppol =       1
      nsym =       4    n1xccc =    2501    ntypat =       3    occopt =       1
   xclevel =       2
-    mband =          29        mffmem =           1         mkmem =           2
-   mkqmem =           2        mk1mem =           2           mpw =        5034
      nfft =      145800          nkpt =           2
  Rough estimation (10% accuracy) of disk space for files :

------------- Echo of variables that govern the present computation ------------
-
- outvars: echo of selected default values
-   iomode0 =  0 , fftalg0 =512 , wfoptalg0 =  0
-
- outvars: echo of global parameters not present in the input file
-  max_nthreads =    0
-
 -outvars: echo values of preprocessed input variables --------
            acell      1.0000000000E+00  1.0000000000E+00  1.0000000000E+00 Bohr
              amu      2.29897680E+01  1.96966540E+02  1.59994000E+01
             ecut      4.40000000E+01 Hartree
-          fftalg         512
           irdden           1
           irdwfk           1
              ixc     -116133
              kpt      2.30241521E-01 -2.30241521E-01  0.00000000E+00
                       1.48930327E-01 -1.48930327E-01  5.00000000E-01
           kptopt           0
P           mkmem           2
P          mkqmem           2
P          mk1mem           2
            natom           4
            nband          29
           nbdbuf           4
            ngfft          45      45      72
             nkpt           2
            nstep         100
             nsym           4
           ntypat           3
              occ      2.000000  2.000000  2.000000  2.000000  2.000000  2.000000
                       2.000000  2.000000  2.000000  2.000000  2.000000  2.000000
                       2.000000  2.000000  2.000000  2.000000  2.000000  2.000000
                       2.000000  2.000000  0.000000  0.000000  0.000000  0.000000
                       0.000000  0.000000  0.000000  0.000000  0.000000
        optdriver           1
            prtwf          -1
            rfdir           1       1       1
           rfelfd           2
            rprim      6.1701514234E+00  0.0000000000E+00  3.0407092545E+00
                       3.5443426610E+00  5.0505844899E+00  3.0407092545E+00
                       0.0000000000E+00  0.0000000000E+00  1.1611764856E+01
          spgroup          12
           symrel      1  0  0   0  1  0   0  0  1      -1  0  0   0 -1  0   0  0 -1
                       0 -1  0  -1  0  0   0  0 -1       0  1  0   1  0  0   0  0  1
           tolwfr      1.00000000E-20
            typat      1  2  3  3
           useylm           1
              wtk        0.50000    0.50000
           xangst      2.5703444312E+00  1.3363271011E+00  1.6090740354E+00
                       2.5703444312E+00  1.3363271011E+00  4.6814146920E+00
                       4.6788288123E+00  2.4325322580E+00  7.5108352648E+00
                       4.6186005016E-01  2.4012194413E-01  1.8519941192E+00
            xcart      4.8572470422E+00  2.5252922450E+00  3.0407092545E+00
                       4.8572470422E+00  2.5252922450E+00  8.8465916823E+00
                       8.8417050779E+00  4.5968197770E+00  1.4193421680E+01
                       8.7278900652E-01  4.5376471291E-01  3.4997616850E+00
             xred      5.0000000000E-01  5.0000000000E-01 -2.7755575616E-17
                       5.0000000000E-01  5.0000000000E-01  5.0000000000E-01
                       9.1015600000E-01  9.1015600000E-01  7.4565600000E-01
                       8.9844000000E-02  8.9844000000E-02  2.5434400000E-01
            znucl       11.00000   79.00000    8.00000

 chkinp: Checking input parameters for consistency.

== DATASET  1 ==================================================================
-   mpi_nproc: 1, omp_nthreads: -1 (-1 if OMP is not activated)

--- !DatasetInfo
iteration_state: {dtset: 1, }
dimensions: {natom: 4, nkpt: 2, mband: 29, nsppol: 1, nspinor: 1, nspden: 1, mpw: 5034, }
cutoff_energies: {ecut:  44.0, pawecutdg:  -1.0, }
electrons: {nelect:   4.00000000E+01, charge:   0.00000000E+00, occopt:   1.00000000E+00, tsmear:   1.00000000E-02, }
meta: {optdriver: 1, rfelfd: 2, }
...

 Real(R)+Recip(G) space primitive vectors, cartesian coordinates (Bohr,Bohr^-1):
 R(1)=  6.1701514  0.0000000  3.0407093  G(1)=  0.1620706 -0.1137361  0.0000000
 R(2)=  3.5443427  5.0505845  3.0407093  G(2)=  0.0000000  0.1979969  0.0000000
 R(3)=  0.0000000  0.0000000 11.6117649  G(3)= -0.0424405 -0.0220649  0.0861196
 Unit cell volume ucvol=  3.6185593E+02 bohr^3
 Angles (23,13,12)=  6.37654840E+01  6.37654840E+01  4.88835615E+01 degrees

 getcut: wavevector=  0.0000  0.0000  0.0000  ngfft=  45  45  72
         ecut(hartree)=     44.000   => boxcut(ratio)=   2.07721

--- Pseudopotential description ------------------------------------------------
- pspini: atom type   1  psp file is /scratch/users/j/a/jabreu/pseudos/PBEsol/Na.psp8
- pspatm: opening atomic psp file    /scratch/users/j/a/jabreu/pseudos/PBEsol/Na.psp8
- Na    ONCVPSP-3.3.0  r_core=   1.20708   1.55069
- 11.00000   9.00000    180112                znucl, zion, pspdat
    8 -116133    1    4       400   0.00000   pspcod,pspxc,lmax,lloc,mmax,r2well
    3.99000000000000    0.00000000000000    0.00000000000000   rchrg,fchrg,qchrg
     nproj     2     2
     extension_switch     1
  pspatm : epsatm=    9.32878306
         --- l  ekb(1:nproj) -->
             0    2.657905   -0.678300
             1   -6.761319   -2.404728
 pspatm: atomic psp has been read  and splines computed

- pspini: atom type   2  psp file is /scratch/users/j/a/jabreu/pseudos/PBEsol/Au.psp8
- pspatm: opening atomic psp file    /scratch/users/j/a/jabreu/pseudos/PBEsol/Au.psp8
- Au    ONCVPSP-3.3.0  r_core=   1.45604   1.56407   1.56407   1.60183
- 79.00000  19.00000    180112                znucl, zion, pspdat
    8 -116133    3    4       500   0.00000   pspcod,pspxc,lmax,lloc,mmax,r2well
    4.99000000000000    5.00000000000000    0.00000000000000   rchrg,fchrg,qchrg
     nproj     2     2     2     1
     extension_switch     1
  pspatm : epsatm=   32.21965837
         --- l  ekb(1:nproj) -->
             0    9.413866   -0.196587
             1    2.474292   -1.517497
             2    1.503483    0.298081
             3    1.177996
 pspatm: atomic psp has been read  and splines computed

- pspini: atom type   3  psp file is /scratch/users/j/a/jabreu/pseudos/PBEsol/O.psp8
- pspatm: opening atomic psp file    /scratch/users/j/a/jabreu/pseudos/PBEsol/O.psp8
- O     ONCVPSP-3.3.0  r_core=   1.35509   1.45563   1.26150
-  8.00000   6.00000    180112                znucl, zion, pspdat
    8 -116133    2    4       600   0.00000   pspcod,pspxc,lmax,lloc,mmax,r2well
    5.99000000000000    4.00000000000000    0.00000000000000   rchrg,fchrg,qchrg
     nproj     2     2     1
     extension_switch     1
  pspatm : epsatm=    6.22910522
         --- l  ekb(1:nproj) -->
             0    6.050032    0.820363
             1   -4.739617   -1.153841
             2   -1.335834
 pspatm: atomic psp has been read  and splines computed

   2.16026607E+03                                ecore*ucvol(ha*bohr**3)

-inwffil : will read wavefunctions from disk file /scratch/users/j/a/jabreu/flow_simple_4atoms/flow/w168/t1/indata/in_WFK

 ==>  initialize data related to q vector <==

 The list of irreducible perturbations for this q vector is:
    1)    idir= 1    ipert=   5
    2)    idir= 2    ipert=   5
    3)    idir= 3    ipert=   5

 Perturbation wavevector (in red.coord.)   0.000000  0.000000  0.000000
 Perturbation : derivative vs k along direction   1

 dfpt_looppert : COMMENT -
  In a d/dk calculation, iscf is set to -3 automatically.
 The set of symmetries contains only one element for this perturbation.
 symkpt : not enough symmetry to change the number of k points.

[...]

 Initialisation of the first-order wave-functions :
  ireadwf=   0

--- !BeginCycle
iteration_state: {dtset: 1, }
solver: {iscf: 7, nstep: 100, nline: 4, wfoptalg: 0, }
tolerances: {tolwfr: 1.00E-20, }
...

     iter   2DEtotal(Ha)        deltaE(Ha) residm    vres2
-ETOT  1  -67.569045789480     -6.757E+01 5.440E-02 0.000E+00
 ETOT  2  -67.590553845317     -2.151E-02 1.078E-04 0.000E+00
 ETOT  3  -67.590561550169     -7.705E-06 5.594E-07 0.000E+00
 ETOT  4  -67.590561562560     -1.239E-08 2.356E-09 0.000E+00
 ETOT  5  -67.590561562612     -5.174E-11 1.610E-11 0.000E+00
 ETOT  6  -67.590561562612     -2.132E-13 7.721E-14 0.000E+00
 ETOT  7  -67.590561562612      2.842E-14 5.815E-16 0.000E+00
 ETOT  8  -67.590561562612      0.000E+00 2.882E-18 0.000E+00
 ETOT  9  -67.590561562612      2.842E-14 2.273E-20 0.000E+00
 ETOT 10  -67.590561562612     -2.842E-14 9.988E-21 0.000E+00

 At SCF step   10   max residual=  9.99E-21 < tolwfr=  1.00E-20 =>converged.

 ----iterations are completed or convergence reached----

 dfpt_looppert: DFPT cycle converged with prtwf=-1. Will skip output of the 1st-order WFK file.
 dfpt_looppert : ek2=    1.2381305576E+02
          f-sum rule ratio=    1.0188776186E+00
 prteigrs : about to open file /scratch/users/j/a/jabreu/flow_simple_4atoms/flow/w168/t1/tmpdata/tmp_1WF1_EIG
 Expectation of eigenvalue derivatives (hartree) for nkpt=   2  k points:
  (in case of degenerate eigenvalues, averaged derivative)
 kpt#   1, nband= 29, wtk=  0.50000, kpt=  0.2302 -0.2302  0.0000 (reduced coord)
   0.00007   -0.00237    0.00033   -0.00027    0.00045   -0.00456    0.00198   -0.00338
  -0.01735    0.05222   -0.09450   -0.05990    0.10300   -0.11182    0.31994    0.03242
  -0.07719   -0.05655   -0.02242    0.00511   -0.04486    0.27552   -0.39174    0.07328
   0.28136   -0.34247   -0.26128   -0.14183    0.32523
 prteigrs : prtvol=0 or 1, do not print more k-points.

 Eight components of 2nd-order total energy (hartree) are
 1,2,3: 0th-order hamiltonian combined with 1st-order wavefunctions
     kin0=   8.12861872E+01 eigvalue=   2.34759307E+00  local=  -3.46196758E+01
 4,5,6: 1st-order hamiltonian combined with 1st and 0th-order wfs
     kin1=  -1.26150351E+02  Hartree=   0.00000000E+00     xc=   0.00000000E+00
 7,8,9: eventually, occupation + non-local contributions
    edocc=   1.94451793E+01     enl0=  -8.68722135E-01   enl1=  -9.03077173E+00
 1-9 gives the relaxation energy (to be shifted if some occ is /=2.0)
   erelax=  -6.75905616E+01
  No Ewald or frozen-wf contrib.: the relaxation energy is the total one
 2DEtotal=   -0.6759056156E+02 Ha. Also 2DEtotal=   -0.183923271599E+04 eV
    (  non-var. 2DEtotal :   -6.7590561562E+01 Ha)

 Perturbation wavevector (in red.coord.)   0.000000  0.000000  0.000000
 Perturbation : derivative vs k along direction   2
 The set of symmetries contains only one element for this perturbation.
 symkpt : not enough symmetry to change the number of k points.

[...]

 Perturbation wavevector (in red.coord.)   0.000000  0.000000  0.000000
 Perturbation : derivative vs k along direction   3
 The set of symmetries contains only one element for this perturbation.
 symkpt : not enough symmetry to change the number of k points.

-inwffil : will read wavefunctions from disk file /scratch/users/j/a/jabreu/flow_simple_4atoms/flow/w168/t1/indata/in_WFK

 Initialisation of the first-order wave-functions :
  ireadwf=   0

--- !BeginCycle
iteration_state: {dtset: 1, }
solver: {iscf: 7, nstep: 100, nline: 4, wfoptalg: 0, }
tolerances: {tolwfr: 1.00E-20, }
...

     iter   2DEtotal(Ha)        deltaE(Ha) residm    vres2
-ETOT  1  -16.773225714429     -1.677E+01 1.363E-02 0.000E+00
 ETOT  2  -16.777797856228     -4.572E-03 1.210E-05 0.000E+00
 ETOT  3  -16.777799379893     -1.524E-06 3.254E-08 0.000E+00
 ETOT  4  -16.777799382605     -2.712E-09 1.460E-10 0.000E+00
 ETOT  5  -16.777799382617     -1.182E-11 8.369E-13 0.000E+00
 ETOT  6  -16.777799382617     -5.684E-14 4.782E-15 0.000E+00
 ETOT  7  -16.777799382617     -3.553E-15 2.978E-17 0.000E+00
 ETOT  8  -16.777799382617     -7.105E-15 1.827E-19 0.000E+00
 ETOT  9  -16.777799382617     -3.553E-15 9.457E-21 0.000E+00

 At SCF step    9   max residual=  9.46E-21 < tolwfr=  1.00E-20 =>converged.

 ----iterations are completed or convergence reached----

 dfpt_looppert: DFPT cycle converged with prtwf=-1. Will skip output of the 1st-order WFK file.
 dfpt_looppert : ek2=    3.0649896705E+01
          f-sum rule ratio=    1.0271320923E+00
 prteigrs : about to open file /scratch/users/j/a/jabreu/flow_simple_4atoms/flow/w168/t1/tmpdata/tmp_1WF1_EIG
 Expectation of eigenvalue derivatives (hartree) for nkpt=   2  k points:
  (in case of degenerate eigenvalues, averaged derivative)
 kpt#   1, nband= 29, wtk=  0.50000, kpt=  0.2302 -0.2302  0.0000 (reduced coord)
   0.00000    0.00000    0.00000    0.00000    0.00000    0.00000   -0.00000   -0.00000
  -0.00000   -0.00000    0.00000   -0.00000   -0.00000   -0.00000    0.00000    0.00000
   0.00000    0.00000   -0.00000    0.00000   -0.00000   -0.00000   -0.00000    0.00000
   0.00000   -0.00000   -0.00000   -0.00000    0.00040
 prteigrs : prtvol=0 or 1, do not print more k-points.

 Eight components of 2nd-order total energy (hartree) are
 1,2,3: 0th-order hamiltonian combined with 1st-order wavefunctions
     kin0=   2.04382334E+01 eigvalue=   5.83744863E-01  local=  -8.69009968E+00
 4,5,6: 1st-order hamiltonian combined with 1st and 0th-order wfs
     kin1=  -3.14814925E+01  Hartree=   0.00000000E+00     xc=   0.00000000E+00
 7,8,9: eventually, occupation + non-local contributions
    edocc=   4.64112108E+00     enl0=  -1.95200306E-01   enl1=  -2.07410623E+00
 1-9 gives the relaxation energy (to be shifted if some occ is /=2.0)
   erelax=  -1.67777994E+01
  No Ewald or frozen-wf contrib.: the relaxation energy is the total one
 2DEtotal=   -0.1677779938E+02 Ha. Also 2DEtotal=   -0.456547139326E+03 eV
    (  non-var. 2DEtotal :   -1.6777799382E+01 Ha)

 CALCULATION OF EFFECTIVE MASSES
 NOTE : Additional infos (eff. mass eigenvalues, eigenvectors and, if degenerate, average mass) are available in stdout.

 K-point ( 0.230,-0.230, 0.000) | band =    20
 Effective mass tensor:
            -13.8470018230             -6.6931245266             -5.3812405056
             -6.6931245266             -4.4520153636             -2.7973208558
             -5.3812405056             -2.7973208558             -9.2882635016
 Effective mass tensor eigenvalues:
            -20.5831547643             -6.0316802929             -0.9724456309
 Angular average effective mass 1/(<1/m>)=  -2.4140792507
 Angular average effective mass for Frohlich model (<m**0.5>)**2=  -3.6564005645
 Effective masses along directions: (cart. coord. / red. coord. -> eff. mass)
    1:   1.000000  0.000000  0.000000 /   0.867118  0.498102  0.000000 ->  -3.6010364941
    2:   0.000000  1.000000  0.000000 /   0.000000  1.000000  0.000000 ->  -1.2114581536
    3:   0.000000  0.000000  1.000000 /   0.245566  0.245566  0.937760 ->  -7.1653533813
    4:   0.577350  0.577350  0.577350 /   0.488820  0.617502  0.616235 ->  -9.0774271159
    5:   0.000000  0.707107  0.707107 /   0.210055  0.558954  0.802152 ->  -2.1739147052
    6:   0.707107  0.000000  0.707107 /   0.567927  0.406024  0.715963 ->  -6.0506426969
    7:   0.707107  0.707107  0.000000 /   0.583172  0.812349  0.000000 ->  -6.1985279855

 K-point ( 0.149,-0.149, 0.500) | band =    21
 Effective mass tensor:
              2.1366453525              0.8894556796              0.8971015615
              0.8894556796              0.8882345741              0.4663959474
              0.8971015615              0.4663959474              1.0816512627
 Effective mass tensor eigenvalues:
              0.4258104156              0.5762575720              3.1044632016
 Angular average effective mass 1/(<1/m>)=   0.6809028348
 Angular average effective mass for Frohlich model (<m**0.5>)**2=   0.7904359067
 Effective masses along directions: (cart. coord. / red. coord. -> eff. mass)
    1:   1.000000  0.000000  0.000000 /   0.867118  0.498102  0.000000 ->   1.0249280180
    2:   0.000000  1.000000  0.000000 /   0.000000  1.000000  0.000000 ->   0.5057128033
    3:   0.000000  0.000000  1.000000 /   0.245566  0.245566  0.937760 ->   0.6883118821
    4:   0.577350  0.577350  0.577350 /   0.488820  0.617502  0.616235 ->   2.0630367814
    5:   0.000000  0.707107  0.707107 /   0.210055  0.558954  0.802152 ->   0.6875596078
    6:   0.707107  0.000000  0.707107 /   0.567927  0.406024  0.715963 ->   1.4029422424
    7:   0.707107  0.707107  0.000000 /   0.583172  0.812349  0.000000 ->   1.3109013349

 END OF EFFECTIVE MASSES SECTION

 ---- first-order wavefunction calculations are completed ----

 Total localisation tensor (bohr^2) in cartesian coordinates
  WARNING : still subject to testing - especially symmetries.
      direction              matrix element
   alpha     beta       real part   imaginary part
     1        1       1.4155136640    0.0000000000
     1        2       0.5004463178    0.0000000000
     1        3       0.8257992496    0.0000000000
     2        1       0.5004463178    0.0000000000
     2        2       0.7131213465    0.0000000000
     2        3       0.4293353932    0.0000000000
     3        1       0.8257992496    0.0000000000
     3        2       0.4293353932    0.0000000000
     3        3       1.4106653118    0.0000000000

 respfn : d/dk was computed, but no 2DTE, so no DDB output.

== END DATASET(S) ==============================================================

 -outvars: echo values of variables after computation  --------
            acell      1.0000000000E+00  1.0000000000E+00  1.0000000000E+00 Bohr
              amu      2.29897680E+01  1.96966540E+02  1.59994000E+01
             ecut      4.40000000E+01 Hartree
           etotal     -1.6777799383E+01
            fcart      0.0000000000E+00  0.0000000000E+00  0.0000000000E+00
                       0.0000000000E+00  0.0000000000E+00  0.0000000000E+00
                       0.0000000000E+00  0.0000000000E+00  0.0000000000E+00
                       0.0000000000E+00  0.0000000000E+00  0.0000000000E+00
-          fftalg         512
           irdden           1
           irdwfk           1
              ixc     -116133
              kpt      2.30241521E-01 -2.30241521E-01  0.00000000E+00
                       1.48930327E-01 -1.48930327E-01  5.00000000E-01
           kptopt           0
P           mkmem           2
P          mkqmem           2
P          mk1mem           2
            natom           4
            nband          29
           nbdbuf           4
            ngfft          45      45      72
             nkpt           2
            nstep         100
             nsym           4
           ntypat           3
              occ      2.000000  2.000000  2.000000  2.000000  2.000000  2.000000
                       2.000000  2.000000  2.000000  2.000000  2.000000  2.000000
                       2.000000  2.000000  2.000000  2.000000  2.000000  2.000000
                       2.000000  2.000000  0.000000  0.000000  0.000000  0.000000
                       0.000000  0.000000  0.000000  0.000000  0.000000
        optdriver           1
            prtwf          -1
            rfdir           1       1       1
           rfelfd           2
            rprim      6.1701514234E+00  0.0000000000E+00  3.0407092545E+00
                       3.5443426610E+00  5.0505844899E+00  3.0407092545E+00
                       0.0000000000E+00  0.0000000000E+00  1.1611764856E+01
          spgroup          12
           strten      0.0000000000E+00  0.0000000000E+00  0.0000000000E+00
                       0.0000000000E+00  0.0000000000E+00  0.0000000000E+00
           symrel      1  0  0   0  1  0   0  0  1      -1  0  0   0 -1  0   0  0 -1
                       0 -1  0  -1  0  0   0  0 -1       0  1  0   1  0  0   0  0  1
           tolwfr      1.00000000E-20
            typat      1  2  3  3
           useylm           1
              wtk        0.50000    0.50000
           xangst      2.5703444312E+00  1.3363271011E+00  1.6090740354E+00
                       2.5703444312E+00  1.3363271011E+00  4.6814146920E+00
                       4.6788288123E+00  2.4325322580E+00  7.5108352648E+00
                       4.6186005016E-01  2.4012194413E-01  1.8519941192E+00
            xcart      4.8572470422E+00  2.5252922450E+00  3.0407092545E+00
                       4.8572470422E+00  2.5252922450E+00  8.8465916823E+00
                       8.8417050779E+00  4.5968197770E+00  1.4193421680E+01
                       8.7278900652E-01  4.5376471291E-01  3.4997616850E+00
             xred      5.0000000000E-01  5.0000000000E-01 -2.7755575616E-17
                       5.0000000000E-01  5.0000000000E-01  5.0000000000E-01
                       9.1015600000E-01  9.1015600000E-01  7.4565600000E-01
                       8.9844000000E-02  8.9844000000E-02  2.5434400000E-01
            znucl       11.00000   79.00000    8.00000

- Timing analysis has been suppressed with timopt=0

 Suggested references for the acknowledgment of ABINIT usage.

 Calculation completed.
.Delivered  14 WARNINGs and   9 COMMENTs to log file.