.Version 9.7.2 of ABINIT

 ABINIT is a project of the Universite Catholique de Louvain,
 Corning Inc. and other collaborators, see ~abinit/doc/developers/contributors.txt .
 acknowledgments of the ABINIT effort.

.Starting date : Wed  1 Dec 2021.
- ( at 21h40 )

- input  file    -> /scratch/users/j/a/jabreu/flow_simple_remain_atoms/flow/w232/t1/run.abi
- output file    -> /scratch/users/j/a/jabreu/flow_simple_remain_atoms/flow/w232/t1/run.abo
- root for input  files -> /scratch/users/j/a/jabreu/flow_simple_remain_atoms/flow/w232/t1/indata/in
- root for output files -> /scratch/users/j/a/jabreu/flow_simple_remain_atoms/flow/w232/t1/outdata/out

 Symmetries : space group Cm (#  8); Bravais mC (1-face-center monocl.)
     intxc =       0      iscf =       7    lmnmax =      32     lnmax =       8
     mgfft =      60  mpssoang =       4    mqgrid =    3001     natom =       5
  nloc_mem =       1    nspden =       1   nspinor =       1    nsppol =       1
      nsym =       2    n1xccc =    2501    ntypat =       3    occopt =       1
   xclevel =       2
-    mband =          29        mffmem =           1         mkmem =           2
-   mkqmem =           2        mk1mem =           2           mpw =       13221
      nfft =      216000          nkpt =           2
  Rough estimation (10% accuracy) of disk space for files :

------------- Echo of variables that govern the present computation ------------
-
- outvars: echo of selected default values
-   iomode0 =  0 , fftalg0 =512 , wfoptalg0 =  0
-
- outvars: echo of global parameters not present in the input file
-  max_nthreads =    0
-
 -outvars: echo values of preprocessed input variables --------
            acell      1.0000000000E+00  1.0000000000E+00  1.0000000000E+00 Bohr
              amu      1.32905430E+02  8.76200000E+01  7.99040000E+01
             ecut      3.40000000E+01 Hartree
-          fftalg         512
           irdden           1
           irdwfk           1
           istwfk        1    1
              ixc     -116133
              kpt      5.00000000E-01  5.00000000E-01  5.00000000E-01
                       0.00000000E+00  0.00000000E+00  0.00000000E+00
           kptopt           0
P           mkmem           2
P          mkqmem           2
P          mk1mem           2
            natom           5
            nband          29
           nbdbuf           4
            ngfft          60      60      60
             nkpt           2
            nstep        2000
             nsym           2
           ntypat           3
              occ      2.000000  2.000000  2.000000  2.000000  2.000000  2.000000
                       2.000000  2.000000  2.000000  2.000000  2.000000  2.000000
                       2.000000  2.000000  2.000000  2.000000  2.000000  2.000000
                       2.000000  2.000000  0.000000  0.000000  0.000000  0.000000
                       0.000000  0.000000  0.000000  0.000000  0.000000
        optdriver           1
            prtwf          -1
            rfdir           1       1       1
           rfelfd           2
            rprim      1.1159085627E+01  0.0000000000E+00  7.5392904100E-02
                       2.9964454800E-02  1.1159045397E+01  7.5392904100E-02
                       0.0000000000E+00  0.0000000000E+00  1.1204743530E+01
          spgroup           8
           symrel      1  0  0   0  1  0   0  0  1       0  1  0   1  0  0   0  0  1
           tolwfr      1.00000000E-20
            typat      1  2  3  3  3
           useylm           1
              wtk        0.50000    0.50000
           xangst      8.0140603563E-02  7.9925697600E-02  2.9096321817E-01
                       2.9542484998E+00  2.9463263531E+00  2.9233526526E+00
                       5.9043447703E+00  2.9586739433E+00  2.7816931787E+00
                       2.8818466305E+00  2.8741186375E+00  5.8698235185E+00
                       2.9745176647E+00  5.8963788321E+00  2.7816931787E+00
            xcart      1.5144379286E-01  1.5103767944E-01  5.4984079709E-01
                       5.5827205931E+00  5.5677499054E+00  5.5243359032E+00
                       1.1157594610E+01  5.5910834693E+00  5.2566382934E+00
                       5.4459008887E+00  5.4312970983E+00  1.1092358898E+01
                       5.6210237636E+00  1.1142541168E+01  5.2566382934E+00
             xred      1.3535000000E-02  1.3535000000E-02  4.8890000000E-02
                       4.9894500000E-01  4.9894500000E-01  4.8632100000E-01
                       9.9852100000E-01  5.0103600000E-01  4.5905400000E-01
                       4.8671700000E-01  4.8671700000E-01  9.8342000000E-01
                       5.0103600000E-01  9.9852100000E-01  4.5905400000E-01
            znucl       55.00000   38.00000   35.00000

 chkinp: Checking input parameters for consistency.

== DATASET  1 ==================================================================
-   mpi_nproc: 1, omp_nthreads: -1 (-1 if OMP is not activated)

--- !DatasetInfo
iteration_state: {dtset: 1, }
dimensions: {natom: 5, nkpt: 2, mband: 29, nsppol: 1, nspinor: 1, nspden: 1, mpw: 13221, }
cutoff_energies: {ecut:  34.0, pawecutdg:  -1.0, }
electrons: {nelect:   4.00000000E+01, charge:   0.00000000E+00, occopt:   1.00000000E+00, tsmear:   1.00000000E-02, }
meta: {optdriver: 1, rfelfd: 2, }
...

 Real(R)+Recip(G) space primitive vectors, cartesian coordinates (Bohr,Bohr^-1):
 R(1)= 11.1590856  0.0000000  0.0753929  G(1)=  0.0896131 -0.0002406  0.0000000
 R(2)=  0.0299645 11.1590454  0.0753929  G(2)=  0.0000000  0.0896134  0.0000000
 R(3)=  0.0000000  0.0000000 11.2047435  G(3)= -0.0006030 -0.0006014  0.0892479
 Unit cell volume ucvol=  1.3952678E+03 bohr^3
 Angles (23,13,12)=  8.96129047E+01  8.96129047E+01  8.98435406E+01 degrees

 getcut: wavevector=  0.0000  0.0000  0.0000  ngfft=  60  60  60
         ecut(hartree)=     34.000   => boxcut(ratio)=   2.04016

--- Pseudopotential description ------------------------------------------------
- pspini: atom type   1  psp file is /scratch/users/j/a/jabreu/pseudos/PBEsol/Cs.psp8
- pspatm: opening atomic psp file    /scratch/users/j/a/jabreu/pseudos/PBEsol/Cs.psp8
- Cs    ONCVPSP-3.3.0  r_core=   2.27353   1.85623   2.01788   1.90105
- 55.00000   9.00000    180112                znucl, zion, pspdat
    8 -116133    3    4       600   0.00000   pspcod,pspxc,lmax,lloc,mmax,r2well
    5.99000000000000    5.00000000000000    0.00000000000000   rchrg,fchrg,qchrg
     nproj     2     2     2     2
     extension_switch     1
  pspatm : epsatm=   22.12462445
         --- l  ekb(1:nproj) -->
             0    6.214110    0.767882
             1    6.311966    0.793598
             2    3.769790    0.913105
             3   -9.247129   -2.432478
 pspatm: atomic psp has been read  and splines computed

- pspini: atom type   2  psp file is /scratch/users/j/a/jabreu/pseudos/PBEsol/Sr.psp8
- pspatm: opening atomic psp file    /scratch/users/j/a/jabreu/pseudos/PBEsol/Sr.psp8
- Sr    ONCVPSP-3.3.0  r_core=   1.66721   1.31335   1.51547
- 38.00000  10.00000    180112                znucl, zion, pspdat
    8 -116133    2    4       600   0.00000   pspcod,pspxc,lmax,lloc,mmax,r2well
    5.99000000000000    6.00000000000000    0.00000000000000   rchrg,fchrg,qchrg
     nproj     2     2     2
     extension_switch     1
  pspatm : epsatm=   12.46450977
         --- l  ekb(1:nproj) -->
             0   10.029206    1.044171
             1    7.472414    1.670829
             2    4.142950    0.968140
 pspatm: atomic psp has been read  and splines computed

- pspini: atom type   3  psp file is /scratch/users/j/a/jabreu/pseudos/PBEsol/Br.psp8
- pspatm: opening atomic psp file    /scratch/users/j/a/jabreu/pseudos/PBEsol/Br.psp8
- Br    ONCVPSP-3.3.0  r_core=   1.81012   1.51356   1.92136
- 35.00000   7.00000    180112                znucl, zion, pspdat
    8 -116133    2    4       600   0.00000   pspcod,pspxc,lmax,lloc,mmax,r2well
    5.99000000000000    8.00000000000000    0.00000000000000   rchrg,fchrg,qchrg
     nproj     2     2     2
     extension_switch     1
  pspatm : epsatm=   10.94933070
         --- l  ekb(1:nproj) -->
             0    8.508690    0.897946
             1    5.393311    0.892021
             2    2.527513    0.394763
 pspatm: atomic psp has been read  and splines computed

   2.69748505E+03                                ecore*ucvol(ha*bohr**3)

 ==>  initialize data related to q vector <==

 The list of irreducible perturbations for this q vector is:
    1)    idir= 1    ipert=   6
    2)    idir= 2    ipert=   6
    3)    idir= 3    ipert=   6

 Perturbation wavevector (in red.coord.)   0.000000  0.000000  0.000000
 Perturbation : derivative vs k along direction   1

 dfpt_looppert : COMMENT -
  In a d/dk calculation, iscf is set to -3 automatically.
 The set of symmetries contains only one element for this perturbation.
 symkpt : not enough symmetry to change the number of k points.

 Initialisation of the first-order wave-functions :
  ireadwf=   0

--- !BeginCycle
iteration_state: {dtset: 1, }
solver: {iscf: 7, nstep: 2000, nline: 4, wfoptalg: 0, }
tolerances: {tolwfr: 1.00E-20, }
...

     iter   2DEtotal(Ha)        deltaE(Ha) residm    vres2
-ETOT  1  -14.670532151897     -1.467E+01 3.359E-02 0.000E+00
 ETOT  2  -14.675929520171     -5.397E-03 2.620E-03 0.000E+00
 ETOT  3  -14.676048935847     -1.194E-04 4.120E-04 0.000E+00
 ETOT  4  -14.676055574752     -6.639E-06 3.699E-05 0.000E+00
 ETOT  5  -14.676056020898     -4.461E-07 8.149E-06 0.000E+00
 ETOT  6  -14.676056056816     -3.592E-08 1.451E-06 0.000E+00
 ETOT  7  -14.676056059965     -3.149E-09 3.572E-07 0.000E+00
 ETOT  8  -14.676056060263     -2.981E-10 7.416E-08 0.000E+00
 ETOT  9  -14.676056060292     -2.956E-11 1.838E-08 0.000E+00
 ETOT 10  -14.676056060295     -3.054E-12 3.933E-09 0.000E+00
 ETOT 11  -14.676056060296     -3.180E-13 9.697E-10 0.000E+00
 ETOT 12  -14.676056060296     -3.908E-14 2.100E-10 0.000E+00
 ETOT 13  -14.676056060296     -1.776E-15 5.149E-11 0.000E+00
 ETOT 14  -14.676056060296      5.329E-15 1.125E-11 0.000E+00
 ETOT 15  -14.676056060296      1.776E-15 2.742E-12 0.000E+00
 ETOT 16  -14.676056060296      1.776E-15 6.035E-13 0.000E+00
 ETOT 17  -14.676056060296     -3.553E-15 1.463E-13 0.000E+00
 ETOT 18  -14.676056060296      8.882E-15 3.242E-14 0.000E+00
 ETOT 19  -14.676056060296     -5.329E-15 7.819E-15 0.000E+00
 ETOT 20  -14.676056060296      1.776E-15 1.744E-15 0.000E+00
 ETOT 21  -14.676056060296     -3.553E-15 4.183E-16 0.000E+00
 ETOT 22  -14.676056060296      3.553E-15 9.384E-17 0.000E+00
 ETOT 23  -14.676056060296     -1.776E-15 2.240E-17 0.000E+00
 ETOT 24  -14.676056060296      1.776E-15 5.054E-18 0.000E+00
 ETOT 25  -14.676056060296      0.000E+00 1.200E-18 0.000E+00
 ETOT 26  -14.676056060296     -1.776E-15 2.723E-19 0.000E+00
 ETOT 27  -14.676056060296     -3.553E-15 6.438E-20 0.000E+00
 ETOT 28  -14.676056060296      5.329E-15 1.468E-20 0.000E+00
 ETOT 29  -14.676056060296      0.000E+00 9.974E-21 0.000E+00

 At SCF step   29   max residual=  9.97E-21 < tolwfr=  1.00E-20 =>converged.

 ----iterations are completed or convergence reached----

 dfpt_looppert: DFPT cycle converged with prtwf=-1. Will skip output of the 1st-order WFK file.
 dfpt_looppert : ek2=    2.5362708775E+01
          f-sum rule ratio=    1.0909014437E+00
 prteigrs : about to open file /scratch/users/j/a/jabreu/flow_simple_remain_atoms/flow/w232/t1/tmpdata/tmp_1WF1_EIG
 Expectation of eigenvalue derivatives (hartree) for nkpt=   2  k points:
  (in case of degenerate eigenvalues, averaged derivative)
 kpt#   1, nband= 29, wtk=  0.50000, kpt=  0.5000  0.5000  0.5000 (reduced coord)
  -0.00000    0.00000    0.00000   -0.00000   -0.00000    0.00000   -0.00000    0.00000
  -0.00000   -0.00000   -0.00000    0.00000   -0.00000   -0.00000   -0.00000    0.00000
   0.00000   -0.00000   -0.00000   -0.00000   -0.00000    0.00000   -0.00000   -0.00000
   0.00000   -0.00000   -0.00000    0.00000    0.00000
 prteigrs : prtvol=0 or 1, do not print more k-points.

 Eight components of 2nd-order total energy (hartree) are
 1,2,3: 0th-order hamiltonian combined with 1st-order wavefunctions
     kin0=   1.30891356E+01 eigvalue=   1.13551057E+00  local=  -8.37006924E+00
 4,5,6: 1st-order hamiltonian combined with 1st and 0th-order wfs
     kin1=  -2.76682156E+01  Hartree=   0.00000000E+00     xc=   0.00000000E+00
 7,8,9: eventually, occupation + non-local contributions
    edocc=   6.46132957E+00     enl0=   2.36014960E+00   enl1=  -1.68389650E+00
 1-9 gives the relaxation energy (to be shifted if some occ is /=2.0)
   erelax=  -1.46760561E+01
  No Ewald or frozen-wf contrib.: the relaxation energy is the total one
 2DEtotal=   -0.1467605606E+02 Ha. Also 2DEtotal=   -0.399355795008E+03 eV
    (  non-var. 2DEtotal :   -1.4676056060E+01 Ha)

 Perturbation wavevector (in red.coord.)   0.000000  0.000000  0.000000
 Perturbation : derivative vs k along direction   2
 The set of symmetries contains only one element for this perturbation.
 symkpt : not enough symmetry to change the number of k points.

[...]

 Perturbation wavevector (in red.coord.)   0.000000  0.000000  0.000000
 Perturbation : derivative vs k along direction   3
 The set of symmetries contains only one element for this perturbation.
 symkpt : not enough symmetry to change the number of k points.

 Initialisation of the first-order wave-functions :
  ireadwf=   0

--- !BeginCycle
iteration_state: {dtset: 1, }
solver: {iscf: 7, nstep: 2000, nline: 4, wfoptalg: 0, }
tolerances: {tolwfr: 1.00E-20, }
...

     iter   2DEtotal(Ha)        deltaE(Ha) residm    vres2
-ETOT  1  -14.559932507103     -1.456E+01 3.819E-02 0.000E+00
 ETOT  2  -14.567219873803     -7.287E-03 3.863E-03 0.000E+00
 ETOT  3  -14.567370909596     -1.510E-04 6.876E-04 0.000E+00
 ETOT  4  -14.567378888908     -7.979E-06 7.373E-05 0.000E+00
 ETOT  5  -14.567379379425     -4.905E-07 1.825E-05 0.000E+00
 ETOT  6  -14.567379414091     -3.467E-08 3.495E-06 0.000E+00
 ETOT  7  -14.567379416721     -2.630E-09 8.771E-07 0.000E+00
 ETOT  8  -14.567379416933     -2.122E-10 1.830E-07 0.000E+00
 ETOT  9  -14.567379416951     -1.775E-11 4.573E-08 0.000E+00
 ETOT 10  -14.567379416953     -1.553E-12 9.745E-09 0.000E+00
 ETOT 11  -14.567379416953     -1.030E-13 2.438E-09 0.000E+00
 ETOT 12  -14.567379416953      3.553E-15 5.233E-10 0.000E+00
 ETOT 13  -14.567379416953     -3.020E-14 1.311E-10 0.000E+00
 ETOT 14  -14.567379416953     -1.243E-14 2.825E-11 0.000E+00
 ETOT 15  -14.567379416953      1.421E-14 7.079E-12 0.000E+00
 ETOT 16  -14.567379416953      0.000E+00 1.530E-12 0.000E+00
 ETOT 17  -14.567379416953     -3.553E-15 3.832E-13 0.000E+00
 ETOT 18  -14.567379416953      1.776E-15 8.301E-14 0.000E+00
 ETOT 19  -14.567379416953     -3.553E-15 2.078E-14 0.000E+00
 ETOT 20  -14.567379416953      1.776E-15 4.510E-15 0.000E+00
 ETOT 21  -14.567379416953      1.776E-15 1.129E-15 0.000E+00
 ETOT 22  -14.567379416953      1.776E-15 2.453E-16 0.000E+00
 ETOT 23  -14.567379416953      0.000E+00 6.141E-17 0.000E+00
 ETOT 24  -14.567379416953      0.000E+00 1.335E-17 0.000E+00
 ETOT 25  -14.567379416953      0.000E+00 3.344E-18 0.000E+00
 ETOT 26  -14.567379416953      0.000E+00 7.266E-19 0.000E+00
 ETOT 27  -14.567379416953     -3.553E-15 1.823E-19 0.000E+00
 ETOT 28  -14.567379416953      0.000E+00 3.958E-20 0.000E+00
 ETOT 29  -14.567379416953      3.553E-15 9.943E-21 0.000E+00

 At SCF step   29   max residual=  9.94E-21 < tolwfr=  1.00E-20 =>converged.

 ----iterations are completed or convergence reached----

 dfpt_looppert: DFPT cycle converged with prtwf=-1. Will skip output of the 1st-order WFK file.
 dfpt_looppert : ek2=    2.5158539330E+01
          f-sum rule ratio=    1.0916252401E+00
 prteigrs : about to open file /scratch/users/j/a/jabreu/flow_simple_remain_atoms/flow/w232/t1/tmpdata/tmp_1WF1_EIG
 Expectation of eigenvalue derivatives (hartree) for nkpt=   2  k points:
  (in case of degenerate eigenvalues, averaged derivative)
 kpt#   1, nband= 29, wtk=  0.50000, kpt=  0.5000  0.5000  0.5000 (reduced coord)
   0.00000   -0.00000   -0.00000   -0.00000   -0.00000   -0.00000    0.00000   -0.00000
  -0.00000   -0.00000   -0.00000    0.00000   -0.00000    0.00000    0.00000   -0.00000
   0.00000   -0.00000   -0.00000    0.00000    0.00000   -0.00000   -0.00000   -0.00000
   0.00000    0.00000    0.00000    0.00000    0.00000
 prteigrs : prtvol=0 or 1, do not print more k-points.

 Eight components of 2nd-order total energy (hartree) are
 1,2,3: 0th-order hamiltonian combined with 1st-order wavefunctions
     kin0=   1.30922135E+01 eigvalue=   1.13095864E+00  local=  -8.38928352E+00
 4,5,6: 1st-order hamiltonian combined with 1st and 0th-order wfs
     kin1=  -2.74636965E+01  Hartree=   0.00000000E+00     xc=   0.00000000E+00
 7,8,9: eventually, occupation + non-local contributions
    edocc=   6.36056250E+00     enl0=   2.37292826E+00   enl1=  -1.67106230E+00
 1-9 gives the relaxation energy (to be shifted if some occ is /=2.0)
   erelax=  -1.45673794E+01
  No Ewald or frozen-wf contrib.: the relaxation energy is the total one
 2DEtotal=   -0.1456737942E+02 Ha. Also 2DEtotal=   -0.396398553149E+03 eV
    (  non-var. 2DEtotal :   -1.4567379417E+01 Ha)

 CALCULATION OF EFFECTIVE MASSES
 NOTE : Additional infos (eff. mass eigenvalues, eigenvectors and, if degenerate, average mass) are available in stdout.

 K-point ( 0.500, 0.500, 0.500) | band =    20
 Effective mass tensor:
             -2.4188834115             -0.6905707683             -0.1112911783
             -0.6905707683             -2.4151747756             -0.1109927394
             -0.1112911783             -0.1109927394             -1.1351600365
 Effective mass tensor eigenvalues:
             -3.1200489495             -1.7264558357             -1.1227134384
 Angular average effective mass 1/(<1/m>)=  -1.6755767038
 Angular average effective mass for Frohlich model (<m**0.5>)**2=  -1.7597078169
 Effective masses along directions: (cart. coord. / red. coord. -> eff. mass)
    1:   1.000000  0.000000  0.000000 /   0.999996  0.002685  0.000000 ->  -2.2158279620
    2:   0.000000  1.000000  0.000000 /   0.000000  1.000000  0.000000 ->  -2.2124690334
    3:   0.000000  0.000000  1.000000 /   0.006728  0.006728  0.999955 ->  -1.1272101408
    4:   0.577350  0.577350  0.577350 /   0.577346  0.578883  0.575818 ->  -2.1301440224
    5:   0.000000  0.707107  0.707107 /   0.004752  0.708034  0.706162 ->  -1.5676951706
    6:   0.707107  0.000000  0.707107 /   0.708028  0.006640  0.706154 ->  -1.5687472026
    7:   0.707107  0.707107  0.000000 /   0.706159  0.708053  0.000000 ->  -3.0858344196

 K-point ( 0.000, 0.000, 0.000) | band =    21
 Effective mass tensor:
              0.3553680114             -0.0010057267             -0.0017354782
             -0.0010057267              0.3553734125             -0.0017308243
             -0.0017354782             -0.0017308243              0.3583011484
 Effective mass tensor eigenvalues:
              0.3531896609              0.3563764423              0.3594764692
 Angular average effective mass 1/(<1/m>)=   0.3563290345
 Angular average effective mass for Frohlich model (<m**0.5>)**2=   0.3563345818
 Effective masses along directions: (cart. coord. / red. coord. -> eff. mass)
    1:   1.000000  0.000000  0.000000 /   0.999996  0.002685  0.000000 ->   0.3553567114
    2:   0.000000  1.000000  0.000000 /   0.000000  1.000000  0.000000 ->   0.3553621575
    3:   0.000000  0.000000  1.000000 /   0.006728  0.006728  0.999955 ->   0.3582841952
    4:   0.577350  0.577350  0.577350 /   0.577346  0.578883  0.575818 ->   0.3533631696
    5:   0.000000  0.707107  0.707107 /   0.004752  0.708034  0.706162 ->   0.3550899304
    6:   0.707107  0.000000  0.707107 /   0.708028  0.006640  0.706154 ->   0.3550825898
    7:   0.707107  0.707107  0.000000 /   0.706159  0.708053  0.000000 ->   0.3543482183

 END OF EFFECTIVE MASSES SECTION

 ---- first-order wavefunction calculations are completed ----

 Total localisation tensor (bohr^2) in cartesian coordinates
  WARNING : still subject to testing - especially symmetries.
      direction              matrix element
   alpha     beta       real part   imaginary part
     1        1       1.3677164202    0.0000000000
     1        2       0.0036725620    0.0000000000
     1        3       0.0092652982    0.0000000000
     2        1       0.0036725620    0.0000000000
     2        2       1.3676966957    0.0000000000
     2        3       0.0092404522    0.0000000000
     3        1       0.0092652982    0.0000000000
     3        2       0.0092404522    0.0000000000
     3        3       1.3657030176    0.0000000000

 respfn : d/dk was computed, but no 2DTE, so no DDB output.

== END DATASET(S) ==============================================================

 -outvars: echo values of variables after computation  --------
            acell      1.0000000000E+00  1.0000000000E+00  1.0000000000E+00 Bohr
              amu      1.32905430E+02  8.76200000E+01  7.99040000E+01
             ecut      3.40000000E+01 Hartree
           etotal     -1.4567379417E+01
            fcart      0.0000000000E+00  0.0000000000E+00  0.0000000000E+00
                       0.0000000000E+00  0.0000000000E+00  0.0000000000E+00
                       0.0000000000E+00  0.0000000000E+00  0.0000000000E+00
                       0.0000000000E+00  0.0000000000E+00  0.0000000000E+00
                       0.0000000000E+00  0.0000000000E+00  0.0000000000E+00
-          fftalg         512
           irdden           1
           irdwfk           1
           istwfk        1    1
              ixc     -116133
              kpt      5.00000000E-01  5.00000000E-01  5.00000000E-01
                       0.00000000E+00  0.00000000E+00  0.00000000E+00
           kptopt           0
P           mkmem           2
P          mkqmem           2
P          mk1mem           2
            natom           5
            nband          29
           nbdbuf           4
            ngfft          60      60      60
             nkpt           2
            nstep        2000
             nsym           2
           ntypat           3
              occ      2.000000  2.000000  2.000000  2.000000  2.000000  2.000000
                       2.000000  2.000000  2.000000  2.000000  2.000000  2.000000
                       2.000000  2.000000  2.000000  2.000000  2.000000  2.000000
                       2.000000  2.000000  0.000000  0.000000  0.000000  0.000000
                       0.000000  0.000000  0.000000  0.000000  0.000000
        optdriver           1
            prtwf          -1
            rfdir           1       1       1
           rfelfd           2
            rprim      1.1159085627E+01  0.0000000000E+00  7.5392904100E-02
                       2.9964454800E-02  1.1159045397E+01  7.5392904100E-02
                       0.0000000000E+00  0.0000000000E+00  1.1204743530E+01
          spgroup           8
           strten      0.0000000000E+00  0.0000000000E+00  0.0000000000E+00
                       0.0000000000E+00  0.0000000000E+00  0.0000000000E+00
           symrel      1  0  0   0  1  0   0  0  1       0  1  0   1  0  0   0  0  1
           tolwfr      1.00000000E-20
            typat      1  2  3  3  3
           useylm           1
              wtk        0.50000    0.50000
           xangst      8.0140603563E-02  7.9925697600E-02  2.9096321817E-01
                       2.9542484998E+00  2.9463263531E+00  2.9233526526E+00
                       5.9043447703E+00  2.9586739433E+00  2.7816931787E+00
                       2.8818466305E+00  2.8741186375E+00  5.8698235185E+00
                       2.9745176647E+00  5.8963788321E+00  2.7816931787E+00
            xcart      1.5144379286E-01  1.5103767944E-01  5.4984079709E-01
                       5.5827205931E+00  5.5677499054E+00  5.5243359032E+00
                       1.1157594610E+01  5.5910834693E+00  5.2566382934E+00
                       5.4459008887E+00  5.4312970983E+00  1.1092358898E+01
                       5.6210237636E+00  1.1142541168E+01  5.2566382934E+00
             xred      1.3535000000E-02  1.3535000000E-02  4.8890000000E-02
                       4.9894500000E-01  4.9894500000E-01  4.8632100000E-01
                       9.9852100000E-01  5.0103600000E-01  4.5905400000E-01
                       4.8671700000E-01  4.8671700000E-01  9.8342000000E-01
                       5.0103600000E-01  9.9852100000E-01  4.5905400000E-01
            znucl       55.00000   38.00000   35.00000

- Timing analysis has been suppressed with timopt=0

 Suggested references for the acknowledgment of ABINIT usage.

 Calculation completed.
.Delivered   2 WARNINGs and   5 COMMENTs to log file.