.Version 9.5.1 of ABINIT

 ABINIT is a project of the Universite Catholique de Louvain,
 Corning Inc. and other collaborators, see ~abinit/doc/developers/contributors.txt .
 acknowledgments of the ABINIT effort.

.Starting date : Tue 11 May 2021.
- ( at 21h17 )

- input  file    -> /scratch/users/j/a/jabreu/flow_simple_8atoms/flow/w284/t1/run.abi
- output file    -> /scratch/users/j/a/jabreu/flow_simple_8atoms/flow/w284/t1/run.abo
- root for input  files -> /scratch/users/j/a/jabreu/flow_simple_8atoms/flow/w284/t1/indata/in
- root for output files -> /scratch/users/j/a/jabreu/flow_simple_8atoms/flow/w284/t1/outdata/out

 Symmetries : space group P4/n m m (#129); Bravais tP (primitive tetrag.)
     intxc =       0      iscf =       7    lmnmax =      18     lnmax =       6
     mgfft =     108  mpssoang =       3    mqgrid =    5232     natom =       8
  nloc_mem =       1    nspden =       1   nspinor =       1    nsppol =       1
      nsym =      16    n1xccc =    2501    ntypat =       4    occopt =       1
   xclevel =       2
-    mband =          61        mffmem =           1         mkmem =           1
-   mkqmem =           1        mk1mem =           1           mpw =       15789
      nfft =      270000          nkpt =           1
  Rough estimation (10% accuracy) of disk space for files :

------------- Echo of variables that govern the present computation ------------
-
- outvars: echo of selected default values
-   iomode0 =  0 , fftalg0 =512 , wfoptalg0 =  0
-
- outvars: echo of global parameters not present in the input file
-  max_nthreads =    0
-
 -outvars: echo values of preprocessed input variables --------
            acell      1.0000000000E+00  1.0000000000E+00  1.0000000000E+00 Bohr
              amu      1.37327000E+02  6.35460000E+01  7.89600000E+01
                       1.89984032E+01
             ecut      4.60000000E+01 Hartree
-          fftalg         512
           irdden           1
           irdwfk           1
           istwfk        1
              ixc     -116133
           kptopt           0
P           mkmem           1
P          mkqmem           1
P          mk1mem           1
            natom           8
            nband          61
           nbdbuf           4
            ngfft          50      50     108
             nkpt           1
            nstep        2000
             nsym          16
           ntypat           4
              occ      2.000000  2.000000  2.000000  2.000000  2.000000  2.000000
                       2.000000  2.000000  2.000000  2.000000  2.000000  2.000000
                       2.000000  2.000000  2.000000  2.000000  2.000000  2.000000
                       2.000000  2.000000  2.000000  2.000000  2.000000  2.000000
                       2.000000  2.000000  2.000000  2.000000  2.000000  2.000000
                       2.000000  2.000000  2.000000  2.000000  2.000000  2.000000
                       2.000000  2.000000  2.000000  2.000000  2.000000  2.000000
                       2.000000  2.000000  2.000000  2.000000  2.000000  2.000000
                       2.000000  2.000000  2.000000  2.000000  0.000000  0.000000
                       0.000000  0.000000  0.000000  0.000000  0.000000  0.000000
                       0.000000
        optdriver           1
            prtwf          -1
            rfdir           1       1       1
           rfelfd           2
            rprim      7.8861412094E+00  0.0000000000E+00  0.0000000000E+00
                       0.0000000000E+00  7.8861412094E+00  0.0000000000E+00
                       0.0000000000E+00  0.0000000000E+00  1.7133547294E+01
          spgroup         129
           symrel      1  0  0   0  1  0   0  0  1      -1  0  0   0 -1  0   0  0 -1
                      -1  0  0   0  1  0   0  0 -1       1  0  0   0 -1  0   0  0  1
                      -1  0  0   0 -1  0   0  0  1       1  0  0   0  1  0   0  0 -1
                       1  0  0   0 -1  0   0  0 -1      -1  0  0   0  1  0   0  0  1
                       0  1  0   1  0  0   0  0  1       0 -1  0  -1  0  0   0  0 -1
                       0 -1  0   1  0  0   0  0 -1       0  1  0  -1  0  0   0  0  1
                       0 -1  0  -1  0  0   0  0  1       0  1  0   1  0  0   0  0 -1
                       0  1  0  -1  0  0   0  0 -1       0 -1  0   1  0  0   0  0  1
            tnons      0.0000000  0.0000000  0.0000000     0.5000000  0.5000000  0.0000000
                       0.5000000  0.5000000  0.0000000     0.0000000  0.0000000  0.0000000
                       0.0000000  0.0000000  0.0000000     0.5000000  0.5000000  0.0000000
                       0.5000000  0.5000000  0.0000000     0.0000000  0.0000000  0.0000000
                       0.5000000  0.5000000  0.0000000     0.0000000  0.0000000  0.0000000
                       0.0000000  0.0000000  0.0000000     0.5000000  0.5000000  0.0000000
                       0.5000000  0.5000000  0.0000000     0.0000000  0.0000000  0.0000000
                       0.0000000  0.0000000  0.0000000     0.5000000  0.5000000  0.0000000
           tolwfr      1.00000000E-20
            typat      1  1  2  2  3  3  4  4
           useylm           1
           xangst      0.0000000000E+00  2.0865830959E+00  6.1000097409E+00
                       2.0865830959E+00  0.0000000000E+00  2.9666729895E+00
                       2.0865830959E+00  2.0865830959E+00  0.0000000000E+00
                       0.0000000000E+00  0.0000000000E+00  0.0000000000E+00
                       0.0000000000E+00  2.0865830959E+00  1.3755336371E+00
                       2.0865830959E+00  0.0000000000E+00  7.6911490933E+00
                       0.0000000000E+00  0.0000000000E+00  4.5333413652E+00
                       2.0865830959E+00  2.0865830959E+00  4.5333413652E+00
            xcart      0.0000000000E+00  3.9430706047E+00  1.1527347818E+01
                       3.9430706047E+00  0.0000000000E+00  5.6061994759E+00
                       3.9430706047E+00  3.9430706047E+00  0.0000000000E+00
                       0.0000000000E+00  0.0000000000E+00  0.0000000000E+00
                       0.0000000000E+00  3.9430706047E+00  2.5993818606E+00
                       3.9430706047E+00  0.0000000000E+00  1.4534165434E+01
                       0.0000000000E+00  0.0000000000E+00  8.5667736471E+00
                       3.9430706047E+00  3.9430706047E+00  8.5667736471E+00
             xred      0.0000000000E+00  5.0000000000E-01  6.7279400000E-01
                       5.0000000000E-01  0.0000000000E+00  3.2720600000E-01
                       5.0000000000E-01  5.0000000000E-01  0.0000000000E+00
                       0.0000000000E+00  0.0000000000E+00  0.0000000000E+00
                       0.0000000000E+00  5.0000000000E-01  1.5171300000E-01
                       5.0000000000E-01  0.0000000000E+00  8.4828700000E-01
                       0.0000000000E+00  0.0000000000E+00  5.0000000000E-01
                       5.0000000000E-01  5.0000000000E-01  5.0000000000E-01
            znucl       56.00000   29.00000   34.00000    9.00000

 chkinp: Checking input parameters for consistency.

== DATASET  1 ==================================================================
-   mpi_nproc: 1, omp_nthreads: -1 (-1 if OMP is not activated)

--- !DatasetInfo
iteration_state: {dtset: 1, }
dimensions: {natom: 8, nkpt: 1, mband: 61, nsppol: 1, nspinor: 1, nspden: 1, mpw: 15789, }
cutoff_energies: {ecut:  46.0, pawecutdg:  -1.0, }
electrons: {nelect:   1.04000000E+02, charge:   0.00000000E+00, occopt:   1.00000000E+00, tsmear:   1.00000000E-02, }
meta: {optdriver: 1, rfelfd: 2, }
...

 Real(R)+Recip(G) space primitive vectors, cartesian coordinates (Bohr,Bohr^-1):
 R(1)=  7.8861412  0.0000000  0.0000000  G(1)=  0.1268047  0.0000000  0.0000000
 R(2)=  0.0000000  7.8861412  0.0000000  G(2)=  0.0000000  0.1268047  0.0000000
 R(3)=  0.0000000  0.0000000 17.1335473  G(3)=  0.0000000  0.0000000  0.0583650
 Unit cell volume ucvol=  1.0655563E+03 bohr^3
 Angles (23,13,12)=  9.00000000E+01  9.00000000E+01  9.00000000E+01 degrees

 getcut: wavevector=  0.0000  0.0000  0.0000  ngfft=  50  50 108
         ecut(hartree)=     46.000   => boxcut(ratio)=   2.06458

--- Pseudopotential description ------------------------------------------------
- pspini: atom type   1  psp file is /scratch/users/j/a/jabreu/pseudos/PBEsol/Ba.psp8
- pspatm: opening atomic psp file    /scratch/users/j/a/jabreu/pseudos/PBEsol/Ba.psp8
- Ba    ONCVPSP-3.3.0  r_core=   2.15444   1.91218   2.15444
- 56.00000  10.00000    180112                znucl, zion, pspdat
    8 -116133    2    4       600   0.00000   pspcod,pspxc,lmax,lloc,mmax,r2well
    5.99000000000000    5.00000000000000    0.00000000000000   rchrg,fchrg,qchrg
     nproj     2     2     2
     extension_switch     1
  pspatm : epsatm=   26.37418029
         --- l  ekb(1:nproj) -->
             0    6.652372    0.677024
             1    5.027722    0.408462
             2    2.543237    0.416854
 pspatm: atomic psp has been read  and splines computed

- pspini: atom type   2  psp file is /scratch/users/j/a/jabreu/pseudos/PBEsol/Cu.psp8
- pspatm: opening atomic psp file    /scratch/users/j/a/jabreu/pseudos/PBEsol/Cu.psp8
- Cu    ONCVPSP-3.3.0  r_core=   1.26204   1.45626   1.76249
- 29.00000  19.00000    180112                znucl, zion, pspdat
    8 -116133    2    4       600   0.00000   pspcod,pspxc,lmax,lloc,mmax,r2well
    5.99000000000000    3.50000000000000    0.00000000000000   rchrg,fchrg,qchrg
     nproj     2     2     2
     extension_switch     1
  pspatm : epsatm=   21.63488701
         --- l  ekb(1:nproj) -->
             0    5.008230   -0.401634
             1   -3.496700   -0.765945
             2   -6.895851   -2.521180
 pspatm: atomic psp has been read  and splines computed

[...]

- pspini: atom type   4  psp file is /scratch/users/j/a/jabreu/pseudos/PBEsol/F.psp8
- pspatm: opening atomic psp file    /scratch/users/j/a/jabreu/pseudos/PBEsol/F.psp8
- F     ONCVPSP-3.3.0  r_core=   1.30942   1.45782   1.60379
-  9.00000   7.00000    180112                znucl, zion, pspdat
    8 -116133    2    4       600   0.00000   pspcod,pspxc,lmax,lloc,mmax,r2well
    5.99000000000000    2.50000000000000    0.00000000000000   rchrg,fchrg,qchrg
     nproj     2     2     1
     extension_switch     1
  pspatm : epsatm=    4.89824824
         --- l  ekb(1:nproj) -->
             0    6.506434    1.065875
             1   -3.978753   -1.295852
             2   -2.394754
 pspatm: atomic psp has been read  and splines computed

   1.70738746E+04                                ecore*ucvol(ha*bohr**3)

-inwffil : will read wavefunctions from disk file /scratch/users/j/a/jabreu/flow_simple_8atoms/flow/w284/t1/indata/in_WFK

 ==>  initialize data related to q vector <==

 The list of irreducible perturbations for this q vector is:
    1)    idir= 1    ipert=   9
    2)    idir= 2    ipert=   9
    3)    idir= 3    ipert=   9

 Perturbation wavevector (in red.coord.)   0.000000  0.000000  0.000000
 Perturbation : derivative vs k along direction   1

 dfpt_looppert : COMMENT -
  In a d/dk calculation, iscf is set to -3 automatically.
[...]
 7,8,9: eventually, occupation + non-local contributions
    edocc=   2.27125292E+01     enl0=   4.47182438E+00   enl1=  -7.45732711E+01
 1-9 gives the relaxation energy (to be shifted if some occ is /=2.0)
   erelax=  -1.13268492E+02
  No Ewald or frozen-wf contrib.: the relaxation energy is the total one
 2DEtotal=   -0.1132684924E+03 Ha. Also 2DEtotal=   -0.308219242703E+04 eV
    (  non-var. 2DEtotal :   -1.1326849244E+02 Ha)

 Perturbation wavevector (in red.coord.)   0.000000  0.000000  0.000000
 Perturbation : derivative vs k along direction   2
 The set of symmetries contains only one element for this perturbation.
 symkpt : not enough symmetry to change the number of k points.

[...]

 Perturbation wavevector (in red.coord.)   0.000000  0.000000  0.000000
 Perturbation : derivative vs k along direction   3
 The set of symmetries contains only one element for this perturbation.
 symkpt : not enough symmetry to change the number of k points.

-inwffil : will read wavefunctions from disk file /scratch/users/j/a/jabreu/flow_simple_8atoms/flow/w284/t1/indata/in_WFK

 Initialisation of the first-order wave-functions :
  ireadwf=   0

--- !BeginCycle
iteration_state: {dtset: 1, }
solver: {iscf: 7, nstep: 2000, nline: 4, wfoptalg: 0, }
tolerances: {tolwfr: 1.00E-20, }
...

     iter   2DEtotal(Ha)        deltaE(Ha) residm    vres2
-ETOT  1  -22.128382300114     -2.213E+01 3.343E-02 0.000E+00
 ETOT  2  -22.198515687891     -7.013E-02 1.839E-03 0.000E+00
 ETOT  3  -22.200402292819     -1.887E-03 9.787E-05 0.000E+00
 ETOT  4  -22.200482354603     -8.006E-05 1.499E-05 0.000E+00
 ETOT  5  -22.200486425829     -4.071E-06 8.856E-07 0.000E+00
 ETOT  6  -22.200486649961     -2.241E-07 1.841E-07 0.000E+00
 ETOT  7  -22.200486665238     -1.528E-08 1.140E-08 0.000E+00
 ETOT  8  -22.200486666445     -1.207E-09 2.429E-09 0.000E+00
 ETOT  9  -22.200486666548     -1.027E-10 1.540E-10 0.000E+00
 ETOT 10  -22.200486666557     -9.166E-12 3.281E-11 0.000E+00
 ETOT 11  -22.200486666558     -8.455E-13 2.145E-12 0.000E+00
 ETOT 12  -22.200486666558     -8.171E-14 4.487E-13 0.000E+00
 ETOT 13  -22.200486666558     -1.421E-14 3.031E-14 0.000E+00
 ETOT 14  -22.200486666558      0.000E+00 6.179E-15 0.000E+00
 ETOT 15  -22.200486666558      0.000E+00 4.297E-16 0.000E+00
 ETOT 16  -22.200486666558      0.000E+00 8.544E-17 0.000E+00
 ETOT 17  -22.200486666558      7.105E-15 6.090E-18 0.000E+00
 ETOT 18  -22.200486666558      3.553E-15 1.184E-18 0.000E+00
 ETOT 19  -22.200486666558      0.000E+00 8.615E-20 0.000E+00
 ETOT 20  -22.200486666558     -3.553E-15 1.643E-20 0.000E+00
 ETOT 21  -22.200486666558      0.000E+00 9.811E-21 0.000E+00

 At SCF step   21   max residual=  9.81E-21 < tolwfr=  1.00E-20 =>converged.

 ----iterations are completed or convergence reached----

 dfpt_looppert: DFPT cycle converged with prtwf=-1. Will skip output of the 1st-order WFK file.
 dfpt_looppert : ek2=    2.7972320541E+01
          f-sum rule ratio=    1.0162855418E+00
 prteigrs : about to open file /scratch/users/j/a/jabreu/flow_simple_8atoms/flow/w284/t1/tmpdata/tmp_1WF1_EIG
 Expectation of eigenvalue derivatives (hartree) for nkpt=   1  k points:
  (in case of degenerate eigenvalues, averaged derivative)
 kpt#   1, nband= 61, wtk=  1.00000, kpt=  0.0000  0.0000  0.0000 (reduced coord)
  -0.00000   -0.00000   -0.00000   -0.00000    0.00000    0.00000   -0.00000   -0.00000
   0.00000   -0.00000    0.00000    0.00000   -0.00000   -0.00000   -0.00000   -0.00000
   0.00000    0.00000   -0.00000    0.00000   -0.00000    0.00000   -0.00000    0.00000
  -0.00000   -0.00000   -0.00000   -0.00000   -0.00000   -0.00000   -0.00000    0.00000
   0.00000    0.00000    0.00000   -0.00000   -0.00000   -0.00000    0.00000    0.00000
   0.00000    0.00000    0.00000    0.00000   -0.00000    0.00000    0.00000    0.00000
   0.00000   -0.00000   -0.00000   -0.00000   -0.00000    0.00000   -0.00000    0.00000
  -0.00000   -0.00000    0.00000    0.00000   -0.00000

 Eight components of 2nd-order total energy (hartree) are
 1,2,3: 0th-order hamiltonian combined with 1st-order wavefunctions
     kin0=   3.16313402E+01 eigvalue=   1.01896900E+00  local=  -1.32694349E+01
 4,5,6: 1st-order hamiltonian combined with 1st and 0th-order wfs
     kin1=  -2.84278649E+01  Hartree=   0.00000000E+00     xc=   0.00000000E+00
 7,8,9: eventually, occupation + non-local contributions
    edocc=   1.97277817E+00     enl0=   8.46834176E-01   enl1=  -1.59731084E+01
 1-9 gives the relaxation energy (to be shifted if some occ is /=2.0)
   erelax=  -2.22004867E+01
  No Ewald or frozen-wf contrib.: the relaxation energy is the total one
 2DEtotal=   -0.2220048667E+02 Ha. Also 2DEtotal=   -0.604105964563E+03 eV
    (  non-var. 2DEtotal :   -2.2200486666E+01 Ha)

 CALCULATION OF EFFECTIVE MASSES
 NOTE : Additional infos (eff. mass eigenvalues, eigenvectors and, if degenerate, average mass) are available in stdout.

 COMMENTS:
 - At k-point ( 0.000, 0.000, 0.000), bands    51 through    52
   are DEGENERATE (effective mass tensor is therefore not defined).
   See Section IIIB Eqs. (67)-(70) and Appendix E of PRB 93 205147 (2016).
 - Angular average effective mass for Frohlich model is to be averaged over degenerate bands. See later.
 - Associated theta integrals calculated with ntheta=   1000 points.

 K-point ( 0.000, 0.000, 0.000) | band =    51
 Transport equivalent effective mass tensor:
             -0.3318869037              0.0000001361              0.0000000262
              0.0000001361             -0.3318867094              0.0000000751
              0.0000000262              0.0000000751            -19.9638632439
 Transport equivalent effective mass tensor eigenvalues:
            -19.9638632439             -0.3318869738             -0.3318866393
 Angular average effective mass 1/(<1/m>)=  -0.4327171368
 Angular average effective mass for Frohlich model (<m**0.5>)**2=  -0.6203788269
 Effective masses along directions: (cart. coord. / red. coord. -> eff. mass)
    1:   1.000000  0.000000  0.000000 /   1.000000  0.000000  0.000000 ->  -0.2474443650
    2:   0.000000  1.000000  0.000000 /   0.000000  1.000000  0.000000 ->  -0.2474443650
    3:   0.000000  0.000000  1.000000 /   0.000000  0.000000  1.000000 -> -16.0815716685
    4:   0.577350  0.577350  0.577350 /   0.385751  0.385751  0.838088 ->  -0.5838677887
    5:   0.000000  0.707107  0.707107 /   0.000000  0.418112  0.908396 ->  -0.4873893632
    6:   0.707107  0.000000  0.707107 /   0.418112  0.000000  0.908396 ->  -0.4873894163
    7:   0.707107  0.707107  0.000000 /   0.707107  0.707107  0.000000 ->  -0.3940136113

 K-point ( 0.000, 0.000, 0.000) | band =    52
 Transport equivalent effective mass tensor:
             -2.0221898581              0.0000004022              0.0000001592
              0.0000004022             -2.0221986733             -0.0000001668
              0.0000001592             -0.0000001668            -55.2913468257
 Transport equivalent effective mass tensor eigenvalues:
            -55.2913468257             -2.0221986916             -2.0221898398
 Angular average effective mass 1/(<1/m>)=  -1.2963838894
 Angular average effective mass for Frohlich model (<m**0.5>)**2=  -1.8923711243
 Effective masses along directions: (cart. coord. / red. coord. -> eff. mass)
    1:   1.000000  0.000000  0.000000 /   1.000000  0.000000  0.000000 ->  -1.9229390330
    2:   0.000000  1.000000  0.000000 /   0.000000  1.000000  0.000000 ->  -1.9229390327
    3:   0.000000  0.000000  1.000000 /   0.000000  0.000000  1.000000 -> -16.0817374570
    4:   0.577350  0.577350  0.577350 /   0.385751  0.385751  0.838088 ->  -0.7301196904
    5:   0.000000  0.707107  0.707107 /   0.000000  0.418112  0.908396 ->  -3.4351293873
    6:   0.707107  0.000000  0.707107 /   0.418112  0.000000  0.908396 ->  -3.4351266239
    7:   0.707107  0.707107  0.000000 /   0.707107  0.707107  0.000000 ->  -0.4942258655

 Angular average effective mass for Frohlich model, averaged over degenerate bands.
 Value of     (<<m**0.5>>)**2 =     1.169941E+00
 Absolute Value of <<m**0.5>> =     1.081638E+00

 K-point ( 0.000, 0.000, 0.000) | band =    53
 Effective mass tensor:
              0.3092197065             -0.0000000004             -0.0000000003
             -0.0000000004              0.3092197079              0.0000000005
             -0.0000000003              0.0000000005              1.4830743127
 Effective mass tensor eigenvalues:
              0.3092197064              0.3092197080              1.4830743127
 Angular average effective mass 1/(<1/m>)=   0.4200405190
 Angular average effective mass for Frohlich model (<m**0.5>)**2=   0.4698054830
 Effective masses along directions: (cart. coord. / red. coord. -> eff. mass)
    1:   1.000000  0.000000  0.000000 /   1.000000  0.000000  0.000000 ->   0.3092197065
    2:   0.000000  1.000000  0.000000 /   0.000000  1.000000  0.000000 ->   0.3092197079
    3:   0.000000  0.000000  1.000000 /   0.000000  0.000000  1.000000 ->   1.4830743127
    4:   0.577350  0.577350  0.577350 /   0.385751  0.385751  0.838088 ->   0.4200405185
    5:   0.000000  0.707107  0.707107 /   0.000000  0.418112  0.908396 ->   0.5117417129
    6:   0.707107  0.000000  0.707107 /   0.418112  0.000000  0.908396 ->   0.5117417104
    7:   0.707107  0.707107  0.000000 /   0.707107  0.707107  0.000000 ->   0.3092197068

 END OF EFFECTIVE MASSES SECTION

 ---- first-order wavefunction calculations are completed ----

 Total localisation tensor (bohr^2) in cartesian coordinates
  WARNING : still subject to testing - especially symmetries.
      direction              matrix element
   alpha     beta       real part   imaginary part
     1        1       1.4497512794    0.0000000000
     1        2       0.0000000000    0.0000000000
     1        3       0.0000000000    0.0000000000
     2        1       0.0000000000    0.0000000000
     2        2       1.4497512670    0.0000000000
     2        3       0.0000000000    0.0000000000
     3        1       0.0000000000    0.0000000000
     3        2       0.0000000000    0.0000000000
     3        3       0.7837904022    0.0000000000

 respfn : d/dk was computed, but no 2DTE, so no DDB output.

== END DATASET(S) ==============================================================

 -outvars: echo values of variables after computation  --------
            acell      1.0000000000E+00  1.0000000000E+00  1.0000000000E+00 Bohr
              amu      1.37327000E+02  6.35460000E+01  7.89600000E+01
                       1.89984032E+01
             ecut      4.60000000E+01 Hartree
           etotal     -2.2200486667E+01
            fcart      0.0000000000E+00  0.0000000000E+00  0.0000000000E+00
                       0.0000000000E+00  0.0000000000E+00  0.0000000000E+00
                       0.0000000000E+00  0.0000000000E+00  0.0000000000E+00
                       0.0000000000E+00  0.0000000000E+00  0.0000000000E+00
                       0.0000000000E+00  0.0000000000E+00  0.0000000000E+00
                       0.0000000000E+00  0.0000000000E+00  0.0000000000E+00
                       0.0000000000E+00  0.0000000000E+00  0.0000000000E+00
                       0.0000000000E+00  0.0000000000E+00  0.0000000000E+00
-          fftalg         512
           irdden           1
           irdwfk           1
           istwfk        1
              ixc     -116133
           kptopt           0
P           mkmem           1
P          mkqmem           1
P          mk1mem           1
            natom           8
            nband          61
           nbdbuf           4
            ngfft          50      50     108
             nkpt           1
            nstep        2000
             nsym          16
           ntypat           4
              occ      2.000000  2.000000  2.000000  2.000000  2.000000  2.000000
                       2.000000  2.000000  2.000000  2.000000  2.000000  2.000000
                       2.000000  2.000000  2.000000  2.000000  2.000000  2.000000
                       2.000000  2.000000  2.000000  2.000000  2.000000  2.000000
                       2.000000  2.000000  2.000000  2.000000  2.000000  2.000000
                       2.000000  2.000000  2.000000  2.000000  2.000000  2.000000
                       2.000000  2.000000  2.000000  2.000000  2.000000  2.000000
                       2.000000  2.000000  2.000000  2.000000  2.000000  2.000000
                       2.000000  2.000000  2.000000  2.000000  0.000000  0.000000
                       0.000000  0.000000  0.000000  0.000000  0.000000  0.000000
                       0.000000
        optdriver           1
            prtwf          -1
            rfdir           1       1       1
           rfelfd           2
            rprim      7.8861412094E+00  0.0000000000E+00  0.0000000000E+00
                       0.0000000000E+00  7.8861412094E+00  0.0000000000E+00
                       0.0000000000E+00  0.0000000000E+00  1.7133547294E+01
          spgroup         129
           strten      0.0000000000E+00  0.0000000000E+00  0.0000000000E+00
                       0.0000000000E+00  0.0000000000E+00  0.0000000000E+00
           symrel      1  0  0   0  1  0   0  0  1      -1  0  0   0 -1  0   0  0 -1
                      -1  0  0   0  1  0   0  0 -1       1  0  0   0 -1  0   0  0  1
                      -1  0  0   0 -1  0   0  0  1       1  0  0   0  1  0   0  0 -1
                       1  0  0   0 -1  0   0  0 -1      -1  0  0   0  1  0   0  0  1
                       0  1  0   1  0  0   0  0  1       0 -1  0  -1  0  0   0  0 -1
                       0 -1  0   1  0  0   0  0 -1       0  1  0  -1  0  0   0  0  1
                       0 -1  0  -1  0  0   0  0  1       0  1  0   1  0  0   0  0 -1
                       0  1  0  -1  0  0   0  0 -1       0 -1  0   1  0  0   0  0  1
            tnons      0.0000000  0.0000000  0.0000000     0.5000000  0.5000000  0.0000000
                       0.5000000  0.5000000  0.0000000     0.0000000  0.0000000  0.0000000
                       0.0000000  0.0000000  0.0000000     0.5000000  0.5000000  0.0000000
                       0.5000000  0.5000000  0.0000000     0.0000000  0.0000000  0.0000000
                       0.5000000  0.5000000  0.0000000     0.0000000  0.0000000  0.0000000
                       0.0000000  0.0000000  0.0000000     0.5000000  0.5000000  0.0000000
                       0.5000000  0.5000000  0.0000000     0.0000000  0.0000000  0.0000000
                       0.0000000  0.0000000  0.0000000     0.5000000  0.5000000  0.0000000
           tolwfr      1.00000000E-20
            typat      1  1  2  2  3  3  4  4
           useylm           1
           xangst      0.0000000000E+00  2.0865830959E+00  6.1000097409E+00
                       2.0865830959E+00  0.0000000000E+00  2.9666729895E+00
                       2.0865830959E+00  2.0865830959E+00  0.0000000000E+00
                       0.0000000000E+00  0.0000000000E+00  0.0000000000E+00
                       0.0000000000E+00  2.0865830959E+00  1.3755336371E+00
                       2.0865830959E+00  0.0000000000E+00  7.6911490933E+00
                       0.0000000000E+00  0.0000000000E+00  4.5333413652E+00
                       2.0865830959E+00  2.0865830959E+00  4.5333413652E+00
            xcart      0.0000000000E+00  3.9430706047E+00  1.1527347818E+01
                       3.9430706047E+00  0.0000000000E+00  5.6061994759E+00
                       3.9430706047E+00  3.9430706047E+00  0.0000000000E+00
                       0.0000000000E+00  0.0000000000E+00  0.0000000000E+00
                       0.0000000000E+00  3.9430706047E+00  2.5993818606E+00
                       3.9430706047E+00  0.0000000000E+00  1.4534165434E+01
                       0.0000000000E+00  0.0000000000E+00  8.5667736471E+00
                       3.9430706047E+00  3.9430706047E+00  8.5667736471E+00
             xred      0.0000000000E+00  5.0000000000E-01  6.7279400000E-01
                       5.0000000000E-01  0.0000000000E+00  3.2720600000E-01
                       5.0000000000E-01  5.0000000000E-01  0.0000000000E+00
                       0.0000000000E+00  0.0000000000E+00  0.0000000000E+00
                       0.0000000000E+00  5.0000000000E-01  1.5171300000E-01
                       5.0000000000E-01  0.0000000000E+00  8.4828700000E-01
                       0.0000000000E+00  0.0000000000E+00  5.0000000000E-01
                       5.0000000000E-01  5.0000000000E-01  5.0000000000E-01
            znucl       56.00000   29.00000   34.00000    9.00000

- Timing analysis has been suppressed with timopt=0

 Suggested references for the acknowledgment of ABINIT usage.

 Calculation completed.
.Delivered   6 WARNINGs and   5 COMMENTs to log file.