.Version 9.5.2 of ABINIT

 ABINIT is a project of the Universite Catholique de Louvain,
 Corning Inc. and other collaborators, see ~abinit/doc/developers/contributors.txt .
 acknowledgments of the ABINIT effort.

.Starting date : Tue  1 Jun 2021.
- ( at 20h04 )

- input  file    -> /scratch/users/j/a/jabreu/flow_simple_11atoms/flow/w406/t1/run.abi
- output file    -> /scratch/users/j/a/jabreu/flow_simple_11atoms/flow/w406/t1/run.abo
- root for input  files -> /scratch/users/j/a/jabreu/flow_simple_11atoms/flow/w406/t1/indata/in
- root for output files -> /scratch/users/j/a/jabreu/flow_simple_11atoms/flow/w406/t1/outdata/out

 Symmetries : space group Cm c 2_1 (# 36); Bravais oC (1-face-center ortho.)
     intxc =       0      iscf =       7    lmnmax =      18     lnmax =       6
     mgfft =      80  mpssoang =       3    mqgrid =    3591     natom =      12
  nloc_mem =       1    nspden =       1   nspinor =       1    nsppol =       1
      nsym =       4    n1xccc =    2501    ntypat =       3    occopt =       1
   xclevel =       2
-    mband =          79        mffmem =           1         mkmem =           2
-   mkqmem =           2        mk1mem =           2           mpw =       23559
      nfft =      460800          nkpt =           2
  Rough estimation (10% accuracy) of disk space for files :

------------- Echo of variables that govern the present computation ------------
-
- outvars: echo of selected default values
-   iomode0 =  0 , fftalg0 =512 , wfoptalg0 =  0
-
- outvars: echo of global parameters not present in the input file
-  max_nthreads =    0
-
 -outvars: echo values of preprocessed input variables --------
            acell      1.0000000000E+00  1.0000000000E+00  1.0000000000E+00 Bohr
              amu      1.07868200E+02  7.26100000E+01  3.20660000E+01
             ecut      4.30000000E+01 Hartree
-          fftalg         512
           irdden           1
           irdwfk           1
           istwfk        0    1
              ixc     -116133
              kpt     -3.73395855E-01  6.26604145E-01  0.00000000E+00
                       0.00000000E+00  0.00000000E+00  0.00000000E+00
           kptopt           0
P           mkmem           2
P          mkqmem           2
P          mk1mem           2
            natom          12
            nband          79
           nbdbuf           4
            ngfft          80      80      72
             nkpt           2
            nstep        2000
             nsym           4
           ntypat           3
              occ      2.000000  2.000000  2.000000  2.000000  2.000000  2.000000
                       2.000000  2.000000  2.000000  2.000000  2.000000  2.000000
                       2.000000  2.000000  2.000000  2.000000  2.000000  2.000000
                       2.000000  2.000000  2.000000  2.000000  2.000000  2.000000
                       2.000000  2.000000  2.000000  2.000000  2.000000  2.000000
                       2.000000  2.000000  2.000000  2.000000  2.000000  2.000000
                       2.000000  2.000000  2.000000  2.000000  2.000000  2.000000
                       2.000000  2.000000  2.000000  2.000000  2.000000  2.000000
                       2.000000  2.000000  2.000000  2.000000  2.000000  2.000000
                       2.000000  2.000000  2.000000  2.000000  2.000000  2.000000
                       2.000000  2.000000  2.000000  2.000000  2.000000  2.000000
                       2.000000  2.000000  2.000000  2.000000  0.000000  0.000000
                       0.000000  0.000000  0.000000  0.000000  0.000000  0.000000
                       0.000000
        optdriver           1
            prtwf          -1
            rfdir           1       1       1
           rfelfd           2
            rprim      1.2812508703E+01  0.0000000000E+00  0.0000000000E+00
                      -6.1845637010E+00  1.1221031641E+01  0.0000000000E+00
                       0.0000000000E+00  0.0000000000E+00  1.2162307234E+01
          spgroup          36
           symrel      1  0  0   0  1  0   0  0  1       0  1  0   1  0  0   0  0  1
                      -1  0  0   0 -1  0   0  0  1       0 -1  0  -1  0  0   0  0  1
            tnons      0.0000000  0.0000000  0.0000000     0.0000000 -0.0000000  0.0000000
                      -0.0000000 -0.0000000  0.5000000    -0.0000000 -0.0000000  0.5000000
           tolwfr      1.00000000E-20
            typat      1  1  1  1  2  2  3  3  3  3  3  3
           useylm           1
              wtk        0.50000    0.50000
           xangst      3.8703374542E+00  2.9759994669E+00  3.1619373264E+00
                      -3.6298001943E-01  2.9619147344E+00  6.3799452223E+00
                       7.3814081777E-01  4.8260991462E+00  3.1619373264E+00
                       2.7692166170E+00  1.1118150550E+00  6.3799452223E+00
                       2.9338904647E+00  4.9670414777E+00  6.1747972189E+00
                       5.7346697001E-01  9.7087272356E-01  2.9567893230E+00
                       5.0953485869E-01  8.6263642350E-01  5.3091273509E+00
                       2.9978225761E+00  5.0752777777E+00  2.0911194549E+00
                      -4.9990006825E-01  2.8027014409E+00  2.4138341588E+00
                       2.6958705876E+00  9.1505039215E-01  2.4138341588E+00
                       8.1148684717E-01  5.0228638091E+00  5.6318420547E+00
                       4.0072575030E+00  3.1352127603E+00  5.6318420547E+00
            xcart      7.3138778302E+00  5.6238239640E+00  5.9751955962E+00
                      -6.8593282844E-01  5.5972076769E+00  1.2056349213E+01
                       1.3948839931E+00  9.1200056765E+00  5.9751955962E+00
                       5.2330610087E+00  2.1010259644E+00  1.2056349213E+01
                       5.5442494822E+00  9.3863480835E+00  1.1668675670E+01
                       1.0836955196E+00  1.8346835574E+00  5.5875220531E+00
                       9.6288133808E-01  1.6301465927E+00  1.0032796698E+01
                       5.6650636637E+00  9.5908850482E+00  3.9516430810E+00
                      -9.4467422281E-01  5.2963381555E+00  4.5614854903E+00
                       5.0944571002E+00  1.7291946390E+00  4.5614854903E+00
                       1.5334879016E+00  9.4918370019E+00  1.0642639107E+01
                       7.5726192246E+00  5.9246934854E+00  1.0642639107E+01
             xred      8.1276000000E-01  5.0118600000E-01  4.9128800000E-01
                       1.8724000000E-01  4.9881400000E-01  9.9128800000E-01
                       5.0118600000E-01  8.1276000000E-01  4.9128800000E-01
                       4.9881400000E-01  1.8724000000E-01  9.9128800000E-01
                       8.3649600000E-01  8.3649600000E-01  9.5941300000E-01
                       1.6350400000E-01  1.6350400000E-01  4.5941300000E-01
                       1.4527600000E-01  1.4527600000E-01  8.2490900000E-01
                       8.5472400000E-01  8.5472400000E-01  3.2490900000E-01
                       1.5410300000E-01  4.7200100000E-01  3.7505100000E-01
                       4.7200100000E-01  1.5410300000E-01  3.7505100000E-01
                       5.2799900000E-01  8.4589700000E-01  8.7505100000E-01
                       8.4589700000E-01  5.2799900000E-01  8.7505100000E-01
            znucl       47.00000   32.00000   16.00000

 chkinp: Checking input parameters for consistency.

== DATASET  1 ==================================================================
-   mpi_nproc: 1, omp_nthreads: -1 (-1 if OMP is not activated)

--- !DatasetInfo
iteration_state: {dtset: 1, }
dimensions: {natom: 12, nkpt: 2, mband: 79, nsppol: 1, nspinor: 1, nspden: 1, mpw: 23559, }
cutoff_energies: {ecut:  43.0, pawecutdg:  -1.0, }
electrons: {nelect:   1.40000000E+02, charge:   0.00000000E+00, occopt:   1.00000000E+00, tsmear:   1.00000000E-02, }
meta: {optdriver: 1, rfelfd: 2, }
...

 Real(R)+Recip(G) space primitive vectors, cartesian coordinates (Bohr,Bohr^-1):
 R(1)= 12.8125087  0.0000000  0.0000000  G(1)=  0.0780487  0.0430172  0.0000000
 R(2)= -6.1845637 11.2210316  0.0000000  G(2)=  0.0000000  0.0891184  0.0000000
 R(3)=  0.0000000  0.0000000 12.1623072  G(3)=  0.0000000  0.0000000  0.0822212
 Unit cell volume ucvol=  1.7485696E+03 bohr^3
 Angles (23,13,12)=  9.00000000E+01  9.00000000E+01  1.18861717E+02 degrees

 getcut: wavevector=  0.0000  0.0000  0.0000  ngfft=  80  80  72
         ecut(hartree)=     43.000   => boxcut(ratio)=   2.00547

--- Pseudopotential description ------------------------------------------------
- pspini: atom type   1  psp file is /scratch/users/j/a/jabreu/pseudos/PBEsol/Ag.psp8
- pspatm: opening atomic psp file    /scratch/users/j/a/jabreu/pseudos/PBEsol/Ag.psp8
- Ag    ONCVPSP-3.3.0  r_core=   1.41384   1.46535   1.61207
- 47.00000  19.00000    180112                znucl, zion, pspdat
    8 -116133    2    4       600   0.00000   pspcod,pspxc,lmax,lloc,mmax,r2well
    5.99000000000000    7.00000000000000    0.00000000000000   rchrg,fchrg,qchrg
     nproj     2     2     2
     extension_switch     1
  pspatm : epsatm=   27.64581383
         --- l  ekb(1:nproj) -->
             0    9.559407   -0.398585
             1    3.418858   -0.136622
             2   -1.644397   -0.401551
 pspatm: atomic psp has been read  and splines computed

- pspini: atom type   2  psp file is /scratch/users/j/a/jabreu/pseudos/PBEsol/Ge.psp8
- pspatm: opening atomic psp file    /scratch/users/j/a/jabreu/pseudos/PBEsol/Ge.psp8
- Ge    ONCVPSP-3.3.0  r_core=   1.91022   1.82122   1.91022
- 32.00000  14.00000    180112                znucl, zion, pspdat
    8 -116133    2    4       600   0.00000   pspcod,pspxc,lmax,lloc,mmax,r2well
    5.99000000000000    5.00000000000000    0.00000000000000   rchrg,fchrg,qchrg
     nproj     2     2     2
     extension_switch     1
  pspatm : epsatm=   30.86751540
         --- l  ekb(1:nproj) -->
             0    6.339734    0.583066
             1    3.813259    0.738801
             2   -9.332373   -3.602819
 pspatm: atomic psp has been read  and splines computed

- pspini: atom type   3  psp file is /scratch/users/j/a/jabreu/pseudos/PBEsol/S.psp8
- pspatm: opening atomic psp file    /scratch/users/j/a/jabreu/pseudos/PBEsol/S.psp8
- S     ONCVPSP-3.3.0  r_core=   1.45376   1.45376   1.61851
- 16.00000   6.00000    180112                znucl, zion, pspdat
    8 -116133    2    4       600   0.00000   pspcod,pspxc,lmax,lloc,mmax,r2well
    5.99000000000000    6.00000000000000    0.00000000000000   rchrg,fchrg,qchrg
     nproj     2     2     2
     extension_switch     1
  pspatm : epsatm=    8.71840985
         --- l  ekb(1:nproj) -->
             0    6.834532    0.579453
             1    3.282851    0.896984
             2   -3.496974   -0.974265
 pspatm: atomic psp has been read  and splines computed

   3.14480243E+04                                ecore*ucvol(ha*bohr**3)

 ==>  initialize data related to q vector <==

 The list of irreducible perturbations for this q vector is:
    1)    idir= 1    ipert=  13
    2)    idir= 2    ipert=  13
    3)    idir= 3    ipert=  13

 Perturbation wavevector (in red.coord.)   0.000000  0.000000  0.000000
[...]
   0.01305    0.03932   -0.02608    0.01862   -0.06875    0.01429    0.02725   -0.03315
  -0.01180    0.00072    0.03743    0.02318   -0.03044   -0.00427   -0.01201    0.00106
   0.00469    0.04827   -0.01867   -0.05570   -0.07337    0.02997   -0.01250
 prteigrs : prtvol=0 or 1, do not print more k-points.

 Eight components of 2nd-order total energy (hartree) are
 1,2,3: 0th-order hamiltonian combined with 1st-order wavefunctions
     kin0=   8.70677825E+01 eigvalue=   9.08865753E-01  local=  -4.16891839E+01
 4,5,6: 1st-order hamiltonian combined with 1st and 0th-order wfs
     kin1=  -9.48294359E+01  Hartree=   0.00000000E+00     xc=   0.00000000E+00
 7,8,9: eventually, occupation + non-local contributions
    edocc=   1.09209702E+01     enl0=   4.51753373E+00   enl1=  -2.86225007E+01
 1-9 gives the relaxation energy (to be shifted if some occ is /=2.0)
   erelax=  -6.17259683E+01
  No Ewald or frozen-wf contrib.: the relaxation energy is the total one
 2DEtotal=   -0.6172596829E+02 Ha. Also 2DEtotal=   -0.167964901738E+04 eV
    (  non-var. 2DEtotal :   -6.1725968294E+01 Ha)

 Perturbation wavevector (in red.coord.)   0.000000  0.000000  0.000000
 Perturbation : derivative vs k along direction   2
 The set of symmetries contains only one element for this perturbation.
 symkpt : not enough symmetry to change the number of k points.

[...]

 Perturbation wavevector (in red.coord.)   0.000000  0.000000  0.000000
 Perturbation : derivative vs k along direction   3
 The set of symmetries contains only one element for this perturbation.
 symkpt : not enough symmetry to change the number of k points.

 Initialisation of the first-order wave-functions :
  ireadwf=   0

--- !BeginCycle
iteration_state: {dtset: 1, }
solver: {iscf: 7, nstep: 2000, nline: 4, wfoptalg: 0, }
tolerances: {tolwfr: 1.00E-20, }
...

     iter   2DEtotal(Ha)        deltaE(Ha) residm    vres2
-ETOT  1  -51.669102224124     -5.167E+01 1.506E-01 0.000E+00
 ETOT  2  -51.808617979586     -1.395E-01 1.061E-02 0.000E+00
 ETOT  3  -51.811101914229     -2.484E-03 8.562E-04 0.000E+00
 ETOT  4  -51.811182547371     -8.063E-05 2.733E-04 0.000E+00
 ETOT  5  -51.811185708237     -3.161E-06 3.118E-05 0.000E+00
 ETOT  6  -51.811185841908     -1.337E-07 1.154E-05 0.000E+00
 ETOT  7  -51.811185847803     -5.894E-09 1.413E-06 0.000E+00
 ETOT  8  -51.811185848070     -2.675E-10 5.576E-07 0.000E+00
 ETOT  9  -51.811185848083     -1.240E-11 7.072E-08 0.000E+00
 ETOT 10  -51.811185848083     -5.969E-13 2.908E-08 0.000E+00
 ETOT 11  -51.811185848083     -6.395E-14 3.747E-09 0.000E+00
 ETOT 12  -51.811185848083      7.105E-15 1.578E-09 0.000E+00
 ETOT 13  -51.811185848083      3.553E-14 2.046E-10 0.000E+00
 ETOT 14  -51.811185848083     -1.421E-14 8.720E-11 0.000E+00
 ETOT 15  -51.811185848083     -2.132E-14 1.135E-11 0.000E+00
 ETOT 16  -51.811185848083      1.421E-14 4.859E-12 0.000E+00
 ETOT 17  -51.811185848083      2.842E-14 6.356E-13 0.000E+00
 ETOT 18  -51.811185848083     -2.842E-14 2.718E-13 0.000E+00
 ETOT 19  -51.811185848083      1.421E-14 3.580E-14 0.000E+00
 ETOT 20  -51.811185848083      0.000E+00 1.524E-14 0.000E+00
 ETOT 21  -51.811185848083     -1.421E-14 2.023E-15 0.000E+00
 ETOT 22  -51.811185848083      1.421E-14 8.572E-16 0.000E+00
 ETOT 23  -51.811185848083     -1.421E-14 1.146E-16 0.000E+00
 ETOT 24  -51.811185848083      0.000E+00 4.834E-17 0.000E+00
 ETOT 25  -51.811185848083      0.000E+00 6.503E-18 0.000E+00
 ETOT 26  -51.811185848083      0.000E+00 2.733E-18 0.000E+00
 ETOT 27  -51.811185848083      2.132E-14 3.695E-19 0.000E+00
 ETOT 28  -51.811185848083     -2.842E-14 1.549E-19 0.000E+00
 ETOT 29  -51.811185848083      2.132E-14 2.103E-20 0.000E+00
 ETOT 30  -51.811185848083      7.105E-15 9.985E-21 0.000E+00

 At SCF step   30   max residual=  9.99E-21 < tolwfr=  1.00E-20 =>converged.

 ----iterations are completed or convergence reached----

 dfpt_looppert: DFPT cycle converged with prtwf=-1. Will skip output of the 1st-order WFK file.
 dfpt_looppert : ek2=    7.4728424839E+01
          f-sum rule ratio=    1.0589416640E+00
 prteigrs : about to open file /scratch/users/j/a/jabreu/flow_simple_11atoms/flow/w406/t1/tmpdata/tmp_1WF1_EIG
 Expectation of eigenvalue derivatives (hartree) for nkpt=   2  k points:
  (in case of degenerate eigenvalues, averaged derivative)
 kpt#   1, nband= 79, wtk=  0.50000, kpt= -0.3734  0.6266  0.0000 (reduced coord)
  -0.00000   -0.00000   -0.00000    0.00000   -0.00000    0.00000   -0.00000   -0.00000
   0.00000    0.00000    0.00000    0.00000    0.00000   -0.00000   -0.00000   -0.00000
   0.00000    0.00000   -0.00000    0.00000    0.00000   -0.00000    0.00000    0.00000
  -0.00000    0.00000   -0.00000   -0.00000   -0.00000   -0.00000    0.00000   -0.00000
  -0.00000   -0.00000   -0.00000    0.00000    0.00000   -0.00000    0.00000    0.00000
  -0.00000    0.00000    0.00000   -0.00000   -0.00000    0.00000   -0.00000    0.00000
  -0.00000    0.00000   -0.00000   -0.00000    0.00000   -0.00000    0.00000   -0.00000
  -0.00000   -0.00000   -0.00000    0.00000    0.00000   -0.00000    0.00000    0.00000
  -0.00000    0.00000    0.00000    0.00000   -0.00000    0.00000   -0.00000    0.00000
  -0.00000    0.00000    0.00000   -0.00000    0.00000    0.00000   -0.00000
 prteigrs : prtvol=0 or 1, do not print more k-points.

 Eight components of 2nd-order total energy (hartree) are
 1,2,3: 0th-order hamiltonian combined with 1st-order wavefunctions
     kin0=   7.23305907E+01 eigvalue=   1.15515490E+00  local=  -3.42600092E+01
 4,5,6: 1st-order hamiltonian combined with 1st and 0th-order wfs
     kin1=  -7.91330425E+01  Hartree=   0.00000000E+00     xc=   0.00000000E+00
 7,8,9: eventually, occupation + non-local contributions
    edocc=   8.90062821E+00     enl0=   3.68482128E+00   enl1=  -2.44893291E+01
 1-9 gives the relaxation energy (to be shifted if some occ is /=2.0)
   erelax=  -5.18111858E+01
  No Ewald or frozen-wf contrib.: the relaxation energy is the total one
 2DEtotal=   -0.5181118585E+02 Ha. Also 2DEtotal=   -0.140985406635E+04 eV
    (  non-var. 2DEtotal :   -5.1811185847E+01 Ha)

 CALCULATION OF EFFECTIVE MASSES
 NOTE : Additional infos (eff. mass eigenvalues, eigenvectors and, if degenerate, average mass) are available in stdout.

 K-point (-0.373, 0.627, 0.000) | band =    70
 Effective mass tensor:
             -0.5952183080             -0.1628200931              0.0000000042
             -0.1628200931             -0.7746976113              0.0000000073
              0.0000000042              0.0000000073             -1.2255848814
 Effective mass tensor eigenvalues:
             -1.2255848814             -0.8708708096             -0.4990451096
 Angular average effective mass 1/(<1/m>)=  -0.7560408093
 Angular average effective mass for Frohlich model (<m**0.5>)**2=  -0.7886913327
 Effective masses along directions: (cart. coord. / red. coord. -> eff. mass)
    1:   1.000000  0.000000  0.000000 /   0.900573 -0.434704  0.000000 ->  -0.5609980105
    2:   0.000000  1.000000  0.000000 /   0.000000  1.000000  0.000000 ->  -0.7301586877
    3:   0.000000  0.000000  1.000000 /   0.000000  0.000000  1.000000 ->  -1.2255848814
    4:   0.577350  0.577350  0.577350 /   0.697478  0.274172  0.662083 ->  -0.9320361573
    5:   0.000000  0.707107  0.707107 /   0.000000  0.678094  0.734976 ->  -0.9151214476
    6:   0.707107  0.000000  0.707107 /   0.684534 -0.330423  0.649796 ->  -0.7696823709
    7:   0.707107  0.707107  0.000000 /   0.930678  0.365840  0.000000 ->  -0.8323545303

 K-point ( 0.000, 0.000, 0.000) | band =    71
 Effective mass tensor:
              0.1234395873              0.0002961242              0.0000009850
              0.0002961242              0.1237667924              0.0000017393
              0.0000009850              0.0000017393              0.0752948750
 Effective mass tensor eigenvalues:
              0.0752948750              0.1232648774              0.1239415024
 Angular average effective mass 1/(<1/m>)=   0.1018259089
 Angular average effective mass for Frohlich model (<m**0.5>)**2=   0.1036344723
 Effective masses along directions: (cart. coord. / red. coord. -> eff. mass)
    1:   1.000000  0.000000  0.000000 /   0.900573 -0.434704  0.000000 ->   0.1234388788
    2:   0.000000  1.000000  0.000000 /   0.000000  1.000000  0.000000 ->   0.1237660819
    3:   0.000000  0.000000  1.000000 /   0.000000  0.000000  1.000000 ->   0.0752948750
    4:   0.577350  0.577350  0.577350 /   0.697478  0.274172  0.662083 ->   0.1019620896
    5:   0.000000  0.707107  0.707107 /   0.000000  0.678094  0.734976 ->   0.0936307596
    6:   0.707107  0.000000  0.707107 /   0.684534 -0.330423  0.649796 ->   0.0935362667
    7:   0.707107  0.707107  0.000000 /   0.930678  0.365840  0.000000 ->   0.1238990969

 END OF EFFECTIVE MASSES SECTION

 ---- first-order wavefunction calculations are completed ----

 Total localisation tensor (bohr^2) in cartesian coordinates
  WARNING : still subject to testing - especially symmetries.
      direction              matrix element
   alpha     beta       real part   imaginary part
     1        1       3.4463032988    0.0000000000
     1        2      -1.1815844770    0.0000000000
     1        3       0.0000000000    0.0000000000
     2        1      -1.1815844770    0.0000000000
     2        2       2.1438208810    0.0000000000
     2        3       0.0000000000    0.0000000000
     3        1       0.0000000000    0.0000000000
     3        2       0.0000000000    0.0000000000
     3        3       2.8848842111    0.0000000000

 respfn : d/dk was computed, but no 2DTE, so no DDB output.

== END DATASET(S) ==============================================================

 -outvars: echo values of variables after computation  --------
            acell      1.0000000000E+00  1.0000000000E+00  1.0000000000E+00 Bohr
              amu      1.07868200E+02  7.26100000E+01  3.20660000E+01
             ecut      4.30000000E+01 Hartree
           etotal     -5.1811185848E+01
            fcart      0.0000000000E+00  0.0000000000E+00  0.0000000000E+00
                       0.0000000000E+00  0.0000000000E+00  0.0000000000E+00
                       0.0000000000E+00  0.0000000000E+00  0.0000000000E+00
                       0.0000000000E+00  0.0000000000E+00  0.0000000000E+00
                       0.0000000000E+00  0.0000000000E+00  0.0000000000E+00
                       0.0000000000E+00  0.0000000000E+00  0.0000000000E+00
                       0.0000000000E+00  0.0000000000E+00  0.0000000000E+00
                       0.0000000000E+00  0.0000000000E+00  0.0000000000E+00
                       0.0000000000E+00  0.0000000000E+00  0.0000000000E+00
                       0.0000000000E+00  0.0000000000E+00  0.0000000000E+00
                       0.0000000000E+00  0.0000000000E+00  0.0000000000E+00
                       0.0000000000E+00  0.0000000000E+00  0.0000000000E+00
-          fftalg         512
           irdden           1
           irdwfk           1
           istwfk        0    1
              ixc     -116133
              kpt     -3.73395855E-01  6.26604145E-01  0.00000000E+00
                       0.00000000E+00  0.00000000E+00  0.00000000E+00
           kptopt           0
P           mkmem           2
P          mkqmem           2
P          mk1mem           2
            natom          12
            nband          79
           nbdbuf           4
            ngfft          80      80      72
             nkpt           2
            nstep        2000
             nsym           4
           ntypat           3
              occ      2.000000  2.000000  2.000000  2.000000  2.000000  2.000000
                       2.000000  2.000000  2.000000  2.000000  2.000000  2.000000
                       2.000000  2.000000  2.000000  2.000000  2.000000  2.000000
                       2.000000  2.000000  2.000000  2.000000  2.000000  2.000000
                       2.000000  2.000000  2.000000  2.000000  2.000000  2.000000
                       2.000000  2.000000  2.000000  2.000000  2.000000  2.000000
                       2.000000  2.000000  2.000000  2.000000  2.000000  2.000000
                       2.000000  2.000000  2.000000  2.000000  2.000000  2.000000
                       2.000000  2.000000  2.000000  2.000000  2.000000  2.000000
                       2.000000  2.000000  2.000000  2.000000  2.000000  2.000000
                       2.000000  2.000000  2.000000  2.000000  2.000000  2.000000
                       2.000000  2.000000  2.000000  2.000000  0.000000  0.000000
                       0.000000  0.000000  0.000000  0.000000  0.000000  0.000000
                       0.000000
        optdriver           1
            prtwf          -1
            rfdir           1       1       1
           rfelfd           2
            rprim      1.2812508703E+01  0.0000000000E+00  0.0000000000E+00
                      -6.1845637010E+00  1.1221031641E+01  0.0000000000E+00
                       0.0000000000E+00  0.0000000000E+00  1.2162307234E+01
          spgroup          36
           strten      0.0000000000E+00  0.0000000000E+00  0.0000000000E+00
                       0.0000000000E+00  0.0000000000E+00  0.0000000000E+00
           symrel      1  0  0   0  1  0   0  0  1       0  1  0   1  0  0   0  0  1
                      -1  0  0   0 -1  0   0  0  1       0 -1  0  -1  0  0   0  0  1
            tnons      0.0000000  0.0000000  0.0000000     0.0000000 -0.0000000  0.0000000
                      -0.0000000 -0.0000000  0.5000000    -0.0000000 -0.0000000  0.5000000
           tolwfr      1.00000000E-20
            typat      1  1  1  1  2  2  3  3  3  3  3  3
           useylm           1
              wtk        0.50000    0.50000
           xangst      3.8703374542E+00  2.9759994669E+00  3.1619373264E+00
                      -3.6298001943E-01  2.9619147344E+00  6.3799452223E+00
                       7.3814081777E-01  4.8260991462E+00  3.1619373264E+00
                       2.7692166170E+00  1.1118150550E+00  6.3799452223E+00
                       2.9338904647E+00  4.9670414777E+00  6.1747972189E+00
                       5.7346697001E-01  9.7087272356E-01  2.9567893230E+00
                       5.0953485869E-01  8.6263642350E-01  5.3091273509E+00
                       2.9978225761E+00  5.0752777777E+00  2.0911194549E+00
                      -4.9990006825E-01  2.8027014409E+00  2.4138341588E+00
                       2.6958705876E+00  9.1505039215E-01  2.4138341588E+00
                       8.1148684717E-01  5.0228638091E+00  5.6318420547E+00
                       4.0072575030E+00  3.1352127603E+00  5.6318420547E+00
            xcart      7.3138778302E+00  5.6238239640E+00  5.9751955962E+00
                      -6.8593282844E-01  5.5972076769E+00  1.2056349213E+01
                       1.3948839931E+00  9.1200056765E+00  5.9751955962E+00
                       5.2330610087E+00  2.1010259644E+00  1.2056349213E+01
                       5.5442494822E+00  9.3863480835E+00  1.1668675670E+01
                       1.0836955196E+00  1.8346835574E+00  5.5875220531E+00
                       9.6288133808E-01  1.6301465927E+00  1.0032796698E+01
                       5.6650636637E+00  9.5908850482E+00  3.9516430810E+00
                      -9.4467422281E-01  5.2963381555E+00  4.5614854903E+00
                       5.0944571002E+00  1.7291946390E+00  4.5614854903E+00
                       1.5334879016E+00  9.4918370019E+00  1.0642639107E+01
                       7.5726192246E+00  5.9246934854E+00  1.0642639107E+01
             xred      8.1276000000E-01  5.0118600000E-01  4.9128800000E-01
                       1.8724000000E-01  4.9881400000E-01  9.9128800000E-01
                       5.0118600000E-01  8.1276000000E-01  4.9128800000E-01
                       4.9881400000E-01  1.8724000000E-01  9.9128800000E-01
                       8.3649600000E-01  8.3649600000E-01  9.5941300000E-01
                       1.6350400000E-01  1.6350400000E-01  4.5941300000E-01
                       1.4527600000E-01  1.4527600000E-01  8.2490900000E-01
                       8.5472400000E-01  8.5472400000E-01  3.2490900000E-01
                       1.5410300000E-01  4.7200100000E-01  3.7505100000E-01
                       4.7200100000E-01  1.5410300000E-01  3.7505100000E-01
                       5.2799900000E-01  8.4589700000E-01  8.7505100000E-01
                       8.4589700000E-01  5.2799900000E-01  8.7505100000E-01
            znucl       47.00000   32.00000   16.00000

- Timing analysis has been suppressed with timopt=0

 Suggested references for the acknowledgment of ABINIT usage.

 Calculation completed.
.Delivered   2 WARNINGs and   5 COMMENTs to log file.