.Version 9.7.2 of ABINIT

 ABINIT is a project of the Universite Catholique de Louvain,
 Corning Inc. and other collaborators, see ~abinit/doc/developers/contributors.txt .
 acknowledgments of the ABINIT effort.

.Starting date : Wed  1 Dec 2021.
- ( at 21h53 )

- input  file    -> /scratch/users/j/a/jabreu/flow_simple_remain_atoms/flow/w260/t1/run.abi
- output file    -> /scratch/users/j/a/jabreu/flow_simple_remain_atoms/flow/w260/t1/run.abo
- root for input  files -> /scratch/users/j/a/jabreu/flow_simple_remain_atoms/flow/w260/t1/indata/in
- root for output files -> /scratch/users/j/a/jabreu/flow_simple_remain_atoms/flow/w260/t1/outdata/out

 Symmetries : space group P-3 m 1 (#164); Bravais hP (primitive hexag.)
     intxc =       0      iscf =       7    lmnmax =      18     lnmax =       6
     mgfft =      80  mpssoang =       3    mqgrid =    3708     natom =       5
  nloc_mem =       1    nspden =       1   nspinor =       1    nsppol =       1
      nsym =      12    n1xccc =    2501    ntypat =       3    occopt =       1
   xclevel =       2
-    mband =          39        mffmem =           1         mkmem =           2
-   mkqmem =           2        mk1mem =           2           mpw =        8098
      nfft =      162000          nkpt =           2
  Rough estimation (10% accuracy) of disk space for files :

------------- Echo of variables that govern the present computation ------------
-
- outvars: echo of selected default values
-   iomode0 =  0 , fftalg0 =512 , wfoptalg0 =  0
-
- outvars: echo of global parameters not present in the input file
-  max_nthreads =    0
-
 -outvars: echo values of preprocessed input variables --------
            acell      1.0000000000E+00  1.0000000000E+00  1.0000000000E+00 Bohr
              amu      4.00780000E+01  6.53900000E+01  3.09737620E+01
             ecut      4.20000000E+01 Hartree
-          fftalg         512
           irdden           1
           irdwfk           1
           istwfk        1    1
              ixc     -116133
              kpt      0.00000000E+00  0.00000000E+00  0.00000000E+00
                       5.00000000E-01  0.00000000E+00  0.00000000E+00
           kptopt           0
P           mkmem           2
P          mkqmem           2
P          mk1mem           2
            natom           5
            nband          39
           nbdbuf           4
            ngfft          45      45      80
             nkpt           2
            nstep        2000
             nsym          12
           ntypat           3
              occ      2.000000  2.000000  2.000000  2.000000  2.000000  2.000000
                       2.000000  2.000000  2.000000  2.000000  2.000000  2.000000
                       2.000000  2.000000  2.000000  2.000000  2.000000  2.000000
                       2.000000  2.000000  2.000000  2.000000  2.000000  2.000000
                       2.000000  2.000000  2.000000  2.000000  2.000000  2.000000
                       0.000000  0.000000  0.000000  0.000000  0.000000  0.000000
                       0.000000  0.000000  0.000000
        optdriver           1
            prtwf          -1
            rfdir           1       1       1
           rfelfd           2
            rprim      7.5242443891E+00  0.0000000000E+00  0.0000000000E+00
                      -3.7621221946E+00  6.5161867853E+00  0.0000000000E+00
                       0.0000000000E+00  0.0000000000E+00  1.2709562414E+01
          spgroup         164
           symrel      1  0  0   0  1  0   0  0  1      -1  0  0   0 -1  0   0  0 -1
                      -1  0  0   1  1  0   0  0  1       1  0  0  -1 -1  0   0  0 -1
                       0  1  0  -1 -1  0   0  0  1       0 -1  0   1  1  0   0  0 -1
                       0 -1  0  -1  0  0   0  0  1       0  1  0   1  0  0   0  0 -1
                      -1 -1  0   1  0  0   0  0  1       1  1  0  -1  0  0   0  0 -1
                       1  1  0   0 -1  0   0  0  1      -1 -1  0   0  1  0   0  0 -1
           tolwfr      1.00000000E-20
            typat      1  2  2  3  3
           useylm           1
              wtk        0.50000    0.50000
           xangst      0.0000000000E+00  0.0000000000E+00  0.0000000000E+00
                      -1.7639241746E-11  2.2988116891E+00  4.2594234532E+00
                       1.9908293213E+00  1.1494058446E+00  2.4661873074E+00
                       1.9908293213E+00  1.1494058446E+00  4.9669509796E+00
                      -1.7639241746E-11  2.2988116891E+00  1.7586597810E+00
            xcart      0.0000000000E+00  0.0000000000E+00  0.0000000000E+00
                      -3.3333336091E-11  4.3441245235E+00  8.0491438106E+00
                       3.7621221945E+00  2.1720622618E+00  4.6604186033E+00
                       3.7621221945E+00  2.1720622618E+00  9.3861770670E+00
                      -3.3333336091E-11  4.3441245235E+00  3.3233853469E+00
             xred      0.0000000000E+00  0.0000000000E+00  0.0000000000E+00
                       3.3333333333E-01  6.6666666667E-01  6.3331400000E-01
                       6.6666666667E-01  3.3333333333E-01  3.6668600000E-01
                       6.6666666667E-01  3.3333333333E-01  7.3851300000E-01
                       3.3333333333E-01  6.6666666667E-01  2.6148700000E-01
            znucl       20.00000   30.00000   15.00000

 chkinp: Checking input parameters for consistency.

== DATASET  1 ==================================================================
-   mpi_nproc: 1, omp_nthreads: -1 (-1 if OMP is not activated)

--- !DatasetInfo
iteration_state: {dtset: 1, }
dimensions: {natom: 5, nkpt: 2, mband: 39, nsppol: 1, nspinor: 1, nspden: 1, mpw: 8098, }
cutoff_energies: {ecut:  42.0, pawecutdg:  -1.0, }
electrons: {nelect:   6.00000000E+01, charge:   0.00000000E+00, occopt:   1.00000000E+00, tsmear:   1.00000000E-02, }
meta: {optdriver: 1, rfelfd: 2, }
...

 Real(R)+Recip(G) space primitive vectors, cartesian coordinates (Bohr,Bohr^-1):
 R(1)=  7.5242444  0.0000000  0.0000000  G(1)=  0.1329037  0.0767320  0.0000000
 R(2)= -3.7621222  6.5161868  0.0000000  G(2)=  0.0000000  0.1534640  0.0000000
 R(3)=  0.0000000  0.0000000 12.7095624  G(3)=  0.0000000  0.0000000  0.0786809
 Unit cell volume ucvol=  6.2314199E+02 bohr^3
 Angles (23,13,12)=  9.00000000E+01  9.00000000E+01  1.20000000E+02 degrees

 getcut: wavevector=  0.0000  0.0000  0.0000  ngfft=  45  45  80
         ecut(hartree)=     42.000   => boxcut(ratio)=   2.00447

--- Pseudopotential description ------------------------------------------------
- pspini: atom type   1  psp file is /scratch/users/j/a/jabreu/pseudos/PBEsol/Ca.psp8
- pspatm: opening atomic psp file    /scratch/users/j/a/jabreu/pseudos/PBEsol/Ca.psp8
- Ca    ONCVPSP-3.3.0  r_core=   1.45885   1.45885   1.85192
- 20.00000  10.00000    180112                znucl, zion, pspdat
    8 -116133    2    4       400   0.00000   pspcod,pspxc,lmax,lloc,mmax,r2well
    3.99000000000000    6.00000000000000    0.00000000000000   rchrg,fchrg,qchrg
     nproj     2     2     2
     extension_switch     1
  pspatm : epsatm=   12.46045226
         --- l  ekb(1:nproj) -->
             0   10.054847    0.973777
             1    2.998958    0.458102
             2   -3.447298   -1.091650
 pspatm: atomic psp has been read  and splines computed

- pspini: atom type   2  psp file is /scratch/users/j/a/jabreu/pseudos/PBEsol/Zn.psp8
- pspatm: opening atomic psp file    /scratch/users/j/a/jabreu/pseudos/PBEsol/Zn.psp8
- Zn    ONCVPSP-3.3.0  r_core=   1.35823   1.66358   1.85211
- 30.00000  20.00000    180112                znucl, zion, pspdat
    8 -116133    2    4       600   0.00000   pspcod,pspxc,lmax,lloc,mmax,r2well
    5.99000000000000    2.50000000000000    0.00000000000000   rchrg,fchrg,qchrg
     nproj     2     2     2
     extension_switch     1
  pspatm : epsatm=   26.57343589
         --- l  ekb(1:nproj) -->
             0    2.830835   -1.519107
             1   -4.626739   -1.324150
             2   -6.948510   -2.555500
 pspatm: atomic psp has been read  and splines computed

- pspini: atom type   3  psp file is /scratch/users/j/a/jabreu/pseudos/PBEsol/P.psp8
- pspatm: opening atomic psp file    /scratch/users/j/a/jabreu/pseudos/PBEsol/P.psp8
- P     ONCVPSP-3.3.0  r_core=   1.46089   1.55067   1.70594
- 15.00000   5.00000    180112                znucl, zion, pspdat
    8 -116133    2    4       600   0.00000   pspcod,pspxc,lmax,lloc,mmax,r2well
    5.99000000000000    5.00000000000000    0.00000000000000   rchrg,fchrg,qchrg
     nproj     2     2     2
     extension_switch     1
  pspatm : epsatm=    7.31221086
         --- l  ekb(1:nproj) -->
             0    6.742364    1.063650
             1    3.449117    0.910422
             2   -3.077645   -0.799176
 pspatm: atomic psp has been read  and splines computed

   4.81390475E+03                                ecore*ucvol(ha*bohr**3)

 ==>  initialize data related to q vector <==

 The list of irreducible perturbations for this q vector is:
    1)    idir= 1    ipert=   6
    2)    idir= 2    ipert=   6
    3)    idir= 3    ipert=   6

 Perturbation wavevector (in red.coord.)   0.000000  0.000000  0.000000
 Perturbation : derivative vs k along direction   1

 dfpt_looppert : COMMENT -
  In a d/dk calculation, iscf is set to -3 automatically.
 The set of symmetries contains only one element for this perturbation.
 symkpt : not enough symmetry to change the number of k points.

 Initialisation of the first-order wave-functions :
  ireadwf=   0

--- !BeginCycle
iteration_state: {dtset: 1, }
solver: {iscf: 7, nstep: 2000, nline: 4, wfoptalg: 0, }
tolerances: {tolwfr: 1.00E-20, }
...

     iter   2DEtotal(Ha)        deltaE(Ha) residm    vres2
-ETOT  1  -78.048242763886     -7.805E+01 1.282E-01 0.000E+00
 ETOT  2  -78.150627116612     -1.024E-01 1.145E-02 0.000E+00
 ETOT  3  -78.152046413275     -1.419E-03 1.210E-03 0.000E+00
 ETOT  4  -78.152079775509     -3.336E-05 1.354E-04 0.000E+00
 ETOT  5  -78.152080692220     -9.167E-07 1.834E-05 0.000E+00
 ETOT  6  -78.152080719492     -2.727E-08 3.216E-06 0.000E+00
 ETOT  7  -78.152080720341     -8.488E-10 4.484E-07 0.000E+00
 ETOT  8  -78.152080720368     -2.733E-11 8.659E-08 0.000E+00
 ETOT  9  -78.152080720369     -8.384E-13 1.191E-08 0.000E+00
 ETOT 10  -78.152080720369     -9.948E-14 2.422E-09 0.000E+00
 ETOT 11  -78.152080720369      8.527E-14 3.282E-10 0.000E+00
 ETOT 12  -78.152080720369      0.000E+00 6.834E-11 0.000E+00
 ETOT 13  -78.152080720369     -7.105E-14 9.178E-12 0.000E+00
 ETOT 14  -78.152080720369      4.263E-14 1.938E-12 0.000E+00
 ETOT 15  -78.152080720369      1.421E-14 2.664E-13 0.000E+00
 ETOT 16  -78.152080720369      0.000E+00 6.254E-14 0.000E+00
 ETOT 17  -78.152080720369      1.421E-14 1.687E-14 0.000E+00
 ETOT 18  -78.152080720369      0.000E+00 2.744E-15 0.000E+00
 ETOT 19  -78.152080720369     -1.421E-14 6.190E-16 0.000E+00
 ETOT 20  -78.152080720369     -2.842E-14 1.031E-16 0.000E+00
 ETOT 21  -78.152080720369      1.421E-14 2.324E-17 0.000E+00
 ETOT 22  -78.152080720369     -1.421E-14 3.851E-18 0.000E+00
 ETOT 23  -78.152080720369      2.842E-14 8.855E-19 0.000E+00
 ETOT 24  -78.152080720369     -5.684E-14 1.454E-19 0.000E+00
 ETOT 25  -78.152080720369      1.421E-14 3.398E-20 0.000E+00
 ETOT 26  -78.152080720369      4.263E-14 9.977E-21 0.000E+00

 At SCF step   26   max residual=  9.98E-21 < tolwfr=  1.00E-20 =>converged.

 ----iterations are completed or convergence reached----

 dfpt_looppert: DFPT cycle converged with prtwf=-1. Will skip output of the 1st-order WFK file.
 dfpt_looppert : ek2=    1.1157166989E+02
          f-sum rule ratio=    1.2872167556E+00
 prteigrs : about to open file /scratch/users/j/a/jabreu/flow_simple_remain_atoms/flow/w260/t1/tmpdata/tmp_1WF1_EIG
 Expectation of eigenvalue derivatives (hartree) for nkpt=   2  k points:
  (in case of degenerate eigenvalues, averaged derivative)
 kpt#   1, nband= 39, wtk=  0.50000, kpt=  0.0000  0.0000  0.0000 (reduced coord)
   0.00000   -0.00000   -0.00000   -0.00000    0.00000    0.00000    0.00000    0.00000
   0.00000   -0.00000   -0.00000   -0.00000   -0.00000    0.00000    0.00000    0.00000
  -0.00000   -0.00000    0.00000    0.00000    0.00000    0.00000   -0.00000   -0.00000
  -0.00000    0.00000    0.00000    0.00000    0.00000    0.00000    0.00000    0.00000
   0.00000   -0.00000   -0.00000   -0.00000   -0.00000    0.00000    0.00000
 prteigrs : prtvol=0 or 1, do not print more k-points.

 Eight components of 2nd-order total energy (hartree) are
 1,2,3: 0th-order hamiltonian combined with 1st-order wavefunctions
     kin0=   8.15104304E+01 eigvalue=   8.07301389E-01  local=  -3.16321076E+01
 4,5,6: 1st-order hamiltonian combined with 1st and 0th-order wfs
     kin1=  -1.43616923E+02  Hartree=   0.00000000E+00     xc=   0.00000000E+00
 7,8,9: eventually, occupation + non-local contributions
    edocc=   2.99346525E+01     enl0=  -2.46819606E+00   enl1=  -1.26872385E+01
 1-9 gives the relaxation energy (to be shifted if some occ is /=2.0)
   erelax=  -7.81520807E+01
  No Ewald or frozen-wf contrib.: the relaxation energy is the total one
 2DEtotal=   -0.7815208072E+02 Ha. Also 2DEtotal=   -0.212662626794E+04 eV
    (  non-var. 2DEtotal :   -7.8152080720E+01 Ha)

 Perturbation wavevector (in red.coord.)   0.000000  0.000000  0.000000
 Perturbation : derivative vs k along direction   2
 The set of symmetries contains only one element for this perturbation.
 symkpt : not enough symmetry to change the number of k points.

[...]

 Perturbation wavevector (in red.coord.)   0.000000  0.000000  0.000000
 Perturbation : derivative vs k along direction   3
 The set of symmetries contains only one element for this perturbation.
 symkpt : not enough symmetry to change the number of k points.

 Initialisation of the first-order wave-functions :
  ireadwf=   0

--- !BeginCycle
iteration_state: {dtset: 1, }
solver: {iscf: 7, nstep: 2000, nline: 4, wfoptalg: 0, }
tolerances: {tolwfr: 1.00E-20, }
...

     iter   2DEtotal(Ha)        deltaE(Ha) residm    vres2
-ETOT  1  -18.375644357781     -1.838E+01 6.105E-02 0.000E+00
 ETOT  2  -18.403777198327     -2.813E-02 8.528E-03 0.000E+00
 ETOT  3  -18.404128853810     -3.517E-04 4.438E-04 0.000E+00
 ETOT  4  -18.404136422017     -7.568E-06 8.636E-05 0.000E+00
 ETOT  5  -18.404136612810     -1.908E-07 5.702E-06 0.000E+00
 ETOT  6  -18.404136618001     -5.191E-09 1.110E-06 0.000E+00
 ETOT  7  -18.404136618148     -1.469E-10 1.445E-07 0.000E+00
 ETOT  8  -18.404136618153     -4.317E-12 2.350E-08 0.000E+00
 ETOT  9  -18.404136618153     -1.279E-13 3.941E-09 0.000E+00
 ETOT 10  -18.404136618153      1.421E-14 6.748E-10 0.000E+00
 ETOT 11  -18.404136618153      3.197E-14 1.098E-10 0.000E+00
 ETOT 12  -18.404136618153     -5.684E-14 1.934E-11 0.000E+00
 ETOT 13  -18.404136618153      4.263E-14 3.089E-12 0.000E+00
 ETOT 14  -18.404136618153     -1.776E-14 5.541E-13 0.000E+00
 ETOT 15  -18.404136618153      3.553E-15 9.083E-14 0.000E+00
 ETOT 16  -18.404136618153      0.000E+00 2.166E-14 0.000E+00
 ETOT 17  -18.404136618153      0.000E+00 5.203E-15 0.000E+00
 ETOT 18  -18.404136618153      3.553E-15 8.940E-16 0.000E+00
 ETOT 19  -18.404136618153     -7.105E-15 1.934E-16 0.000E+00
 ETOT 20  -18.404136618153      0.000E+00 3.338E-17 0.000E+00
 ETOT 21  -18.404136618153     -3.553E-15 7.338E-18 0.000E+00
 ETOT 22  -18.404136618153      0.000E+00 1.264E-18 0.000E+00
 ETOT 23  -18.404136618153      0.000E+00 2.818E-19 0.000E+00
 ETOT 24  -18.404136618153      3.553E-15 4.836E-20 0.000E+00
 ETOT 25  -18.404136618153     -3.553E-15 1.089E-20 0.000E+00
 ETOT 26  -18.404136618153      0.000E+00 9.806E-21 0.000E+00

 At SCF step   26   max residual=  9.81E-21 < tolwfr=  1.00E-20 =>converged.

 ----iterations are completed or convergence reached----

 dfpt_looppert: DFPT cycle converged with prtwf=-1. Will skip output of the 1st-order WFK file.
 dfpt_looppert : ek2=    2.9327820286E+01
          f-sum rule ratio=    1.1249381423E+00
 prteigrs : about to open file /scratch/users/j/a/jabreu/flow_simple_remain_atoms/flow/w260/t1/tmpdata/tmp_1WF1_EIG
 Expectation of eigenvalue derivatives (hartree) for nkpt=   2  k points:
  (in case of degenerate eigenvalues, averaged derivative)
 kpt#   1, nband= 39, wtk=  0.50000, kpt=  0.0000  0.0000  0.0000 (reduced coord)
   0.00000   -0.00000   -0.00000   -0.00000    0.00000   -0.00000   -0.00000    0.00000
  -0.00000    0.00000   -0.00000   -0.00000   -0.00000    0.00000    0.00000    0.00000
  -0.00000   -0.00000   -0.00000   -0.00000    0.00000    0.00000    0.00000    0.00000
  -0.00000   -0.00000   -0.00000   -0.00000    0.00000    0.00000   -0.00000   -0.00000
   0.00000    0.00000    0.00000   -0.00000   -0.00000    0.00000    0.00000
 prteigrs : prtvol=0 or 1, do not print more k-points.

 Eight components of 2nd-order total energy (hartree) are
 1,2,3: 0th-order hamiltonian combined with 1st-order wavefunctions
     kin0=   2.25763954E+01 eigvalue=   1.62052984E-01  local=  -9.09558267E+00
 4,5,6: 1st-order hamiltonian combined with 1st and 0th-order wfs
     kin1=  -3.29919837E+01  Hartree=   0.00000000E+00     xc=   0.00000000E+00
 7,8,9: eventually, occupation + non-local contributions
    edocc=   5.48012377E+00     enl0=  -7.18852900E-01   enl1=  -3.81628957E+00
 1-9 gives the relaxation energy (to be shifted if some occ is /=2.0)
   erelax=  -1.84041366E+01
  No Ewald or frozen-wf contrib.: the relaxation energy is the total one
 2DEtotal=   -0.1840413662E+02 Ha. Also 2DEtotal=   -0.500802026128E+03 eV
    (  non-var. 2DEtotal :   -1.8404136618E+01 Ha)

 CALCULATION OF EFFECTIVE MASSES
 NOTE : Additional infos (eff. mass eigenvalues, eigenvectors and, if degenerate, average mass) are available in stdout.

 COMMENTS:
 - At k-point ( 0.000, 0.000, 0.000), bands    29 through    30
   are DEGENERATE (effective mass tensor is therefore not defined).
   See Section IIIB Eqs. (67)-(70) and Appendix E of PRB 93 205147 (2016).
 - Angular average effective mass for Frohlich model is to be averaged over degenerate bands. See later.
 - Associated theta integrals calculated with ntheta=   1000 points.

 K-point ( 0.000, 0.000, 0.000) | band =    29
 Transport equivalent effective mass tensor:
             -0.1144803525             -0.0000000000              0.0000000003
             -0.0000000000             -0.1144805696             -0.0000005654
              0.0000000003             -0.0000005654             -0.5659628284
 Transport equivalent effective mass tensor eigenvalues:
             -0.5659628284             -0.1144805696             -0.1144803525
 Angular average effective mass 1/(<1/m>)=  -0.1388223833
 Angular average effective mass for Frohlich model (<m**0.5>)**2=  -0.1557924268
 Effective masses along directions: (cart. coord. / red. coord. -> eff. mass)
    1:   1.000000  0.000000  0.000000 /   0.894427 -0.447214  0.000000 ->  -0.1025012990
    2:   0.000000  1.000000  0.000000 /   0.000000  1.000000  0.000000 ->  -0.1025012990
    3:   0.000000  0.000000  1.000000 /   0.000000  0.000000  1.000000 ->  -0.5590346833
    4:   0.577350  0.577350  0.577350 /   0.500802  0.183306  0.845929 ->  -0.1529899847
    5:   0.000000  0.707107  0.707107 /   0.000000  0.456231  0.889861 ->  -0.1466638619
    6:   0.707107  0.000000  0.707107 /   0.493671 -0.246835  0.833883 ->  -0.1653182940
    7:   0.707107  0.707107  0.000000 /   0.939071  0.343724  0.000000 ->  -0.1025012990

 K-point ( 0.000, 0.000, 0.000) | band =    30
 Transport equivalent effective mass tensor:
             -0.7860602194             -0.0000000004              0.0000000009
             -0.0000000004             -0.7860579183              0.0000006727
              0.0000000009              0.0000006727             -1.6568728999
 Transport equivalent effective mass tensor eigenvalues:
             -1.6568728999             -0.7860602194             -0.7860579183
 Angular average effective mass 1/(<1/m>)=  -0.4781300295
 Angular average effective mass for Frohlich model (<m**0.5>)**2=  -0.5108219196
 Effective masses along directions: (cart. coord. / red. coord. -> eff. mass)
    1:   1.000000  0.000000  0.000000 /   0.894427 -0.447214  0.000000 ->  -0.4170795486
    2:   0.000000  1.000000  0.000000 /   0.000000  1.000000  0.000000 ->  -0.4170795488
    3:   0.000000  0.000000  1.000000 /   0.000000  0.000000  1.000000 ->  -0.5590346836
    4:   0.577350  0.577350  0.577350 /   0.500802  0.183306  0.845929 ->  -0.3625086337
    5:   0.000000  0.707107  0.707107 /   0.000000  0.456231  0.889861 ->  -0.9548502815
    6:   0.707107  0.000000  0.707107 /   0.493671 -0.246835  0.833883 ->  -0.5504608895
    7:   0.707107  0.707107  0.000000 /   0.939071  0.343724  0.000000 ->  -0.4170795491

 Angular average effective mass for Frohlich model, averaged over degenerate bands.
 Value of     (<<m**0.5>>)**2 =     3.077052E-01
 Absolute Value of <<m**0.5>> =     5.547118E-01

 K-point ( 0.500, 0.000, 0.000) | band =    31
 Effective mass tensor:
              0.9115724827              0.4510700139             -0.0219421557
              0.4510700139              0.3907216949             -0.0126683095
             -0.0219421557             -0.0126683095              1.2673945148
 Effective mass tensor eigenvalues:
              0.1302963009              1.1656862531              1.2737061383
 Angular average effective mass 1/(<1/m>)=   0.3219647860
 Angular average effective mass for Frohlich model (<m**0.5>)**2=   0.4637498964
 Effective masses along directions: (cart. coord. / red. coord. -> eff. mass)
    1:   1.000000  0.000000  0.000000 /   0.894427 -0.447214  0.000000 ->   0.3907908842
    2:   0.000000  1.000000  0.000000 /   0.000000  1.000000  0.000000 ->   0.1675178130
    3:   0.000000  0.000000  1.000000 /   0.000000  0.000000  1.000000 ->   1.2668467798
    4:   0.577350  0.577350  0.577350 /   0.500802  0.183306  0.845929 ->   0.8677852939
    5:   0.000000  0.707107  0.707107 /   0.000000  0.456231  0.889861 ->   0.2951619769
    6:   0.707107  0.000000  0.707107 /   0.493671 -0.246835  0.833883 ->   0.5920958234
    7:   0.707107  0.707107  0.000000 /   0.939071  0.343724  0.000000 ->   0.7630403518

 END OF EFFECTIVE MASSES SECTION

 ---- first-order wavefunction calculations are completed ----

 Total localisation tensor (bohr^2) in cartesian coordinates
  WARNING : still subject to testing - especially symmetries.
      direction              matrix element
   alpha     beta       real part   imaginary part
     1        1       4.2940633237    0.0000000000
     1        2      -1.7246821172    0.0000000000
     1        3       0.0000000000    0.0000000000
     2        1      -1.7246821172    0.0000000000
     2        2       2.9872370539    0.0000000000
     2        3       0.0000000000    0.0000000000
     3        1       0.0000000000    0.0000000000
     3        2       0.0000000000    0.0000000000
     3        3       1.8945517148    0.0000000000

 respfn : d/dk was computed, but no 2DTE, so no DDB output.

== END DATASET(S) ==============================================================

 -outvars: echo values of variables after computation  --------
            acell      1.0000000000E+00  1.0000000000E+00  1.0000000000E+00 Bohr
              amu      4.00780000E+01  6.53900000E+01  3.09737620E+01
             ecut      4.20000000E+01 Hartree
           etotal     -1.8404136618E+01
            fcart      0.0000000000E+00  0.0000000000E+00  0.0000000000E+00
                       0.0000000000E+00  0.0000000000E+00  0.0000000000E+00
                       0.0000000000E+00  0.0000000000E+00  0.0000000000E+00
                       0.0000000000E+00  0.0000000000E+00  0.0000000000E+00
                       0.0000000000E+00  0.0000000000E+00  0.0000000000E+00
-          fftalg         512
           irdden           1
           irdwfk           1
           istwfk        1    1
              ixc     -116133
              kpt      0.00000000E+00  0.00000000E+00  0.00000000E+00
                       5.00000000E-01  0.00000000E+00  0.00000000E+00
           kptopt           0
P           mkmem           2
P          mkqmem           2
P          mk1mem           2
            natom           5
            nband          39
           nbdbuf           4
            ngfft          45      45      80
             nkpt           2
            nstep        2000
             nsym          12
           ntypat           3
              occ      2.000000  2.000000  2.000000  2.000000  2.000000  2.000000
                       2.000000  2.000000  2.000000  2.000000  2.000000  2.000000
                       2.000000  2.000000  2.000000  2.000000  2.000000  2.000000
                       2.000000  2.000000  2.000000  2.000000  2.000000  2.000000
                       2.000000  2.000000  2.000000  2.000000  2.000000  2.000000
                       0.000000  0.000000  0.000000  0.000000  0.000000  0.000000
                       0.000000  0.000000  0.000000
        optdriver           1
            prtwf          -1
            rfdir           1       1       1
           rfelfd           2
            rprim      7.5242443891E+00  0.0000000000E+00  0.0000000000E+00
                      -3.7621221946E+00  6.5161867853E+00  0.0000000000E+00
                       0.0000000000E+00  0.0000000000E+00  1.2709562414E+01
          spgroup         164
           strten      0.0000000000E+00  0.0000000000E+00  0.0000000000E+00
                       0.0000000000E+00  0.0000000000E+00  0.0000000000E+00
           symrel      1  0  0   0  1  0   0  0  1      -1  0  0   0 -1  0   0  0 -1
                      -1  0  0   1  1  0   0  0  1       1  0  0  -1 -1  0   0  0 -1
                       0  1  0  -1 -1  0   0  0  1       0 -1  0   1  1  0   0  0 -1
                       0 -1  0  -1  0  0   0  0  1       0  1  0   1  0  0   0  0 -1
                      -1 -1  0   1  0  0   0  0  1       1  1  0  -1  0  0   0  0 -1
                       1  1  0   0 -1  0   0  0  1      -1 -1  0   0  1  0   0  0 -1
           tolwfr      1.00000000E-20
            typat      1  2  2  3  3
           useylm           1
              wtk        0.50000    0.50000
           xangst      0.0000000000E+00  0.0000000000E+00  0.0000000000E+00
                      -1.7639241746E-11  2.2988116891E+00  4.2594234532E+00
                       1.9908293213E+00  1.1494058446E+00  2.4661873074E+00
                       1.9908293213E+00  1.1494058446E+00  4.9669509796E+00
                      -1.7639241746E-11  2.2988116891E+00  1.7586597810E+00
            xcart      0.0000000000E+00  0.0000000000E+00  0.0000000000E+00
                      -3.3333336091E-11  4.3441245235E+00  8.0491438106E+00
                       3.7621221945E+00  2.1720622618E+00  4.6604186033E+00
                       3.7621221945E+00  2.1720622618E+00  9.3861770670E+00
                      -3.3333336091E-11  4.3441245235E+00  3.3233853469E+00
             xred      0.0000000000E+00  0.0000000000E+00  0.0000000000E+00
                       3.3333333333E-01  6.6666666667E-01  6.3331400000E-01
                       6.6666666667E-01  3.3333333333E-01  3.6668600000E-01
                       6.6666666667E-01  3.3333333333E-01  7.3851300000E-01
                       3.3333333333E-01  6.6666666667E-01  2.6148700000E-01
            znucl       20.00000   30.00000   15.00000

- Timing analysis has been suppressed with timopt=0

 Suggested references for the acknowledgment of ABINIT usage.

 Calculation completed.
.Delivered   2 WARNINGs and   5 COMMENTs to log file.