.Version 9.5.2 of ABINIT

 ABINIT is a project of the Universite Catholique de Louvain,
 Corning Inc. and other collaborators, see ~abinit/doc/developers/contributors.txt .
 acknowledgments of the ABINIT effort.

.Starting date : Mon 24 May 2021.
- ( at 20h55 )

- input  file    -> /scratch/users/j/a/jabreu/flow_simple_10atoms/flow/w402/t1/run.abi
- output file    -> /scratch/users/j/a/jabreu/flow_simple_10atoms/flow/w402/t1/run.abo
- root for input  files -> /scratch/users/j/a/jabreu/flow_simple_10atoms/flow/w402/t1/indata/in
- root for output files -> /scratch/users/j/a/jabreu/flow_simple_10atoms/flow/w402/t1/outdata/out

 Symmetries : space group Fm -3 m (#225); Bravais cF (face-center cubic)
     intxc =       0      iscf =       7    lmnmax =      18     lnmax =       6
     mgfft =      90  mpssoang =       3    mqgrid =    3501     natom =      10
  nloc_mem =       1    nspden =       1   nspinor =       1    nsppol =       1
      nsym =      48    n1xccc =    2501    ntypat =       4    occopt =       1
   xclevel =       2
-    mband =          51        mffmem =           1         mkmem =           2
-   mkqmem =           2        mk1mem =           2           mpw =       29214
      nfft =      729000          nkpt =           2
  Rough estimation (10% accuracy) of disk space for files :

------------- Echo of variables that govern the present computation ------------
-
- outvars: echo of selected default values
-   iomode0 =  0 , fftalg0 =512 , wfoptalg0 =  0
-
- outvars: echo of global parameters not present in the input file
-  max_nthreads =    0
-
 -outvars: echo values of preprocessed input variables --------
            acell      1.0000000000E+00  1.0000000000E+00  1.0000000000E+00 Bohr
              amu      8.54678000E+01  2.29897680E+01  2.08980370E+02
                       3.54527000E+01
             ecut      4.40000000E+01 Hartree
-          fftalg         512
           irdden           1
           irdwfk           1
           istwfk        0    1
              ixc     -116133
              kpt      5.00000000E-01  2.50000000E-01  7.50000000E-01
                       5.00000000E-01  5.00000000E-01  5.00000000E-01
           kptopt           0
P           mkmem           2
P          mkqmem           2
P          mk1mem           2
            natom          10
            nband          51
           nbdbuf           4
            ngfft          90      90      90
             nkpt           2
            nstep        2000
             nsym          48
           ntypat           4
              occ      2.000000  2.000000  2.000000  2.000000  2.000000  2.000000
                       2.000000  2.000000  2.000000  2.000000  2.000000  2.000000
                       2.000000  2.000000  2.000000  2.000000  2.000000  2.000000
                       2.000000  2.000000  2.000000  2.000000  2.000000  2.000000
                       2.000000  2.000000  2.000000  2.000000  2.000000  2.000000
                       2.000000  2.000000  2.000000  2.000000  2.000000  2.000000
                       2.000000  2.000000  2.000000  2.000000  2.000000  2.000000
                       0.000000  0.000000  0.000000  0.000000  0.000000  0.000000
                       0.000000  0.000000  0.000000
        optdriver           1
            prtwf          -1
            rfdir           1       1       1
           rfelfd           2
            rprim      1.2432393105E+01  0.0000000000E+00  7.1778455057E+00
                       4.1441310349E+00  1.1721372628E+01  7.1778455057E+00
                       0.0000000000E+00  0.0000000000E+00  1.4355691011E+01
          spgroup         225
           symrel      1  0  0   0  1  0   0  0  1      -1  0  0   0 -1  0   0  0 -1
                       0 -1  1   0 -1  0   1 -1  0       0  1 -1   0  1  0  -1  1  0
                      -1  0  0  -1  0  1  -1  1  0       1  0  0   1  0 -1   1 -1  0
                       0  1 -1   1  0 -1   0  0 -1       0 -1  1  -1  0  1   0  0  1
                      -1  0  0  -1  1  0  -1  0  1       1  0  0   1 -1  0   1  0 -1
                       0 -1  1   1 -1  0   0 -1  0       0  1 -1  -1  1  0   0  1  0
                       1  0  0   0  0  1   0  1  0      -1  0  0   0  0 -1   0 -1  0
                       0  1 -1   0  0 -1   1  0 -1       0 -1  1   0  0  1  -1  0  1
                      -1  0  1  -1  1  0  -1  0  0       1  0 -1   1 -1  0   1  0  0
                       0 -1  0   1 -1  0   0 -1  1       0  1  0  -1  1  0   0  1 -1
                       1  0 -1   0  0 -1   0  1 -1      -1  0  1   0  0  1   0 -1  1
                       0  1  0   0  0  1   1  0  0       0 -1  0   0  0 -1  -1  0  0
                       1  0 -1   0  1 -1   0  0 -1      -1  0  1   0 -1  1   0  0  1
                       0 -1  0   0 -1  1   1 -1  0       0  1  0   0  1 -1  -1  1  0
                      -1  0  1  -1  0  0  -1  1  0       1  0 -1   1  0  0   1 -1  0
                       0  1  0   1  0  0   0  0  1       0 -1  0  -1  0  0   0  0 -1
                       0  0 -1   0  1 -1   1  0 -1       0  0  1   0 -1  1  -1  0  1
                       1 -1  0   0 -1  1   0 -1  0      -1  1  0   0  1 -1   0  1  0
                       0  0  1   1  0  0   0  1  0       0  0 -1  -1  0  0   0 -1  0
                      -1  1  0  -1  0  0  -1  0  1       1 -1  0   1  0  0   1  0 -1
                       0  0  1   0  1  0   1  0  0       0  0 -1   0 -1  0  -1  0  0
                       1 -1  0   0 -1  0   0 -1  1      -1  1  0   0  1  0   0  1 -1
                       0  0 -1   1  0 -1   0  1 -1       0  0  1  -1  0  1   0 -1  1
                      -1  1  0  -1  0  1  -1  0  0       1 -1  0   1  0 -1   1  0  0
           tolwfr      1.00000000E-20
            typat      1  1  2  3  4  4  4  4  4  4
           useylm           1
              wtk        0.50000    0.50000
           xangst      2.1929796931E+00  1.5506708120E+00  3.7983522484E+00
                       6.5789390793E+00  4.6520124360E+00  1.1395056745E+01
                       4.3859593862E+00  3.1013416240E+00  7.5967044968E+00
                       0.0000000000E+00  0.0000000000E+00  0.0000000000E+00
                       3.2872414723E+00  4.6551633991E+00  9.4997397469E+00
                       5.4846773001E+00  1.5475198489E+00  9.4997397469E+00
                       3.2872414723E+00  4.6551633991E+00  5.6936692467E+00
                       2.1885235584E+00  1.5475198489E+00  7.5967044968E+00
                       6.5833952140E+00  4.6551633991E+00  7.5967044968E+00
                       5.4846773001E+00  1.5475198489E+00  5.6936692467E+00
            xcart      4.1441310349E+00  2.9303431569E+00  7.1778455057E+00
                       1.2432393105E+01  8.7910294708E+00  2.1533536517E+01
                       8.2882620698E+00  5.8606863138E+00  1.4355691011E+01
                       0.0000000000E+00  0.0000000000E+00  0.0000000000E+00
                       6.2119861152E+00  8.7969839281E+00  1.7951906455E+01
                       1.0364538024E+01  2.9243886996E+00  1.7951906455E+01
                       6.2119861152E+00  8.7969839281E+00  1.0759475568E+01
                       4.1357101607E+00  2.9243886996E+00  1.4355691011E+01
                       1.2440813979E+01  8.7969839281E+00  1.4355691011E+01
                       1.0364538024E+01  2.9243886996E+00  1.0759475568E+01
             xred      2.5000000000E-01  2.5000000000E-01  2.5000000000E-01
                       7.5000000000E-01  7.5000000000E-01  7.5000000000E-01
                       5.0000000000E-01  5.0000000000E-01  5.0000000000E-01
                       0.0000000000E+00  0.0000000000E+00  0.0000000000E+00
                       2.4949200000E-01  7.5050800000E-01  7.5050800000E-01
                       7.5050800000E-01  2.4949200000E-01  7.5050800000E-01
                       2.4949200000E-01  7.5050800000E-01  2.4949200000E-01
                       2.4949200000E-01  2.4949200000E-01  7.5050800000E-01
                       7.5050800000E-01  7.5050800000E-01  2.4949200000E-01
                       7.5050800000E-01  2.4949200000E-01  2.4949200000E-01
            znucl       37.00000   11.00000   83.00000   17.00000

 chkinp: Checking input parameters for consistency.

== DATASET  1 ==================================================================
-   mpi_nproc: 1, omp_nthreads: -1 (-1 if OMP is not activated)

--- !DatasetInfo
iteration_state: {dtset: 1, }
dimensions: {natom: 10, nkpt: 2, mband: 51, nsppol: 1, nspinor: 1, nspden: 1, mpw: 29214, }
cutoff_energies: {ecut:  44.0, pawecutdg:  -1.0, }
electrons: {nelect:   8.40000000E+01, charge:   0.00000000E+00, occopt:   1.00000000E+00, tsmear:   1.00000000E-02, }
meta: {optdriver: 1, rfelfd: 2, }
...

 Real(R)+Recip(G) space primitive vectors, cartesian coordinates (Bohr,Bohr^-1):
 R(1)= 12.4323931  0.0000000  7.1778455  G(1)=  0.0804350 -0.0284381  0.0000000
 R(2)=  4.1441310 11.7213726  7.1778455  G(2)=  0.0000000  0.0853142  0.0000000
 R(3)=  0.0000000  0.0000000 14.3556910  G(3)= -0.0402175 -0.0284381  0.0696588
 Unit cell volume ucvol=  2.0919789E+03 bohr^3
 Angles (23,13,12)=  6.00000000E+01  6.00000000E+01  6.00000000E+01 degrees

 getcut: wavevector=  0.0000  0.0000  0.0000  ngfft=  90  90  90
         ecut(hartree)=     44.000   => boxcut(ratio)=   2.09981

--- Pseudopotential description ------------------------------------------------
- pspini: atom type   1  psp file is /scratch/users/j/a/jabreu/pseudos/PBEsol/Rb.psp8
- pspatm: opening atomic psp file    /scratch/users/j/a/jabreu/pseudos/PBEsol/Rb.psp8
- Rb    ONCVPSP-3.3.0  r_core=   1.71227   1.75361   1.90633
- 37.00000   9.00000    180112                znucl, zion, pspdat
    8 -116133    2    4       600   0.00000   pspcod,pspxc,lmax,lloc,mmax,r2well
    5.99000000000000    7.00000000000000    0.00000000000000   rchrg,fchrg,qchrg
     nproj     2     2     2
     extension_switch     1
  pspatm : epsatm=   34.48400912
         --- l  ekb(1:nproj) -->
             0    8.196957   -0.477221
             1    3.231347   -0.378736
             2   -1.047201    0.996637
 pspatm: atomic psp has been read  and splines computed

- pspini: atom type   2  psp file is /scratch/users/j/a/jabreu/pseudos/PBEsol/Na.psp8
- pspatm: opening atomic psp file    /scratch/users/j/a/jabreu/pseudos/PBEsol/Na.psp8
- Na    ONCVPSP-3.3.0  r_core=   1.20708   1.55069
- 11.00000   9.00000    180112                znucl, zion, pspdat
    8 -116133    1    4       400   0.00000   pspcod,pspxc,lmax,lloc,mmax,r2well
    3.99000000000000    0.00000000000000    0.00000000000000   rchrg,fchrg,qchrg
     nproj     2     2
     extension_switch     1
  pspatm : epsatm=    9.32878306
         --- l  ekb(1:nproj) -->
             0    2.657905   -0.678300
             1   -6.761319   -2.404728
 pspatm: atomic psp has been read  and splines computed

[...]

- pspini: atom type   4  psp file is /scratch/users/j/a/jabreu/pseudos/PBEsol/Cl.psp8
- pspatm: opening atomic psp file    /scratch/users/j/a/jabreu/pseudos/PBEsol/Cl.psp8
- Cl    ONCVPSP-3.3.0  r_core=   1.56009   1.35202   1.75774
- 17.00000   7.00000    180112                znucl, zion, pspdat
[...]
  -0.00000    0.00000    0.00000   -0.00000   -0.00000    0.00000    0.00000   -0.00000
  -0.00000    0.00000    0.00000    0.00000    0.00000   -0.00000   -0.00000   -0.00000
  -0.00000    0.00000    0.00000   -0.00000   -0.00000   -0.00000   -0.00000   -0.00000
   0.00000   -0.01711    0.01711
 prteigrs : prtvol=0 or 1, do not print more k-points.

 Eight components of 2nd-order total energy (hartree) are
 1,2,3: 0th-order hamiltonian combined with 1st-order wavefunctions
     kin0=   3.67172964E+01 eigvalue=   5.35077657E+00  local=  -2.02085771E+01
 4,5,6: 1st-order hamiltonian combined with 1st and 0th-order wfs
     kin1=  -4.84577667E+01  Hartree=   0.00000000E+00     xc=   0.00000000E+00
 7,8,9: eventually, occupation + non-local contributions
    edocc=   5.47374197E+00     enl0=   1.98518486E+00   enl1=  -1.01790788E+01
 1-9 gives the relaxation energy (to be shifted if some occ is /=2.0)
   erelax=  -2.93184227E+01
  No Ewald or frozen-wf contrib.: the relaxation energy is the total one
 2DEtotal=   -0.2931842271E+02 Ha. Also 2DEtotal=   -0.797794854476E+03 eV
    (  non-var. 2DEtotal :   -2.9318422708E+01 Ha)

 Perturbation wavevector (in red.coord.)   0.000000  0.000000  0.000000
 Perturbation : derivative vs k along direction   2
 The set of symmetries contains only one element for this perturbation.
 symkpt : not enough symmetry to change the number of k points.

[...]

 Perturbation wavevector (in red.coord.)   0.000000  0.000000  0.000000
 Perturbation : derivative vs k along direction   3
 The set of symmetries contains only one element for this perturbation.
 symkpt : not enough symmetry to change the number of k points.

 Initialisation of the first-order wave-functions :
  ireadwf=   0

--- !BeginCycle
iteration_state: {dtset: 1, }
solver: {iscf: 7, nstep: 2000, nline: 4, wfoptalg: 0, }
tolerances: {tolwfr: 1.00E-20, }
...

     iter   2DEtotal(Ha)        deltaE(Ha) residm    vres2
-ETOT  1  -29.280207420167     -2.928E+01 5.635E-02 0.000E+00
 ETOT  2  -29.318226719571     -3.802E-02 4.112E-03 0.000E+00
 ETOT  3  -29.318417073734     -1.904E-04 4.204E-04 0.000E+00
 ETOT  4  -29.318418478166     -1.404E-06 3.791E-05 0.000E+00
 ETOT  5  -29.318418490303     -1.214E-08 5.799E-06 0.000E+00
 ETOT  6  -29.318418490417     -1.138E-10 5.543E-07 0.000E+00
 ETOT  7  -29.318418490418     -1.108E-12 9.296E-08 0.000E+00
 ETOT  8  -29.318418490418     -3.908E-14 9.079E-09 0.000E+00
 ETOT  9  -29.318418490418      3.553E-15 1.550E-09 0.000E+00
 ETOT 10  -29.318418490418     -3.553E-14 1.542E-10 0.000E+00
 ETOT 11  -29.318418490418      1.421E-14 2.647E-11 0.000E+00
 ETOT 12  -29.318418490418      0.000E+00 2.702E-12 0.000E+00
 ETOT 13  -29.318418490418     -3.553E-15 4.595E-13 0.000E+00
 ETOT 14  -29.318418490418      3.553E-15 4.849E-14 0.000E+00
 ETOT 15  -29.318418490418      0.000E+00 8.075E-15 0.000E+00
 ETOT 16  -29.318418490418      0.000E+00 8.883E-16 0.000E+00
 ETOT 17  -29.318418490418     -1.066E-14 1.433E-16 0.000E+00
 ETOT 18  -29.318418490418     -3.553E-15 1.658E-17 0.000E+00
 ETOT 19  -29.318418490418     -3.553E-15 2.559E-18 0.000E+00
 ETOT 20  -29.318418490418      1.066E-14 3.146E-19 0.000E+00
 ETOT 21  -29.318418490418      0.000E+00 4.596E-20 0.000E+00
 ETOT 22  -29.318418490418      0.000E+00 9.503E-21 0.000E+00

 At SCF step   22   max residual=  9.50E-21 < tolwfr=  1.00E-20 =>converged.

 ----iterations are completed or convergence reached----

 dfpt_looppert: DFPT cycle converged with prtwf=-1. Will skip output of the 1st-order WFK file.
 dfpt_looppert : ek2=    4.8273865190E+01
          f-sum rule ratio=    1.0038093956E+00
 prteigrs : about to open file /scratch/users/j/a/jabreu/flow_simple_10atoms/flow/w402/t1/tmpdata/tmp_1WF1_EIG
 Expectation of eigenvalue derivatives (hartree) for nkpt=   2  k points:
  (in case of degenerate eigenvalues, averaged derivative)
 kpt#   1, nband= 51, wtk=  0.50000, kpt=  0.5000  0.2500  0.7500 (reduced coord)
   0.00000   -0.00000   -0.00000    0.00000   -0.00000   -0.00000    0.00000    0.00000
   0.00000    0.00000   -0.00000   -0.00000    0.00000    0.00000    0.00000    0.00000
  -0.00000    0.00000   -0.00000   -0.00000    0.00000   -0.00000    0.00000    0.00000
  -0.00000    0.00000    0.00000   -0.00000   -0.00000    0.00000    0.00000    0.00000
   0.00000   -0.00000   -0.00000    0.00000    0.00000   -0.00000   -0.00000   -0.00000
  -0.00000    0.00000   -0.00000    0.00000    0.00000   -0.00000   -0.00000    0.00000
  -0.00000    0.01711   -0.01711
 prteigrs : prtvol=0 or 1, do not print more k-points.

 Eight components of 2nd-order total energy (hartree) are
 1,2,3: 0th-order hamiltonian combined with 1st-order wavefunctions
     kin0=   3.67173367E+01 eigvalue=   5.35078359E+00  local=  -2.02085972E+01
 4,5,6: 1st-order hamiltonian combined with 1st and 0th-order wfs
     kin1=  -4.84577594E+01  Hartree=   0.00000000E+00     xc=   0.00000000E+00
 7,8,9: eventually, occupation + non-local contributions
    edocc=   5.47371475E+00     enl0=   1.98518063E+00   enl1=  -1.01790775E+01
 1-9 gives the relaxation energy (to be shifted if some occ is /=2.0)
   erelax=  -2.93184185E+01
  No Ewald or frozen-wf contrib.: the relaxation energy is the total one
 2DEtotal=   -0.2931841849E+02 Ha. Also 2DEtotal=   -0.797794739711E+03 eV
    (  non-var. 2DEtotal :   -2.9318418490E+01 Ha)

 CALCULATION OF EFFECTIVE MASSES
 NOTE : Additional infos (eff. mass eigenvalues, eigenvectors and, if degenerate, average mass) are available in stdout.

 K-point ( 0.500, 0.250, 0.750) | band =    42
 Effective mass tensor:
             -2.5990462914              1.2343757878              1.5117951022
              1.2343757878             -3.4718825542             -2.1380016501
              1.5117951022             -2.1380016501             -4.3447164201
 Effective mass tensor eigenvalues:
             -6.9632234500             -1.7262110663             -1.7262107494
 Angular average effective mass 1/(<1/m>)=  -2.3037606305
 Angular average effective mass for Frohlich model (<m**0.5>)**2=  -2.5286328242
 Effective masses along directions: (cart. coord. / red. coord. -> eff. mass)
    1:   1.000000  0.000000  0.000000 /   0.948683  0.316228  0.000000 ->  -1.9736004343
    2:   0.000000  1.000000  0.000000 /   0.000000  1.000000  0.000000 ->  -2.3037610262
    3:   0.000000  0.000000  1.000000 /   0.408248  0.408248  0.816497 ->  -2.7665758312
    4:   0.577350  0.577350  0.577350 /   0.585539  0.688047  0.428644 ->  -2.1376481063
    5:   0.000000  0.707107  0.707107 /   0.289489  0.762222  0.578977 ->  -4.5476302365
    6:   0.707107  0.000000  0.707107 /   0.731423  0.422287  0.535439 ->  -1.7862044901
    7:   0.707107  0.707107  0.000000 /   0.616798  0.787122  0.000000 ->  -1.7449752933

 K-point ( 0.500, 0.500, 0.500) | band =    43
 Effective mass tensor:
              0.5897749914              0.1016959757              0.2491036254
              0.1016959757              0.5178648503              0.1761426667
              0.2491036254              0.1761426667              0.8774152774
 Effective mass tensor eigenvalues:
              0.4459549939              0.4459550134              1.0931451119
 Angular average effective mass 1/(<1/m>)=   0.5556019560
 Angular average effective mass for Frohlich model (<m**0.5>)**2=   0.5806261077
 Effective masses along directions: (cart. coord. / red. coord. -> eff. mass)
    1:   1.000000  0.000000  0.000000 /   0.948683  0.316228  0.000000 ->   0.5135158824
    2:   0.000000  1.000000  0.000000 /   0.000000  1.000000  0.000000 ->   0.4773567406
    3:   0.000000  0.000000  1.000000 /   0.408248  0.408248  0.816497 ->   0.7367458060
    4:   0.577350  0.577350  0.577350 /   0.585539  0.688047  0.428644 ->   0.9265819933
    5:   0.000000  0.707107  0.707107 /   0.289489  0.762222  0.578977 ->   0.7327232774
    6:   0.707107  0.000000  0.707107 /   0.731423  0.422287  0.535439 ->   0.8761544679
    7:   0.707107  0.707107  0.000000 /   0.616798  0.787122  0.000000 ->   0.5517227660

 END OF EFFECTIVE MASSES SECTION

 ---- first-order wavefunction calculations are completed ----

 Total localisation tensor (bohr^2) in cartesian coordinates
  WARNING : still subject to testing - especially symmetries.
      direction              matrix element
   alpha     beta       real part   imaginary part
     1        1       1.1620922776    0.0000000000
     1        2       0.3286893854    0.0000000000
     1        3       0.8051211690    0.0000000000
     2        1       0.3286893854    0.0000000000
     2        2       0.9296739732    0.0000000000
     2        3       0.5693067153    0.0000000000
     3        1       0.8051211690    0.0000000000
     3        2       0.5693067153    0.0000000000
     3        3       2.0917655826    0.0000000000

 respfn : d/dk was computed, but no 2DTE, so no DDB output.

== END DATASET(S) ==============================================================

 -outvars: echo values of variables after computation  --------
            acell      1.0000000000E+00  1.0000000000E+00  1.0000000000E+00 Bohr
              amu      8.54678000E+01  2.29897680E+01  2.08980370E+02
                       3.54527000E+01
             ecut      4.40000000E+01 Hartree
           etotal     -2.9318418490E+01
            fcart      0.0000000000E+00  0.0000000000E+00  0.0000000000E+00
                       0.0000000000E+00  0.0000000000E+00  0.0000000000E+00
                       0.0000000000E+00  0.0000000000E+00  0.0000000000E+00
                       0.0000000000E+00  0.0000000000E+00  0.0000000000E+00
                       0.0000000000E+00  0.0000000000E+00  0.0000000000E+00
                       0.0000000000E+00  0.0000000000E+00  0.0000000000E+00
                       0.0000000000E+00  0.0000000000E+00  0.0000000000E+00
                       0.0000000000E+00  0.0000000000E+00  0.0000000000E+00
                       0.0000000000E+00  0.0000000000E+00  0.0000000000E+00
                       0.0000000000E+00  0.0000000000E+00  0.0000000000E+00
-          fftalg         512
           irdden           1
           irdwfk           1
           istwfk        0    1
              ixc     -116133
              kpt      5.00000000E-01  2.50000000E-01  7.50000000E-01
                       5.00000000E-01  5.00000000E-01  5.00000000E-01
           kptopt           0
P           mkmem           2
P          mkqmem           2
P          mk1mem           2
            natom          10
            nband          51
           nbdbuf           4
            ngfft          90      90      90
             nkpt           2
            nstep        2000
             nsym          48
           ntypat           4
              occ      2.000000  2.000000  2.000000  2.000000  2.000000  2.000000
                       2.000000  2.000000  2.000000  2.000000  2.000000  2.000000
                       2.000000  2.000000  2.000000  2.000000  2.000000  2.000000
                       2.000000  2.000000  2.000000  2.000000  2.000000  2.000000
                       2.000000  2.000000  2.000000  2.000000  2.000000  2.000000
                       2.000000  2.000000  2.000000  2.000000  2.000000  2.000000
                       2.000000  2.000000  2.000000  2.000000  2.000000  2.000000
                       0.000000  0.000000  0.000000  0.000000  0.000000  0.000000
                       0.000000  0.000000  0.000000
        optdriver           1
            prtwf          -1
            rfdir           1       1       1
           rfelfd           2
            rprim      1.2432393105E+01  0.0000000000E+00  7.1778455057E+00
                       4.1441310349E+00  1.1721372628E+01  7.1778455057E+00
                       0.0000000000E+00  0.0000000000E+00  1.4355691011E+01
          spgroup         225
           strten      0.0000000000E+00  0.0000000000E+00  0.0000000000E+00
                       0.0000000000E+00  0.0000000000E+00  0.0000000000E+00
           symrel      1  0  0   0  1  0   0  0  1      -1  0  0   0 -1  0   0  0 -1
                       0 -1  1   0 -1  0   1 -1  0       0  1 -1   0  1  0  -1  1  0
                      -1  0  0  -1  0  1  -1  1  0       1  0  0   1  0 -1   1 -1  0
                       0  1 -1   1  0 -1   0  0 -1       0 -1  1  -1  0  1   0  0  1
                      -1  0  0  -1  1  0  -1  0  1       1  0  0   1 -1  0   1  0 -1
                       0 -1  1   1 -1  0   0 -1  0       0  1 -1  -1  1  0   0  1  0
                       1  0  0   0  0  1   0  1  0      -1  0  0   0  0 -1   0 -1  0
                       0  1 -1   0  0 -1   1  0 -1       0 -1  1   0  0  1  -1  0  1
                      -1  0  1  -1  1  0  -1  0  0       1  0 -1   1 -1  0   1  0  0
                       0 -1  0   1 -1  0   0 -1  1       0  1  0  -1  1  0   0  1 -1
                       1  0 -1   0  0 -1   0  1 -1      -1  0  1   0  0  1   0 -1  1
                       0  1  0   0  0  1   1  0  0       0 -1  0   0  0 -1  -1  0  0
                       1  0 -1   0  1 -1   0  0 -1      -1  0  1   0 -1  1   0  0  1
                       0 -1  0   0 -1  1   1 -1  0       0  1  0   0  1 -1  -1  1  0
                      -1  0  1  -1  0  0  -1  1  0       1  0 -1   1  0  0   1 -1  0
                       0  1  0   1  0  0   0  0  1       0 -1  0  -1  0  0   0  0 -1
                       0  0 -1   0  1 -1   1  0 -1       0  0  1   0 -1  1  -1  0  1
                       1 -1  0   0 -1  1   0 -1  0      -1  1  0   0  1 -1   0  1  0
                       0  0  1   1  0  0   0  1  0       0  0 -1  -1  0  0   0 -1  0
                      -1  1  0  -1  0  0  -1  0  1       1 -1  0   1  0  0   1  0 -1
                       0  0  1   0  1  0   1  0  0       0  0 -1   0 -1  0  -1  0  0
                       1 -1  0   0 -1  0   0 -1  1      -1  1  0   0  1  0   0  1 -1
                       0  0 -1   1  0 -1   0  1 -1       0  0  1  -1  0  1   0 -1  1
                      -1  1  0  -1  0  1  -1  0  0       1 -1  0   1  0 -1   1  0  0
           tolwfr      1.00000000E-20
            typat      1  1  2  3  4  4  4  4  4  4
           useylm           1
              wtk        0.50000    0.50000
           xangst      2.1929796931E+00  1.5506708120E+00  3.7983522484E+00
                       6.5789390793E+00  4.6520124360E+00  1.1395056745E+01
                       4.3859593862E+00  3.1013416240E+00  7.5967044968E+00
                       0.0000000000E+00  0.0000000000E+00  0.0000000000E+00
                       3.2872414723E+00  4.6551633991E+00  9.4997397469E+00
                       5.4846773001E+00  1.5475198489E+00  9.4997397469E+00
                       3.2872414723E+00  4.6551633991E+00  5.6936692467E+00
                       2.1885235584E+00  1.5475198489E+00  7.5967044968E+00
                       6.5833952140E+00  4.6551633991E+00  7.5967044968E+00
                       5.4846773001E+00  1.5475198489E+00  5.6936692467E+00
            xcart      4.1441310349E+00  2.9303431569E+00  7.1778455057E+00
                       1.2432393105E+01  8.7910294708E+00  2.1533536517E+01
                       8.2882620698E+00  5.8606863138E+00  1.4355691011E+01
                       0.0000000000E+00  0.0000000000E+00  0.0000000000E+00
                       6.2119861152E+00  8.7969839281E+00  1.7951906455E+01
                       1.0364538024E+01  2.9243886996E+00  1.7951906455E+01
                       6.2119861152E+00  8.7969839281E+00  1.0759475568E+01
                       4.1357101607E+00  2.9243886996E+00  1.4355691011E+01
                       1.2440813979E+01  8.7969839281E+00  1.4355691011E+01
                       1.0364538024E+01  2.9243886996E+00  1.0759475568E+01
             xred      2.5000000000E-01  2.5000000000E-01  2.5000000000E-01
                       7.5000000000E-01  7.5000000000E-01  7.5000000000E-01
                       5.0000000000E-01  5.0000000000E-01  5.0000000000E-01
                       0.0000000000E+00  0.0000000000E+00  0.0000000000E+00
                       2.4949200000E-01  7.5050800000E-01  7.5050800000E-01
                       7.5050800000E-01  2.4949200000E-01  7.5050800000E-01
                       2.4949200000E-01  7.5050800000E-01  2.4949200000E-01
                       2.4949200000E-01  2.4949200000E-01  7.5050800000E-01
                       7.5050800000E-01  7.5050800000E-01  2.4949200000E-01
                       7.5050800000E-01  2.4949200000E-01  2.4949200000E-01
            znucl       37.00000   11.00000   83.00000   17.00000

- Timing analysis has been suppressed with timopt=0

 Suggested references for the acknowledgment of ABINIT usage.

 Calculation completed.
.Delivered   2 WARNINGs and   7 COMMENTs to log file.