.Version 9.5.2 of ABINIT

 ABINIT is a project of the Universite Catholique de Louvain,
 Corning Inc. and other collaborators, see ~abinit/doc/developers/contributors.txt .
 acknowledgments of the ABINIT effort.

.Starting date : Mon 24 May 2021.
- ( at 23h28 )

- input  file    -> /scratch/users/j/a/jabreu/flow_simple_10atoms/flow/w502/t1/run.abi
- output file    -> /scratch/users/j/a/jabreu/flow_simple_10atoms/flow/w502/t1/run.abo
- root for input  files -> /scratch/users/j/a/jabreu/flow_simple_10atoms/flow/w502/t1/indata/in
- root for output files -> /scratch/users/j/a/jabreu/flow_simple_10atoms/flow/w502/t1/outdata/out

 Symmetries : space group Fm -3 m (#225); Bravais cF (face-center cubic)
     intxc =       0      iscf =       7    lmnmax =      32     lnmax =       8
     mgfft =      80  mpssoang =       4    mqgrid =    3074     natom =      10
  nloc_mem =       1    nspden =       1   nspinor =       1    nsppol =       1
      nsym =      48    n1xccc =    2501    ntypat =       4    occopt =       1
   xclevel =       2
-    mband =          53        mffmem =           1         mkmem =           1
-   mkqmem =           1        mk1mem =           1           mpw =       19795
      nfft =      512000          nkpt =           1
  Rough estimation (10% accuracy) of disk space for files :

------------- Echo of variables that govern the present computation ------------
-
- outvars: echo of selected default values
-   iomode0 =  0 , fftalg0 =512 , wfoptalg0 =  0
-
- outvars: echo of global parameters not present in the input file
-  max_nthreads =    0
-
 -outvars: echo values of preprocessed input variables --------
            acell      1.0000000000E+00  1.0000000000E+00  1.0000000000E+00 Bohr
              amu      1.32905430E+02  1.14820000E+02  2.08980370E+02
                       1.89984032E+01
             ecut      4.20000000E+01 Hartree
-          fftalg         512
           irdden           1
           irdwfk           1
           istwfk        1
              ixc     -116133
           kptopt           0
P           mkmem           1
P          mkqmem           1
P          mk1mem           1
            natom          10
            nband          53
           nbdbuf           4
            ngfft          80      80      80
             nkpt           1
            nstep        2000
             nsym          48
           ntypat           4
              occ      2.000000  2.000000  2.000000  2.000000  2.000000  2.000000
                       2.000000  2.000000  2.000000  2.000000  2.000000  2.000000
                       2.000000  2.000000  2.000000  2.000000  2.000000  2.000000
                       2.000000  2.000000  2.000000  2.000000  2.000000  2.000000
                       2.000000  2.000000  2.000000  2.000000  2.000000  2.000000
                       2.000000  2.000000  2.000000  2.000000  2.000000  2.000000
                       2.000000  2.000000  2.000000  2.000000  2.000000  2.000000
                       2.000000  2.000000  0.000000  0.000000  0.000000  0.000000
                       0.000000  0.000000  0.000000  0.000000  0.000000
        optdriver           1
            prtwf          -1
            rfdir           1       1       1
           rfelfd           2
            rprim      1.1173526686E+01  0.0000000000E+00  6.4510386401E+00
                       3.7245088954E+00  1.0534501986E+01  6.4510386401E+00
                       0.0000000000E+00  0.0000000000E+00  1.2902077280E+01
          spgroup         225
           symrel      1  0  0   0  1  0   0  0  1      -1  0  0   0 -1  0   0  0 -1
                       0 -1  1   0 -1  0   1 -1  0       0  1 -1   0  1  0  -1  1  0
                      -1  0  0  -1  0  1  -1  1  0       1  0  0   1  0 -1   1 -1  0
                       0  1 -1   1  0 -1   0  0 -1       0 -1  1  -1  0  1   0  0  1
                      -1  0  0  -1  1  0  -1  0  1       1  0  0   1 -1  0   1  0 -1
                       0 -1  1   1 -1  0   0 -1  0       0  1 -1  -1  1  0   0  1  0
                       1  0  0   0  0  1   0  1  0      -1  0  0   0  0 -1   0 -1  0
                       0  1 -1   0  0 -1   1  0 -1       0 -1  1   0  0  1  -1  0  1
                      -1  0  1  -1  1  0  -1  0  0       1  0 -1   1 -1  0   1  0  0
                       0 -1  0   1 -1  0   0 -1  1       0  1  0  -1  1  0   0  1 -1
                       1  0 -1   0  0 -1   0  1 -1      -1  0  1   0  0  1   0 -1  1
                       0  1  0   0  0  1   1  0  0       0 -1  0   0  0 -1  -1  0  0
                       1  0 -1   0  1 -1   0  0 -1      -1  0  1   0 -1  1   0  0  1
                       0 -1  0   0 -1  1   1 -1  0       0  1  0   0  1 -1  -1  1  0
                      -1  0  1  -1  0  0  -1  1  0       1  0 -1   1  0  0   1 -1  0
                       0  1  0   1  0  0   0  0  1       0 -1  0  -1  0  0   0  0 -1
                       0  0 -1   0  1 -1   1  0 -1       0  0  1   0 -1  1  -1  0  1
                       1 -1  0   0 -1  1   0 -1  0      -1  1  0   0  1 -1   0  1  0
                       0  0  1   1  0  0   0  1  0       0  0 -1  -1  0  0   0 -1  0
                      -1  1  0  -1  0  0  -1  0  1       1 -1  0   1  0  0   1  0 -1
                       0  0  1   0  1  0   1  0  0       0  0 -1   0 -1  0  -1  0  0
                       1 -1  0   0 -1  0   0 -1  1      -1  1  0   0  1  0   0  1 -1
                       0  0 -1   1  0 -1   0  1 -1       0  0  1  -1  0  1   0 -1  1
                      -1  1  0  -1  0  1  -1  0  0       1 -1  0   1  0 -1   1  0  0
           tolwfr      1.00000000E-20
            typat      1  1  2  3  4  4  4  4  4  4
           useylm           1
           xangst      1.9709252206E+00  1.3936545887E+00  3.4137426201E+00
                       5.9127756619E+00  4.1809637662E+00  1.0241227860E+01
                       0.0000000000E+00  0.0000000000E+00  0.0000000000E+00
                       3.9418504413E+00  2.7873091775E+00  6.8274852401E+00
                       3.0181802785E+00  4.0935760489E+00  8.4273288916E+00
                       4.8655206041E+00  1.4810423061E+00  8.4273288916E+00
                       3.0181802785E+00  4.0935760489E+00  5.2276415887E+00
                       2.0945101157E+00  1.4810423061E+00  6.8274852401E+00
                       5.7891907669E+00  4.0935760489E+00  6.8274852401E+00
                       4.8655206041E+00  1.4810423061E+00  5.2276415887E+00
            xcart      3.7245088954E+00  2.6336254966E+00  6.4510386401E+00
                       1.1173526686E+01  7.9008764897E+00  1.9353115920E+01
                       0.0000000000E+00  0.0000000000E+00  0.0000000000E+00
                       7.4490177909E+00  5.2672509931E+00  1.2902077280E+01
                       5.7035341460E+00  7.7357376365E+00  1.5925343637E+01
                       9.1945014357E+00  2.7987643497E+00  1.5925343637E+01
                       5.7035341460E+00  7.7357376365E+00  9.8788109236E+00
                       3.9580505012E+00  2.7987643497E+00  1.2902077280E+01
                       1.0939985080E+01  7.7357376365E+00  1.2902077280E+01
                       9.1945014357E+00  2.7987643497E+00  9.8788109236E+00
             xred      2.5000000000E-01  2.5000000000E-01  2.5000000000E-01
                       7.5000000000E-01  7.5000000000E-01  7.5000000000E-01
                       0.0000000000E+00  0.0000000000E+00  0.0000000000E+00
                       5.0000000000E-01  5.0000000000E-01  5.0000000000E-01
                       2.6567600000E-01  7.3432400000E-01  7.3432400000E-01
                       7.3432400000E-01  2.6567600000E-01  7.3432400000E-01
                       2.6567600000E-01  7.3432400000E-01  2.6567600000E-01
                       2.6567600000E-01  2.6567600000E-01  7.3432400000E-01
                       7.3432400000E-01  7.3432400000E-01  2.6567600000E-01
                       7.3432400000E-01  2.6567600000E-01  2.6567600000E-01
            znucl       55.00000   49.00000   83.00000    9.00000

 chkinp: Checking input parameters for consistency.

== DATASET  1 ==================================================================
-   mpi_nproc: 1, omp_nthreads: -1 (-1 if OMP is not activated)

--- !DatasetInfo
iteration_state: {dtset: 1, }
dimensions: {natom: 10, nkpt: 1, mband: 53, nsppol: 1, nspinor: 1, nspden: 1, mpw: 19795, }
cutoff_energies: {ecut:  42.0, pawecutdg:  -1.0, }
electrons: {nelect:   8.80000000E+01, charge:   0.00000000E+00, occopt:   1.00000000E+00, tsmear:   1.00000000E-02, }
meta: {optdriver: 1, rfelfd: 2, }
...

 Real(R)+Recip(G) space primitive vectors, cartesian coordinates (Bohr,Bohr^-1):
 R(1)= 11.1735267  0.0000000  6.4510386  G(1)=  0.0894973 -0.0316421  0.0000000
 R(2)=  3.7245089 10.5345020  6.4510386  G(2)=  0.0000000  0.0949262  0.0000000
 R(3)=  0.0000000  0.0000000 12.9020773  G(3)= -0.0447486 -0.0316421  0.0775069
 Unit cell volume ucvol=  1.5186718E+03 bohr^3
 Angles (23,13,12)=  6.00000000E+01  6.00000000E+01  6.00000000E+01 degrees

 getcut: wavevector=  0.0000  0.0000  0.0000  ngfft=  80  80  80
         ecut(hartree)=     42.000   => boxcut(ratio)=   2.12540

--- Pseudopotential description ------------------------------------------------
- pspini: atom type   1  psp file is /scratch/users/j/a/jabreu/pseudos/PBEsol/Cs.psp8
- pspatm: opening atomic psp file    /scratch/users/j/a/jabreu/pseudos/PBEsol/Cs.psp8
- Cs    ONCVPSP-3.3.0  r_core=   2.27353   1.85623   2.01788   1.90105
- 55.00000   9.00000    180112                znucl, zion, pspdat
    8 -116133    3    4       600   0.00000   pspcod,pspxc,lmax,lloc,mmax,r2well
    5.99000000000000    5.00000000000000    0.00000000000000   rchrg,fchrg,qchrg
     nproj     2     2     2     2
     extension_switch     1
  pspatm : epsatm=   22.12462445
         --- l  ekb(1:nproj) -->
             0    6.214110    0.767882
             1    6.311966    0.793598
             2    3.769790    0.913105
             3   -9.247129   -2.432478
 pspatm: atomic psp has been read  and splines computed

- pspini: atom type   2  psp file is /scratch/users/j/a/jabreu/pseudos/PBEsol/In.psp8
- pspatm: opening atomic psp file    /scratch/users/j/a/jabreu/pseudos/PBEsol/In.psp8
- In    ONCVPSP-3.3.0  r_core=   2.10853   2.37566   1.87143
- 49.00000  13.00000    180112                znucl, zion, pspdat
    8 -116133    2    4       600   0.00000   pspcod,pspxc,lmax,lloc,mmax,r2well
    5.99000000000000    5.00000000000000    0.00000000000000   rchrg,fchrg,qchrg
     nproj     2     2     2
     extension_switch     1
  pspatm : epsatm=   25.17984752
         --- l  ekb(1:nproj) -->
             0   12.999887    1.931740
             1    5.981707    1.012544
             2   -4.048011   -1.239028
 pspatm: atomic psp has been read  and splines computed

[...]

- pspini: atom type   4  psp file is /scratch/users/j/a/jabreu/pseudos/PBEsol/F.psp8
- pspatm: opening atomic psp file    /scratch/users/j/a/jabreu/pseudos/PBEsol/F.psp8
- F     ONCVPSP-3.3.0  r_core=   1.30942   1.45782   1.60379
-  9.00000   7.00000    180112                znucl, zion, pspdat
[...]
 ETOT  8  -48.757323974237     -2.124E-09 7.871E-08 0.000E+00
 ETOT  9  -48.757323974538     -3.012E-10 1.546E-08 0.000E+00
 ETOT 10  -48.757323974582     -4.407E-11 7.020E-09 0.000E+00
 ETOT 11  -48.757323974588     -6.601E-12 1.391E-09 0.000E+00
 ETOT 12  -48.757323974589     -9.877E-13 6.303E-10 0.000E+00
 ETOT 13  -48.757323974590     -1.492E-13 1.253E-10 0.000E+00
 ETOT 14  -48.757323974590     -2.842E-14 5.679E-11 0.000E+00
 ETOT 15  -48.757323974590     -1.421E-14 1.131E-11 0.000E+00
 ETOT 16  -48.757323974590      2.132E-14 5.128E-12 0.000E+00
 ETOT 17  -48.757323974590     -7.105E-15 1.021E-12 0.000E+00
 ETOT 18  -48.757323974590      7.105E-15 4.635E-13 0.000E+00
 ETOT 19  -48.757323974590      2.132E-14 9.220E-14 0.000E+00
 ETOT 20  -48.757323974590     -3.553E-14 4.193E-14 0.000E+00
 ETOT 21  -48.757323974590      1.421E-14 8.329E-15 0.000E+00
 ETOT 22  -48.757323974590      0.000E+00 3.794E-15 0.000E+00
 ETOT 23  -48.757323974590      0.000E+00 7.526E-16 0.000E+00
 ETOT 24  -48.757323974590      1.421E-14 3.434E-16 0.000E+00
 ETOT 25  -48.757323974590     -1.421E-14 6.802E-17 0.000E+00
 ETOT 26  -48.757323974590      0.000E+00 3.109E-17 0.000E+00
 ETOT 27  -48.757323974590      2.132E-14 6.149E-18 0.000E+00
 ETOT 28  -48.757323974590     -7.105E-15 2.814E-18 0.000E+00
 ETOT 29  -48.757323974590     -1.421E-14 5.560E-19 0.000E+00
 ETOT 30  -48.757323974590      0.000E+00 2.548E-19 0.000E+00
 ETOT 31  -48.757323974590      0.000E+00 5.029E-20 0.000E+00
 ETOT 32  -48.757323974590      7.105E-15 2.307E-20 0.000E+00
 ETOT 33  -48.757323974590     -7.105E-15 9.958E-21 0.000E+00

 At SCF step   33   max residual=  9.96E-21 < tolwfr=  1.00E-20 =>converged.

 ----iterations are completed or convergence reached----

 dfpt_looppert: DFPT cycle converged with prtwf=-1. Will skip output of the 1st-order WFK file.
 dfpt_looppert : ek2=    6.2610098326E+01
          f-sum rule ratio=    1.0940832987E+00
 prteigrs : about to open file /scratch/users/j/a/jabreu/flow_simple_10atoms/flow/w502/t1/tmpdata/tmp_1WF1_EIG
 Expectation of eigenvalue derivatives (hartree) for nkpt=   1  k points:
  (in case of degenerate eigenvalues, averaged derivative)
 kpt#   1, nband= 53, wtk=  1.00000, kpt=  0.0000  0.0000  0.0000 (reduced coord)
   0.00000    0.00000   -0.00000   -0.00000   -0.00000   -0.00000    0.00000    0.00000
   0.00000    0.00000    0.00000   -0.00000    0.00000    0.00000    0.00000    0.00000
   0.00000    0.00000    0.00000    0.00000    0.00000    0.00000    0.00000    0.00000
   0.00000    0.00000    0.00000    0.00000    0.00000    0.00000   -0.00000   -0.00000
  -0.00000   -0.00000    0.00000    0.00000    0.00000   -0.00000   -0.00000   -0.00000
   0.00000    0.00000    0.00000    0.00000   -0.00000   -0.00000   -0.00000   -0.00000
   0.00000    0.00000    0.00000    0.00000    0.00000

 Eight components of 2nd-order total energy (hartree) are
 1,2,3: 0th-order hamiltonian combined with 1st-order wavefunctions
     kin0=   5.76411751E+01 eigvalue=   5.51999799E+00  local=  -2.93319821E+01
 4,5,6: 1st-order hamiltonian combined with 1st and 0th-order wfs
     kin1=  -6.85006629E+01  Hartree=   0.00000000E+00     xc=   0.00000000E+00
 7,8,9: eventually, occupation + non-local contributions
    edocc=   7.92675379E+00     enl0=   7.00137924E+00   enl1=  -2.90139850E+01
 1-9 gives the relaxation energy (to be shifted if some occ is /=2.0)
   erelax=  -4.87573240E+01
  No Ewald or frozen-wf contrib.: the relaxation energy is the total one
 2DEtotal=   -0.4875732397E+02 Ha. Also 2DEtotal=   -0.132675425866E+04 eV
    (  non-var. 2DEtotal :   -4.8757323974E+01 Ha)

 CALCULATION OF EFFECTIVE MASSES
 NOTE : Additional infos (eff. mass eigenvalues, eigenvectors and, if degenerate, average mass) are available in stdout.

 K-point ( 0.000, 0.000, 0.000) | band =    44
 Effective mass tensor:
             -0.3145839280              0.0000000038              0.0000000048
              0.0000000038             -0.3145839187             -0.0000000028
              0.0000000048             -0.0000000028             -0.3145839317
 Effective mass tensor eigenvalues:
             -0.3145839362             -0.3145839250             -0.3145839173
 Angular average effective mass 1/(<1/m>)=  -0.3145839262
 Angular average effective mass for Frohlich model (<m**0.5>)**2=  -0.3145839262
 Effective masses along directions: (cart. coord. / red. coord. -> eff. mass)
    1:   1.000000  0.000000  0.000000 /   0.948683  0.316228  0.000000 ->  -0.3145839280
    2:   0.000000  1.000000  0.000000 /   0.000000  1.000000  0.000000 ->  -0.3145839187
    3:   0.000000  0.000000  1.000000 /   0.408248  0.408248  0.816497 ->  -0.3145839317
    4:   0.577350  0.577350  0.577350 /   0.585539  0.688047  0.428644 ->  -0.3145839223
    5:   0.000000  0.707107  0.707107 /   0.289489  0.762222  0.578977 ->  -0.3145839281
    6:   0.707107  0.000000  0.707107 /   0.731423  0.422287  0.535439 ->  -0.3145839250
    7:   0.707107  0.707107  0.000000 /   0.616798  0.787122  0.000000 ->  -0.3145839196

 COMMENTS:
 - At k-point ( 0.000, 0.000, 0.000), bands    45 through    47
   are DEGENERATE (effective mass tensor is therefore not defined).
   See Section IIIB Eqs. (67)-(70) and Appendix E of PRB 93 205147 (2016).
 - Angular average effective mass for Frohlich model is to be averaged over degenerate bands. See later.
 - Associated theta integrals calculated with ntheta=   1000 points.

 K-point ( 0.000, 0.000, 0.000) | band =    45
 Transport equivalent effective mass tensor:
              0.8755106183             -0.0000003410              0.0000000001
             -0.0000003410              0.8755107027              0.0000000001
              0.0000000001              0.0000000001              0.8755111982
 Transport equivalent effective mass tensor eigenvalues:
              0.8755111982              0.8755110040              0.8755103169
 Angular average effective mass 1/(<1/m>)=   0.7719888399
 Angular average effective mass for Frohlich model (<m**0.5>)**2=   0.7764151911
 Effective masses along directions: (cart. coord. / red. coord. -> eff. mass)
    1:   1.000000  0.000000  0.000000 /   0.948683  0.316228  0.000000 ->   0.6998192271
    2:   0.000000  1.000000  0.000000 /   0.000000  1.000000  0.000000 ->   0.5970951346
    3:   0.000000  0.000000  1.000000 /   0.408248  0.408248  0.816497 ->   0.8452328719
    4:   0.577350  0.577350  0.577350 /   0.585539  0.688047  0.428644 ->   0.7338640995
    5:   0.000000  0.707107  0.707107 /   0.289489  0.762222  0.578977 ->   0.8333312735
    6:   0.707107  0.000000  0.707107 /   0.731423  0.422287  0.535439 ->   0.7868544275
    7:   0.707107  0.707107  0.000000 /   0.616798  0.787122  0.000000 ->   0.8304301683

[...]

 K-point ( 0.000, 0.000, 0.000) | band =    47
 Transport equivalent effective mass tensor:
              0.2447685637             -0.0000000000             -0.0000000000
             -0.0000000000              0.2447685637              0.0000000000
             -0.0000000000              0.0000000000              0.2447685637
 Transport equivalent effective mass tensor eigenvalues:
              0.2447685637              0.2447685637              0.2447685637
 Angular average effective mass 1/(<1/m>)=   0.2349998309
 Angular average effective mass for Frohlich model (<m**0.5>)**2=   0.2356665645
 Effective masses along directions: (cart. coord. / red. coord. -> eff. mass)
    1:   1.000000  0.000000  0.000000 /   0.948683  0.316228  0.000000 ->   0.2423197904
    2:   0.000000  1.000000  0.000000 /   0.000000  1.000000  0.000000 ->   0.2609842086
    3:   0.000000  0.000000  1.000000 /   0.408248  0.408248  0.816497 ->   0.2452492764
    4:   0.577350  0.577350  0.577350 /   0.585539  0.688047  0.428644 ->   0.2433497359
    5:   0.000000  0.707107  0.707107 /   0.289489  0.762222  0.578977 ->   0.2255386158
    6:   0.707107  0.000000  0.707107 /   0.731423  0.422287  0.535439 ->   0.2437472541
    7:   0.707107  0.707107  0.000000 /   0.616798  0.787122  0.000000 ->   0.2106043211

 Angular average effective mass for Frohlich model, averaged over degenerate bands.
 Value of     (<<m**0.5>>)**2 =     5.158139E-01
 Absolute Value of <<m**0.5>> =     7.182018E-01

 END OF EFFECTIVE MASSES SECTION

 ---- first-order wavefunction calculations are completed ----

 Total localisation tensor (bohr^2) in cartesian coordinates
  WARNING : still subject to testing - especially symmetries.
      direction              matrix element
   alpha     beta       real part   imaginary part
     1        1       1.5116961967    0.0000000000
     1        2       0.4275722581    0.0000000000
     1        3       1.0473338495    0.0000000000
     2        1       0.4275722581    0.0000000000
     2        2       1.2093569727    0.0000000000
     2        3       0.7405768750    0.0000000000
     3        1       1.0473338495    0.0000000000
     3        2       0.7405768750    0.0000000000
     3        3       2.7210531640    0.0000000000

 respfn : d/dk was computed, but no 2DTE, so no DDB output.

== END DATASET(S) ==============================================================

 -outvars: echo values of variables after computation  --------
            acell      1.0000000000E+00  1.0000000000E+00  1.0000000000E+00 Bohr
              amu      1.32905430E+02  1.14820000E+02  2.08980370E+02
                       1.89984032E+01
             ecut      4.20000000E+01 Hartree
           etotal     -4.8757323975E+01
            fcart      0.0000000000E+00  0.0000000000E+00  0.0000000000E+00
                       0.0000000000E+00  0.0000000000E+00  0.0000000000E+00
                       0.0000000000E+00  0.0000000000E+00  0.0000000000E+00
                       0.0000000000E+00  0.0000000000E+00  0.0000000000E+00
                       0.0000000000E+00  0.0000000000E+00  0.0000000000E+00
                       0.0000000000E+00  0.0000000000E+00  0.0000000000E+00
                       0.0000000000E+00  0.0000000000E+00  0.0000000000E+00
                       0.0000000000E+00  0.0000000000E+00  0.0000000000E+00
                       0.0000000000E+00  0.0000000000E+00  0.0000000000E+00
                       0.0000000000E+00  0.0000000000E+00  0.0000000000E+00
-          fftalg         512
           irdden           1
           irdwfk           1
           istwfk        1
              ixc     -116133
           kptopt           0
P           mkmem           1
P          mkqmem           1
P          mk1mem           1
            natom          10
            nband          53
           nbdbuf           4
            ngfft          80      80      80
             nkpt           1
            nstep        2000
             nsym          48
           ntypat           4
              occ      2.000000  2.000000  2.000000  2.000000  2.000000  2.000000
                       2.000000  2.000000  2.000000  2.000000  2.000000  2.000000
                       2.000000  2.000000  2.000000  2.000000  2.000000  2.000000
                       2.000000  2.000000  2.000000  2.000000  2.000000  2.000000
                       2.000000  2.000000  2.000000  2.000000  2.000000  2.000000
                       2.000000  2.000000  2.000000  2.000000  2.000000  2.000000
                       2.000000  2.000000  2.000000  2.000000  2.000000  2.000000
                       2.000000  2.000000  0.000000  0.000000  0.000000  0.000000
                       0.000000  0.000000  0.000000  0.000000  0.000000
        optdriver           1
            prtwf          -1
            rfdir           1       1       1
           rfelfd           2
            rprim      1.1173526686E+01  0.0000000000E+00  6.4510386401E+00
                       3.7245088954E+00  1.0534501986E+01  6.4510386401E+00
                       0.0000000000E+00  0.0000000000E+00  1.2902077280E+01
          spgroup         225
           strten      0.0000000000E+00  0.0000000000E+00  0.0000000000E+00
                       0.0000000000E+00  0.0000000000E+00  0.0000000000E+00
           symrel      1  0  0   0  1  0   0  0  1      -1  0  0   0 -1  0   0  0 -1
                       0 -1  1   0 -1  0   1 -1  0       0  1 -1   0  1  0  -1  1  0
                      -1  0  0  -1  0  1  -1  1  0       1  0  0   1  0 -1   1 -1  0
                       0  1 -1   1  0 -1   0  0 -1       0 -1  1  -1  0  1   0  0  1
                      -1  0  0  -1  1  0  -1  0  1       1  0  0   1 -1  0   1  0 -1
                       0 -1  1   1 -1  0   0 -1  0       0  1 -1  -1  1  0   0  1  0
                       1  0  0   0  0  1   0  1  0      -1  0  0   0  0 -1   0 -1  0
                       0  1 -1   0  0 -1   1  0 -1       0 -1  1   0  0  1  -1  0  1
                      -1  0  1  -1  1  0  -1  0  0       1  0 -1   1 -1  0   1  0  0
                       0 -1  0   1 -1  0   0 -1  1       0  1  0  -1  1  0   0  1 -1
                       1  0 -1   0  0 -1   0  1 -1      -1  0  1   0  0  1   0 -1  1
                       0  1  0   0  0  1   1  0  0       0 -1  0   0  0 -1  -1  0  0
                       1  0 -1   0  1 -1   0  0 -1      -1  0  1   0 -1  1   0  0  1
                       0 -1  0   0 -1  1   1 -1  0       0  1  0   0  1 -1  -1  1  0
                      -1  0  1  -1  0  0  -1  1  0       1  0 -1   1  0  0   1 -1  0
                       0  1  0   1  0  0   0  0  1       0 -1  0  -1  0  0   0  0 -1
                       0  0 -1   0  1 -1   1  0 -1       0  0  1   0 -1  1  -1  0  1
                       1 -1  0   0 -1  1   0 -1  0      -1  1  0   0  1 -1   0  1  0
                       0  0  1   1  0  0   0  1  0       0  0 -1  -1  0  0   0 -1  0
                      -1  1  0  -1  0  0  -1  0  1       1 -1  0   1  0  0   1  0 -1
                       0  0  1   0  1  0   1  0  0       0  0 -1   0 -1  0  -1  0  0
                       1 -1  0   0 -1  0   0 -1  1      -1  1  0   0  1  0   0  1 -1
                       0  0 -1   1  0 -1   0  1 -1       0  0  1  -1  0  1   0 -1  1
                      -1  1  0  -1  0  1  -1  0  0       1 -1  0   1  0 -1   1  0  0
           tolwfr      1.00000000E-20
            typat      1  1  2  3  4  4  4  4  4  4
           useylm           1
           xangst      1.9709252206E+00  1.3936545887E+00  3.4137426201E+00
                       5.9127756619E+00  4.1809637662E+00  1.0241227860E+01
                       0.0000000000E+00  0.0000000000E+00  0.0000000000E+00
                       3.9418504413E+00  2.7873091775E+00  6.8274852401E+00
                       3.0181802785E+00  4.0935760489E+00  8.4273288916E+00
                       4.8655206041E+00  1.4810423061E+00  8.4273288916E+00
                       3.0181802785E+00  4.0935760489E+00  5.2276415887E+00
                       2.0945101157E+00  1.4810423061E+00  6.8274852401E+00
                       5.7891907669E+00  4.0935760489E+00  6.8274852401E+00
                       4.8655206041E+00  1.4810423061E+00  5.2276415887E+00
            xcart      3.7245088954E+00  2.6336254966E+00  6.4510386401E+00
                       1.1173526686E+01  7.9008764897E+00  1.9353115920E+01
                       0.0000000000E+00  0.0000000000E+00  0.0000000000E+00
                       7.4490177909E+00  5.2672509931E+00  1.2902077280E+01
                       5.7035341460E+00  7.7357376365E+00  1.5925343637E+01
                       9.1945014357E+00  2.7987643497E+00  1.5925343637E+01
                       5.7035341460E+00  7.7357376365E+00  9.8788109236E+00
                       3.9580505012E+00  2.7987643497E+00  1.2902077280E+01
                       1.0939985080E+01  7.7357376365E+00  1.2902077280E+01
                       9.1945014357E+00  2.7987643497E+00  9.8788109236E+00
             xred      2.5000000000E-01  2.5000000000E-01  2.5000000000E-01
                       7.5000000000E-01  7.5000000000E-01  7.5000000000E-01
                       0.0000000000E+00  0.0000000000E+00  0.0000000000E+00
                       5.0000000000E-01  5.0000000000E-01  5.0000000000E-01
                       2.6567600000E-01  7.3432400000E-01  7.3432400000E-01
                       7.3432400000E-01  2.6567600000E-01  7.3432400000E-01
                       2.6567600000E-01  7.3432400000E-01  2.6567600000E-01
                       2.6567600000E-01  2.6567600000E-01  7.3432400000E-01
                       7.3432400000E-01  7.3432400000E-01  2.6567600000E-01
                       7.3432400000E-01  2.6567600000E-01  2.6567600000E-01
            znucl       55.00000   49.00000   83.00000    9.00000

- Timing analysis has been suppressed with timopt=0

 Suggested references for the acknowledgment of ABINIT usage.

 Calculation completed.
.Delivered   2 WARNINGs and   5 COMMENTs to log file.