.Version 9.5.2 of ABINIT

 ABINIT is a project of the Universite Catholique de Louvain,
 Corning Inc. and other collaborators, see ~abinit/doc/developers/contributors.txt .
 acknowledgments of the ABINIT effort.

.Starting date : Mon 24 May 2021.
- ( at 18h15 )

- input  file    -> /scratch/users/j/a/jabreu/flow_simple_10atoms/flow/w397/t1/run.abi
- output file    -> /scratch/users/j/a/jabreu/flow_simple_10atoms/flow/w397/t1/run.abo
- root for input  files -> /scratch/users/j/a/jabreu/flow_simple_10atoms/flow/w397/t1/indata/in
- root for output files -> /scratch/users/j/a/jabreu/flow_simple_10atoms/flow/w397/t1/outdata/out

 Symmetries : space group Fm -3 m (#225); Bravais cF (face-center cubic)
     intxc =       0      iscf =       7    lmnmax =      18     lnmax =       6
     mgfft =      75  mpssoang =       3    mqgrid =    3001     natom =      10
  nloc_mem =       1    nspden =       1   nspinor =       1    nsppol =       1
      nsym =      48    n1xccc =    2501    ntypat =       4    occopt =       1
   xclevel =       2
-    mband =          52        mffmem =           1         mkmem =           2
-   mkqmem =           2        mk1mem =           2           mpw =       17798
      nfft =      421875          nkpt =           2
  Rough estimation (10% accuracy) of disk space for files :

------------- Echo of variables that govern the present computation ------------
-
- outvars: echo of selected default values
-   iomode0 =  0 , fftalg0 =512 , wfoptalg0 =  0
-
- outvars: echo of global parameters not present in the input file
-  max_nthreads =    0
-
 -outvars: echo values of preprocessed input variables --------
            acell      1.0000000000E+00  1.0000000000E+00  1.0000000000E+00 Bohr
              amu      8.54678000E+01  2.04383300E+02  1.14820000E+02
                       1.89984032E+01
             ecut      4.20000000E+01 Hartree
-          fftalg         512
           irdden           1
           irdwfk           1
           istwfk        1    1
              ixc     -116133
              kpt      5.00000000E-01  0.00000000E+00  5.00000000E-01
                       5.00000000E-01  5.00000000E-01  5.00000000E-01
           kptopt           0
P           mkmem           2
P          mkqmem           2
P          mk1mem           2
            natom          10
            nband          52
           nbdbuf           4
            ngfft          75      75      75
             nkpt           2
            nstep        2000
             nsym          48
           ntypat           4
              occ      2.000000  2.000000  2.000000  2.000000  2.000000  2.000000
                       2.000000  2.000000  2.000000  2.000000  2.000000  2.000000
                       2.000000  2.000000  2.000000  2.000000  2.000000  2.000000
                       2.000000  2.000000  2.000000  2.000000  2.000000  2.000000
                       2.000000  2.000000  2.000000  2.000000  2.000000  2.000000
                       2.000000  2.000000  2.000000  2.000000  2.000000  2.000000
                       2.000000  2.000000  2.000000  2.000000  2.000000  2.000000
                       2.000000  0.000000  0.000000  0.000000  0.000000  0.000000
                       0.000000  0.000000  0.000000  0.000000
        optdriver           1
            prtwf          -1
            rfdir           1       1       1
           rfelfd           2
            rprim      1.0800986085E+01  0.0000000000E+00  6.2359522236E+00
                       3.6003286949E+00  1.0183267339E+01  6.2359522236E+00
                       0.0000000000E+00  0.0000000000E+00  1.2471904447E+01
          spgroup         225
           symrel      1  0  0   0  1  0   0  0  1      -1  0  0   0 -1  0   0  0 -1
                       0 -1  1   0 -1  0   1 -1  0       0  1 -1   0  1  0  -1  1  0
                      -1  0  0  -1  0  1  -1  1  0       1  0  0   1  0 -1   1 -1  0
                       0  1 -1   1  0 -1   0  0 -1       0 -1  1  -1  0  1   0  0  1
                      -1  0  0  -1  1  0  -1  0  1       1  0  0   1 -1  0   1  0 -1
                       0 -1  1   1 -1  0   0 -1  0       0  1 -1  -1  1  0   0  1  0
                       1  0  0   0  0  1   0  1  0      -1  0  0   0  0 -1   0 -1  0
                       0  1 -1   0  0 -1   1  0 -1       0 -1  1   0  0  1  -1  0  1
                      -1  0  1  -1  1  0  -1  0  0       1  0 -1   1 -1  0   1  0  0
                       0 -1  0   1 -1  0   0 -1  1       0  1  0  -1  1  0   0  1 -1
                       1  0 -1   0  0 -1   0  1 -1      -1  0  1   0  0  1   0 -1  1
                       0  1  0   0  0  1   1  0  0       0 -1  0   0  0 -1  -1  0  0
                       1  0 -1   0  1 -1   0  0 -1      -1  0  1   0 -1  1   0  0  1
                       0 -1  0   0 -1  1   1 -1  0       0  1  0   0  1 -1  -1  1  0
                      -1  0  1  -1  0  0  -1  1  0       1  0 -1   1  0  0   1 -1  0
                       0  1  0   1  0  0   0  0  1       0 -1  0  -1  0  0   0  0 -1
                       0  0 -1   0  1 -1   1  0 -1       0  0  1   0 -1  1  -1  0  1
                       1 -1  0   0 -1  1   0 -1  0      -1  1  0   0  1 -1   0  1  0
                       0  0  1   1  0  0   0  1  0       0  0 -1  -1  0  0   0 -1  0
                      -1  1  0  -1  0  0  -1  0  1       1 -1  0   1  0  0   1  0 -1
                       0  0  1   0  1  0   1  0  0       0  0 -1   0 -1  0  -1  0  0
                       1 -1  0   0 -1  0   0 -1  1      -1  1  0   0  1  0   0  1 -1
                       0  0 -1   1  0 -1   0  1 -1       0  0  1  -1  0  1   0 -1  1
                      -1  1  0  -1  0  1  -1  0  0       1 -1  0   1  0 -1   1  0  0
           tolwfr      1.00000000E-20
            typat      1  1  2  3  4  4  4  4  4  4
           useylm           1
              wtk        0.50000    0.50000
           xangst      1.9052118888E+00  1.3471882462E+00  3.2999237906E+00
                       5.7156356664E+00  4.0415647385E+00  9.8997713718E+00
                       0.0000000000E+00  0.0000000000E+00  0.0000000000E+00
                       3.8104237776E+00  2.6943764923E+00  6.5998475812E+00
                       2.9604249247E+00  3.8964563981E+00  8.0720887808E+00
                       4.6604226305E+00  1.4922965865E+00  8.0720887808E+00
                       2.9604249247E+00  3.8964563981E+00  5.1276063815E+00
                       2.1104260718E+00  1.4922965865E+00  6.5998475812E+00
                       5.5104214834E+00  3.8964563981E+00  6.5998475812E+00
                       4.6604226305E+00  1.4922965865E+00  5.1276063815E+00
            xcart      3.6003286949E+00  2.5458168347E+00  6.2359522236E+00
                       1.0800986085E+01  7.6374505041E+00  1.8707856671E+01
                       0.0000000000E+00  0.0000000000E+00  0.0000000000E+00
                       7.2006573899E+00  5.0916336694E+00  1.2471904447E+01
                       5.5943923446E+00  7.3632354812E+00  1.5254037116E+01
                       8.8069224351E+00  2.8200318576E+00  1.5254037116E+01
                       5.5943923446E+00  7.3632354812E+00  9.6897717784E+00
                       3.9881272993E+00  2.8200318576E+00  1.2471904447E+01
                       1.0413187480E+01  7.3632354812E+00  1.2471904447E+01
                       8.8069224351E+00  2.8200318576E+00  9.6897717784E+00
             xred      2.5000000000E-01  2.5000000000E-01  2.5000000000E-01
                       7.5000000000E-01  7.5000000000E-01  7.5000000000E-01
                       0.0000000000E+00  0.0000000000E+00  0.0000000000E+00
                       5.0000000000E-01  5.0000000000E-01  5.0000000000E-01
                       2.7692800000E-01  7.2307200000E-01  7.2307200000E-01
                       7.2307200000E-01  2.7692800000E-01  7.2307200000E-01
                       2.7692800000E-01  7.2307200000E-01  2.7692800000E-01
                       2.7692800000E-01  2.7692800000E-01  7.2307200000E-01
                       7.2307200000E-01  7.2307200000E-01  2.7692800000E-01
                       7.2307200000E-01  2.7692800000E-01  2.7692800000E-01
            znucl       37.00000   81.00000   49.00000    9.00000

 chkinp: Checking input parameters for consistency.

== DATASET  1 ==================================================================
-   mpi_nproc: 1, omp_nthreads: -1 (-1 if OMP is not activated)

--- !DatasetInfo
iteration_state: {dtset: 1, }
dimensions: {natom: 10, nkpt: 2, mband: 52, nsppol: 1, nspinor: 1, nspden: 1, mpw: 17798, }
cutoff_energies: {ecut:  42.0, pawecutdg:  -1.0, }
electrons: {nelect:   8.60000000E+01, charge:   0.00000000E+00, occopt:   1.00000000E+00, tsmear:   1.00000000E-02, }
meta: {optdriver: 1, rfelfd: 2, }
...

 Real(R)+Recip(G) space primitive vectors, cartesian coordinates (Bohr,Bohr^-1):
 R(1)= 10.8009861  0.0000000  6.2359522  G(1)=  0.0925841 -0.0327334  0.0000000
 R(2)=  3.6003287 10.1832673  6.2359522  G(2)=  0.0000000  0.0982003  0.0000000
 R(3)=  0.0000000  0.0000000 12.4719044  G(3)= -0.0462921 -0.0327334  0.0801802
 Unit cell volume ucvol=  1.3717764E+03 bohr^3
 Angles (23,13,12)=  6.00000000E+01  6.00000000E+01  6.00000000E+01 degrees

 getcut: wavevector=  0.0000  0.0000  0.0000  ngfft=  75  75  75
         ecut(hartree)=     42.000   => boxcut(ratio)=   2.03418

--- Pseudopotential description ------------------------------------------------
- pspini: atom type   1  psp file is /scratch/users/j/a/jabreu/pseudos/PBEsol/Rb.psp8
- pspatm: opening atomic psp file    /scratch/users/j/a/jabreu/pseudos/PBEsol/Rb.psp8
- Rb    ONCVPSP-3.3.0  r_core=   1.71227   1.75361   1.90633
- 37.00000   9.00000    180112                znucl, zion, pspdat
    8 -116133    2    4       600   0.00000   pspcod,pspxc,lmax,lloc,mmax,r2well
    5.99000000000000    7.00000000000000    0.00000000000000   rchrg,fchrg,qchrg
     nproj     2     2     2
     extension_switch     1
  pspatm : epsatm=   34.48400912
         --- l  ekb(1:nproj) -->
             0    8.196957   -0.477221
             1    3.231347   -0.378736
             2   -1.047201    0.996637
 pspatm: atomic psp has been read  and splines computed

- pspini: atom type   2  psp file is /scratch/users/j/a/jabreu/pseudos/PBEsol/Tl.psp8
- pspatm: opening atomic psp file    /scratch/users/j/a/jabreu/pseudos/PBEsol/Tl.psp8
- Tl    ONCVPSP-3.3.0  r_core=   2.10510   2.60929   2.00701
- 81.00000  13.00000    180112                znucl, zion, pspdat
    8 -116133    2    4       600   0.00000   pspcod,pspxc,lmax,lloc,mmax,r2well
    5.99000000000000    7.00000000000000    0.00000000000000   rchrg,fchrg,qchrg
     nproj     2     2     2
     extension_switch     1
  pspatm : epsatm=   37.24354552
         --- l  ekb(1:nproj) -->
             0    6.297242    0.908324
             1    4.393460    0.899003
             2   -2.697741   -0.589563
 pspatm: atomic psp has been read  and splines computed

[...]

- pspini: atom type   4  psp file is /scratch/users/j/a/jabreu/pseudos/PBEsol/F.psp8
- pspatm: opening atomic psp file    /scratch/users/j/a/jabreu/pseudos/PBEsol/F.psp8
- F     ONCVPSP-3.3.0  r_core=   1.30942   1.45782   1.60379
[...]
 The set of symmetries contains only one element for this perturbation.
 symkpt : not enough symmetry to change the number of k points.

 Initialisation of the first-order wave-functions :
  ireadwf=   0

--- !BeginCycle
iteration_state: {dtset: 1, }
solver: {iscf: 7, nstep: 2000, nline: 4, wfoptalg: 0, }
tolerances: {tolwfr: 1.00E-20, }
...

     iter   2DEtotal(Ha)        deltaE(Ha) residm    vres2
-ETOT  1  -46.274667220575     -4.627E+01 1.678E-01 0.000E+00
 ETOT  2  -46.347551084686     -7.288E-02 1.269E-02 0.000E+00
 ETOT  3  -46.348395240824     -8.442E-04 1.597E-03 0.000E+00
 ETOT  4  -46.348413233650     -1.799E-05 6.891E-04 0.000E+00
 ETOT  5  -46.348413733019     -4.994E-07 1.579E-04 0.000E+00
 ETOT  6  -46.348413748603     -1.558E-08 7.641E-05 0.000E+00
 ETOT  7  -46.348413749129     -5.259E-10 1.952E-05 0.000E+00
 ETOT  8  -46.348413749148     -1.901E-11 1.183E-05 0.000E+00
 ETOT  9  -46.348413749149     -7.176E-13 3.005E-06 0.000E+00
 ETOT 10  -46.348413749149     -7.105E-15 1.968E-06 0.000E+00
 ETOT 11  -46.348413749149     -2.842E-14 4.894E-07 0.000E+00
 ETOT 12  -46.348413749149     -7.105E-15 3.280E-07 0.000E+00
 ETOT 13  -46.348413749149      4.263E-14 8.094E-08 0.000E+00
 ETOT 14  -46.348413749149      0.000E+00 5.485E-08 0.000E+00
 ETOT 15  -46.348413749149     -7.105E-15 1.348E-08 0.000E+00
 ETOT 16  -46.348413749149     -1.421E-14 9.193E-09 0.000E+00
 ETOT 17  -46.348413749149      7.105E-15 2.255E-09 0.000E+00
 ETOT 18  -46.348413749149      7.105E-15 1.543E-09 0.000E+00
 ETOT 19  -46.348413749149      7.105E-15 3.779E-10 0.000E+00
 ETOT 20  -46.348413749149     -7.105E-15 2.590E-10 0.000E+00
 ETOT 21  -46.348413749149     -7.105E-15 6.339E-11 0.000E+00
 ETOT 22  -46.348413749149      0.000E+00 4.350E-11 0.000E+00
 ETOT 23  -46.348413749149      1.421E-14 1.064E-11 0.000E+00
 ETOT 24  -46.348413749149     -2.132E-14 7.305E-12 0.000E+00
 ETOT 25  -46.348413749149      2.132E-14 1.786E-12 0.000E+00
 ETOT 26  -46.348413749149      0.000E+00 1.226E-12 0.000E+00
 ETOT 27  -46.348413749149     -1.421E-14 2.999E-13 0.000E+00
 ETOT 28  -46.348413749149      7.105E-15 2.059E-13 0.000E+00
 ETOT 29  -46.348413749149      7.105E-15 5.035E-14 0.000E+00
 ETOT 30  -46.348413749149     -1.421E-14 3.455E-14 0.000E+00
 ETOT 31  -46.348413749148      2.132E-14 8.451E-15 0.000E+00
 ETOT 32  -46.348413749148      0.000E+00 5.798E-15 0.000E+00
 ETOT 33  -46.348413749149     -7.105E-15 1.419E-15 0.000E+00
 ETOT 34  -46.348413749149      0.000E+00 9.727E-16 0.000E+00
 ETOT 35  -46.348413749149      0.000E+00 2.381E-16 0.000E+00
 ETOT 36  -46.348413749149     -1.421E-14 1.632E-16 0.000E+00
 ETOT 37  -46.348413749149      1.421E-14 3.995E-17 0.000E+00
 ETOT 38  -46.348413749149     -1.421E-14 2.736E-17 0.000E+00
 ETOT 39  -46.348413749149      1.421E-14 6.703E-18 0.000E+00
 ETOT 40  -46.348413749149     -1.421E-14 4.588E-18 0.000E+00
 ETOT 41  -46.348413749148      2.132E-14 1.125E-18 0.000E+00
 ETOT 42  -46.348413749148      0.000E+00 7.692E-19 0.000E+00
 ETOT 43  -46.348413749149     -2.132E-14 1.887E-19 0.000E+00
 ETOT 44  -46.348413749149      1.421E-14 1.290E-19 0.000E+00
 ETOT 45  -46.348413749149      0.000E+00 3.165E-20 0.000E+00
 ETOT 46  -46.348413749149     -1.421E-14 2.162E-20 0.000E+00
 ETOT 47  -46.348413749149      0.000E+00 9.754E-21 0.000E+00

 At SCF step   47   max residual=  9.75E-21 < tolwfr=  1.00E-20 =>converged.

 ----iterations are completed or convergence reached----

 dfpt_looppert: DFPT cycle converged with prtwf=-1. Will skip output of the 1st-order WFK file.
 dfpt_looppert : ek2=    6.5480787373E+01
          f-sum rule ratio=    1.0016626031E+00
 prteigrs : about to open file /scratch/users/j/a/jabreu/flow_simple_10atoms/flow/w397/t1/tmpdata/tmp_1WF1_EIG
 Expectation of eigenvalue derivatives (hartree) for nkpt=   2  k points:
  (in case of degenerate eigenvalues, averaged derivative)
 kpt#   1, nband= 52, wtk=  0.50000, kpt=  0.5000  0.0000  0.5000 (reduced coord)
  -0.00000    0.00000   -0.00000    0.00000   -0.00000    0.00000    0.00000    0.00000
  -0.00000   -0.00000   -0.00000    0.00000   -0.00000   -0.00000   -0.00000   -0.00000
   0.00000    0.00000    0.00000    0.00000   -0.00000   -0.00000   -0.00000   -0.00000
  -0.00000    0.00000    0.00000   -0.00000   -0.00000   -0.00000   -0.00000   -0.00000
  -0.00000   -0.00000   -0.00000   -0.00000    0.00000    0.00000   -0.00000   -0.00000
   0.00000   -0.00000   -0.00000   -0.00000    0.00000    0.00000    0.00000    0.00000
  -0.00000    0.00001   -0.00174    0.07844
 prteigrs : prtvol=0 or 1, do not print more k-points.

 Eight components of 2nd-order total energy (hartree) are
 1,2,3: 0th-order hamiltonian combined with 1st-order wavefunctions
     kin0=   6.09768779E+01 eigvalue=   6.03472747E+00  local=  -3.05903097E+01
 4,5,6: 1st-order hamiltonian combined with 1st and 0th-order wfs
     kin1=  -6.55896559E+01  Hartree=   0.00000000E+00     xc=   0.00000000E+00
 7,8,9: eventually, occupation + non-local contributions
    edocc=   4.77366617E+00     enl0=   5.15345198E+00   enl1=  -2.71071716E+01
 1-9 gives the relaxation energy (to be shifted if some occ is /=2.0)
   erelax=  -4.63484137E+01
  No Ewald or frozen-wf contrib.: the relaxation energy is the total one
 2DEtotal=   -0.4634841375E+02 Ha. Also 2DEtotal=   -0.126120447783E+04 eV
    (  non-var. 2DEtotal :   -4.6348413749E+01 Ha)

 CALCULATION OF EFFECTIVE MASSES
 NOTE : Additional infos (eff. mass eigenvalues, eigenvectors and, if degenerate, average mass) are available in stdout.

 K-point ( 0.500, 0.000, 0.500) | band =    43
 Effective mass tensor:
             -2.8185493495             -0.6657817622              0.8154441437
             -0.6657817622             -2.3475306838             -1.1530394421
              0.8154441437             -1.1530394421             -1.8768221707
 Effective mass tensor eigenvalues:
             -3.2893356244             -3.2889892321             -0.4645773475
 Angular average effective mass 1/(<1/m>)=  -1.0867393164
 Angular average effective mass for Frohlich model (<m**0.5>)**2=  -1.4451847194
 Effective masses along directions: (cart. coord. / red. coord. -> eff. mass)
    1:   1.000000  0.000000  0.000000 /   0.948683  0.316228  0.000000 ->  -1.6337522374
    2:   0.000000  1.000000  0.000000 /   0.000000  1.000000  0.000000 ->  -1.0867259928
    3:   0.000000  0.000000  1.000000 /   0.408248  0.408248  0.816497 ->  -0.8141541929
    4:   0.577350  0.577350  0.577350 /   0.585539  0.688047  0.428644 ->  -2.0730523868
    5:   0.000000  0.707107  0.707107 /   0.289489  0.762222  0.578977 ->  -3.1288578600
    6:   0.707107  0.000000  0.707107 /   0.731423  0.422287  0.535439 ->  -0.6878589631
    7:   0.707107  0.707107  0.000000 /   0.616798  0.787122  0.000000 ->  -3.0261333755

 K-point ( 0.500, 0.500, 0.500) | band =    44
 Effective mass tensor:
              0.6247639364              0.0250720189              0.0614185061
              0.0250720189              0.6070355025              0.0434243579
              0.0614185061              0.0434243579              0.6956785454
 Effective mass tensor eigenvalues:
              0.5893026021              0.5893082759              0.7488671063
 Angular average effective mass 1/(<1/m>)=   0.6343599536
 Angular average effective mass for Frohlich model (<m**0.5>)**2=   0.6366856643
 Effective masses along directions: (cart. coord. / red. coord. -> eff. mass)
    1:   1.000000  0.000000  0.000000 /   0.948683  0.316228  0.000000 ->   0.6185951641
    2:   0.000000  1.000000  0.000000 /   0.000000  1.000000  0.000000 ->   0.6035966517
    3:   0.000000  0.000000  1.000000 /   0.408248  0.408248  0.816497 ->   0.6868723616
    4:   0.577350  0.577350  0.577350 /   0.585539  0.688047  0.428644 ->   0.7245661512
    5:   0.000000  0.707107  0.707107 /   0.289489  0.762222  0.578977 ->   0.6859147755
    6:   0.707107  0.000000  0.707107 /   0.731423  0.422287  0.535439 ->   0.7157956236
    7:   0.707107  0.707107  0.000000 /   0.616798  0.787122  0.000000 ->   0.6329760651

 END OF EFFECTIVE MASSES SECTION

 ---- first-order wavefunction calculations are completed ----

 Total localisation tensor (bohr^2) in cartesian coordinates
  WARNING : still subject to testing - especially symmetries.
      direction              matrix element
   alpha     beta       real part   imaginary part
     1        1       0.7863188209    0.0000000000
     1        2       0.2224077300    0.0000000000
     1        3       0.5447789585    0.0000000000
     2        1       0.2224077300    0.0000000000
     2        2       0.6290640564    0.0000000000
     2        3       0.3852214884    0.0000000000
     3        1       0.5447789585    0.0000000000
     3        2       0.3852214884    0.0000000000
     3        3       1.4153856340    0.0000000000

 respfn : d/dk was computed, but no 2DTE, so no DDB output.

== END DATASET(S) ==============================================================

 -outvars: echo values of variables after computation  --------
            acell      1.0000000000E+00  1.0000000000E+00  1.0000000000E+00 Bohr
              amu      8.54678000E+01  2.04383300E+02  1.14820000E+02
                       1.89984032E+01
             ecut      4.20000000E+01 Hartree
           etotal     -4.6348413749E+01
            fcart      0.0000000000E+00  0.0000000000E+00  0.0000000000E+00
                       0.0000000000E+00  0.0000000000E+00  0.0000000000E+00
                       0.0000000000E+00  0.0000000000E+00  0.0000000000E+00
                       0.0000000000E+00  0.0000000000E+00  0.0000000000E+00
                       0.0000000000E+00  0.0000000000E+00  0.0000000000E+00
                       0.0000000000E+00  0.0000000000E+00  0.0000000000E+00
                       0.0000000000E+00  0.0000000000E+00  0.0000000000E+00
                       0.0000000000E+00  0.0000000000E+00  0.0000000000E+00
                       0.0000000000E+00  0.0000000000E+00  0.0000000000E+00
                       0.0000000000E+00  0.0000000000E+00  0.0000000000E+00
-          fftalg         512
           irdden           1
           irdwfk           1
           istwfk        1    1
              ixc     -116133
              kpt      5.00000000E-01  0.00000000E+00  5.00000000E-01
                       5.00000000E-01  5.00000000E-01  5.00000000E-01
           kptopt           0
P           mkmem           2
P          mkqmem           2
P          mk1mem           2
            natom          10
            nband          52
           nbdbuf           4
            ngfft          75      75      75
             nkpt           2
            nstep        2000
             nsym          48
           ntypat           4
              occ      2.000000  2.000000  2.000000  2.000000  2.000000  2.000000
                       2.000000  2.000000  2.000000  2.000000  2.000000  2.000000
                       2.000000  2.000000  2.000000  2.000000  2.000000  2.000000
                       2.000000  2.000000  2.000000  2.000000  2.000000  2.000000
                       2.000000  2.000000  2.000000  2.000000  2.000000  2.000000
                       2.000000  2.000000  2.000000  2.000000  2.000000  2.000000
                       2.000000  2.000000  2.000000  2.000000  2.000000  2.000000
                       2.000000  0.000000  0.000000  0.000000  0.000000  0.000000
                       0.000000  0.000000  0.000000  0.000000
        optdriver           1
            prtwf          -1
            rfdir           1       1       1
           rfelfd           2
            rprim      1.0800986085E+01  0.0000000000E+00  6.2359522236E+00
                       3.6003286949E+00  1.0183267339E+01  6.2359522236E+00
                       0.0000000000E+00  0.0000000000E+00  1.2471904447E+01
          spgroup         225
           strten      0.0000000000E+00  0.0000000000E+00  0.0000000000E+00
                       0.0000000000E+00  0.0000000000E+00  0.0000000000E+00
           symrel      1  0  0   0  1  0   0  0  1      -1  0  0   0 -1  0   0  0 -1
                       0 -1  1   0 -1  0   1 -1  0       0  1 -1   0  1  0  -1  1  0
                      -1  0  0  -1  0  1  -1  1  0       1  0  0   1  0 -1   1 -1  0
                       0  1 -1   1  0 -1   0  0 -1       0 -1  1  -1  0  1   0  0  1
                      -1  0  0  -1  1  0  -1  0  1       1  0  0   1 -1  0   1  0 -1
                       0 -1  1   1 -1  0   0 -1  0       0  1 -1  -1  1  0   0  1  0
                       1  0  0   0  0  1   0  1  0      -1  0  0   0  0 -1   0 -1  0
                       0  1 -1   0  0 -1   1  0 -1       0 -1  1   0  0  1  -1  0  1
                      -1  0  1  -1  1  0  -1  0  0       1  0 -1   1 -1  0   1  0  0
                       0 -1  0   1 -1  0   0 -1  1       0  1  0  -1  1  0   0  1 -1
                       1  0 -1   0  0 -1   0  1 -1      -1  0  1   0  0  1   0 -1  1
                       0  1  0   0  0  1   1  0  0       0 -1  0   0  0 -1  -1  0  0
                       1  0 -1   0  1 -1   0  0 -1      -1  0  1   0 -1  1   0  0  1
                       0 -1  0   0 -1  1   1 -1  0       0  1  0   0  1 -1  -1  1  0
                      -1  0  1  -1  0  0  -1  1  0       1  0 -1   1  0  0   1 -1  0
                       0  1  0   1  0  0   0  0  1       0 -1  0  -1  0  0   0  0 -1
                       0  0 -1   0  1 -1   1  0 -1       0  0  1   0 -1  1  -1  0  1
                       1 -1  0   0 -1  1   0 -1  0      -1  1  0   0  1 -1   0  1  0
                       0  0  1   1  0  0   0  1  0       0  0 -1  -1  0  0   0 -1  0
                      -1  1  0  -1  0  0  -1  0  1       1 -1  0   1  0  0   1  0 -1
                       0  0  1   0  1  0   1  0  0       0  0 -1   0 -1  0  -1  0  0
                       1 -1  0   0 -1  0   0 -1  1      -1  1  0   0  1  0   0  1 -1
                       0  0 -1   1  0 -1   0  1 -1       0  0  1  -1  0  1   0 -1  1
                      -1  1  0  -1  0  1  -1  0  0       1 -1  0   1  0 -1   1  0  0
           tolwfr      1.00000000E-20
            typat      1  1  2  3  4  4  4  4  4  4
           useylm           1
              wtk        0.50000    0.50000
           xangst      1.9052118888E+00  1.3471882462E+00  3.2999237906E+00
                       5.7156356664E+00  4.0415647385E+00  9.8997713718E+00
                       0.0000000000E+00  0.0000000000E+00  0.0000000000E+00
                       3.8104237776E+00  2.6943764923E+00  6.5998475812E+00
                       2.9604249247E+00  3.8964563981E+00  8.0720887808E+00
                       4.6604226305E+00  1.4922965865E+00  8.0720887808E+00
                       2.9604249247E+00  3.8964563981E+00  5.1276063815E+00
                       2.1104260718E+00  1.4922965865E+00  6.5998475812E+00
                       5.5104214834E+00  3.8964563981E+00  6.5998475812E+00
                       4.6604226305E+00  1.4922965865E+00  5.1276063815E+00
            xcart      3.6003286949E+00  2.5458168347E+00  6.2359522236E+00
                       1.0800986085E+01  7.6374505041E+00  1.8707856671E+01
                       0.0000000000E+00  0.0000000000E+00  0.0000000000E+00
                       7.2006573899E+00  5.0916336694E+00  1.2471904447E+01
                       5.5943923446E+00  7.3632354812E+00  1.5254037116E+01
                       8.8069224351E+00  2.8200318576E+00  1.5254037116E+01
                       5.5943923446E+00  7.3632354812E+00  9.6897717784E+00
                       3.9881272993E+00  2.8200318576E+00  1.2471904447E+01
                       1.0413187480E+01  7.3632354812E+00  1.2471904447E+01
                       8.8069224351E+00  2.8200318576E+00  9.6897717784E+00
             xred      2.5000000000E-01  2.5000000000E-01  2.5000000000E-01
                       7.5000000000E-01  7.5000000000E-01  7.5000000000E-01
                       0.0000000000E+00  0.0000000000E+00  0.0000000000E+00
                       5.0000000000E-01  5.0000000000E-01  5.0000000000E-01
                       2.7692800000E-01  7.2307200000E-01  7.2307200000E-01
                       7.2307200000E-01  2.7692800000E-01  7.2307200000E-01
                       2.7692800000E-01  7.2307200000E-01  2.7692800000E-01
                       2.7692800000E-01  2.7692800000E-01  7.2307200000E-01
                       7.2307200000E-01  7.2307200000E-01  2.7692800000E-01
                       7.2307200000E-01  2.7692800000E-01  2.7692800000E-01
            znucl       37.00000   81.00000   49.00000    9.00000

- Timing analysis has been suppressed with timopt=0

 Suggested references for the acknowledgment of ABINIT usage.

 Calculation completed.
.Delivered   2 WARNINGs and   5 COMMENTs to log file.