.Version 9.5.1 of ABINIT

 ABINIT is a project of the Universite Catholique de Louvain,
 Corning Inc. and other collaborators, see ~abinit/doc/developers/contributors.txt .
 acknowledgments of the ABINIT effort.

.Starting date : Tue 27 Apr 2021.
- ( at 15h32 )

- input  file    -> /scratch/users/j/a/jabreu/flow_simple/flow/w154/t1/run.abi
- output file    -> /scratch/users/j/a/jabreu/flow_simple/flow/w154/t1/run.abo
- root for input  files -> /scratch/users/j/a/jabreu/flow_simple/flow/w154/t1/indata/in
- root for output files -> /scratch/users/j/a/jabreu/flow_simple/flow/w154/t1/outdata/out

 Symmetries : space group F-4 3 m (#216); Bravais cF (face-center cubic)
     intxc =       0      iscf =       7    lmnmax =      18     lnmax =       6
     mgfft =      50  mpssoang =       3    mqgrid =    3001     natom =       3
  nloc_mem =       1    nspden =       1   nspinor =       1    nsppol =       1
      nsym =      24    n1xccc =    2501    ntypat =       3    occopt =       1
   xclevel =       2
-    mband =          31        mffmem =           1         mkmem =           2
-   mkqmem =           2        mk1mem =           2           mpw =        5601
      nfft =      125000          nkpt =           2
  Rough estimation (10% accuracy) of disk space for files :

------------- Echo of variables that govern the present computation ------------
-
- outvars: echo of selected default values
-   iomode0 =  0 , fftalg0 =512 , wfoptalg0 =  0
-
- outvars: echo of global parameters not present in the input file
-  max_nthreads =    0
-
 -outvars: echo values of preprocessed input variables --------
            acell      1.0000000000E+00  1.0000000000E+00  1.0000000000E+00 Bohr
              amu      4.78800000E+01  5.86900000E+01  1.18710000E+02
             ecut      4.90000000E+01 Hartree
-          fftalg         512
           irdden           1
           irdwfk           1
           istwfk        1    1
              ixc     -116133
              kpt      0.00000000E+00  0.00000000E+00  0.00000000E+00
                       5.00000000E-01  2.46519033E-32  5.00000000E-01
           kptopt           0
P           mkmem           2
P          mkqmem           2
P          mk1mem           2
            natom           3
            nband          31
           nbdbuf           4
            ngfft          50      50      50
             nkpt           2
            nstep         100
             nsym          24
           ntypat           3
              occ      2.000000  2.000000  2.000000  2.000000  2.000000  2.000000
                       2.000000  2.000000  2.000000  2.000000  2.000000  2.000000
                       2.000000  2.000000  2.000000  2.000000  2.000000  2.000000
                       2.000000  2.000000  2.000000  2.000000  0.000000  0.000000
                       0.000000  0.000000  0.000000  0.000000  0.000000  0.000000
                       0.000000
        optdriver           1
            prtwf          -1
            rfdir           1       1       1
           rfelfd           2
            rprim      6.7977170276E+00  0.0000000000E+00  3.9246637558E+00
                       2.2659056759E+00  6.4089490757E+00  3.9246637558E+00
                       0.0000000000E+00  0.0000000000E+00  7.8493275115E+00
          spgroup         216
           symrel      1  0  0   0  1  0   0  0  1       0 -1  1   0 -1  0   1 -1  0
                      -1  0  0  -1  0  1  -1  1  0       0  1 -1   1  0 -1   0  0 -1
                      -1  0  0  -1  1  0  -1  0  1       0 -1  1   1 -1  0   0 -1  0
                       1  0  0   0  0  1   0  1  0       0  1 -1   0  0 -1   1  0 -1
                      -1  0  1  -1  1  0  -1  0  0       0 -1  0   1 -1  0   0 -1  1
                       1  0 -1   0  0 -1   0  1 -1       0  1  0   0  0  1   1  0  0
                       1  0 -1   0  1 -1   0  0 -1       0 -1  0   0 -1  1   1 -1  0
                      -1  0  1  -1  0  0  -1  1  0       0  1  0   1  0  0   0  0  1
                       0  0 -1   0  1 -1   1  0 -1       1 -1  0   0 -1  1   0 -1  0
                       0  0  1   1  0  0   0  1  0      -1  1  0  -1  0  0  -1  0  1
                       0  0  1   0  1  0   1  0  0       1 -1  0   0 -1  0   0 -1  1
                       0  0 -1   1  0 -1   0  1 -1      -1  1  0  -1  0  1  -1  0  0
           tolwfr      1.00000000E-20
            typat      1  2  3
           useylm           1
              wtk        0.50000    0.50000
           xangst      2.3981312810E+00  1.6957348909E+00  4.1536852219E+00
                       3.5971969215E+00  2.5436023364E+00  6.2305278328E+00
                       0.0000000000E+00  0.0000000000E+00  0.0000000000E+00
            xcart      4.5318113518E+00  3.2044745378E+00  7.8493275116E+00
                       6.7977170276E+00  4.8067118068E+00  1.1773991267E+01
                       0.0000000000E+00  0.0000000000E+00  0.0000000000E+00
             xred      5.0000000000E-01  5.0000000000E-01  5.0000000000E-01
                       7.5000000000E-01  7.5000000000E-01  7.5000000000E-01
                       0.0000000000E+00  0.0000000000E+00  0.0000000000E+00
            znucl       22.00000   28.00000   50.00000

 chkinp: Checking input parameters for consistency.

== DATASET  1 ==================================================================
-   mpi_nproc: 1, omp_nthreads: -1 (-1 if OMP is not activated)

--- !DatasetInfo
iteration_state: {dtset: 1, }
dimensions: {natom: 3, nkpt: 2, mband: 31, nsppol: 1, nspinor: 1, nspden: 1, mpw: 5601, }
cutoff_energies: {ecut:  49.0, pawecutdg:  -1.0, }
electrons: {nelect:   4.40000000E+01, charge:   0.00000000E+00, occopt:   1.00000000E+00, tsmear:   1.00000000E-02, }
meta: {optdriver: 1, rfelfd: 2, }
...

 Real(R)+Recip(G) space primitive vectors, cartesian coordinates (Bohr,Bohr^-1):
 R(1)=  6.7977170  0.0000000  3.9246638  G(1)=  0.1471082 -0.0520106  0.0000000
 R(2)=  2.2659057  6.4089491  3.9246638  G(2)=  0.0000000  0.1560318  0.0000000
 R(3)=  0.0000000  0.0000000  7.8493275  G(3)= -0.0735541 -0.0520106  0.1273994
 Unit cell volume ucvol=  3.4196555E+02 bohr^3
 Angles (23,13,12)=  6.00000000E+01  6.00000000E+01  6.00000000E+01 degrees

 getcut: wavevector=  0.0000  0.0000  0.0000  ngfft=  50  50  50
         ecut(hartree)=     49.000   => boxcut(ratio)=   2.02231

--- Pseudopotential description ------------------------------------------------
- pspini: atom type   1  psp file is /scratch/users/j/a/jabreu/pseudos/PBEsol/Ti.psp8
- pspatm: opening atomic psp file    /scratch/users/j/a/jabreu/pseudos/PBEsol/Ti.psp8
- Ti    ONCVPSP-3.3.0  r_core=   1.35825   1.31050   1.66360
- 22.00000  12.00000    180112                znucl, zion, pspdat
    8 -116133    2    4       600   0.00000   pspcod,pspxc,lmax,lloc,mmax,r2well
    5.99000000000000    2.50000000000000    0.00000000000000   rchrg,fchrg,qchrg
     nproj     2     2     2
     extension_switch     1
  pspatm : epsatm=   14.76919902
         --- l  ekb(1:nproj) -->
             0   11.321950    1.254474
             1    1.946894   -0.084268
             2   -5.237105   -1.488377
 pspatm: atomic psp has been read  and splines computed

- pspini: atom type   2  psp file is /scratch/users/j/a/jabreu/pseudos/PBEsol/Ni.psp8
- pspatm: opening atomic psp file    /scratch/users/j/a/jabreu/pseudos/PBEsol/Ni.psp8
- Ni    ONCVPSP-3.3.0  r_core=   1.26116   1.35474   1.65929
- 28.00000  18.00000    180112                znucl, zion, pspdat
    8 -116133    2    4       600   0.00000   pspcod,pspxc,lmax,lloc,mmax,r2well
    5.99000000000000    3.00000000000000    0.00000000000000   rchrg,fchrg,qchrg
     nproj     2     2     2
     extension_switch     1
  pspatm : epsatm=   19.57179442
         --- l  ekb(1:nproj) -->
             0    6.241516   -0.251675
             1   -2.865987   -0.396303
             2   -7.254374   -2.547636
 pspatm: atomic psp has been read  and splines computed

- pspini: atom type   3  psp file is /scratch/users/j/a/jabreu/pseudos/PBEsol/Sn.psp8
- pspatm: opening atomic psp file    /scratch/users/j/a/jabreu/pseudos/PBEsol/Sn.psp8
- Sn    ONCVPSP-3.3.0  r_core=   2.27326   2.62311   1.85601
- 50.00000  14.00000    180112                znucl, zion, pspdat
    8 -116133    2    4       600   0.00000   pspcod,pspxc,lmax,lloc,mmax,r2well
    5.99000000000000    6.50000000000000    0.00000000000000   rchrg,fchrg,qchrg
     nproj     2     2     2
     extension_switch     1
  pspatm : epsatm=   32.44586081
         --- l  ekb(1:nproj) -->
             0    5.587869    0.749373
             1    4.197111    0.728791
             2   -5.271877   -1.523486
 pspatm: atomic psp has been read  and splines computed

   2.93862159E+03                                ecore*ucvol(ha*bohr**3)

-inwffil : will read wavefunctions from disk file /scratch/users/j/a/jabreu/flow_simple/flow/w154/t1/indata/in_WFK

 ==>  initialize data related to q vector <==

 The list of irreducible perturbations for this q vector is:
    1)    idir= 1    ipert=   4
    2)    idir= 2    ipert=   4
    3)    idir= 3    ipert=   4

 Perturbation wavevector (in red.coord.)   0.000000  0.000000  0.000000
 Perturbation : derivative vs k along direction   1

 dfpt_looppert : COMMENT -
  In a d/dk calculation, iscf is set to -3 automatically.
 The set of symmetries contains only one element for this perturbation.
 symkpt : not enough symmetry to change the number of k points.

[...]

 Initialisation of the first-order wave-functions :
  ireadwf=   0

--- !BeginCycle
iteration_state: {dtset: 1, }
solver: {iscf: 7, nstep: 100, nline: 4, wfoptalg: 0, }
tolerances: {tolwfr: 1.00E-20, }
...

     iter   2DEtotal(Ha)        deltaE(Ha) residm    vres2
-ETOT  1  -66.480057593199     -6.648E+01 2.779E-01 0.000E+00
 ETOT  2  -66.562235964863     -8.218E-02 9.937E-03 0.000E+00
 ETOT  3  -66.563136991121     -9.010E-04 1.462E-03 0.000E+00
 ETOT  4  -66.563167273034     -3.028E-05 9.068E-05 0.000E+00
 ETOT  5  -66.563168463732     -1.191E-06 2.149E-05 0.000E+00
 ETOT  6  -66.563168512444     -4.871E-08 1.405E-06 0.000E+00
 ETOT  7  -66.563168514493     -2.048E-09 3.556E-07 0.000E+00
 ETOT  8  -66.563168514580     -8.720E-11 2.667E-08 0.000E+00
 ETOT  9  -66.563168514584     -4.036E-12 7.241E-09 0.000E+00
 ETOT 10  -66.563168514584     -1.990E-13 5.563E-10 0.000E+00
 ETOT 11  -66.563168514584     -2.842E-14 1.493E-10 0.000E+00
 ETOT 12  -66.563168514584      1.421E-14 1.174E-11 0.000E+00
 ETOT 13  -66.563168514584      1.421E-14 3.106E-12 0.000E+00
 ETOT 14  -66.563168514584      0.000E+00 2.489E-13 0.000E+00
 ETOT 15  -66.563168514584      0.000E+00 6.501E-14 0.000E+00
 ETOT 16  -66.563168514584      0.000E+00 5.290E-15 0.000E+00
 ETOT 17  -66.563168514584     -1.421E-14 1.366E-15 0.000E+00
 ETOT 18  -66.563168514584      0.000E+00 1.125E-16 0.000E+00
 ETOT 19  -66.563168514584      1.421E-14 2.881E-17 0.000E+00
 ETOT 20  -66.563168514584     -1.421E-14 2.394E-18 0.000E+00
 ETOT 21  -66.563168514584      0.000E+00 6.088E-19 0.000E+00
 ETOT 22  -66.563168514584      1.421E-14 5.097E-20 0.000E+00
 ETOT 23  -66.563168514584      0.000E+00 1.289E-20 0.000E+00
 ETOT 24  -66.563168514584      0.000E+00 9.976E-21 0.000E+00

 At SCF step   24   max residual=  9.98E-21 < tolwfr=  1.00E-20 =>converged.

 ----iterations are completed or convergence reached----

 dfpt_looppert: DFPT cycle converged with prtwf=-1. Will skip output of the 1st-order WFK file.
 dfpt_looppert : ek2=    8.4580211599E+01
          f-sum rule ratio=    1.1373264167E+00
 prteigrs : about to open file /scratch/users/j/a/jabreu/flow_simple/flow/w154/t1/tmpdata/tmp_1WF1_EIG
 Expectation of eigenvalue derivatives (hartree) for nkpt=   2  k points:
  (in case of degenerate eigenvalues, averaged derivative)
 kpt#   1, nband= 31, wtk=  0.50000, kpt=  0.0000  0.0000  0.0000 (reduced coord)
   0.00000   -0.00000   -0.00000   -0.00000   -0.00000    0.00000    0.00000    0.00000
  -0.00000   -0.00000   -0.00000   -0.00000   -0.00000   -0.00000   -0.00000   -0.00000
  -0.00000    0.00000    0.00000    0.00000    0.00000    0.00000   -0.00000   -0.00000
   0.00000    0.00000    0.00000   -0.00000   -0.00000    0.00000    0.00000
 prteigrs : prtvol=0 or 1, do not print more k-points.

 Eight components of 2nd-order total energy (hartree) are
 1,2,3: 0th-order hamiltonian combined with 1st-order wavefunctions
     kin0=   6.80561113E+01 eigvalue=   1.95994418E+00  local=  -2.81201325E+01
 4,5,6: 1st-order hamiltonian combined with 1st and 0th-order wfs
     kin1=  -9.61953090E+01  Hartree=   0.00000000E+00     xc=   0.00000000E+00
 7,8,9: eventually, occupation + non-local contributions
    edocc=   1.99913504E+01     enl0=   4.67589509E+00   enl1=  -3.69310280E+01
 1-9 gives the relaxation energy (to be shifted if some occ is /=2.0)
   erelax=  -6.65631685E+01
  No Ewald or frozen-wf contrib.: the relaxation energy is the total one
 2DEtotal=   -0.6656316851E+02 Ha. Also 2DEtotal=   -0.181127592939E+04 eV
    (  non-var. 2DEtotal :   -6.6563168515E+01 Ha)

 Perturbation wavevector (in red.coord.)   0.000000  0.000000  0.000000
 Perturbation : derivative vs k along direction   2
 The set of symmetries contains only one element for this perturbation.
 symkpt : not enough symmetry to change the number of k points.

[...]

 Perturbation wavevector (in red.coord.)   0.000000  0.000000  0.000000
 Perturbation : derivative vs k along direction   3
 The set of symmetries contains only one element for this perturbation.
 symkpt : not enough symmetry to change the number of k points.

-inwffil : will read wavefunctions from disk file /scratch/users/j/a/jabreu/flow_simple/flow/w154/t1/indata/in_WFK

 Initialisation of the first-order wave-functions :
  ireadwf=   0

--- !BeginCycle
iteration_state: {dtset: 1, }
solver: {iscf: 7, nstep: 100, nline: 4, wfoptalg: 0, }
tolerances: {tolwfr: 1.00E-20, }
...

     iter   2DEtotal(Ha)        deltaE(Ha) residm    vres2
-ETOT  1  -66.479976865779     -6.648E+01 7.180E-01 0.000E+00
 ETOT  2  -66.562326775932     -8.235E-02 7.715E-03 0.000E+00
 ETOT  3  -66.563217816598     -8.910E-04 2.296E-03 0.000E+00
 ETOT  4  -66.563246025799     -2.821E-05 6.838E-05 0.000E+00
 ETOT  5  -66.563247105756     -1.080E-06 2.573E-05 0.000E+00
 ETOT  6  -66.563247149693     -4.394E-08 1.044E-06 0.000E+00
 ETOT  7  -66.563247151532     -1.838E-09 3.504E-07 0.000E+00
 ETOT  8  -66.563247151609     -7.793E-11 2.017E-08 0.000E+00
 ETOT  9  -66.563247151613     -3.524E-12 5.050E-09 0.000E+00
 ETOT 10  -66.563247151613     -1.705E-13 4.038E-10 0.000E+00
 ETOT 11  -66.563247151613      0.000E+00 7.505E-11 0.000E+00
 ETOT 12  -66.563247151613      1.421E-14 8.201E-12 0.000E+00
 ETOT 13  -66.563247151613     -1.421E-14 1.307E-12 0.000E+00
 ETOT 14  -66.563247151613      0.000E+00 1.677E-13 0.000E+00
 ETOT 15  -66.563247151613      0.000E+00 2.641E-14 0.000E+00
 ETOT 16  -66.563247151613     -2.842E-14 3.442E-15 0.000E+00
 ETOT 17  -66.563247151613      1.421E-14 5.362E-16 0.000E+00
 ETOT 18  -66.563247151613      1.421E-14 7.077E-17 0.000E+00
 ETOT 19  -66.563247151613     -1.421E-14 1.092E-17 0.000E+00
 ETOT 20  -66.563247151613      0.000E+00 1.456E-18 0.000E+00
 ETOT 21  -66.563247151613     -1.421E-14 2.230E-19 0.000E+00
 ETOT 22  -66.563247151613      1.421E-14 2.998E-20 0.000E+00
 ETOT 23  -66.563247151613     -1.421E-14 9.927E-21 0.000E+00

 At SCF step   23   max residual=  9.93E-21 < tolwfr=  1.00E-20 =>converged.

 ----iterations are completed or convergence reached----

 dfpt_looppert: DFPT cycle converged with prtwf=-1. Will skip output of the 1st-order WFK file.
 dfpt_looppert : ek2=    8.4580211600E+01
          f-sum rule ratio=    1.1373281788E+00
 prteigrs : about to open file /scratch/users/j/a/jabreu/flow_simple/flow/w154/t1/tmpdata/tmp_1WF1_EIG
 Expectation of eigenvalue derivatives (hartree) for nkpt=   2  k points:
  (in case of degenerate eigenvalues, averaged derivative)
 kpt#   1, nband= 31, wtk=  0.50000, kpt=  0.0000  0.0000  0.0000 (reduced coord)
  -0.00000   -0.00000   -0.00000   -0.00000   -0.00000    0.00000    0.00000    0.00000
   0.00000    0.00000    0.00000    0.00000    0.00000   -0.00000    0.00000    0.00000
   0.00000   -0.00000   -0.00000   -0.00000   -0.00000   -0.00000   -0.00000   -0.00000
  -0.00000   -0.00000   -0.00000    0.00000    0.00001   -0.00000   -0.00000
 prteigrs : prtvol=0 or 1, do not print more k-points.

 Eight components of 2nd-order total energy (hartree) are
 1,2,3: 0th-order hamiltonian combined with 1st-order wavefunctions
     kin0=   6.80768832E+01 eigvalue=   1.97307261E+00  local=  -2.81279181E+01
 4,5,6: 1st-order hamiltonian combined with 1st and 0th-order wfs
     kin1=  -9.61954580E+01  Hartree=   0.00000000E+00     xc=   0.00000000E+00
 7,8,9: eventually, occupation + non-local contributions
    edocc=   1.99620561E+01     enl0=   4.67915333E+00   enl1=  -3.69310363E+01
 1-9 gives the relaxation energy (to be shifted if some occ is /=2.0)
   erelax=  -6.65632472E+01
  No Ewald or frozen-wf contrib.: the relaxation energy is the total one
 2DEtotal=   -0.6656324715E+02 Ha. Also 2DEtotal=   -0.181127806921E+04 eV
    (  non-var. 2DEtotal :   -6.6563247152E+01 Ha)

 CALCULATION OF EFFECTIVE MASSES
 NOTE : Additional infos (eff. mass eigenvalues, eigenvectors and, if degenerate, average mass) are available in stdout.

 COMMENTS:
 - At k-point ( 0.000, 0.000, 0.000), bands    20 through    22
   are DEGENERATE (effective mass tensor is therefore not defined).
   See Section IIIB Eqs. (67)-(70) and Appendix E of PRB 93 205147 (2016).
 - Angular average effective mass for Frohlich model is to be averaged over degenerate bands. See later.
 - Associated theta integrals calculated with ntheta=   1000 points.

 K-point ( 0.000, 0.000, 0.000) | band =    20
 Transport equivalent effective mass tensor:
             -0.5046896332             -0.0000000101              0.0000000032
             -0.0000000101             -0.5046896994              0.0000000046
              0.0000000032              0.0000000046             -0.5046896692
 Transport equivalent effective mass tensor eigenvalues:
             -0.5046897017             -0.5046896685             -0.5046896315
 Angular average effective mass 1/(<1/m>)=  -0.4299445782
 Angular average effective mass for Frohlich model (<m**0.5>)**2=  -0.4343743146
 Effective masses along directions: (cart. coord. / red. coord. -> eff. mass)
    1:   1.000000  0.000000  0.000000 /   0.948683  0.316228  0.000000 ->  -0.4003286906
    2:   0.000000  1.000000  0.000000 /   0.000000  1.000000  0.000000 ->  -0.3700502956
    3:   0.000000  0.000000  1.000000 /   0.408248  0.408248  0.816497 ->  -0.4112369975
    4:   0.577350  0.577350  0.577350 /   0.585539  0.688047  0.428644 ->  -0.4007754152
    5:   0.000000  0.707107  0.707107 /   0.289489  0.762222  0.578977 ->  -0.4571058801
    6:   0.707107  0.000000  0.707107 /   0.731423  0.422287  0.535439 ->  -0.4055302062
    7:   0.707107  0.707107  0.000000 /   0.616798  0.787122  0.000000 ->  -0.5628530598

[...]

 K-point ( 0.000, 0.000, 0.000) | band =    22
 Transport equivalent effective mass tensor:
           -606.5647500161              0.0002617692              0.0000013071
              0.0002617692           -606.5646679334              0.0000017811
              0.0000013071              0.0000017811           -606.5641683706
 Transport equivalent effective mass tensor eigenvalues:
           -606.5649739418           -606.5644440253           -606.5641683529
 Angular average effective mass 1/(<1/m>)=  -3.9368171579
 Angular average effective mass for Frohlich model (<m**0.5>)**2=  -6.3603260565
 Effective masses along directions: (cart. coord. / red. coord. -> eff. mass)
    1:   1.000000  0.000000  0.000000 /   0.948683  0.316228  0.000000 ->  -4.5315665481
    2:   0.000000  1.000000  0.000000 /   0.000000  1.000000  0.000000 ->  -3.4851268218
    3:   0.000000  0.000000  1.000000 /   0.408248  0.408248  0.816497 -> -61.4027678722
    4:   0.577350  0.577350  0.577350 /   0.585539  0.688047  0.428644 ->  -5.9407506930
    5:   0.000000  0.707107  0.707107 /   0.289489  0.762222  0.578977 ->  -3.5277389155
    6:   0.707107  0.000000  0.707107 /   0.731423  0.422287  0.535439 -> -10.3469413803
    7:   0.707107  0.707107  0.000000 /   0.616798  0.787122  0.000000 ->  -1.4398247652

 Angular average effective mass for Frohlich model, averaged over degenerate bands.
 Value of     (<<m**0.5>>)**2 =     2.150978E+00
 Absolute Value of <<m**0.5>> =     1.466621E+00

 K-point ( 0.500, 0.000, 0.500) | band =    23
 Effective mass tensor:
              0.9238475908             -0.5267952272              0.6451710443
             -0.5267952272              1.2963645439             -0.9124243010
              0.6451710443             -0.9124243010              1.6688099626
 Effective mass tensor eigenvalues:
              0.5513524217              0.5513539310              2.7863157446
 Angular average effective mass 1/(<1/m>)=   0.7525708113
 Angular average effective mass for Frohlich model (<m**0.5>)**2=   0.8466103890
 Effective masses along directions: (cart. coord. / red. coord. -> eff. mass)
    1:   1.000000  0.000000  0.000000 /   0.948683  0.316228  0.000000 ->   0.6364365615
    2:   0.000000  1.000000  0.000000 /   0.000000  1.000000  0.000000 ->   0.7525791109
    3:   0.000000  0.000000  1.000000 /   0.408248  0.408248  0.816497 ->   0.9205362108
    4:   0.577350  0.577350  0.577350 /   0.585539  0.688047  0.428644 ->   0.5975983895
    5:   0.000000  0.707107  0.707107 /   0.289489  0.762222  0.578977 ->   0.5551005405
    6:   0.707107  0.000000  0.707107 /   0.731423  0.422287  0.535439 ->   1.1003271480
    7:   0.707107  0.707107  0.000000 /   0.616798  0.787122  0.000000 ->   0.5577497523

 END OF EFFECTIVE MASSES SECTION

 ---- first-order wavefunction calculations are completed ----

 Total localisation tensor (bohr^2) in cartesian coordinates
  WARNING : still subject to testing - especially symmetries.
      direction              matrix element
   alpha     beta       real part   imaginary part
     1        1       2.0734619380    0.0000000000
     1        2       0.5864608010    0.0000000000
     1        3       1.4365354275    0.0000000000
     2        1       0.5864608010    0.0000000000
     2        2       1.6587616372    0.0000000000
     2        3       1.0157799040    0.0000000000
     3        1       1.4365354275    0.0000000000
     3        2       1.0157799040    0.0000000000
     3        3       3.7322335404    0.0000000000

 respfn : d/dk was computed, but no 2DTE, so no DDB output.

== END DATASET(S) ==============================================================

 -outvars: echo values of variables after computation  --------
            acell      1.0000000000E+00  1.0000000000E+00  1.0000000000E+00 Bohr
              amu      4.78800000E+01  5.86900000E+01  1.18710000E+02
             ecut      4.90000000E+01 Hartree
           etotal     -6.6563247152E+01
            fcart      0.0000000000E+00  0.0000000000E+00  0.0000000000E+00
                       0.0000000000E+00  0.0000000000E+00  0.0000000000E+00
                       0.0000000000E+00  0.0000000000E+00  0.0000000000E+00
-          fftalg         512
           irdden           1
           irdwfk           1
           istwfk        1    1
              ixc     -116133
              kpt      0.00000000E+00  0.00000000E+00  0.00000000E+00
                       5.00000000E-01  2.46519033E-32  5.00000000E-01
           kptopt           0
P           mkmem           2
P          mkqmem           2
P          mk1mem           2
            natom           3
            nband          31
           nbdbuf           4
            ngfft          50      50      50
             nkpt           2
            nstep         100
             nsym          24
           ntypat           3
              occ      2.000000  2.000000  2.000000  2.000000  2.000000  2.000000
                       2.000000  2.000000  2.000000  2.000000  2.000000  2.000000
                       2.000000  2.000000  2.000000  2.000000  2.000000  2.000000
                       2.000000  2.000000  2.000000  2.000000  0.000000  0.000000
                       0.000000  0.000000  0.000000  0.000000  0.000000  0.000000
                       0.000000
        optdriver           1
            prtwf          -1
            rfdir           1       1       1
           rfelfd           2
            rprim      6.7977170276E+00  0.0000000000E+00  3.9246637558E+00
                       2.2659056759E+00  6.4089490757E+00  3.9246637558E+00
                       0.0000000000E+00  0.0000000000E+00  7.8493275115E+00
          spgroup         216
           strten      0.0000000000E+00  0.0000000000E+00  0.0000000000E+00
                       0.0000000000E+00  0.0000000000E+00  0.0000000000E+00
           symrel      1  0  0   0  1  0   0  0  1       0 -1  1   0 -1  0   1 -1  0
                      -1  0  0  -1  0  1  -1  1  0       0  1 -1   1  0 -1   0  0 -1
                      -1  0  0  -1  1  0  -1  0  1       0 -1  1   1 -1  0   0 -1  0
                       1  0  0   0  0  1   0  1  0       0  1 -1   0  0 -1   1  0 -1
                      -1  0  1  -1  1  0  -1  0  0       0 -1  0   1 -1  0   0 -1  1
                       1  0 -1   0  0 -1   0  1 -1       0  1  0   0  0  1   1  0  0
                       1  0 -1   0  1 -1   0  0 -1       0 -1  0   0 -1  1   1 -1  0
                      -1  0  1  -1  0  0  -1  1  0       0  1  0   1  0  0   0  0  1
                       0  0 -1   0  1 -1   1  0 -1       1 -1  0   0 -1  1   0 -1  0
                       0  0  1   1  0  0   0  1  0      -1  1  0  -1  0  0  -1  0  1
                       0  0  1   0  1  0   1  0  0       1 -1  0   0 -1  0   0 -1  1
                       0  0 -1   1  0 -1   0  1 -1      -1  1  0  -1  0  1  -1  0  0
           tolwfr      1.00000000E-20
            typat      1  2  3
           useylm           1
              wtk        0.50000    0.50000
           xangst      2.3981312810E+00  1.6957348909E+00  4.1536852219E+00
                       3.5971969215E+00  2.5436023364E+00  6.2305278328E+00
                       0.0000000000E+00  0.0000000000E+00  0.0000000000E+00
            xcart      4.5318113518E+00  3.2044745378E+00  7.8493275116E+00
                       6.7977170276E+00  4.8067118068E+00  1.1773991267E+01
                       0.0000000000E+00  0.0000000000E+00  0.0000000000E+00
             xred      5.0000000000E-01  5.0000000000E-01  5.0000000000E-01
                       7.5000000000E-01  7.5000000000E-01  7.5000000000E-01
                       0.0000000000E+00  0.0000000000E+00  0.0000000000E+00
            znucl       22.00000   28.00000   50.00000

- Timing analysis has been suppressed with timopt=0

 Suggested references for the acknowledgment of ABINIT usage.

 Calculation completed.
.Delivered  14 WARNINGs and   9 COMMENTs to log file.