.Version 9.5.2 of ABINIT

 ABINIT is a project of the Universite Catholique de Louvain,
 Corning Inc. and other collaborators, see ~abinit/doc/developers/contributors.txt .
 acknowledgments of the ABINIT effort.

.Starting date : Mon 24 May 2021.
- ( at 18h30 )

- input  file    -> /scratch/users/j/a/jabreu/flow_simple_10atoms/flow/w418/t1/run.abi
- output file    -> /scratch/users/j/a/jabreu/flow_simple_10atoms/flow/w418/t1/run.abo
- root for input  files -> /scratch/users/j/a/jabreu/flow_simple_10atoms/flow/w418/t1/indata/in
- root for output files -> /scratch/users/j/a/jabreu/flow_simple_10atoms/flow/w418/t1/outdata/out

 Symmetries : space group P2_1/m (# 11); Bravais mP (primitive monocl.)
     intxc =       0      iscf =       7    lmnmax =      18     lnmax =       6
     mgfft =      90  mpssoang =       3    mqgrid =    4122     natom =      10
  nloc_mem =       1    nspden =       1   nspinor =       1    nsppol =       1
      nsym =       4    n1xccc =    2501    ntypat =       3    occopt =       1
   xclevel =       2
-    mband =          53        mffmem =           1         mkmem =           2
-   mkqmem =           2        mk1mem =           2           mpw =       27530
      nfft =      518400          nkpt =           2
  Rough estimation (10% accuracy) of disk space for files :

------------- Echo of variables that govern the present computation ------------
-
- outvars: echo of selected default values
-   iomode0 =  0 , fftalg0 =512 , wfoptalg0 =  0
-
- outvars: echo of global parameters not present in the input file
-  max_nthreads =    0
-
 -outvars: echo values of preprocessed input variables --------
            acell      1.0000000000E+00  1.0000000000E+00  1.0000000000E+00 Bohr
              amu      3.90983000E+01  7.26100000E+01  7.99040000E+01
             ecut      4.10000000E+01 Hartree
-          fftalg         512
           irdden           1
           irdwfk           1
           istwfk        0    1
              ixc     -116133
              kpt      3.07692308E-01  5.00000000E-01  0.00000000E+00
                       0.00000000E+00  5.00000000E-01  0.00000000E+00
           kptopt           0
P           mkmem           2
P          mkqmem           2
P          mk1mem           2
            natom          10
            nband          53
           nbdbuf           4
            ngfft          90      64      90
             nkpt           2
            nstep        2000
             nsym           4
           ntypat           3
              occ      2.000000  2.000000  2.000000  2.000000  2.000000  2.000000
                       2.000000  2.000000  2.000000  2.000000  2.000000  2.000000
                       2.000000  2.000000  2.000000  2.000000  2.000000  2.000000
                       2.000000  2.000000  2.000000  2.000000  2.000000  2.000000
                       2.000000  2.000000  2.000000  2.000000  2.000000  2.000000
                       2.000000  2.000000  2.000000  2.000000  2.000000  2.000000
                       2.000000  2.000000  2.000000  2.000000  2.000000  2.000000
                       2.000000  2.000000  0.000000  0.000000  0.000000  0.000000
                       0.000000  0.000000  0.000000  0.000000  0.000000
        optdriver           1
            prtwf          -1
            rfdir           1       1       1
           rfelfd           2
            rprim      1.4297510577E+01  0.0000000000E+00  0.0000000000E+00
                       0.0000000000E+00  1.0339387828E+01  3.4948688375E+00
                       0.0000000000E+00  0.0000000000E+00  1.4834725945E+01
          spgroup          11
           symrel      1  0  0   0  1  0   0  0  1      -1  0  0   0 -1  0   0  0 -1
                       1  0  0   0 -1  0   0  0 -1      -1  0  0   0  1  0   0  0  1
            tnons      0.0000000  0.0000000  0.0000000     0.0000000  0.0000000  0.0000000
                       0.5000000  0.0000000  0.0000000     0.5000000  0.0000000  0.0000000
           tolwfr      1.00000000E-20
            typat      1  1  2  2  3  3  3  3  3  3
           useylm           1
              wtk        0.50000    0.50000
           xangst      5.6744375527E+00  1.0074321188E+00  1.6598944550E+00
                       1.8914791842E+00  4.4639362708E+00  8.0397093465E+00
                       5.6744375527E+00  2.5700932305E+00  5.3897147057E+00
                       1.8914791842E+00  2.9012751591E+00  4.3098890958E+00
                       3.3479181561E-02  1.8150389214E+00  6.8941327512E+00
                       3.8164375500E+00  3.6563294683E+00  2.8054710502E+00
                       1.8914791842E+00  5.9416325027E-01  3.3692705936E+00
                       5.6744375527E+00  4.8772051393E+00  6.3303332079E+00
                       7.5324375554E+00  3.6563294683E+00  2.8054710502E+00
                       3.7494791869E+00  1.8150389214E+00  6.8941327512E+00
            xcart      1.0723132933E+01  1.9037708021E+00  3.1367459294E+00
                       3.5743776443E+00  8.4356170264E+00  1.5192848853E+01
                       1.0723132933E+01  4.8567723416E+00  1.0185084728E+01
                       3.5743776443E+00  5.4826154869E+00  8.1445100542E+00
                       6.3266484303E-02  3.4299264819E+00  1.3028022824E+01
                       7.2120217728E+00  6.9094613466E+00  5.3015719587E+00
                       3.5743776443E+00  1.1228058212E+00  6.3669986894E+00
                       1.0723132933E+01  9.2165820073E+00  1.1962596093E+01
                       1.4234244093E+01  6.9094613466E+00  5.3015719587E+00
                       7.0854888042E+00  3.4299264819E+00  1.3028022824E+01
             xred      7.5000000000E-01  1.8412800000E-01  1.6806800000E-01
                       2.5000000000E-01  8.1587200000E-01  8.3193200000E-01
                       7.5000000000E-01  4.6973500000E-01  5.7590700000E-01
                       2.5000000000E-01  5.3026500000E-01  4.2409300000E-01
                       4.4250000000E-03  3.3173400000E-01  8.0005900000E-01
                       5.0442500000E-01  6.6826600000E-01  1.9994100000E-01
                       2.5000000000E-01  1.0859500000E-01  4.0361200000E-01
                       7.5000000000E-01  8.9140500000E-01  5.9638800000E-01
                       9.9557500000E-01  6.6826600000E-01  1.9994100000E-01
                       4.9557500000E-01  3.3173400000E-01  8.0005900000E-01
            znucl       19.00000   32.00000   35.00000

 chkinp: Checking input parameters for consistency.

== DATASET  1 ==================================================================
-   mpi_nproc: 1, omp_nthreads: -1 (-1 if OMP is not activated)

--- !DatasetInfo
iteration_state: {dtset: 1, }
dimensions: {natom: 10, nkpt: 2, mband: 53, nsppol: 1, nspinor: 1, nspden: 1, mpw: 27530, }
cutoff_energies: {ecut:  41.0, pawecutdg:  -1.0, }
electrons: {nelect:   8.80000000E+01, charge:   0.00000000E+00, occopt:   1.00000000E+00, tsmear:   1.00000000E-02, }
meta: {optdriver: 1, rfelfd: 2, }
...

 Real(R)+Recip(G) space primitive vectors, cartesian coordinates (Bohr,Bohr^-1):
 R(1)= 14.2975106  0.0000000  0.0000000  G(1)=  0.0699422  0.0000000  0.0000000
 R(2)=  0.0000000 10.3393878  3.4948688  G(2)=  0.0000000  0.0967175  0.0000000
 R(3)=  0.0000000  0.0000000 14.8347259  G(3)=  0.0000000 -0.0227854  0.0674094
 Unit cell volume ucvol=  2.1929806E+03 bohr^3
 Angles (23,13,12)=  7.13239721E+01  9.00000000E+01  9.00000000E+01 degrees

 getcut: wavevector=  0.0000  0.0000  0.0000  ngfft=  90  64  90
         ecut(hartree)=     41.000   => boxcut(ratio)=   2.03440

--- Pseudopotential description ------------------------------------------------
- pspini: atom type   1  psp file is /scratch/users/j/a/jabreu/pseudos/PBEsol/K.psp8
- pspatm: opening atomic psp file    /scratch/users/j/a/jabreu/pseudos/PBEsol/K.psp8
- K     ONCVPSP-3.3.0  r_core=   1.36296   1.46408   1.61068
- 19.00000   9.00000    180112                znucl, zion, pspdat
    8 -116133    2    4       400   0.00000   pspcod,pspxc,lmax,lloc,mmax,r2well
    3.99000000000000    5.00000000000000    0.00000000000000   rchrg,fchrg,qchrg
     nproj     2     2     2
     extension_switch     1
  pspatm : epsatm=    8.32487830
         --- l  ekb(1:nproj) -->
             0   10.921326    0.816676
             1    4.431000    0.560368
             2   -3.384038   -1.043186
 pspatm: atomic psp has been read  and splines computed

- pspini: atom type   2  psp file is /scratch/users/j/a/jabreu/pseudos/PBEsol/Ge.psp8
- pspatm: opening atomic psp file    /scratch/users/j/a/jabreu/pseudos/PBEsol/Ge.psp8
- Ge    ONCVPSP-3.3.0  r_core=   1.91022   1.82122   1.91022
- 32.00000  14.00000    180112                znucl, zion, pspdat
    8 -116133    2    4       600   0.00000   pspcod,pspxc,lmax,lloc,mmax,r2well
    5.99000000000000    5.00000000000000    0.00000000000000   rchrg,fchrg,qchrg
     nproj     2     2     2
     extension_switch     1
  pspatm : epsatm=   30.86751540
         --- l  ekb(1:nproj) -->
             0    6.339734    0.583066
             1    3.813259    0.738801
             2   -9.332373   -3.602819
 pspatm: atomic psp has been read  and splines computed

- pspini: atom type   3  psp file is /scratch/users/j/a/jabreu/pseudos/PBEsol/Br.psp8
- pspatm: opening atomic psp file    /scratch/users/j/a/jabreu/pseudos/PBEsol/Br.psp8
- Br    ONCVPSP-3.3.0  r_core=   1.81012   1.51356   1.92136
- 35.00000   7.00000    180112                znucl, zion, pspdat
    8 -116133    2    4       600   0.00000   pspcod,pspxc,lmax,lloc,mmax,r2well
    5.99000000000000    8.00000000000000    0.00000000000000   rchrg,fchrg,qchrg
     nproj     2     2     2
     extension_switch     1
  pspatm : epsatm=   10.94933070
         --- l  ekb(1:nproj) -->
             0    8.508690    0.897946
             1    5.393311    0.892021
             2    2.527513    0.394763
 pspatm: atomic psp has been read  and splines computed

   1.26791079E+04                                ecore*ucvol(ha*bohr**3)

 ==>  initialize data related to q vector <==

 The list of irreducible perturbations for this q vector is:
    1)    idir= 1    ipert=  11
    2)    idir= 2    ipert=  11
    3)    idir= 3    ipert=  11

 Perturbation wavevector (in red.coord.)   0.000000  0.000000  0.000000
 Perturbation : derivative vs k along direction   1

 dfpt_looppert : COMMENT -
  In a d/dk calculation, iscf is set to -3 automatically.
 The set of symmetries contains only one element for this perturbation.
 symkpt : not enough symmetry to change the number of k points.

 Initialisation of the first-order wave-functions :
  ireadwf=   0

--- !BeginCycle
iteration_state: {dtset: 1, }
solver: {iscf: 7, nstep: 2000, nline: 4, wfoptalg: 0, }
tolerances: {tolwfr: 1.00E-20, }
...

     iter   2DEtotal(Ha)        deltaE(Ha) residm    vres2
-ETOT  1  -26.054114046668     -2.605E+01 1.961E-02 0.000E+00
 ETOT  2  -26.093999602506     -3.989E-02 1.563E-03 0.000E+00
 ETOT  3  -26.094731760064     -7.322E-04 1.792E-04 0.000E+00
 ETOT  4  -26.094755691271     -2.393E-05 1.758E-05 0.000E+00
 ETOT  5  -26.094756673761     -9.825E-07 2.890E-06 0.000E+00
[...]
 ETOT 11  -26.094756721777      7.105E-15 2.856E-11 0.000E+00
 ETOT 12  -26.094756721777     -2.842E-14 3.338E-12 0.000E+00
 ETOT 13  -26.094756721777     -7.105E-15 6.422E-13 0.000E+00
 ETOT 14  -26.094756721777      7.105E-15 7.541E-14 0.000E+00
 ETOT 15  -26.094756721777     -3.553E-15 1.454E-14 0.000E+00
 ETOT 16  -26.094756721777      0.000E+00 1.732E-15 0.000E+00
 ETOT 17  -26.094756721777     -7.105E-15 3.305E-16 0.000E+00
 ETOT 18  -26.094756721777      1.421E-14 4.061E-17 0.000E+00
 ETOT 19  -26.094756721777     -1.421E-14 7.535E-18 0.000E+00
 ETOT 20  -26.094756721777      7.105E-15 9.572E-19 0.000E+00
 ETOT 21  -26.094756721777      7.105E-15 1.722E-19 0.000E+00
 ETOT 22  -26.094756721777     -1.066E-14 2.265E-20 0.000E+00
 ETOT 23  -26.094756721777      7.105E-15 9.983E-21 0.000E+00

 At SCF step   23   max residual=  9.98E-21 < tolwfr=  1.00E-20 =>converged.

 ----iterations are completed or convergence reached----

 dfpt_looppert: DFPT cycle converged with prtwf=-1. Will skip output of the 1st-order WFK file.
 dfpt_looppert : ek2=    3.3990030284E+01
          f-sum rule ratio=    1.0148174316E+00
 prteigrs : about to open file /scratch/users/j/a/jabreu/flow_simple_10atoms/flow/w418/t1/tmpdata/tmp_1WF1_EIG
 Expectation of eigenvalue derivatives (hartree) for nkpt=   2  k points:
  (in case of degenerate eigenvalues, averaged derivative)
 kpt#   1, nband= 53, wtk=  0.50000, kpt=  0.3077  0.5000  0.0000 (reduced coord)
   0.00000   -0.00000    0.00005   -0.00010    0.00019   -0.00013    0.00001   -0.00001
   0.00006   -0.00006    0.00003   -0.00003    0.01486    0.00596   -0.01092   -0.01687
   0.00579   -0.00380    0.00094   -0.00062    0.00133   -0.00059    0.00157    0.00019
   0.00815    0.00503   -0.00039    0.06096   -0.03945    0.01537    0.01506   -0.01408
  -0.01706    0.00431   -0.01241    0.02234   -0.08044   -0.03240    0.03140   -0.01167
  -0.00693   -0.03167    0.03529   -0.00025    0.01987    0.00287    0.01851    0.04702
  -0.06538    0.07246    0.05246    0.00618   -0.00901
 prteigrs : prtvol=0 or 1, do not print more k-points.

 Eight components of 2nd-order total energy (hartree) are
 1,2,3: 0th-order hamiltonian combined with 1st-order wavefunctions
     kin0=   3.04010153E+01 eigvalue=   3.22272617E+00  local=  -1.48470212E+01
 4,5,6: 1st-order hamiltonian combined with 1st and 0th-order wfs
     kin1=  -3.44936752E+01  Hartree=   0.00000000E+00     xc=   0.00000000E+00
 7,8,9: eventually, occupation + non-local contributions
    edocc=   4.14784184E+00     enl0=   3.17019460E+00   enl1=  -1.76958382E+01
 1-9 gives the relaxation energy (to be shifted if some occ is /=2.0)
   erelax=  -2.60947567E+01
  No Ewald or frozen-wf contrib.: the relaxation energy is the total one
 2DEtotal=   -0.2609475672E+02 Ha. Also 2DEtotal=   -0.710074441890E+03 eV
    (  non-var. 2DEtotal :   -2.6094756722E+01 Ha)

 Perturbation wavevector (in red.coord.)   0.000000  0.000000  0.000000
 Perturbation : derivative vs k along direction   2
 The set of symmetries contains only one element for this perturbation.
 symkpt : not enough symmetry to change the number of k points.

[...]

 Perturbation wavevector (in red.coord.)   0.000000  0.000000  0.000000
 Perturbation : derivative vs k along direction   3
 The set of symmetries contains only one element for this perturbation.
 symkpt : not enough symmetry to change the number of k points.

 Initialisation of the first-order wave-functions :
  ireadwf=   0

--- !BeginCycle
iteration_state: {dtset: 1, }
solver: {iscf: 7, nstep: 2000, nline: 4, wfoptalg: 0, }
tolerances: {tolwfr: 1.00E-20, }
...

     iter   2DEtotal(Ha)        deltaE(Ha) residm    vres2
-ETOT  1  -26.715835750348     -2.672E+01 2.258E-02 0.000E+00
 ETOT  2  -26.764914778772     -4.908E-02 3.763E-03 0.000E+00
 ETOT  3  -26.765828185532     -9.134E-04 1.489E-04 0.000E+00
 ETOT  4  -26.765860514129     -3.233E-05 3.405E-05 0.000E+00
 ETOT  5  -26.765862040574     -1.526E-06 1.903E-06 0.000E+00
 ETOT  6  -26.765862125343     -8.477E-08 5.240E-07 0.000E+00
 ETOT  7  -26.765862130611     -5.269E-09 3.012E-08 0.000E+00
 ETOT  8  -26.765862130963     -3.516E-10 8.665E-09 0.000E+00
 ETOT  9  -26.765862130988     -2.462E-11 4.972E-10 0.000E+00
 ETOT 10  -26.765862130989     -1.776E-12 1.482E-10 0.000E+00
 ETOT 11  -26.765862130990     -1.386E-13 8.426E-12 0.000E+00
 ETOT 12  -26.765862130990      1.066E-14 2.587E-12 0.000E+00
 ETOT 13  -26.765862130990     -1.066E-14 1.456E-13 0.000E+00
 ETOT 14  -26.765862130990      0.000E+00 4.584E-14 0.000E+00
 ETOT 15  -26.765862130990     -3.553E-15 2.555E-15 0.000E+00
 ETOT 16  -26.765862130990     -7.105E-15 8.204E-16 0.000E+00
 ETOT 17  -26.765862130990      1.421E-14 4.536E-17 0.000E+00
 ETOT 18  -26.765862130990      0.000E+00 1.480E-17 0.000E+00
 ETOT 19  -26.765862130990     -3.553E-15 8.125E-19 0.000E+00
 ETOT 20  -26.765862130990      3.553E-15 2.685E-19 0.000E+00
 ETOT 21  -26.765862130990     -3.553E-15 1.466E-20 0.000E+00
 ETOT 22  -26.765862130990      1.066E-14 9.919E-21 0.000E+00

 At SCF step   22   max residual=  9.92E-21 < tolwfr=  1.00E-20 =>converged.

 ----iterations are completed or convergence reached----

 dfpt_looppert: DFPT cycle converged with prtwf=-1. Will skip output of the 1st-order WFK file.
 dfpt_looppert : ek2=    3.5180144795E+01
          f-sum rule ratio=    1.0015783724E+00
 prteigrs : about to open file /scratch/users/j/a/jabreu/flow_simple_10atoms/flow/w418/t1/tmpdata/tmp_1WF1_EIG
 Expectation of eigenvalue derivatives (hartree) for nkpt=   2  k points:
  (in case of degenerate eigenvalues, averaged derivative)
 kpt#   1, nband= 53, wtk=  0.50000, kpt=  0.3077  0.5000  0.0000 (reduced coord)
  -0.00000    0.00000    0.00000   -0.00000    0.00000    0.00000    0.00000    0.00000
  -0.00000    0.00000    0.00000    0.00000   -0.00000    0.00000    0.00000   -0.00000
  -0.00000   -0.00000   -0.00000    0.00000    0.00000   -0.00000   -0.00000   -0.00000
  -0.00000    0.00000    0.00000    0.00000   -0.00000    0.00000    0.00000    0.00000
  -0.00000    0.00000   -0.00000   -0.00000    0.00000   -0.00000   -0.00000   -0.00000
  -0.00000    0.00000   -0.00000    0.00000    0.00000   -0.00000   -0.00000   -0.00000
   0.00000    0.00000    0.00002   -0.00000   -0.00003
 prteigrs : prtvol=0 or 1, do not print more k-points.

 Eight components of 2nd-order total energy (hartree) are
 1,2,3: 0th-order hamiltonian combined with 1st-order wavefunctions
     kin0=   3.20709515E+01 eigvalue=   3.30414232E+00  local=  -1.56848151E+01
 4,5,6: 1st-order hamiltonian combined with 1st and 0th-order wfs
     kin1=  -3.52356722E+01  Hartree=   0.00000000E+00     xc=   0.00000000E+00
 7,8,9: eventually, occupation + non-local contributions
    edocc=   3.85266192E+00     enl0=   3.22292149E+00   enl1=  -1.82960521E+01
 1-9 gives the relaxation energy (to be shifted if some occ is /=2.0)
   erelax=  -2.67658621E+01
  No Ewald or frozen-wf contrib.: the relaxation energy is the total one
 2DEtotal=   -0.2676586213E+02 Ha. Also 2DEtotal=   -0.728336148790E+03 eV
    (  non-var. 2DEtotal :   -2.6765862131E+01 Ha)

 CALCULATION OF EFFECTIVE MASSES
 NOTE : Additional infos (eff. mass eigenvalues, eigenvectors and, if degenerate, average mass) are available in stdout.

--- !WARNING
src_file: m_efmas.F90
src_line: 0
message: |

    Band(s)    44,
    are not band extrema, but saddle points;
    the transport equivalent formalism breaks down in these conditions.
    The associated tensor(s) will therefore not be printed.
...

 K-point ( 0.308, 0.500, 0.000) | band =    44
 Effective mass tensor:
     *** SADDLE POINT: TRANSPORT EQV. EFF. MASS NOT DEFINED (see WARNING above) ***
 Angular average effective mass 1/(<1/m>)=  -1.2213230280
 Angular average effective mass for Frohlich model (<m**0.5>)**2=  -2.4610527670
 Effective masses along directions: (cart. coord. / red. coord. -> eff. mass)
    1:   1.000000  0.000000  0.000000 /   1.000000  0.000000  0.000000 ->  -1.0940557797
    2:   0.000000  1.000000  0.000000 /   0.000000  1.000000  0.000000 ->  -0.7876333636
    3:   0.000000  0.000000  1.000000 /   0.000000  0.229309  0.973354 ->  -3.6670849123
    4:   0.577350  0.577350  0.577350 /   0.576122  0.557455  0.597769 ->  -0.8014358928
    5:   0.000000  0.707107  0.707107 /   0.000000  0.682016  0.731338 ->  -0.7069003058
    6:   0.707107  0.000000  0.707107 /   0.684176  0.167239  0.709883 ->  -1.6853070878
    7:   0.707107  0.707107  0.000000 /   0.810318  0.585990  0.000000 ->  -0.9158963075

 K-point ( 0.000, 0.500, 0.000) | band =    45
 Effective mass tensor:
              1.3715611271              0.0001181810             -0.0002651694
              0.0001181810              0.6099324656             -1.1430595596
             -0.0002651694             -1.1430595596              3.1074080756
 Effective mass tensor eigenvalues:
              0.1657641117              1.3715610887              3.5515764679
 Angular average effective mass 1/(<1/m>)=   0.4259348787
 Angular average effective mass for Frohlich model (<m**0.5>)**2=   0.6780874766
 Effective masses along directions: (cart. coord. / red. coord. -> eff. mass)
    1:   1.000000  0.000000  0.000000 /   1.000000  0.000000  0.000000 ->   1.3715611023
    2:   0.000000  1.000000  0.000000 /   0.000000  1.000000  0.000000 ->   0.1894581906
    3:   0.000000  0.000000  1.000000 /   0.000000  0.229309  0.973354 ->   0.9652280290
    4:   0.577350  0.577350  0.577350 /   0.576122  0.557455  0.597769 ->   0.2745639986
    5:   0.000000  0.707107  0.707107 /   0.000000  0.682016  0.731338 ->   0.1961282146
    6:   0.707107  0.000000  0.707107 /   0.684176  0.167239  0.709883 ->   1.1330245426
    7:   0.707107  0.707107  0.000000 /   0.810318  0.585990  0.000000 ->   0.3329367641

 END OF EFFECTIVE MASSES SECTION

 ---- first-order wavefunction calculations are completed ----

 Total localisation tensor (bohr^2) in cartesian coordinates
  WARNING : still subject to testing - especially symmetries.
      direction              matrix element
   alpha     beta       real part   imaginary part
     1        1       1.1094244595    0.0000000000
     1        2       0.0000000000    0.0000000000
     1        3       0.0000000000    0.0000000000
     2        1       0.0000000000    0.0000000000
     2        2       1.6929875389    0.0000000000
     2        3       0.5722552911    0.0000000000
     3        1       0.0000000000    0.0000000000
     3        2       0.5722552911    0.0000000000
     3        3       1.3630620019    0.0000000000

 respfn : d/dk was computed, but no 2DTE, so no DDB output.

== END DATASET(S) ==============================================================

 -outvars: echo values of variables after computation  --------
            acell      1.0000000000E+00  1.0000000000E+00  1.0000000000E+00 Bohr
              amu      3.90983000E+01  7.26100000E+01  7.99040000E+01
             ecut      4.10000000E+01 Hartree
           etotal     -2.6765862131E+01
            fcart      0.0000000000E+00  0.0000000000E+00  0.0000000000E+00
                       0.0000000000E+00  0.0000000000E+00  0.0000000000E+00
                       0.0000000000E+00  0.0000000000E+00  0.0000000000E+00
                       0.0000000000E+00  0.0000000000E+00  0.0000000000E+00
                       0.0000000000E+00  0.0000000000E+00  0.0000000000E+00
                       0.0000000000E+00  0.0000000000E+00  0.0000000000E+00
                       0.0000000000E+00  0.0000000000E+00  0.0000000000E+00
                       0.0000000000E+00  0.0000000000E+00  0.0000000000E+00
                       0.0000000000E+00  0.0000000000E+00  0.0000000000E+00
                       0.0000000000E+00  0.0000000000E+00  0.0000000000E+00
-          fftalg         512
           irdden           1
           irdwfk           1
           istwfk        0    1
              ixc     -116133
              kpt      3.07692308E-01  5.00000000E-01  0.00000000E+00
                       0.00000000E+00  5.00000000E-01  0.00000000E+00
           kptopt           0
P           mkmem           2
P          mkqmem           2
P          mk1mem           2
            natom          10
            nband          53
           nbdbuf           4
            ngfft          90      64      90
             nkpt           2
            nstep        2000
             nsym           4
           ntypat           3
              occ      2.000000  2.000000  2.000000  2.000000  2.000000  2.000000
                       2.000000  2.000000  2.000000  2.000000  2.000000  2.000000
                       2.000000  2.000000  2.000000  2.000000  2.000000  2.000000
                       2.000000  2.000000  2.000000  2.000000  2.000000  2.000000
                       2.000000  2.000000  2.000000  2.000000  2.000000  2.000000
                       2.000000  2.000000  2.000000  2.000000  2.000000  2.000000
                       2.000000  2.000000  2.000000  2.000000  2.000000  2.000000
                       2.000000  2.000000  0.000000  0.000000  0.000000  0.000000
                       0.000000  0.000000  0.000000  0.000000  0.000000
        optdriver           1
            prtwf          -1
            rfdir           1       1       1
           rfelfd           2
            rprim      1.4297510577E+01  0.0000000000E+00  0.0000000000E+00
                       0.0000000000E+00  1.0339387828E+01  3.4948688375E+00
                       0.0000000000E+00  0.0000000000E+00  1.4834725945E+01
          spgroup          11
           strten      0.0000000000E+00  0.0000000000E+00  0.0000000000E+00
                       0.0000000000E+00  0.0000000000E+00  0.0000000000E+00
           symrel      1  0  0   0  1  0   0  0  1      -1  0  0   0 -1  0   0  0 -1
                       1  0  0   0 -1  0   0  0 -1      -1  0  0   0  1  0   0  0  1
            tnons      0.0000000  0.0000000  0.0000000     0.0000000  0.0000000  0.0000000
                       0.5000000  0.0000000  0.0000000     0.5000000  0.0000000  0.0000000
           tolwfr      1.00000000E-20
            typat      1  1  2  2  3  3  3  3  3  3
           useylm           1
              wtk        0.50000    0.50000
           xangst      5.6744375527E+00  1.0074321188E+00  1.6598944550E+00
                       1.8914791842E+00  4.4639362708E+00  8.0397093465E+00
                       5.6744375527E+00  2.5700932305E+00  5.3897147057E+00
                       1.8914791842E+00  2.9012751591E+00  4.3098890958E+00
                       3.3479181561E-02  1.8150389214E+00  6.8941327512E+00
                       3.8164375500E+00  3.6563294683E+00  2.8054710502E+00
                       1.8914791842E+00  5.9416325027E-01  3.3692705936E+00
                       5.6744375527E+00  4.8772051393E+00  6.3303332079E+00
                       7.5324375554E+00  3.6563294683E+00  2.8054710502E+00
                       3.7494791869E+00  1.8150389214E+00  6.8941327512E+00
            xcart      1.0723132933E+01  1.9037708021E+00  3.1367459294E+00
                       3.5743776443E+00  8.4356170264E+00  1.5192848853E+01
                       1.0723132933E+01  4.8567723416E+00  1.0185084728E+01
                       3.5743776443E+00  5.4826154869E+00  8.1445100542E+00
                       6.3266484303E-02  3.4299264819E+00  1.3028022824E+01
                       7.2120217728E+00  6.9094613466E+00  5.3015719587E+00
                       3.5743776443E+00  1.1228058212E+00  6.3669986894E+00
                       1.0723132933E+01  9.2165820073E+00  1.1962596093E+01
                       1.4234244093E+01  6.9094613466E+00  5.3015719587E+00
                       7.0854888042E+00  3.4299264819E+00  1.3028022824E+01
             xred      7.5000000000E-01  1.8412800000E-01  1.6806800000E-01
                       2.5000000000E-01  8.1587200000E-01  8.3193200000E-01
                       7.5000000000E-01  4.6973500000E-01  5.7590700000E-01
                       2.5000000000E-01  5.3026500000E-01  4.2409300000E-01
                       4.4250000000E-03  3.3173400000E-01  8.0005900000E-01
                       5.0442500000E-01  6.6826600000E-01  1.9994100000E-01
                       2.5000000000E-01  1.0859500000E-01  4.0361200000E-01
                       7.5000000000E-01  8.9140500000E-01  5.9638800000E-01
                       9.9557500000E-01  6.6826600000E-01  1.9994100000E-01
                       4.9557500000E-01  3.3173400000E-01  8.0005900000E-01
            znucl       19.00000   32.00000   35.00000

- Timing analysis has been suppressed with timopt=0

 Suggested references for the acknowledgment of ABINIT usage.

 Calculation completed.
.Delivered   3 WARNINGs and   5 COMMENTs to log file.