.Version 9.5.2 of ABINIT

 ABINIT is a project of the Universite Catholique de Louvain,
 Corning Inc. and other collaborators, see ~abinit/doc/developers/contributors.txt .
 acknowledgments of the ABINIT effort.

.Starting date : Mon 24 May 2021.
- ( at 17h08 )

- input  file    -> /scratch/users/j/a/jabreu/flow_simple_10atoms/flow/w378/t1/run.abi
- output file    -> /scratch/users/j/a/jabreu/flow_simple_10atoms/flow/w378/t1/run.abo
- root for input  files -> /scratch/users/j/a/jabreu/flow_simple_10atoms/flow/w378/t1/indata/in
- root for output files -> /scratch/users/j/a/jabreu/flow_simple_10atoms/flow/w378/t1/outdata/out

 Symmetries : space group Fm -3 m (#225); Bravais cF (face-center cubic)
     intxc =       0      iscf =       7    lmnmax =      32     lnmax =       8
     mgfft =      90  mpssoang =       4    mqgrid =    3610     natom =      10
  nloc_mem =       1    nspden =       1   nspinor =       1    nsppol =       1
      nsym =      48    n1xccc =    2501    ntypat =       4    occopt =       1
   xclevel =       2
-    mband =          50        mffmem =           1         mkmem =           1
-   mkqmem =           1        mk1mem =           1           mpw =       31951
      nfft =      729000          nkpt =           1
  Rough estimation (10% accuracy) of disk space for files :

------------- Echo of variables that govern the present computation ------------
-
- outvars: echo of selected default values
-   iomode0 =  0 , fftalg0 =512 , wfoptalg0 =  0
-
- outvars: echo of global parameters not present in the input file
-  max_nthreads =    0
-
 -outvars: echo values of preprocessed input variables --------
            acell      1.0000000000E+00  1.0000000000E+00  1.0000000000E+00 Bohr
              amu      1.32905430E+02  2.29897680E+01  1.14820000E+02
                       7.99040000E+01
             ecut      4.40000000E+01 Hartree
-          fftalg         512
           irdden           1
           irdwfk           1
           istwfk        1
              ixc     -116133
           kptopt           0
P           mkmem           1
P          mkqmem           1
P          mk1mem           1
            natom          10
            nband          50
           nbdbuf           4
            ngfft          90      90      90
             nkpt           1
            nstep        2000
             nsym          48
           ntypat           4
              occ      2.000000  2.000000  2.000000  2.000000  2.000000  2.000000
                       2.000000  2.000000  2.000000  2.000000  2.000000  2.000000
                       2.000000  2.000000  2.000000  2.000000  2.000000  2.000000
                       2.000000  2.000000  2.000000  2.000000  2.000000  2.000000
                       2.000000  2.000000  2.000000  2.000000  2.000000  2.000000
                       2.000000  2.000000  2.000000  2.000000  2.000000  2.000000
                       2.000000  2.000000  2.000000  2.000000  2.000000  0.000000
                       0.000000  0.000000  0.000000  0.000000  0.000000  0.000000
                       0.000000  0.000000
        optdriver           1
            prtwf          -1
            rfdir           1       1       1
           rfelfd           2
            rprim      1.2820578854E+01  0.0000000000E+00  7.4019646525E+00
                       4.2735262846E+00  1.2087357662E+01  7.4019646525E+00
                       0.0000000000E+00  0.0000000000E+00  1.4803929305E+01
          spgroup         225
           symrel      1  0  0   0  1  0   0  0  1      -1  0  0   0 -1  0   0  0 -1
                       0 -1  1   0 -1  0   1 -1  0       0  1 -1   0  1  0  -1  1  0
                      -1  0  0  -1  0  1  -1  1  0       1  0  0   1  0 -1   1 -1  0
                       0  1 -1   1  0 -1   0  0 -1       0 -1  1  -1  0  1   0  0  1
                      -1  0  0  -1  1  0  -1  0  1       1  0  0   1 -1  0   1  0 -1
                       0 -1  1   1 -1  0   0 -1  0       0  1 -1  -1  1  0   0  1  0
                       1  0  0   0  0  1   0  1  0      -1  0  0   0  0 -1   0 -1  0
                       0  1 -1   0  0 -1   1  0 -1       0 -1  1   0  0  1  -1  0  1
                      -1  0  1  -1  1  0  -1  0  0       1  0 -1   1 -1  0   1  0  0
                       0 -1  0   1 -1  0   0 -1  1       0  1  0  -1  1  0   0  1 -1
                       1  0 -1   0  0 -1   0  1 -1      -1  0  1   0  0  1   0 -1  1
                       0  1  0   0  0  1   1  0  0       0 -1  0   0  0 -1  -1  0  0
                       1  0 -1   0  1 -1   0  0 -1      -1  0  1   0 -1  1   0  0  1
                       0 -1  0   0 -1  1   1 -1  0       0  1  0   0  1 -1  -1  1  0
                      -1  0  1  -1  0  0  -1  1  0       1  0 -1   1  0  0   1 -1  0
                       0  1  0   1  0  0   0  0  1       0 -1  0  -1  0  0   0  0 -1
                       0  0 -1   0  1 -1   1  0 -1       0  0  1   0 -1  1  -1  0  1
                       1 -1  0   0 -1  1   0 -1  0      -1  1  0   0  1 -1   0  1  0
                       0  0  1   1  0  0   0  1  0       0  0 -1  -1  0  0   0 -1  0
                      -1  1  0  -1  0  0  -1  0  1       1 -1  0   1  0  0   1  0 -1
                       0  0  1   0  1  0   1  0  0       0  0 -1   0 -1  0  -1  0  0
                       1 -1  0   0 -1  0   0 -1  1      -1  1  0   0  1  0   0  1 -1
                       0  0 -1   1  0 -1   0  1 -1       0  0  1  -1  0  1   0 -1  1
                      -1  1  0  -1  0  1  -1  0  0       1 -1  0   1  0 -1   1  0  0
           tolwfr      1.00000000E-20
            typat      1  1  2  3  4  4  4  4  4  4
           useylm           1
           xangst      2.2614527101E+00  1.5990885467E+00  3.9169509929E+00
                       6.7843581304E+00  4.7972656400E+00  1.1750852979E+01
                       0.0000000000E+00  0.0000000000E+00  0.0000000000E+00
                       4.5229054203E+00  3.1981770934E+00  7.8339019858E+00
                       3.4329394888E+00  4.7396216961E+00  9.7217783575E+00
                       5.6128713517E+00  1.6567324906E+00  9.7217783575E+00
                       3.4329394888E+00  4.7396216961E+00  5.9460256140E+00
                       2.3429735574E+00  1.6567324906E+00  7.8339019858E+00
                       6.7028372831E+00  4.7396216961E+00  7.8339019858E+00
                       5.6128713517E+00  1.6567324906E+00  5.9460256140E+00
            xcart      4.2735262846E+00  3.0218394155E+00  7.4019646525E+00
                       1.2820578854E+01  9.0655182464E+00  2.2205893958E+01
                       0.0000000000E+00  0.0000000000E+00  0.0000000000E+00
                       8.5470525693E+00  6.0436788309E+00  1.4803929305E+01
                       6.4873154647E+00  8.9565869791E+00  1.8371498620E+01
                       1.0606789674E+01  3.1307706827E+00  1.8371498620E+01
                       6.4873154647E+00  8.9565869791E+00  1.1236359990E+01
                       4.4275783601E+00  3.1307706827E+00  1.4803929305E+01
                       1.2666526778E+01  8.9565869791E+00  1.4803929305E+01
                       1.0606789674E+01  3.1307706827E+00  1.1236359990E+01
             xred      2.5000000000E-01  2.5000000000E-01  2.5000000000E-01
                       7.5000000000E-01  7.5000000000E-01  7.5000000000E-01
                       0.0000000000E+00  0.0000000000E+00  0.0000000000E+00
                       5.0000000000E-01  5.0000000000E-01  5.0000000000E-01
                       2.5901200000E-01  7.4098800000E-01  7.4098800000E-01
                       7.4098800000E-01  2.5901200000E-01  7.4098800000E-01
                       2.5901200000E-01  7.4098800000E-01  2.5901200000E-01
                       2.5901200000E-01  2.5901200000E-01  7.4098800000E-01
                       7.4098800000E-01  7.4098800000E-01  2.5901200000E-01
                       7.4098800000E-01  2.5901200000E-01  2.5901200000E-01
            znucl       55.00000   11.00000   49.00000   35.00000

 chkinp: Checking input parameters for consistency.

== DATASET  1 ==================================================================
-   mpi_nproc: 1, omp_nthreads: -1 (-1 if OMP is not activated)

--- !DatasetInfo
iteration_state: {dtset: 1, }
dimensions: {natom: 10, nkpt: 1, mband: 50, nsppol: 1, nspinor: 1, nspden: 1, mpw: 31951, }
cutoff_energies: {ecut:  44.0, pawecutdg:  -1.0, }
electrons: {nelect:   8.20000000E+01, charge:   0.00000000E+00, occopt:   1.00000000E+00, tsmear:   1.00000000E-02, }
meta: {optdriver: 1, rfelfd: 2, }
...

 Real(R)+Recip(G) space primitive vectors, cartesian coordinates (Bohr,Bohr^-1):
 R(1)= 12.8205789  0.0000000  7.4019647  G(1)=  0.0779996 -0.0275770  0.0000000
 R(2)=  4.2735263 12.0873577  7.4019647  G(2)=  0.0000000  0.0827311  0.0000000
 R(3)=  0.0000000  0.0000000 14.8039293  G(3)= -0.0389998 -0.0275770  0.0675496
 Unit cell volume ucvol=  2.2941194E+03 bohr^3
 Angles (23,13,12)=  6.00000000E+01  6.00000000E+01  6.00000000E+01 degrees

 getcut: wavevector=  0.0000  0.0000  0.0000  ngfft=  90  90  90
         ecut(hartree)=     44.000   => boxcut(ratio)=   2.03623

--- Pseudopotential description ------------------------------------------------
- pspini: atom type   1  psp file is /scratch/users/j/a/jabreu/pseudos/PBEsol/Cs.psp8
- pspatm: opening atomic psp file    /scratch/users/j/a/jabreu/pseudos/PBEsol/Cs.psp8
- Cs    ONCVPSP-3.3.0  r_core=   2.27353   1.85623   2.01788   1.90105
- 55.00000   9.00000    180112                znucl, zion, pspdat
    8 -116133    3    4       600   0.00000   pspcod,pspxc,lmax,lloc,mmax,r2well
    5.99000000000000    5.00000000000000    0.00000000000000   rchrg,fchrg,qchrg
     nproj     2     2     2     2
     extension_switch     1
  pspatm : epsatm=   22.12462445
         --- l  ekb(1:nproj) -->
             0    6.214110    0.767882
             1    6.311966    0.793598
             2    3.769790    0.913105
             3   -9.247129   -2.432478
 pspatm: atomic psp has been read  and splines computed

- pspini: atom type   2  psp file is /scratch/users/j/a/jabreu/pseudos/PBEsol/Na.psp8
- pspatm: opening atomic psp file    /scratch/users/j/a/jabreu/pseudos/PBEsol/Na.psp8
- Na    ONCVPSP-3.3.0  r_core=   1.20708   1.55069
- 11.00000   9.00000    180112                znucl, zion, pspdat
    8 -116133    1    4       400   0.00000   pspcod,pspxc,lmax,lloc,mmax,r2well
    3.99000000000000    0.00000000000000    0.00000000000000   rchrg,fchrg,qchrg
     nproj     2     2
     extension_switch     1
  pspatm : epsatm=    9.32878306
         --- l  ekb(1:nproj) -->
             0    2.657905   -0.678300
             1   -6.761319   -2.404728
 pspatm: atomic psp has been read  and splines computed

[...]

- pspini: atom type   4  psp file is /scratch/users/j/a/jabreu/pseudos/PBEsol/Br.psp8
- pspatm: opening atomic psp file    /scratch/users/j/a/jabreu/pseudos/PBEsol/Br.psp8
- Br    ONCVPSP-3.3.0  r_core=   1.81012   1.51356   1.92136
- 35.00000   7.00000    180112                znucl, zion, pspdat
    8 -116133    2    4       600   0.00000   pspcod,pspxc,lmax,lloc,mmax,r2well
[...]
 ETOT  7  -32.241435252883     -1.597E-08 2.028E-07 0.000E+00
 ETOT  8  -32.241435255896     -3.013E-09 6.472E-08 0.000E+00
 ETOT  9  -32.241435256476     -5.800E-10 1.345E-08 0.000E+00
 ETOT 10  -32.241435256590     -1.135E-10 5.658E-09 0.000E+00
 ETOT 11  -32.241435256612     -2.249E-11 1.097E-09 0.000E+00
 ETOT 12  -32.241435256617     -4.519E-12 5.052E-10 0.000E+00
 ETOT 13  -32.241435256618     -9.095E-13 9.829E-11 0.000E+00
 ETOT 14  -32.241435256618     -1.492E-13 4.537E-11 0.000E+00
 ETOT 15  -32.241435256618      1.421E-14 8.833E-12 0.000E+00
 ETOT 16  -32.241435256618     -5.684E-14 4.089E-12 0.000E+00
 ETOT 17  -32.241435256618      2.132E-14 7.959E-13 0.000E+00
 ETOT 18  -32.241435256618     -1.421E-14 3.694E-13 0.000E+00
 ETOT 19  -32.241435256618      2.132E-14 7.190E-14 0.000E+00
 ETOT 20  -32.241435256618     -2.132E-14 3.343E-14 0.000E+00
 ETOT 21  -32.241435256618      2.842E-14 6.507E-15 0.000E+00
 ETOT 22  -32.241435256618     -2.842E-14 3.032E-15 0.000E+00
 ETOT 23  -32.241435256618      2.132E-14 5.900E-16 0.000E+00
 ETOT 24  -32.241435256618     -7.105E-15 2.753E-16 0.000E+00
 ETOT 25  -32.241435256618      0.000E+00 5.358E-17 0.000E+00
 ETOT 26  -32.241435256618      0.000E+00 2.503E-17 0.000E+00
 ETOT 27  -32.241435256618      0.000E+00 4.873E-18 0.000E+00
 ETOT 28  -32.241435256618      0.000E+00 2.279E-18 0.000E+00
 ETOT 29  -32.241435256618      0.000E+00 4.437E-19 0.000E+00
 ETOT 30  -32.241435256618      0.000E+00 2.077E-19 0.000E+00
 ETOT 31  -32.241435256618     -7.105E-15 4.045E-20 0.000E+00
 ETOT 32  -32.241435256618      7.105E-15 1.895E-20 0.000E+00
 ETOT 33  -32.241435256618      7.105E-15 9.967E-21 0.000E+00

 At SCF step   33   max residual=  9.97E-21 < tolwfr=  1.00E-20 =>converged.

 ----iterations are completed or convergence reached----

 dfpt_looppert: DFPT cycle converged with prtwf=-1. Will skip output of the 1st-order WFK file.
 dfpt_looppert : ek2=    4.4313988315E+01
          f-sum rule ratio=    1.1688578124E+00
 prteigrs : about to open file /scratch/users/j/a/jabreu/flow_simple_10atoms/flow/w378/t1/tmpdata/tmp_1WF1_EIG
 Expectation of eigenvalue derivatives (hartree) for nkpt=   1  k points:
  (in case of degenerate eigenvalues, averaged derivative)
 kpt#   1, nband= 50, wtk=  1.00000, kpt=  0.0000  0.0000  0.0000 (reduced coord)
   0.00000    0.00000    0.00000    0.00000    0.00000   -0.00000    0.00000    0.00000
   0.00000   -0.00000   -0.00000   -0.00000    0.00000    0.00000    0.00000    0.00000
   0.00000   -0.00000   -0.00000   -0.00000   -0.00000   -0.00000   -0.00000    0.00000
   0.00000    0.00000    0.00000    0.00000    0.00000    0.00000    0.00000    0.00000
   0.00000   -0.00000   -0.00000    0.00000    0.00000    0.00000    0.00000    0.00000
   0.00000    0.00000    0.00000   -0.00000   -0.00000   -0.00000    0.00000    0.00000
  -0.00021   -0.00000

 Eight components of 2nd-order total energy (hartree) are
 1,2,3: 0th-order hamiltonian combined with 1st-order wavefunctions
     kin0=   3.65496074E+01 eigvalue=   2.64163428E+00  local=  -2.08299382E+01
 4,5,6: 1st-order hamiltonian combined with 1st and 0th-order wfs
     kin1=  -5.17967514E+01  Hartree=   0.00000000E+00     xc=   0.00000000E+00
 7,8,9: eventually, occupation + non-local contributions
    edocc=   8.30016819E+00     enl0=   5.57996349E+00   enl1=  -1.26861191E+01
 1-9 gives the relaxation energy (to be shifted if some occ is /=2.0)
   erelax=  -3.22414353E+01
  No Ewald or frozen-wf contrib.: the relaxation energy is the total one
 2DEtotal=   -0.3224143526E+02 Ha. Also 2DEtotal=   -0.877334070965E+03 eV
    (  non-var. 2DEtotal :   -3.2241435257E+01 Ha)

 CALCULATION OF EFFECTIVE MASSES
 NOTE : Additional infos (eff. mass eigenvalues, eigenvectors and, if degenerate, average mass) are available in stdout.

 COMMENTS:
 - At k-point ( 0.000, 0.000, 0.000), bands    39 through    41
   are DEGENERATE (effective mass tensor is therefore not defined).
   See Section IIIB Eqs. (67)-(70) and Appendix E of PRB 93 205147 (2016).
 - Angular average effective mass for Frohlich model is to be averaged over degenerate bands. See later.
 - Associated theta integrals calculated with ntheta=   1000 points.

 K-point ( 0.000, 0.000, 0.000) | band =    39
 Transport equivalent effective mass tensor:
             -0.8793025145             -0.0000002368              0.0000000005
             -0.0000002368             -0.8793022927              0.0000000004
              0.0000000005              0.0000000004             -0.8793012821
 Transport equivalent effective mass tensor eigenvalues:
             -0.8793026651             -0.8793021421             -0.8793012821
 Angular average effective mass 1/(<1/m>)=  -0.8450642099
 Angular average effective mass for Frohlich model (<m**0.5>)**2=  -0.8464150584
 Effective masses along directions: (cart. coord. / red. coord. -> eff. mass)
    1:   1.000000  0.000000  0.000000 /   0.948683  0.316228  0.000000 ->  -0.8919881048
    2:   0.000000  1.000000  0.000000 /   0.000000  1.000000  0.000000 ->  -0.9917958859
    3:   0.000000  0.000000  1.000000 /   0.408248  0.408248  0.816497 ->  -0.8104316227
    4:   0.577350  0.577350  0.577350 /   0.585539  0.688047  0.428644 ->  -0.8667519953
    5:   0.000000  0.707107  0.707107 /   0.289489  0.762222  0.578977 ->  -0.8153073361
    6:   0.707107  0.000000  0.707107 /   0.731423  0.422287  0.535439 ->  -0.8365976315
    7:   0.707107  0.707107  0.000000 /   0.616798  0.787122  0.000000 ->  -0.8168386173

[...]

 K-point ( 0.000, 0.000, 0.000) | band =    41
 Transport equivalent effective mass tensor:
            -48.6377637834              0.0000000137             -0.0000000548
              0.0000000137            -48.6377638386              0.0000000726
             -0.0000000548              0.0000000726            -48.6377638329
 Transport equivalent effective mass tensor eigenvalues:
            -48.6377639252            -48.6377637933            -48.6377637364
 Angular average effective mass 1/(<1/m>)=  -3.4757312140
 Angular average effective mass for Frohlich model (<m**0.5>)**2=  -4.3547026109
 Effective masses along directions: (cart. coord. / red. coord. -> eff. mass)
    1:   1.000000  0.000000  0.000000 /   0.948683  0.316228  0.000000 ->  -2.9439386694
    2:   0.000000  1.000000  0.000000 /   0.000000  1.000000  0.000000 ->  -2.0384250707
    3:   0.000000  0.000000  1.000000 /   0.408248  0.408248  0.816497 ->  -2.6472141757
    4:   0.577350  0.577350  0.577350 /   0.585539  0.688047  0.428644 ->  -2.8568522848
    5:   0.000000  0.707107  0.707107 /   0.289489  0.762222  0.578977 ->  -4.9506712448
    6:   0.707107  0.000000  0.707107 /   0.731423  0.422287  0.535439 ->  -2.7958173414
    7:   0.707107  0.707107  0.000000 /   0.616798  0.787122  0.000000 -> -14.9382500360

 Angular average effective mass for Frohlich model, averaged over degenerate bands.
 Value of     (<<m**0.5>>)**2 =     1.770835E+00
 Absolute Value of <<m**0.5>> =     1.330727E+00

 K-point ( 0.000, 0.000, 0.000) | band =    42
 Effective mass tensor:
              0.3048075840             -0.0000000001              0.0000000003
             -0.0000000001              0.3048075843             -0.0000000005
              0.0000000003             -0.0000000005              0.3048075847
 Effective mass tensor eigenvalues:
              0.3048075839              0.3048075840              0.3048075851
 Angular average effective mass 1/(<1/m>)=   0.3048075843
 Angular average effective mass for Frohlich model (<m**0.5>)**2=   0.3048075843
 Effective masses along directions: (cart. coord. / red. coord. -> eff. mass)
    1:   1.000000  0.000000  0.000000 /   0.948683  0.316228  0.000000 ->   0.3048075840
    2:   0.000000  1.000000  0.000000 /   0.000000  1.000000  0.000000 ->   0.3048075843
    3:   0.000000  0.000000  1.000000 /   0.408248  0.408248  0.816497 ->   0.3048075847
    4:   0.577350  0.577350  0.577350 /   0.585539  0.688047  0.428644 ->   0.3048075842
    5:   0.000000  0.707107  0.707107 /   0.289489  0.762222  0.578977 ->   0.3048075840
    6:   0.707107  0.000000  0.707107 /   0.731423  0.422287  0.535439 ->   0.3048075847
    7:   0.707107  0.707107  0.000000 /   0.616798  0.787122  0.000000 ->   0.3048075840

 END OF EFFECTIVE MASSES SECTION

 ---- first-order wavefunction calculations are completed ----

 Total localisation tensor (bohr^2) in cartesian coordinates
  WARNING : still subject to testing - especially symmetries.
      direction              matrix element
   alpha     beta       real part   imaginary part
     1        1       2.0750411615    0.0000000000
     1        2       0.5869097237    0.0000000000
     1        3       1.4376304645    0.0000000000
     2        1       0.5869097237    0.0000000000
     2        2       1.6600313824    0.0000000000
     2        3       1.0165574610    0.0000000000
     3        1       1.4376304645    0.0000000000
     3        2       1.0165574610    0.0000000000
     3        3       3.7350798320    0.0000000000

 respfn : d/dk was computed, but no 2DTE, so no DDB output.

== END DATASET(S) ==============================================================

 -outvars: echo values of variables after computation  --------
            acell      1.0000000000E+00  1.0000000000E+00  1.0000000000E+00 Bohr
              amu      1.32905430E+02  2.29897680E+01  1.14820000E+02
                       7.99040000E+01
             ecut      4.40000000E+01 Hartree
           etotal     -3.2241435257E+01
            fcart      0.0000000000E+00  0.0000000000E+00  0.0000000000E+00
                       0.0000000000E+00  0.0000000000E+00  0.0000000000E+00
                       0.0000000000E+00  0.0000000000E+00  0.0000000000E+00
                       0.0000000000E+00  0.0000000000E+00  0.0000000000E+00
                       0.0000000000E+00  0.0000000000E+00  0.0000000000E+00
                       0.0000000000E+00  0.0000000000E+00  0.0000000000E+00
                       0.0000000000E+00  0.0000000000E+00  0.0000000000E+00
                       0.0000000000E+00  0.0000000000E+00  0.0000000000E+00
                       0.0000000000E+00  0.0000000000E+00  0.0000000000E+00
                       0.0000000000E+00  0.0000000000E+00  0.0000000000E+00
-          fftalg         512
           irdden           1
           irdwfk           1
           istwfk        1
              ixc     -116133
           kptopt           0
P           mkmem           1
P          mkqmem           1
P          mk1mem           1
            natom          10
            nband          50
           nbdbuf           4
            ngfft          90      90      90
             nkpt           1
            nstep        2000
             nsym          48
           ntypat           4
              occ      2.000000  2.000000  2.000000  2.000000  2.000000  2.000000
                       2.000000  2.000000  2.000000  2.000000  2.000000  2.000000
                       2.000000  2.000000  2.000000  2.000000  2.000000  2.000000
                       2.000000  2.000000  2.000000  2.000000  2.000000  2.000000
                       2.000000  2.000000  2.000000  2.000000  2.000000  2.000000
                       2.000000  2.000000  2.000000  2.000000  2.000000  2.000000
                       2.000000  2.000000  2.000000  2.000000  2.000000  0.000000
                       0.000000  0.000000  0.000000  0.000000  0.000000  0.000000
                       0.000000  0.000000
        optdriver           1
            prtwf          -1
            rfdir           1       1       1
           rfelfd           2
            rprim      1.2820578854E+01  0.0000000000E+00  7.4019646525E+00
                       4.2735262846E+00  1.2087357662E+01  7.4019646525E+00
                       0.0000000000E+00  0.0000000000E+00  1.4803929305E+01
          spgroup         225
           strten      0.0000000000E+00  0.0000000000E+00  0.0000000000E+00
                       0.0000000000E+00  0.0000000000E+00  0.0000000000E+00
           symrel      1  0  0   0  1  0   0  0  1      -1  0  0   0 -1  0   0  0 -1
                       0 -1  1   0 -1  0   1 -1  0       0  1 -1   0  1  0  -1  1  0
                      -1  0  0  -1  0  1  -1  1  0       1  0  0   1  0 -1   1 -1  0
                       0  1 -1   1  0 -1   0  0 -1       0 -1  1  -1  0  1   0  0  1
                      -1  0  0  -1  1  0  -1  0  1       1  0  0   1 -1  0   1  0 -1
                       0 -1  1   1 -1  0   0 -1  0       0  1 -1  -1  1  0   0  1  0
                       1  0  0   0  0  1   0  1  0      -1  0  0   0  0 -1   0 -1  0
                       0  1 -1   0  0 -1   1  0 -1       0 -1  1   0  0  1  -1  0  1
                      -1  0  1  -1  1  0  -1  0  0       1  0 -1   1 -1  0   1  0  0
                       0 -1  0   1 -1  0   0 -1  1       0  1  0  -1  1  0   0  1 -1
                       1  0 -1   0  0 -1   0  1 -1      -1  0  1   0  0  1   0 -1  1
                       0  1  0   0  0  1   1  0  0       0 -1  0   0  0 -1  -1  0  0
                       1  0 -1   0  1 -1   0  0 -1      -1  0  1   0 -1  1   0  0  1
                       0 -1  0   0 -1  1   1 -1  0       0  1  0   0  1 -1  -1  1  0
                      -1  0  1  -1  0  0  -1  1  0       1  0 -1   1  0  0   1 -1  0
                       0  1  0   1  0  0   0  0  1       0 -1  0  -1  0  0   0  0 -1
                       0  0 -1   0  1 -1   1  0 -1       0  0  1   0 -1  1  -1  0  1
                       1 -1  0   0 -1  1   0 -1  0      -1  1  0   0  1 -1   0  1  0
                       0  0  1   1  0  0   0  1  0       0  0 -1  -1  0  0   0 -1  0
                      -1  1  0  -1  0  0  -1  0  1       1 -1  0   1  0  0   1  0 -1
                       0  0  1   0  1  0   1  0  0       0  0 -1   0 -1  0  -1  0  0
                       1 -1  0   0 -1  0   0 -1  1      -1  1  0   0  1  0   0  1 -1
                       0  0 -1   1  0 -1   0  1 -1       0  0  1  -1  0  1   0 -1  1
                      -1  1  0  -1  0  1  -1  0  0       1 -1  0   1  0 -1   1  0  0
           tolwfr      1.00000000E-20
            typat      1  1  2  3  4  4  4  4  4  4
           useylm           1
           xangst      2.2614527101E+00  1.5990885467E+00  3.9169509929E+00
                       6.7843581304E+00  4.7972656400E+00  1.1750852979E+01
                       0.0000000000E+00  0.0000000000E+00  0.0000000000E+00
                       4.5229054203E+00  3.1981770934E+00  7.8339019858E+00
                       3.4329394888E+00  4.7396216961E+00  9.7217783575E+00
                       5.6128713517E+00  1.6567324906E+00  9.7217783575E+00
                       3.4329394888E+00  4.7396216961E+00  5.9460256140E+00
                       2.3429735574E+00  1.6567324906E+00  7.8339019858E+00
                       6.7028372831E+00  4.7396216961E+00  7.8339019858E+00
                       5.6128713517E+00  1.6567324906E+00  5.9460256140E+00
            xcart      4.2735262846E+00  3.0218394155E+00  7.4019646525E+00
                       1.2820578854E+01  9.0655182464E+00  2.2205893958E+01
                       0.0000000000E+00  0.0000000000E+00  0.0000000000E+00
                       8.5470525693E+00  6.0436788309E+00  1.4803929305E+01
                       6.4873154647E+00  8.9565869791E+00  1.8371498620E+01
                       1.0606789674E+01  3.1307706827E+00  1.8371498620E+01
                       6.4873154647E+00  8.9565869791E+00  1.1236359990E+01
                       4.4275783601E+00  3.1307706827E+00  1.4803929305E+01
                       1.2666526778E+01  8.9565869791E+00  1.4803929305E+01
                       1.0606789674E+01  3.1307706827E+00  1.1236359990E+01
             xred      2.5000000000E-01  2.5000000000E-01  2.5000000000E-01
                       7.5000000000E-01  7.5000000000E-01  7.5000000000E-01
                       0.0000000000E+00  0.0000000000E+00  0.0000000000E+00
                       5.0000000000E-01  5.0000000000E-01  5.0000000000E-01
                       2.5901200000E-01  7.4098800000E-01  7.4098800000E-01
                       7.4098800000E-01  2.5901200000E-01  7.4098800000E-01
                       2.5901200000E-01  7.4098800000E-01  2.5901200000E-01
                       2.5901200000E-01  2.5901200000E-01  7.4098800000E-01
                       7.4098800000E-01  7.4098800000E-01  2.5901200000E-01
                       7.4098800000E-01  2.5901200000E-01  2.5901200000E-01
            znucl       55.00000   11.00000   49.00000   35.00000

- Timing analysis has been suppressed with timopt=0

 Suggested references for the acknowledgment of ABINIT usage.

 Calculation completed.
.Delivered   2 WARNINGs and   5 COMMENTs to log file.