.Version 9.5.1 of ABINIT

 ABINIT is a project of the Universite Catholique de Louvain,
 Corning Inc. and other collaborators, see ~abinit/doc/developers/contributors.txt .
 acknowledgments of the ABINIT effort.

.Starting date : Wed 19 May 2021.
- ( at 12h05 )

- input  file    -> /scratch/users/j/a/jabreu/flow_simple_9atoms/flow/w138/t1/run.abi
- output file    -> /scratch/users/j/a/jabreu/flow_simple_9atoms/flow/w138/t1/run.abo
- root for input  files -> /scratch/users/j/a/jabreu/flow_simple_9atoms/flow/w138/t1/indata/in
- root for output files -> /scratch/users/j/a/jabreu/flow_simple_9atoms/flow/w138/t1/outdata/out

 Symmetries : space group Fm -3 m (#225); Bravais cF (face-center cubic)
     intxc =       0      iscf =       7    lmnmax =      32     lnmax =       8
     mgfft =      72  mpssoang =       4    mqgrid =    3001     natom =       9
  nloc_mem =       1    nspden =       1   nspinor =       1    nsppol =       1
      nsym =      48    n1xccc =    2501    ntypat =       3    occopt =       1
   xclevel =       2
-    mband =          48        mffmem =           1         mkmem =           2
-   mkqmem =           2        mk1mem =           2           mpw =       16049
      nfft =      373248          nkpt =           2
  Rough estimation (10% accuracy) of disk space for files :

------------- Echo of variables that govern the present computation ------------
-
- outvars: echo of selected default values
-   iomode0 =  0 , fftalg0 =512 , wfoptalg0 =  0
-
- outvars: echo of global parameters not present in the input file
-  max_nthreads =    0
-
 -outvars: echo values of preprocessed input variables --------
            acell      1.0000000000E+00  1.0000000000E+00  1.0000000000E+00 Bohr
              amu      1.32905430E+02  1.95080000E+02  1.89984032E+01
             ecut      4.20000000E+01 Hartree
-          fftalg         512
           irdden           1
           irdwfk           1
           istwfk        1    1
              ixc     -116133
              kpt      0.00000000E+00  0.00000000E+00  0.00000000E+00
                       5.00000000E-01  0.00000000E+00  5.00000000E-01
           kptopt           0
P           mkmem           2
P          mkqmem           2
P          mk1mem           2
            natom           9
            nband          48
           nbdbuf           4
            ngfft          72      72      72
             nkpt           2
            nstep        2000
             nsym          48
           ntypat           3
              occ      2.000000  2.000000  2.000000  2.000000  2.000000  2.000000
                       2.000000  2.000000  2.000000  2.000000  2.000000  2.000000
                       2.000000  2.000000  2.000000  2.000000  2.000000  2.000000
                       2.000000  2.000000  2.000000  2.000000  2.000000  2.000000
                       2.000000  2.000000  2.000000  2.000000  2.000000  2.000000
                       2.000000  2.000000  2.000000  2.000000  2.000000  2.000000
                       2.000000  2.000000  2.000000  0.000000  0.000000  0.000000
                       0.000000  0.000000  0.000000  0.000000  0.000000  0.000000
        optdriver           1
            prtwf          -1
            rfdir           1       1       1
           rfelfd           2
            rprim      1.0402674963E+01  0.0000000000E+00  6.0059871901E+00
                       3.4675583210E+00  9.8077360117E+00  6.0059871901E+00
                       0.0000000000E+00  0.0000000000E+00  1.2011974380E+01
          spgroup         225
           symrel      1  0  0   0  1  0   0  0  1      -1  0  0   0 -1  0   0  0 -1
                       0 -1  1   0 -1  0   1 -1  0       0  1 -1   0  1  0  -1  1  0
                      -1  0  0  -1  0  1  -1  1  0       1  0  0   1  0 -1   1 -1  0
                       0  1 -1   1  0 -1   0  0 -1       0 -1  1  -1  0  1   0  0  1
                      -1  0  0  -1  1  0  -1  0  1       1  0  0   1 -1  0   1  0 -1
                       0 -1  1   1 -1  0   0 -1  0       0  1 -1  -1  1  0   0  1  0
                       1  0  0   0  0  1   0  1  0      -1  0  0   0  0 -1   0 -1  0
                       0  1 -1   0  0 -1   1  0 -1       0 -1  1   0  0  1  -1  0  1
                      -1  0  1  -1  1  0  -1  0  0       1  0 -1   1 -1  0   1  0  0
                       0 -1  0   1 -1  0   0 -1  1       0  1  0  -1  1  0   0  1 -1
                       1  0 -1   0  0 -1   0  1 -1      -1  0  1   0  0  1   0 -1  1
                       0  1  0   0  0  1   1  0  0       0 -1  0   0  0 -1  -1  0  0
                       1  0 -1   0  1 -1   0  0 -1      -1  0  1   0 -1  1   0  0  1
                       0 -1  0   0 -1  1   1 -1  0       0  1  0   0  1 -1  -1  1  0
                      -1  0  1  -1  0  0  -1  1  0       1  0 -1   1  0  0   1 -1  0
                       0  1  0   1  0  0   0  0  1       0 -1  0  -1  0  0   0  0 -1
                       0  0 -1   0  1 -1   1  0 -1       0  0  1   0 -1  1  -1  0  1
                       1 -1  0   0 -1  1   0 -1  0      -1  1  0   0  1 -1   0  1  0
                       0  0  1   1  0  0   0  1  0       0  0 -1  -1  0  0   0 -1  0
                      -1  1  0  -1  0  0  -1  0  1       1 -1  0   1  0  0   1  0 -1
                       0  0  1   0  1  0   1  0  0       0  0 -1   0 -1  0  -1  0  0
                       1 -1  0   0 -1  0   0 -1  1      -1  1  0   0  1  0   0  1 -1
                       0  0 -1   1  0 -1   0  1 -1       0  0  1  -1  0  1   0 -1  1
                      -1  1  0  -1  0  1  -1  0  0       1 -1  0   1  0 -1   1  0  0
           tolwfr      1.00000000E-20
            typat      1  1  2  3  3  3  3  3  3
           useylm           1
              wtk        0.50000    0.50000
           xangst      1.8349528329E+00  1.2975075913E+00  3.1782315361E+00
                       5.5048584987E+00  3.8925227739E+00  9.5346946083E+00
                       0.0000000000E+00  0.0000000000E+00  0.0000000000E+00
                       2.6289369237E+00  4.0671672957E+00  8.1594738226E+00
                       5.7518431501E+00  4.0671672957E+00  6.3564630722E+00
                       1.5879681816E+00  1.1228630695E+00  6.3564630722E+00
                       4.7108744079E+00  1.1228630695E+00  4.5534523218E+00
                       4.7108744079E+00  1.1228630695E+00  8.1594738226E+00
                       2.6289369237E+00  4.0671672957E+00  4.5534523218E+00
            xcart      3.4675583210E+00  2.4519340029E+00  6.0059871901E+00
                       1.0402674963E+01  7.3558020088E+00  1.8017961570E+01
                       0.0000000000E+00  0.0000000000E+00  0.0000000000E+00
                       4.9679708065E+00  7.6858323256E+00  1.5419170913E+01
                       1.0869408313E+01  7.6858323256E+00  1.2011974380E+01
                       3.0008249710E+00  2.1219036861E+00  1.2011974380E+01
                       8.9022624774E+00  2.1219036861E+00  8.6047778473E+00
                       8.9022624774E+00  2.1219036861E+00  1.5419170913E+01
                       4.9679708065E+00  7.6858323256E+00  8.6047778473E+00
             xred      2.5000000000E-01  2.5000000000E-01  2.5000000000E-01
                       7.5000000000E-01  7.5000000000E-01  7.5000000000E-01
                       0.0000000000E+00  0.0000000000E+00  0.0000000000E+00
                       2.1635000000E-01  7.8365000000E-01  7.8365000000E-01
                       7.8365000000E-01  7.8365000000E-01  2.1635000000E-01
                       2.1635000000E-01  2.1635000000E-01  7.8365000000E-01
                       7.8365000000E-01  2.1635000000E-01  2.1635000000E-01
                       7.8365000000E-01  2.1635000000E-01  7.8365000000E-01
                       2.1635000000E-01  7.8365000000E-01  2.1635000000E-01
            znucl       55.00000   78.00000    9.00000

 chkinp: Checking input parameters for consistency.

== DATASET  1 ==================================================================
-   mpi_nproc: 1, omp_nthreads: -1 (-1 if OMP is not activated)

--- !DatasetInfo
iteration_state: {dtset: 1, }
dimensions: {natom: 9, nkpt: 2, mband: 48, nsppol: 1, nspinor: 1, nspden: 1, mpw: 16049, }
cutoff_energies: {ecut:  42.0, pawecutdg:  -1.0, }
electrons: {nelect:   7.80000000E+01, charge:   0.00000000E+00, occopt:   1.00000000E+00, tsmear:   1.00000000E-02, }
meta: {optdriver: 1, rfelfd: 2, }
...

 Real(R)+Recip(G) space primitive vectors, cartesian coordinates (Bohr,Bohr^-1):
 R(1)= 10.4026750  0.0000000  6.0059872  G(1)=  0.0961291 -0.0339868  0.0000000
 R(2)=  3.4675583  9.8077360  6.0059872  G(2)=  0.0000000  0.1019603  0.0000000
 R(3)=  0.0000000  0.0000000 12.0119744  G(3)= -0.0480646 -0.0339868  0.0832503
 Unit cell volume ucvol=  1.2255420E+03 bohr^3
 Angles (23,13,12)=  6.00000000E+01  6.00000000E+01  6.00000000E+01 degrees

 getcut: wavevector=  0.0000  0.0000  0.0000  ngfft=  72  72  72
         ecut(hartree)=     42.000   => boxcut(ratio)=   2.05460

--- Pseudopotential description ------------------------------------------------
- pspini: atom type   1  psp file is /scratch/users/j/a/jabreu/pseudos/PBEsol/Cs.psp8
- pspatm: opening atomic psp file    /scratch/users/j/a/jabreu/pseudos/PBEsol/Cs.psp8
- Cs    ONCVPSP-3.3.0  r_core=   2.27353   1.85623   2.01788   1.90105
- 55.00000   9.00000    180112                znucl, zion, pspdat
    8 -116133    3    4       600   0.00000   pspcod,pspxc,lmax,lloc,mmax,r2well
    5.99000000000000    5.00000000000000    0.00000000000000   rchrg,fchrg,qchrg
     nproj     2     2     2     2
     extension_switch     1
  pspatm : epsatm=   22.12462445
         --- l  ekb(1:nproj) -->
             0    6.214110    0.767882
             1    6.311966    0.793598
             2    3.769790    0.913105
             3   -9.247129   -2.432478
 pspatm: atomic psp has been read  and splines computed

- pspini: atom type   2  psp file is /scratch/users/j/a/jabreu/pseudos/PBEsol/Pt.psp8
- pspatm: opening atomic psp file    /scratch/users/j/a/jabreu/pseudos/PBEsol/Pt.psp8
- Pt    ONCVPSP-3.3.0  r_core=   1.45722   1.45722   1.45722   1.91724
- 78.00000  18.00000    180112                znucl, zion, pspdat
    8 -116133    3    4       500   0.00000   pspcod,pspxc,lmax,lloc,mmax,r2well
    4.99000000000000    5.00000000000000    0.00000000000000   rchrg,fchrg,qchrg
     nproj     2     2     2     2
     extension_switch     1
  pspatm : epsatm=   26.54019552
         --- l  ekb(1:nproj) -->
             0   18.149684    1.747248
             1    8.048135    1.208190
             2    2.365973    0.348456
             3    3.491561    0.381218
 pspatm: atomic psp has been read  and splines computed

- pspini: atom type   3  psp file is /scratch/users/j/a/jabreu/pseudos/PBEsol/F.psp8
- pspatm: opening atomic psp file    /scratch/users/j/a/jabreu/pseudos/PBEsol/F.psp8
- F     ONCVPSP-3.3.0  r_core=   1.30942   1.45782   1.60379
-  9.00000   7.00000    180112                znucl, zion, pspdat
    8 -116133    2    4       600   0.00000   pspcod,pspxc,lmax,lloc,mmax,r2well
    5.99000000000000    2.50000000000000    0.00000000000000   rchrg,fchrg,qchrg
     nproj     2     2     1
[...]

-inwffil : will read wavefunctions from disk file /scratch/users/j/a/jabreu/flow_simple_9atoms/flow/w138/t1/indata/in_WFK

 Initialisation of the first-order wave-functions :
  ireadwf=   0

--- !BeginCycle
iteration_state: {dtset: 1, }
solver: {iscf: 7, nstep: 2000, nline: 4, wfoptalg: 0, }
tolerances: {tolwfr: 1.00E-20, }
...

     iter   2DEtotal(Ha)        deltaE(Ha) residm    vres2
-ETOT  1  -35.032693789569     -3.503E+01 3.249E-02 0.000E+00
 ETOT  2  -35.065526881508     -3.283E-02 9.173E-04 0.000E+00
 ETOT  3  -35.065850104892     -3.232E-04 1.919E-05 0.000E+00
 ETOT  4  -35.065861386866     -1.128E-05 4.927E-06 0.000E+00
 ETOT  5  -35.065861932512     -5.456E-07 4.840E-07 0.000E+00
 ETOT  6  -35.065861962895     -3.038E-08 9.224E-08 0.000E+00
 ETOT  7  -35.065861964708     -1.813E-09 1.426E-08 0.000E+00
 ETOT  8  -35.065861964821     -1.132E-10 2.842E-09 0.000E+00
 ETOT  9  -35.065861964829     -7.283E-12 4.596E-10 0.000E+00
 ETOT 10  -35.065861964829     -4.832E-13 9.079E-11 0.000E+00
 ETOT 11  -35.065861964829     -2.842E-14 1.535E-11 0.000E+00
 ETOT 12  -35.065861964829     -2.842E-14 3.003E-12 0.000E+00
 ETOT 13  -35.065861964829      2.842E-14 5.225E-13 0.000E+00
 ETOT 14  -35.065861964829      0.000E+00 1.014E-13 0.000E+00
 ETOT 15  -35.065861964829      0.000E+00 1.799E-14 0.000E+00
 ETOT 16  -35.065861964829     -7.105E-15 3.477E-15 0.000E+00
 ETOT 17  -35.065861964829     -1.421E-14 6.244E-16 0.000E+00
 ETOT 18  -35.065861964829      7.105E-15 1.205E-16 0.000E+00
 ETOT 19  -35.065861964829      0.000E+00 2.182E-17 0.000E+00
 ETOT 20  -35.065861964829      0.000E+00 4.208E-18 0.000E+00
 ETOT 21  -35.065861964829      0.000E+00 7.664E-19 0.000E+00
 ETOT 22  -35.065861964829      0.000E+00 1.478E-19 0.000E+00
 ETOT 23  -35.065861964829      0.000E+00 2.701E-20 0.000E+00
 ETOT 24  -35.065861964829      0.000E+00 9.917E-21 0.000E+00

 At SCF step   24   max residual=  9.92E-21 < tolwfr=  1.00E-20 =>converged.

 ----iterations are completed or convergence reached----

 dfpt_looppert: DFPT cycle converged with prtwf=-1. Will skip output of the 1st-order WFK file.
 dfpt_looppert : ek2=    6.4024589059E+01
          f-sum rule ratio=    1.0173611825E+00
 prteigrs : about to open file /scratch/users/j/a/jabreu/flow_simple_9atoms/flow/w138/t1/tmpdata/tmp_1WF1_EIG
 Expectation of eigenvalue derivatives (hartree) for nkpt=   2  k points:
  (in case of degenerate eigenvalues, averaged derivative)
 kpt#   1, nband= 48, wtk=  0.50000, kpt=  0.0000  0.0000  0.0000 (reduced coord)
  -0.00000   -0.00000   -0.00000   -0.00000   -0.00000   -0.00000   -0.00000    0.00000
   0.00000    0.00000    0.00000   -0.00000    0.00000    0.00000    0.00000    0.00000
   0.00000    0.00000    0.00000    0.00000    0.00000    0.00000    0.00000    0.00000
   0.00000    0.00000    0.00000    0.00000    0.00000    0.00000    0.00000    0.00000
   0.00000   -0.00000   -0.00000   -0.00000   -0.00000   -0.00000   -0.00000    0.00000
   0.00000    0.00000    0.00000    0.00000   -0.00000   -0.00000   -0.00000   -0.00000
 prteigrs : prtvol=0 or 1, do not print more k-points.

 Eight components of 2nd-order total energy (hartree) are
 1,2,3: 0th-order hamiltonian combined with 1st-order wavefunctions
     kin0=   4.61015085E+01 eigvalue=   2.30816492E+00  local=  -2.30209929E+01
 4,5,6: 1st-order hamiltonian combined with 1st and 0th-order wfs
     kin1=  -6.51361316E+01  Hartree=   0.00000000E+00     xc=   0.00000000E+00
 7,8,9: eventually, occupation + non-local contributions
    edocc=   6.90160925E+00     enl0=   2.77557225E+00   enl1=  -4.99559229E+00
 1-9 gives the relaxation energy (to be shifted if some occ is /=2.0)
   erelax=  -3.50658620E+01
  No Ewald or frozen-wf contrib.: the relaxation energy is the total one
 2DEtotal=   -0.3506586196E+02 Ha. Also 2DEtotal=   -0.954190630307E+03 eV
    (  non-var. 2DEtotal :   -3.5065861965E+01 Ha)

 CALCULATION OF EFFECTIVE MASSES
 NOTE : Additional infos (eff. mass eigenvalues, eigenvectors and, if degenerate, average mass) are available in stdout.

 COMMENTS:
 - At k-point ( 0.000, 0.000, 0.000), bands    37 through    39
   are DEGENERATE (effective mass tensor is therefore not defined).
   See Section IIIB Eqs. (67)-(70) and Appendix E of PRB 93 205147 (2016).
 - Angular average effective mass for Frohlich model is to be averaged over degenerate bands. See later.
 - Associated theta integrals calculated with ntheta=   1000 points.

 K-point ( 0.000, 0.000, 0.000) | band =    37
 Transport equivalent effective mass tensor:
             -4.9933178680              0.0000000008              0.0000000027
              0.0000000008             -4.9933178690              0.0000000020
              0.0000000027              0.0000000020             -4.9933178663
 Transport equivalent effective mass tensor eigenvalues:
             -4.9933178704             -4.9933178694             -4.9933178636
 Angular average effective mass 1/(<1/m>)=  -4.8167568250
 Angular average effective mass for Frohlich model (<m**0.5>)**2=  -4.8289215656
 Effective masses along directions: (cart. coord. / red. coord. -> eff. mass)
    1:   1.000000  0.000000  0.000000 /   0.948683  0.316228  0.000000 ->  -4.9662227154
    2:   0.000000  1.000000  0.000000 /   0.000000  1.000000  0.000000 ->  -5.3079349124
    3:   0.000000  0.000000  1.000000 /   0.408248  0.408248  0.816497 ->  -5.0055351203
    4:   0.577350  0.577350  0.577350 /   0.585539  0.688047  0.428644 ->  -4.9832565542
    5:   0.000000  0.707107  0.707107 /   0.289489  0.762222  0.578977 ->  -4.6371612672
    6:   0.707107  0.000000  0.707107 /   0.731423  0.422287  0.535439 ->  -4.9856166328
    7:   0.707107  0.707107  0.000000 /   0.616798  0.787122  0.000000 ->  -4.3354041205

[...]

 K-point ( 0.000, 0.000, 0.000) | band =    39
 Transport equivalent effective mass tensor:
           -118.3384866174              0.0000636388             -0.0000015278
              0.0000636388           -118.3384825852             -0.0000015844
             -0.0000015278             -0.0000015844           -118.3385158758
 Transport equivalent effective mass tensor eigenvalues:
           -118.3385482720           -118.3385159268           -118.3384208795
 Angular average effective mass 1/(<1/m>)= -49.9780055776
 Angular average effective mass for Frohlich model (<m**0.5>)**2= -52.4257646235
 Effective masses along directions: (cart. coord. / red. coord. -> eff. mass)
    1:   1.000000  0.000000  0.000000 /   0.948683  0.316228  0.000000 -> -38.2398567838
    2:   0.000000  1.000000  0.000000 /   0.000000  1.000000  0.000000 -> -26.6436610553
    3:   0.000000  0.000000  1.000000 /   0.408248  0.408248  0.816497 -> -67.7090675700
    4:   0.577350  0.577350  0.577350 /   0.585539  0.688047  0.428644 -> -43.1400298398
    5:   0.000000  0.707107  0.707107 /   0.289489  0.762222  0.578977 -> -64.2258770232
    6:   0.707107  0.000000  0.707107 /   0.731423  0.422287  0.535439 -> -52.8696867663
    7:   0.707107  0.707107  0.000000 /   0.616798  0.787122  0.000000 -> -63.5103585349

 Angular average effective mass for Frohlich model, averaged over degenerate bands.
 Value of     (<<m**0.5>>)**2 =     2.464446E+01
 Absolute Value of <<m**0.5>> =     4.964319E+00

 K-point ( 0.500, 0.000, 0.500) | band =    40
 Effective mass tensor:
              2.7893229746              0.1711076983             -0.2095818747
              0.1711076983              2.6683532913              0.2963219357
             -0.2095818747              0.2963219357              2.5473560897
 Effective mass tensor eigenvalues:
              2.1844073609              2.9102886898              2.9103363048
 Angular average effective mass 1/(<1/m>)=   2.6200839125
 Angular average effective mass for Frohlich model (<m**0.5>)**2=   2.6351737195
 Effective masses along directions: (cart. coord. / red. coord. -> eff. mass)
    1:   1.000000  0.000000  0.000000 /   0.948683  0.316228  0.000000 ->   2.7575706657
    2:   0.000000  1.000000  0.000000 /   0.000000  1.000000  0.000000 ->   2.6200977653
    3:   0.000000  0.000000  1.000000 /   0.408248  0.408248  0.816497 ->   2.4956431283
    4:   0.577350  0.577350  0.577350 /   0.585539  0.688047  0.428644 ->   2.8198635229
    5:   0.000000  0.707107  0.707107 /   0.289489  0.762222  0.578977 ->   2.9021678747
    6:   0.707107  0.000000  0.707107 /   0.731423  0.422287  0.535439 ->   2.4117605633
    7:   0.707107  0.707107  0.000000 /   0.616798  0.787122  0.000000 ->   2.8965649261

 END OF EFFECTIVE MASSES SECTION

 ---- first-order wavefunction calculations are completed ----

 Total localisation tensor (bohr^2) in cartesian coordinates
  WARNING : still subject to testing - especially symmetries.
      direction              matrix element
   alpha     beta       real part   imaginary part
     1        1       0.7818911689    0.0000000000
     1        2       0.2211522698    0.0000000000
     1        3       0.5417101129    0.0000000000
     2        1       0.2211522698    0.0000000000
     2        2       0.6255130786    0.0000000000
     2        3       0.3830469675    0.0000000000
     3        1       0.5417101129    0.0000000000
     3        2       0.3830469675    0.0000000000
     3        3       1.4074049335    0.0000000000

 respfn : d/dk was computed, but no 2DTE, so no DDB output.

== END DATASET(S) ==============================================================

 -outvars: echo values of variables after computation  --------
            acell      1.0000000000E+00  1.0000000000E+00  1.0000000000E+00 Bohr
              amu      1.32905430E+02  1.95080000E+02  1.89984032E+01
             ecut      4.20000000E+01 Hartree
           etotal     -3.5065861965E+01
            fcart      0.0000000000E+00  0.0000000000E+00  0.0000000000E+00
                       0.0000000000E+00  0.0000000000E+00  0.0000000000E+00
                       0.0000000000E+00  0.0000000000E+00  0.0000000000E+00
                       0.0000000000E+00  0.0000000000E+00  0.0000000000E+00
                       0.0000000000E+00  0.0000000000E+00  0.0000000000E+00
                       0.0000000000E+00  0.0000000000E+00  0.0000000000E+00
                       0.0000000000E+00  0.0000000000E+00  0.0000000000E+00
                       0.0000000000E+00  0.0000000000E+00  0.0000000000E+00
                       0.0000000000E+00  0.0000000000E+00  0.0000000000E+00
-          fftalg         512
           irdden           1
           irdwfk           1
           istwfk        1    1
              ixc     -116133
              kpt      0.00000000E+00  0.00000000E+00  0.00000000E+00
                       5.00000000E-01  0.00000000E+00  5.00000000E-01
           kptopt           0
P           mkmem           2
P          mkqmem           2
P          mk1mem           2
            natom           9
            nband          48
           nbdbuf           4
            ngfft          72      72      72
             nkpt           2
            nstep        2000
             nsym          48
           ntypat           3
              occ      2.000000  2.000000  2.000000  2.000000  2.000000  2.000000
                       2.000000  2.000000  2.000000  2.000000  2.000000  2.000000
                       2.000000  2.000000  2.000000  2.000000  2.000000  2.000000
                       2.000000  2.000000  2.000000  2.000000  2.000000  2.000000
                       2.000000  2.000000  2.000000  2.000000  2.000000  2.000000
                       2.000000  2.000000  2.000000  2.000000  2.000000  2.000000
                       2.000000  2.000000  2.000000  0.000000  0.000000  0.000000
                       0.000000  0.000000  0.000000  0.000000  0.000000  0.000000
        optdriver           1
            prtwf          -1
            rfdir           1       1       1
           rfelfd           2
            rprim      1.0402674963E+01  0.0000000000E+00  6.0059871901E+00
                       3.4675583210E+00  9.8077360117E+00  6.0059871901E+00
                       0.0000000000E+00  0.0000000000E+00  1.2011974380E+01
          spgroup         225
           strten      0.0000000000E+00  0.0000000000E+00  0.0000000000E+00
                       0.0000000000E+00  0.0000000000E+00  0.0000000000E+00
           symrel      1  0  0   0  1  0   0  0  1      -1  0  0   0 -1  0   0  0 -1
                       0 -1  1   0 -1  0   1 -1  0       0  1 -1   0  1  0  -1  1  0
                      -1  0  0  -1  0  1  -1  1  0       1  0  0   1  0 -1   1 -1  0
                       0  1 -1   1  0 -1   0  0 -1       0 -1  1  -1  0  1   0  0  1
                      -1  0  0  -1  1  0  -1  0  1       1  0  0   1 -1  0   1  0 -1
                       0 -1  1   1 -1  0   0 -1  0       0  1 -1  -1  1  0   0  1  0
                       1  0  0   0  0  1   0  1  0      -1  0  0   0  0 -1   0 -1  0
                       0  1 -1   0  0 -1   1  0 -1       0 -1  1   0  0  1  -1  0  1
                      -1  0  1  -1  1  0  -1  0  0       1  0 -1   1 -1  0   1  0  0
                       0 -1  0   1 -1  0   0 -1  1       0  1  0  -1  1  0   0  1 -1
                       1  0 -1   0  0 -1   0  1 -1      -1  0  1   0  0  1   0 -1  1
                       0  1  0   0  0  1   1  0  0       0 -1  0   0  0 -1  -1  0  0
                       1  0 -1   0  1 -1   0  0 -1      -1  0  1   0 -1  1   0  0  1
                       0 -1  0   0 -1  1   1 -1  0       0  1  0   0  1 -1  -1  1  0
                      -1  0  1  -1  0  0  -1  1  0       1  0 -1   1  0  0   1 -1  0
                       0  1  0   1  0  0   0  0  1       0 -1  0  -1  0  0   0  0 -1
                       0  0 -1   0  1 -1   1  0 -1       0  0  1   0 -1  1  -1  0  1
                       1 -1  0   0 -1  1   0 -1  0      -1  1  0   0  1 -1   0  1  0
                       0  0  1   1  0  0   0  1  0       0  0 -1  -1  0  0   0 -1  0
                      -1  1  0  -1  0  0  -1  0  1       1 -1  0   1  0  0   1  0 -1
                       0  0  1   0  1  0   1  0  0       0  0 -1   0 -1  0  -1  0  0
                       1 -1  0   0 -1  0   0 -1  1      -1  1  0   0  1  0   0  1 -1
                       0  0 -1   1  0 -1   0  1 -1       0  0  1  -1  0  1   0 -1  1
                      -1  1  0  -1  0  1  -1  0  0       1 -1  0   1  0 -1   1  0  0
           tolwfr      1.00000000E-20
            typat      1  1  2  3  3  3  3  3  3
           useylm           1
              wtk        0.50000    0.50000
           xangst      1.8349528329E+00  1.2975075913E+00  3.1782315361E+00
                       5.5048584987E+00  3.8925227739E+00  9.5346946083E+00
                       0.0000000000E+00  0.0000000000E+00  0.0000000000E+00
                       2.6289369237E+00  4.0671672957E+00  8.1594738226E+00
                       5.7518431501E+00  4.0671672957E+00  6.3564630722E+00
                       1.5879681816E+00  1.1228630695E+00  6.3564630722E+00
                       4.7108744079E+00  1.1228630695E+00  4.5534523218E+00
                       4.7108744079E+00  1.1228630695E+00  8.1594738226E+00
                       2.6289369237E+00  4.0671672957E+00  4.5534523218E+00
            xcart      3.4675583210E+00  2.4519340029E+00  6.0059871901E+00
                       1.0402674963E+01  7.3558020088E+00  1.8017961570E+01
                       0.0000000000E+00  0.0000000000E+00  0.0000000000E+00
                       4.9679708065E+00  7.6858323256E+00  1.5419170913E+01
                       1.0869408313E+01  7.6858323256E+00  1.2011974380E+01
                       3.0008249710E+00  2.1219036861E+00  1.2011974380E+01
                       8.9022624774E+00  2.1219036861E+00  8.6047778473E+00
                       8.9022624774E+00  2.1219036861E+00  1.5419170913E+01
                       4.9679708065E+00  7.6858323256E+00  8.6047778473E+00
             xred      2.5000000000E-01  2.5000000000E-01  2.5000000000E-01
                       7.5000000000E-01  7.5000000000E-01  7.5000000000E-01
                       0.0000000000E+00  0.0000000000E+00  0.0000000000E+00
                       2.1635000000E-01  7.8365000000E-01  7.8365000000E-01
                       7.8365000000E-01  7.8365000000E-01  2.1635000000E-01
                       2.1635000000E-01  2.1635000000E-01  7.8365000000E-01
                       7.8365000000E-01  2.1635000000E-01  2.1635000000E-01
                       7.8365000000E-01  2.1635000000E-01  7.8365000000E-01
                       2.1635000000E-01  7.8365000000E-01  2.1635000000E-01
            znucl       55.00000   78.00000    9.00000

- Timing analysis has been suppressed with timopt=0

 Suggested references for the acknowledgment of ABINIT usage.

 Calculation completed.
.Delivered  14 WARNINGs and   9 COMMENTs to log file.