.Version 9.7.2 of ABINIT

 ABINIT is a project of the Universite Catholique de Louvain,
 Corning Inc. and other collaborators, see ~abinit/doc/developers/contributors.txt .
 acknowledgments of the ABINIT effort.

.Starting date : Wed  1 Dec 2021.
- ( at 22h04 )

- input  file    -> /scratch/users/j/a/jabreu/flow_simple_remain_atoms/flow/w278/t1/run.abi
- output file    -> /scratch/users/j/a/jabreu/flow_simple_remain_atoms/flow/w278/t1/run.abo
- root for input  files -> /scratch/users/j/a/jabreu/flow_simple_remain_atoms/flow/w278/t1/indata/in
- root for output files -> /scratch/users/j/a/jabreu/flow_simple_remain_atoms/flow/w278/t1/outdata/out

 Symmetries : space group I4/m m m (#139); Bravais tI (body-center tetrag.)
     intxc =       0      iscf =       7    lmnmax =      18     lnmax =       6
     mgfft =      80  mpssoang =       3    mqgrid =    3001     natom =       5
  nloc_mem =       1    nspden =       1   nspinor =       1    nsppol =       1
      nsym =      16    n1xccc =    2501    ntypat =       3    occopt =       1
   xclevel =       2
-    mband =          34        mffmem =           1         mkmem =           2
-   mkqmem =           2        mk1mem =           2           mpw =        9575
      nfft =      512000          nkpt =           2
  Rough estimation (10% accuracy) of disk space for files :

------------- Echo of variables that govern the present computation ------------
-
- outvars: echo of selected default values
-   iomode0 =  0 , fftalg0 =512 , wfoptalg0 =  0
-
- outvars: echo of global parameters not present in the input file
-  max_nthreads =    0
-
 -outvars: echo values of preprocessed input variables --------
            acell      1.0000000000E+00  1.0000000000E+00  1.0000000000E+00 Bohr
              amu      1.37327000E+02  6.53900000E+01  1.40067400E+01
             ecut      4.20000000E+01 Hartree
-          fftalg         512
           irdden           1
           irdwfk           1
           istwfk        1    1
              ixc     -116133
              kpt      0.00000000E+00  0.00000000E+00  0.00000000E+00
                       0.00000000E+00  0.00000000E+00  5.00000000E-01
           kptopt           0
P           mkmem           2
P          mkqmem           2
P          mk1mem           2
            natom           5
            nband          34
           nbdbuf           4
            ngfft          80      80      80
             nkpt           2
            nstep        2000
             nsym          16
           ntypat           3
              occ      2.000000  2.000000  2.000000  2.000000  2.000000  2.000000
                       2.000000  2.000000  2.000000  2.000000  2.000000  2.000000
                       2.000000  2.000000  2.000000  2.000000  2.000000  2.000000
                       2.000000  2.000000  2.000000  2.000000  2.000000  2.000000
                       2.000000  0.000000  0.000000  0.000000  0.000000  0.000000
                       0.000000  0.000000  0.000000  0.000000
        optdriver           1
            prtwf          -1
            rfdir           1       1       1
           rfelfd           2
            rprim      7.4724859432E+00  0.0000000000E+00 -1.1020942041E+01
                      -7.0450748620E-01  7.4392012591E+00 -1.1020942041E+01
                       0.0000000000E+00  0.0000000000E+00  1.3315374935E+01
          spgroup         139
           symrel      1  0  0   0  1  0   0  0  1      -1  0  0   0 -1  0   0  0 -1
                       0  0  1  -1 -1 -1   1  0  0       0  0 -1   1  1  1  -1  0  0
                       0  1  0   1  0  0  -1 -1 -1       0 -1  0  -1  0  0   1  1  1
                      -1 -1 -1   0  0  1   0  1  0       1  1  1   0  0 -1   0 -1  0
                       0  1  0   1  0  0   0  0  1       0 -1  0  -1  0  0   0  0 -1
                       0  0  1  -1 -1 -1   0  1  0       0  0 -1   1  1  1   0 -1  0
                       1  0  0   0  1  0  -1 -1 -1      -1  0  0   0 -1  0   1  1  1
                      -1 -1 -1   0  0  1   1  0  0       1  1  1   0  0 -1  -1  0  0
           tolwfr      1.00000000E-20
            typat      1  1  2  3  3
           useylm           1
              wtk        0.50000    0.50000
           xangst      1.2359224319E+00  1.3584965983E+00 -4.0251397299E+00
                       2.3455375158E+00  2.5781591581E+00 -7.6389229609E+00
                       0.0000000000E+00  0.0000000000E+00  0.0000000000E+00
                       5.0761822568E-01  5.5796190364E-01 -1.6532059255E+00
                       3.0738417220E+00  3.3786938528E+00 -1.0010856765E+01
            xcart      2.3355549177E+00  2.5671865233E+00 -7.6064117361E+00
                       4.4324235393E+00  4.8720147358E+00 -1.4435472346E+01
                       0.0000000000E+00  0.0000000000E+00  0.0000000000E+00
                       9.5925942660E-01  1.0543951905E+00 -3.1241064404E+00
                       5.8087190304E+00  6.3848060686E+00 -1.8917777642E+01
             xred      3.4508900000E-01  3.4508900000E-01  0.0000000000E+00
                       6.5491100000E-01  6.5491100000E-01 -1.1102230246E-16
                       0.0000000000E+00  0.0000000000E+00  0.0000000000E+00
                       1.4173500000E-01  1.4173500000E-01 -1.3877787808E-17
                       8.5826500000E-01  8.5826500000E-01  0.0000000000E+00
            znucl       56.00000   30.00000    7.00000

 chkinp: Checking input parameters for consistency.

== DATASET  1 ==================================================================
-   mpi_nproc: 1, omp_nthreads: -1 (-1 if OMP is not activated)

--- !DatasetInfo
iteration_state: {dtset: 1, }
dimensions: {natom: 5, nkpt: 2, mband: 34, nsppol: 1, nspinor: 1, nspden: 1, mpw: 9575, }
cutoff_energies: {ecut:  42.0, pawecutdg:  -1.0, }
electrons: {nelect:   5.00000000E+01, charge:   0.00000000E+00, occopt:   1.00000000E+00, tsmear:   1.00000000E-02, }
meta: {optdriver: 1, rfelfd: 2, }
...

 Real(R)+Recip(G) space primitive vectors, cartesian coordinates (Bohr,Bohr^-1):
 R(1)=  7.4724859  0.0000000-11.0209420  G(1)=  0.1338243  0.0126734  0.0000000
 R(2)= -0.7045075  7.4392013-11.0209420  G(2)=  0.0000000  0.1344230  0.0000000
 R(3)=  0.0000000  0.0000000 13.3153749  G(3)=  0.1107644  0.1217496  0.0751012
 Unit cell volume ucvol=  7.4019273E+02 bohr^3
 Angles (23,13,12)=  1.45861706E+02  1.45861706E+02  4.90522211E+01 degrees

 getcut: wavevector=  0.0000  0.0000  0.0000  ngfft=  80  80  80
         ecut(hartree)=     42.000   => boxcut(ratio)=   2.05948

--- Pseudopotential description ------------------------------------------------
- pspini: atom type   1  psp file is /scratch/users/j/a/jabreu/pseudos/PBEsol/Ba.psp8
- pspatm: opening atomic psp file    /scratch/users/j/a/jabreu/pseudos/PBEsol/Ba.psp8
- Ba    ONCVPSP-3.3.0  r_core=   2.15444   1.91218   2.15444
- 56.00000  10.00000    180112                znucl, zion, pspdat
    8 -116133    2    4       600   0.00000   pspcod,pspxc,lmax,lloc,mmax,r2well
    5.99000000000000    5.00000000000000    0.00000000000000   rchrg,fchrg,qchrg
     nproj     2     2     2
     extension_switch     1
  pspatm : epsatm=   26.37418029
         --- l  ekb(1:nproj) -->
             0    6.652372    0.677024
             1    5.027722    0.408462
             2    2.543237    0.416854
 pspatm: atomic psp has been read  and splines computed

- pspini: atom type   2  psp file is /scratch/users/j/a/jabreu/pseudos/PBEsol/Zn.psp8
- pspatm: opening atomic psp file    /scratch/users/j/a/jabreu/pseudos/PBEsol/Zn.psp8
- Zn    ONCVPSP-3.3.0  r_core=   1.35823   1.66358   1.85211
- 30.00000  20.00000    180112                znucl, zion, pspdat
    8 -116133    2    4       600   0.00000   pspcod,pspxc,lmax,lloc,mmax,r2well
    5.99000000000000    2.50000000000000    0.00000000000000   rchrg,fchrg,qchrg
     nproj     2     2     2
     extension_switch     1
  pspatm : epsatm=   26.57343589
         --- l  ekb(1:nproj) -->
             0    2.830835   -1.519107
             1   -4.626739   -1.324150
             2   -6.948510   -2.555500
 pspatm: atomic psp has been read  and splines computed

- pspini: atom type   3  psp file is /scratch/users/j/a/jabreu/pseudos/PBEsol/N.psp8
- pspatm: opening atomic psp file    /scratch/users/j/a/jabreu/pseudos/PBEsol/N.psp8
- N     ONCVPSP-3.3.0  r_core=   1.20551   1.35824
-  7.00000   5.00000    180112                znucl, zion, pspdat
    8 -116133    1    4       600   0.00000   pspcod,pspxc,lmax,lloc,mmax,r2well
    5.99000000000000    4.00000000000000    0.00000000000000   rchrg,fchrg,qchrg
     nproj     2     2
     extension_switch     1
  pspatm : epsatm=    5.26508895
         --- l  ekb(1:nproj) -->
             0    7.464189    0.625868
             1   -4.309714   -1.012941
 pspatm: atomic psp has been read  and splines computed

   4.49259872E+03                                ecore*ucvol(ha*bohr**3)

 ==>  initialize data related to q vector <==

 The list of irreducible perturbations for this q vector is:
    1)    idir= 1    ipert=   6
    2)    idir= 2    ipert=   6
    3)    idir= 3    ipert=   6

 Perturbation wavevector (in red.coord.)   0.000000  0.000000  0.000000
 Perturbation : derivative vs k along direction   1

 dfpt_looppert : COMMENT -
  In a d/dk calculation, iscf is set to -3 automatically.
 The set of symmetries contains only one element for this perturbation.
 symkpt : not enough symmetry to change the number of k points.

 Initialisation of the first-order wave-functions :
  ireadwf=   0

--- !BeginCycle
iteration_state: {dtset: 1, }
solver: {iscf: 7, nstep: 2000, nline: 4, wfoptalg: 0, }
tolerances: {tolwfr: 1.00E-20, }
...

     iter   2DEtotal(Ha)        deltaE(Ha) residm    vres2
-ETOT  1  -49.318542793040     -4.932E+01 1.110E-01 0.000E+00
 ETOT  2  -49.404353152135     -8.581E-02 5.345E-03 0.000E+00
 ETOT  3  -49.405564657920     -1.212E-03 6.932E-05 0.000E+00
 ETOT  4  -49.405590641307     -2.598E-05 9.186E-06 0.000E+00
 ETOT  5  -49.405591295923     -6.546E-07 2.419E-07 0.000E+00
 ETOT  6  -49.405591313191     -1.727E-08 1.983E-08 0.000E+00
 ETOT  7  -49.405591313659     -4.675E-10 8.922E-10 0.000E+00
 ETOT  8  -49.405591313672     -1.280E-11 1.346E-10 0.000E+00
 ETOT  9  -49.405591313672     -3.055E-13 1.443E-11 0.000E+00
 ETOT 10  -49.405591313672     -2.842E-14 4.877E-12 0.000E+00
 ETOT 11  -49.405591313672     -2.842E-14 8.906E-13 0.000E+00
 ETOT 12  -49.405591313672      6.395E-14 3.241E-13 0.000E+00
 ETOT 13  -49.405591313672     -4.974E-14 5.956E-14 0.000E+00
 ETOT 14  -49.405591313672      1.421E-14 2.215E-14 0.000E+00
 ETOT 15  -49.405591313672      7.105E-15 4.069E-15 0.000E+00
 ETOT 16  -49.405591313672     -3.553E-14 1.537E-15 0.000E+00
 ETOT 17  -49.405591313672      3.553E-14 2.810E-16 0.000E+00
 ETOT 18  -49.405591313672     -7.105E-15 1.076E-16 0.000E+00
 ETOT 19  -49.405591313672     -1.421E-14 1.950E-17 0.000E+00
 ETOT 20  -49.405591313672      7.105E-15 7.567E-18 0.000E+00
 ETOT 21  -49.405591313672      0.000E+00 1.356E-18 0.000E+00
 ETOT 22  -49.405591313672      1.421E-14 5.340E-19 0.000E+00
 ETOT 23  -49.405591313672     -7.105E-15 9.444E-20 0.000E+00
 ETOT 24  -49.405591313672     -1.421E-14 3.778E-20 0.000E+00
 ETOT 25  -49.405591313672     -7.105E-15 9.910E-21 0.000E+00

 At SCF step   25   max residual=  9.91E-21 < tolwfr=  1.00E-20 =>converged.

 ----iterations are completed or convergence reached----

 dfpt_looppert: DFPT cycle converged with prtwf=-1. Will skip output of the 1st-order WFK file.
 dfpt_looppert : ek2=    7.1335731714E+01
          f-sum rule ratio=    1.2458279782E+00
 prteigrs : about to open file /scratch/users/j/a/jabreu/flow_simple_remain_atoms/flow/w278/t1/tmpdata/tmp_1WF1_EIG
 Expectation of eigenvalue derivatives (hartree) for nkpt=   2  k points:
  (in case of degenerate eigenvalues, averaged derivative)
 kpt#   1, nband= 34, wtk=  0.50000, kpt=  0.0000  0.0000  0.0000 (reduced coord)
   0.00000    0.00000   -0.00000   -0.00000    0.00000    0.00000   -0.00000   -0.00000
   0.00000    0.00000    0.00000   -0.00000   -0.00000   -0.00000    0.00000    0.00000
   0.00000    0.00000    0.00000   -0.00000    0.00000   -0.00000   -0.00000    0.00000
   0.00000    0.00000   -0.00000    0.00000   -0.00000   -0.00000   -0.00000    0.00000
   0.00000   -0.00000
 prteigrs : prtvol=0 or 1, do not print more k-points.

 Eight components of 2nd-order total energy (hartree) are
 1,2,3: 0th-order hamiltonian combined with 1st-order wavefunctions
     kin0=   6.21545597E+01 eigvalue=  -2.99705949E+00  local=  -3.06455609E+01
 4,5,6: 1st-order hamiltonian combined with 1st and 0th-order wfs
     kin1=  -8.88720504E+01  Hartree=   0.00000000E+00     xc=   0.00000000E+00
 7,8,9: eventually, occupation + non-local contributions
    edocc=   1.62890590E+01     enl0=   4.60459291E+00   enl1=  -9.93913221E+00
 1-9 gives the relaxation energy (to be shifted if some occ is /=2.0)
   erelax=  -4.94055913E+01
  No Ewald or frozen-wf contrib.: the relaxation energy is the total one
 2DEtotal=   -0.4940559131E+02 Ha. Also 2DEtotal=   -0.134439451007E+04 eV
    (  non-var. 2DEtotal :   -4.9405591313E+01 Ha)

 Perturbation wavevector (in red.coord.)   0.000000  0.000000  0.000000
 Perturbation : derivative vs k along direction   2
 The set of symmetries contains only one element for this perturbation.
 symkpt : not enough symmetry to change the number of k points.

[...]

 Perturbation wavevector (in red.coord.)   0.000000  0.000000  0.000000
 Perturbation : derivative vs k along direction   3
 The set of symmetries contains only one element for this perturbation.
 symkpt : not enough symmetry to change the number of k points.

 Initialisation of the first-order wave-functions :
  ireadwf=   0

--- !BeginCycle
iteration_state: {dtset: 1, }
solver: {iscf: 7, nstep: 2000, nline: 4, wfoptalg: 0, }
tolerances: {tolwfr: 1.00E-20, }
...

     iter   2DEtotal(Ha)        deltaE(Ha) residm    vres2
-ETOT  1  -90.065221464614     -9.007E+01 3.707E-01 0.000E+00
 ETOT  2  -90.192404016618     -1.272E-01 3.882E-03 0.000E+00
 ETOT  3  -90.194317320641     -1.913E-03 4.664E-05 0.000E+00
 ETOT  4  -90.194363182307     -4.586E-05 2.144E-06 0.000E+00
 ETOT  5  -90.194364394275     -1.212E-06 3.172E-08 0.000E+00
 ETOT  6  -90.194364427267     -3.299E-08 1.570E-09 0.000E+00
 ETOT  7  -90.194364428180     -9.132E-10 2.341E-11 0.000E+00
 ETOT  8  -90.194364428206     -2.549E-11 1.181E-12 0.000E+00
 ETOT  9  -90.194364428207     -7.532E-13 1.762E-14 0.000E+00
 ETOT 10  -90.194364428206      2.842E-14 8.957E-16 0.000E+00
 ETOT 11  -90.194364428207     -4.263E-14 1.399E-17 0.000E+00
 ETOT 12  -90.194364428207     -1.421E-13 7.641E-18 0.000E+00
 ETOT 13  -90.194364428207     -2.842E-14 8.840E-19 0.000E+00
 ETOT 14  -90.194364428207      7.105E-14 4.837E-19 0.000E+00
 ETOT 15  -90.194364428207      4.263E-14 5.634E-20 0.000E+00
 ETOT 16  -90.194364428207      0.000E+00 3.070E-20 0.000E+00
 ETOT 17  -90.194364428207      2.842E-14 9.878E-21 0.000E+00

 At SCF step   17   max residual=  9.88E-21 < tolwfr=  1.00E-20 =>converged.

 ----iterations are completed or convergence reached----

 dfpt_looppert: DFPT cycle converged with prtwf=-1. Will skip output of the 1st-order WFK file.
 dfpt_looppert : ek2=    1.2922036893E+02
          f-sum rule ratio=    1.2563114535E+00
 prteigrs : about to open file /scratch/users/j/a/jabreu/flow_simple_remain_atoms/flow/w278/t1/tmpdata/tmp_1WF1_EIG
 Expectation of eigenvalue derivatives (hartree) for nkpt=   2  k points:
  (in case of degenerate eigenvalues, averaged derivative)
 kpt#   1, nband= 34, wtk=  0.50000, kpt=  0.0000  0.0000  0.0000 (reduced coord)
   0.00000    0.00000   -0.00000   -0.00000    0.00000    0.00000    0.00000   -0.00000
   0.00000   -0.00000   -0.00000   -0.00000   -0.00000    0.00000   -0.00000   -0.00000
  -0.00000    0.00000    0.00000    0.00000    0.00000    0.00000    0.00000   -0.00000
  -0.00000   -0.00000   -0.00000    0.00000   -0.00000   -0.00000   -0.00000    0.00000
   0.00000   -0.00000
 prteigrs : prtvol=0 or 1, do not print more k-points.

 Eight components of 2nd-order total energy (hartree) are
 1,2,3: 0th-order hamiltonian combined with 1st-order wavefunctions
     kin0=   1.15096444E+02 eigvalue=  -5.83861630E+00  local=  -5.72272313E+01
 4,5,6: 1st-order hamiltonian combined with 1st and 0th-order wfs
     kin1=  -1.62341030E+02  Hartree=   0.00000000E+00     xc=   0.00000000E+00
 7,8,9: eventually, occupation + non-local contributions
    edocc=   2.94463212E+01     enl0=   8.71744729E+00   enl1=  -1.80476993E+01
 1-9 gives the relaxation energy (to be shifted if some occ is /=2.0)
   erelax=  -9.01943644E+01
  No Ewald or frozen-wf contrib.: the relaxation energy is the total one
 2DEtotal=   -0.9019436443E+02 Ha. Also 2DEtotal=   -0.245431347246E+04 eV
    (  non-var. 2DEtotal :   -9.0194364428E+01 Ha)

 CALCULATION OF EFFECTIVE MASSES
 NOTE : Additional infos (eff. mass eigenvalues, eigenvectors and, if degenerate, average mass) are available in stdout.

 COMMENTS:
 - At k-point ( 0.000, 0.000, 0.000), bands    24 through    25
   are DEGENERATE (effective mass tensor is therefore not defined).
   See Section IIIB Eqs. (67)-(70) and Appendix E of PRB 93 205147 (2016).
 - Angular average effective mass for Frohlich model is to be averaged over degenerate bands. See later.
 - Associated theta integrals calculated with ntheta=   1000 points.

 K-point ( 0.000, 0.000, 0.000) | band =    24
 Transport equivalent effective mass tensor:
             -0.5086038057             -0.2019705192              0.5984259148
             -0.2019705192             -0.5468578438              0.6577755586
              0.5984259148              0.6577755586             -2.2738041557
 Transport equivalent effective mass tensor eigenvalues:
             -2.6795525180             -0.3248566442             -0.3248566430
 Angular average effective mass 1/(<1/m>)=  -0.4580080248
 Angular average effective mass for Frohlich model (<m**0.5>)**2=  -0.5442419910
 Effective masses along directions: (cart. coord. / red. coord. -> eff. mass)
    1:   1.000000  0.000000  0.000000 /   0.995585 -0.093864  0.000000 ->  -0.3594428495
    2:   0.000000  1.000000  0.000000 /   0.000000  1.000000  0.000000 ->  -0.3660295916
    3:   0.000000  0.000000  1.000000 /  -0.537625 -0.537625  0.649552 ->  -1.1623966594
    4:   0.577350  0.577350  0.577350 /  -0.245886 -0.297010  0.922673 ->  -0.3234132974
    5:   0.000000  0.707107  0.707107 /  -0.624349 -0.202910  0.754331 ->  -0.3932037557
    6:   0.707107  0.000000  0.707107 /  -0.196117 -0.648045  0.735918 ->  -0.4033024092
    7:   0.707107  0.707107  0.000000 /   0.742827  0.669484  0.000000 ->  -0.3696298100

 K-point ( 0.000, 0.000, 0.000) | band =    25
 Transport equivalent effective mass tensor:
             -0.9379704721             -0.1676310405              0.4966801910
             -0.1676310405             -0.9697204730              0.5459390752
              0.4966801910              0.5459390752             -2.4030474433
 Transport equivalent effective mass tensor eigenvalues:
             -2.7398095609             -0.7854644150             -0.7854644125
 Angular average effective mass 1/(<1/m>)=  -1.0118945890
 Angular average effective mass for Frohlich model (<m**0.5>)**2=  -1.0945219175
 Effective masses along directions: (cart. coord. / red. coord. -> eff. mass)
    1:   1.000000  0.000000  0.000000 /   0.995585 -0.093864  0.000000 ->  -0.7593682058
    2:   0.000000  1.000000  0.000000 /   0.000000  1.000000  0.000000 ->  -0.7645632587
    3:   0.000000  0.000000  1.000000 /  -0.537625 -0.537625  0.649552 ->  -1.9393966445
    4:   0.577350  0.577350  0.577350 /  -0.245886 -0.297010  0.922673 ->  -0.8592639104
    5:   0.000000  0.707107  0.707107 /  -0.624349 -0.202910  0.754331 ->  -0.8478673878
    6:   0.707107  0.000000  0.707107 /  -0.196117 -0.648045  0.735918 ->  -0.8466950016
    7:   0.707107  0.707107  0.000000 /   0.742827  0.669484  0.000000 ->  -0.9501310978

 Angular average effective mass for Frohlich model, averaged over degenerate bands.
 Value of     (<<m**0.5>>)**2 =     7.955941E-01
 Absolute Value of <<m**0.5>> =     8.919608E-01

 K-point ( 0.000, 0.000, 0.500) | band =    26
 Effective mass tensor:
              1.8876867730             -0.3661575502              0.3430657751
             -0.3661575502              1.8183275153              0.3770868052
              0.3430657751              0.3770868052              0.6005283932
 Effective mass tensor eigenvalues:
              0.3679219793              1.7178173805              2.2208033217
 Angular average effective mass 1/(<1/m>)=   0.7999169973
 Angular average effective mass for Frohlich model (<m**0.5>)**2=   0.9870128548
 Effective masses along directions: (cart. coord. / red. coord. -> eff. mass)
    1:   1.000000  0.000000  0.000000 /   0.995585 -0.093864  0.000000 ->   1.4778407891
    2:   0.000000  1.000000  0.000000 /   0.000000  1.000000  0.000000 ->   1.3816094314
    3:   0.000000  0.000000  1.000000 /  -0.537625 -0.537625  0.649552 ->   0.4255441044
    4:   0.577350  0.577350  0.577350 /  -0.245886 -0.297010  0.922673 ->   1.5234904685
    5:   0.000000  0.707107  0.707107 /  -0.624349 -0.202910  0.754331 ->   1.0635733277
    6:   0.707107  0.000000  0.707107 /  -0.196117 -0.648045  0.735918 ->   1.0304035813
    7:   0.707107  0.707107  0.000000 /   0.742827  0.669484  0.000000 ->   1.0536791292

 END OF EFFECTIVE MASSES SECTION

 ---- first-order wavefunction calculations are completed ----

 Total localisation tensor (bohr^2) in cartesian coordinates
  WARNING : still subject to testing - especially symmetries.
      direction              matrix element
   alpha     beta       real part   imaginary part
     1        1       1.7801263348    0.0000000000
     1        2      -0.1656109170    0.0000000000
     1        3      -2.3569753926    0.0000000000
     2        1      -0.1656109170    0.0000000000
     2        2       1.7487577724    0.0000000000
     2        3      -2.5907294859    0.0000000000
     3        1      -2.3569753926    0.0000000000
     3        2      -2.5907294859    0.0000000000
     3        3      17.8252911111    0.0000000000

 respfn : d/dk was computed, but no 2DTE, so no DDB output.

== END DATASET(S) ==============================================================

 -outvars: echo values of variables after computation  --------
            acell      1.0000000000E+00  1.0000000000E+00  1.0000000000E+00 Bohr
              amu      1.37327000E+02  6.53900000E+01  1.40067400E+01
             ecut      4.20000000E+01 Hartree
           etotal     -9.0194364428E+01
            fcart      0.0000000000E+00  0.0000000000E+00  0.0000000000E+00
                       0.0000000000E+00  0.0000000000E+00  0.0000000000E+00
                       0.0000000000E+00  0.0000000000E+00  0.0000000000E+00
                       0.0000000000E+00  0.0000000000E+00  0.0000000000E+00
                       0.0000000000E+00  0.0000000000E+00  0.0000000000E+00
-          fftalg         512
           irdden           1
           irdwfk           1
           istwfk        1    1
              ixc     -116133
              kpt      0.00000000E+00  0.00000000E+00  0.00000000E+00
                       0.00000000E+00  0.00000000E+00  5.00000000E-01
           kptopt           0
P           mkmem           2
P          mkqmem           2
P          mk1mem           2
            natom           5
            nband          34
           nbdbuf           4
            ngfft          80      80      80
             nkpt           2
            nstep        2000
             nsym          16
           ntypat           3
              occ      2.000000  2.000000  2.000000  2.000000  2.000000  2.000000
                       2.000000  2.000000  2.000000  2.000000  2.000000  2.000000
                       2.000000  2.000000  2.000000  2.000000  2.000000  2.000000
                       2.000000  2.000000  2.000000  2.000000  2.000000  2.000000
                       2.000000  0.000000  0.000000  0.000000  0.000000  0.000000
                       0.000000  0.000000  0.000000  0.000000
        optdriver           1
            prtwf          -1
            rfdir           1       1       1
           rfelfd           2
            rprim      7.4724859432E+00  0.0000000000E+00 -1.1020942041E+01
                      -7.0450748620E-01  7.4392012591E+00 -1.1020942041E+01
                       0.0000000000E+00  0.0000000000E+00  1.3315374935E+01
          spgroup         139
           strten      0.0000000000E+00  0.0000000000E+00  0.0000000000E+00
                       0.0000000000E+00  0.0000000000E+00  0.0000000000E+00
           symrel      1  0  0   0  1  0   0  0  1      -1  0  0   0 -1  0   0  0 -1
                       0  0  1  -1 -1 -1   1  0  0       0  0 -1   1  1  1  -1  0  0
                       0  1  0   1  0  0  -1 -1 -1       0 -1  0  -1  0  0   1  1  1
                      -1 -1 -1   0  0  1   0  1  0       1  1  1   0  0 -1   0 -1  0
                       0  1  0   1  0  0   0  0  1       0 -1  0  -1  0  0   0  0 -1
                       0  0  1  -1 -1 -1   0  1  0       0  0 -1   1  1  1   0 -1  0
                       1  0  0   0  1  0  -1 -1 -1      -1  0  0   0 -1  0   1  1  1
                      -1 -1 -1   0  0  1   1  0  0       1  1  1   0  0 -1  -1  0  0
           tolwfr      1.00000000E-20
            typat      1  1  2  3  3
           useylm           1
              wtk        0.50000    0.50000
           xangst      1.2359224319E+00  1.3584965983E+00 -4.0251397299E+00
                       2.3455375158E+00  2.5781591581E+00 -7.6389229609E+00
                       0.0000000000E+00  0.0000000000E+00  0.0000000000E+00
                       5.0761822568E-01  5.5796190364E-01 -1.6532059255E+00
                       3.0738417220E+00  3.3786938528E+00 -1.0010856765E+01
            xcart      2.3355549177E+00  2.5671865233E+00 -7.6064117361E+00
                       4.4324235393E+00  4.8720147358E+00 -1.4435472346E+01
                       0.0000000000E+00  0.0000000000E+00  0.0000000000E+00
                       9.5925942660E-01  1.0543951905E+00 -3.1241064404E+00
                       5.8087190304E+00  6.3848060686E+00 -1.8917777642E+01
             xred      3.4508900000E-01  3.4508900000E-01  0.0000000000E+00
                       6.5491100000E-01  6.5491100000E-01 -1.1102230246E-16
                       0.0000000000E+00  0.0000000000E+00  0.0000000000E+00
                       1.4173500000E-01  1.4173500000E-01 -1.3877787808E-17
                       8.5826500000E-01  8.5826500000E-01  0.0000000000E+00
            znucl       56.00000   30.00000    7.00000

- Timing analysis has been suppressed with timopt=0

 Suggested references for the acknowledgment of ABINIT usage.

 Calculation completed.
.Delivered   2 WARNINGs and   5 COMMENTs to log file.