.Version 9.5.2 of ABINIT

 ABINIT is a project of the Universite Catholique de Louvain,
 Corning Inc. and other collaborators, see ~abinit/doc/developers/contributors.txt .
 acknowledgments of the ABINIT effort.

.Starting date : Wed 26 May 2021.
- ( at 02h51 )

- input  file    -> /scratch/users/j/a/jabreu/flow_simple_11atoms/flow/w268/t1/run.abi
- output file    -> /scratch/users/j/a/jabreu/flow_simple_11atoms/flow/w268/t1/run.abo
- root for input  files -> /scratch/users/j/a/jabreu/flow_simple_11atoms/flow/w268/t1/indata/in
- root for output files -> /scratch/users/j/a/jabreu/flow_simple_11atoms/flow/w268/t1/outdata/out

 Symmetries : space group C2/c (# 15); Bravais mC (1-face-center monocl.)
     intxc =       0      iscf =       7    lmnmax =      18     lnmax =       6
     mgfft =      96  mpssoang =       3    mqgrid =    4334     natom =      12
  nloc_mem =       1    nspden =       1   nspinor =       1    nsppol =       1
      nsym =       4    n1xccc =    2501    ntypat =       3    occopt =       1
   xclevel =       2
-    mband =          49        mffmem =           1         mkmem =           2
-   mkqmem =           2        mk1mem =           2           mpw =       25422
      nfft =      497664          nkpt =           2
  Rough estimation (10% accuracy) of disk space for files :

------------- Echo of variables that govern the present computation ------------
-
- outvars: echo of selected default values
-   iomode0 =  0 , fftalg0 =512 , wfoptalg0 =  0
-
- outvars: echo of global parameters not present in the input file
-  max_nthreads =    0
-
 -outvars: echo values of preprocessed input variables --------
            acell      1.0000000000E+00  1.0000000000E+00  1.0000000000E+00 Bohr
              amu      3.90983000E+01  1.08110000E+01  3.09737620E+01
             ecut      3.80000000E+01 Hartree
-          fftalg         512
           irdden           1
           irdwfk           1
           istwfk        0    1
              ixc     -116133
              kpt      5.00000000E-01 -5.00000000E-01  0.00000000E+00
                       0.00000000E+00  0.00000000E+00  0.00000000E+00
           kptopt           0
P           mkmem           2
P          mkqmem           2
P          mk1mem           2
            natom          12
            nband          49
           nbdbuf           4
            ngfft          72      72      96
             nkpt           2
            nstep        2000
             nsym           4
           ntypat           3
              occ      2.000000  2.000000  2.000000  2.000000  2.000000  2.000000
                       2.000000  2.000000  2.000000  2.000000  2.000000  2.000000
                       2.000000  2.000000  2.000000  2.000000  2.000000  2.000000
                       2.000000  2.000000  2.000000  2.000000  2.000000  2.000000
                       2.000000  2.000000  2.000000  2.000000  2.000000  2.000000
                       2.000000  2.000000  2.000000  2.000000  2.000000  2.000000
                       2.000000  2.000000  2.000000  2.000000  0.000000  0.000000
                       0.000000  0.000000  0.000000  0.000000  0.000000  0.000000
                       0.000000
        optdriver           1
            prtwf          -1
            rfdir           1       1       1
           rfelfd           2
            rprim      1.1659773411E+01  0.0000000000E+00  3.1434012174E+00
                      -1.2740616560E-01  1.1659077308E+01  3.1434012174E+00
                       0.0000000000E+00  0.0000000000E+00  1.6723542620E+01
          spgroup          15
           symrel      1  0  0   0  1  0   0  0  1      -1  0  0   0 -1  0   0  0 -1
                       0 -1  0  -1  0  0   0  0 -1       0  1  0   1  0  0   0  0  1
            tnons      0.0000000  0.0000000  0.0000000    -0.0000000 -0.0000000  0.0000000
                      -0.0000000 -0.0000000  0.5000000     0.0000000  0.0000000  0.5000000
           tolwfr      1.00000000E-20
            typat      1  1  1  1  1  1  2  2  3  3  3  3
           useylm           1
              wtk        0.50000    0.50000
           xangst      3.9892481366E+00  2.1571370081E+00  3.8758456820E+00
                       2.1134177709E+00  4.0125809765E+00  8.3007044827E+00
                       5.1879119517E+00  4.6097911682E+00  6.9186793766E+00
                       1.5498381843E+00  9.3174464031E-01  8.3301198743E-01
                       9.1475395585E-01  1.5599268163E+00  5.2578707881E+00
                       4.5528277233E+00  5.2379733443E+00  1.1343538177E+01
                       1.7007817470E+00  4.4207325000E+00  3.8758456820E+00
                       4.4018841605E+00  1.7489854846E+00  8.3007044827E+00
                       8.6577705369E-01  3.6382209983E+00  2.5188107122E+00
                       2.4741224483E+00  5.2642378337E+00  5.2328806519E+00
                       3.6285434593E+00  9.0548015085E-01  6.9436695129E+00
                       5.2368888539E+00  2.5314969863E+00  9.6577394525E+00
            xcart      7.5385864544E+00  4.0763981764E+00  7.3242868724E+00
                       3.9937807914E+00  7.5826791316E+00  1.5686058182E+01
                       9.8037327903E+00  8.7112428378E+00  1.3074409223E+01
                       2.9287697185E+00  1.7607421960E+00  1.5741645216E+00
                       1.7286344555E+00  2.9478344702E+00  9.9359358316E+00
                       8.6035975273E+00  9.8983351120E+00  2.1436180533E+01
                       3.2140117137E+00  8.3539737318E+00  7.3242868724E+00
                       8.3183555321E+00  3.3051035762E+00  1.5686058182E+01
                       1.6360815236E+00  6.8752412978E+00  4.7598624267E+00
                       4.6754138465E+00  9.9479678041E+00  9.8887113181E+00
                       6.8569533993E+00  1.7111095039E+00  1.3121633737E+01
                       9.8962857222E+00  4.7838360102E+00  1.8250482628E+01
             xred      6.5036700000E-01  3.4963300000E-01  2.5000000000E-01
                       3.4963300000E-01  6.5036700000E-01  7.5000000000E-01
                       8.4898100000E-01  7.4716400000E-01  4.8178100000E-01
                       2.5283600000E-01  1.5101900000E-01  1.8219000000E-02
                       1.5101900000E-01  2.5283600000E-01  5.1821900000E-01
                       7.4716400000E-01  8.4898100000E-01  9.8178100000E-01
                       2.8347900000E-01  7.1652100000E-01  2.5000000000E-01
                       7.1652100000E-01  2.8347900000E-01  7.5000000000E-01
                       1.4676200000E-01  5.8969000000E-01  1.4619500000E-01
                       4.1031000000E-01  8.5323800000E-01  3.5380500000E-01
                       5.8969000000E-01  1.4676200000E-01  6.4619500000E-01
                       8.5323800000E-01  4.1031000000E-01  8.5380500000E-01
            znucl       19.00000    5.00000   15.00000

 chkinp: Checking input parameters for consistency.

== DATASET  1 ==================================================================
-   mpi_nproc: 1, omp_nthreads: -1 (-1 if OMP is not activated)

--- !DatasetInfo
iteration_state: {dtset: 1, }
dimensions: {natom: 12, nkpt: 2, mband: 49, nsppol: 1, nspinor: 1, nspden: 1, mpw: 25422, }
cutoff_energies: {ecut:  38.0, pawecutdg:  -1.0, }
electrons: {nelect:   8.00000000E+01, charge:   0.00000000E+00, occopt:   1.00000000E+00, tsmear:   1.00000000E-02, }
meta: {optdriver: 1, rfelfd: 2, }
...

 Real(R)+Recip(G) space primitive vectors, cartesian coordinates (Bohr,Bohr^-1):
 R(1)= 11.6597734  0.0000000  3.1434012  G(1)=  0.0857650  0.0009372  0.0000000
 R(2)= -0.1274062 11.6590773  3.1434012  G(2)=  0.0000000  0.0857701  0.0000000
 R(3)=  0.0000000  0.0000000 16.7235426  G(3)= -0.0161206 -0.0162977  0.0597959
 Unit cell volume ucvol=  2.2734352E+03 bohr^3
 Angles (23,13,12)=  7.49121257E+01  7.49121257E+01  8.66996820E+01 degrees

 getcut: wavevector=  0.0000  0.0000  0.0000  ngfft=  72  72  96
         ecut(hartree)=     38.000   => boxcut(ratio)=   2.06865

--- Pseudopotential description ------------------------------------------------
- pspini: atom type   1  psp file is /scratch/users/j/a/jabreu/pseudos/PBEsol/K.psp8
- pspatm: opening atomic psp file    /scratch/users/j/a/jabreu/pseudos/PBEsol/K.psp8
- K     ONCVPSP-3.3.0  r_core=   1.36296   1.46408   1.61068
- 19.00000   9.00000    180112                znucl, zion, pspdat
    8 -116133    2    4       400   0.00000   pspcod,pspxc,lmax,lloc,mmax,r2well
    3.99000000000000    5.00000000000000    0.00000000000000   rchrg,fchrg,qchrg
     nproj     2     2     2
     extension_switch     1
  pspatm : epsatm=    8.32487830
         --- l  ekb(1:nproj) -->
             0   10.921326    0.816676
             1    4.431000    0.560368
             2   -3.384038   -1.043186
 pspatm: atomic psp has been read  and splines computed

- pspini: atom type   2  psp file is /scratch/users/j/a/jabreu/pseudos/PBEsol/B.psp8
- pspatm: opening atomic psp file    /scratch/users/j/a/jabreu/pseudos/PBEsol/B.psp8
- B     ONCVPSP-3.3.0  r_core=   1.20849   1.20849
-  5.00000   3.00000    180112                znucl, zion, pspdat
    8 -116133    1    4       600   0.00000   pspcod,pspxc,lmax,lloc,mmax,r2well
    5.99000000000000    2.90000000000000    0.00000000000000   rchrg,fchrg,qchrg
     nproj     2     2
     extension_switch     1
  pspatm : epsatm=    3.20154566
         --- l  ekb(1:nproj) -->
             0    8.466603    1.247630
             1   -3.609180   -0.822621
 pspatm: atomic psp has been read  and splines computed

- pspini: atom type   3  psp file is /scratch/users/j/a/jabreu/pseudos/PBEsol/P.psp8
- pspatm: opening atomic psp file    /scratch/users/j/a/jabreu/pseudos/PBEsol/P.psp8
- P     ONCVPSP-3.3.0  r_core=   1.46089   1.55067   1.70594
- 15.00000   5.00000    180112                znucl, zion, pspdat
    8 -116133    2    4       600   0.00000   pspcod,pspxc,lmax,lloc,mmax,r2well
    5.99000000000000    5.00000000000000    0.00000000000000   rchrg,fchrg,qchrg
     nproj     2     2     2
     extension_switch     1
  pspatm : epsatm=    7.31221086
         --- l  ekb(1:nproj) -->
             0    6.742364    1.063650
             1    3.449117    0.910422
             2   -3.077645   -0.799176
 pspatm: atomic psp has been read  and splines computed

   6.84809636E+03                                ecore*ucvol(ha*bohr**3)

 ==>  initialize data related to q vector <==

 The list of irreducible perturbations for this q vector is:
    1)    idir= 1    ipert=  13
    2)    idir= 2    ipert=  13
    3)    idir= 3    ipert=  13

 Perturbation wavevector (in red.coord.)   0.000000  0.000000  0.000000
 Perturbation : derivative vs k along direction   1

 dfpt_looppert : COMMENT -
  In a d/dk calculation, iscf is set to -3 automatically.
 The set of symmetries contains only one element for this perturbation.
 symkpt : not enough symmetry to change the number of k points.

 Initialisation of the first-order wave-functions :
  ireadwf=   0

--- !BeginCycle
iteration_state: {dtset: 1, }
solver: {iscf: 7, nstep: 2000, nline: 4, wfoptalg: 0, }
tolerances: {tolwfr: 1.00E-20, }
...

[...]

 dfpt_looppert: DFPT cycle converged with prtwf=-1. Will skip output of the 1st-order WFK file.
 dfpt_looppert : ek2=    4.6467719103E+01
          f-sum rule ratio=    1.0043435440E+00
 prteigrs : about to open file /scratch/users/j/a/jabreu/flow_simple_11atoms/flow/w268/t1/tmpdata/tmp_1WF1_EIG
 Expectation of eigenvalue derivatives (hartree) for nkpt=   2  k points:
  (in case of degenerate eigenvalues, averaged derivative)
 kpt#   1, nband= 49, wtk=  0.50000, kpt=  0.5000 -0.5000  0.0000 (reduced coord)
   0.00000   -0.00000   -0.00000   -0.00000   -0.00000   -0.00000   -0.00000    0.00000
   0.00000    0.00000   -0.00000    0.00000   -0.00000   -0.00000   -0.00000   -0.00000
  -0.00000    0.00000    0.00000   -0.00000    0.00000   -0.00000    0.00000   -0.00000
   0.00000   -0.00000   -0.00000    0.00000    0.00000   -0.00000   -0.00000    0.00000
  -0.00000    0.00000   -0.00000   -0.00000    0.00000    0.00000   -0.00000   -0.00000
  -0.00000   -0.00000    0.00000   -0.00000    0.00000   -0.00000    0.00000   -0.00018
   0.02732
 prteigrs : prtvol=0 or 1, do not print more k-points.

 Eight components of 2nd-order total energy (hartree) are
 1,2,3: 0th-order hamiltonian combined with 1st-order wavefunctions
     kin0=   3.36751295E+01 eigvalue=   3.60643290E+00  local=  -2.18228289E+01
 4,5,6: 1st-order hamiltonian combined with 1st and 0th-order wfs
     kin1=  -4.66695537E+01  Hartree=   0.00000000E+00     xc=   0.00000000E+00
 7,8,9: eventually, occupation + non-local contributions
    edocc=   4.26100405E+00     enl0=   1.64611311E+00   enl1=   3.93785239E+00
 1-9 gives the relaxation energy (to be shifted if some occ is /=2.0)
   erelax=  -2.13658507E+01
  No Ewald or frozen-wf contrib.: the relaxation energy is the total one
 2DEtotal=   -0.2136585065E+02 Ha. Also 2DEtotal=   -0.581394363549E+03 eV
    (  non-var. 2DEtotal :   -2.1365850650E+01 Ha)

 Perturbation wavevector (in red.coord.)   0.000000  0.000000  0.000000
 Perturbation : derivative vs k along direction   2
 The set of symmetries contains only one element for this perturbation.
 symkpt : not enough symmetry to change the number of k points.

[...]

 Perturbation wavevector (in red.coord.)   0.000000  0.000000  0.000000
 Perturbation : derivative vs k along direction   3
 The set of symmetries contains only one element for this perturbation.
 symkpt : not enough symmetry to change the number of k points.

 Initialisation of the first-order wave-functions :
  ireadwf=   0

--- !BeginCycle
iteration_state: {dtset: 1, }
solver: {iscf: 7, nstep: 2000, nline: 4, wfoptalg: 0, }
tolerances: {tolwfr: 1.00E-20, }
...

     iter   2DEtotal(Ha)        deltaE(Ha) residm    vres2
-ETOT  1  -11.768667203302     -1.177E+01 2.971E-02 0.000E+00
 ETOT  2  -11.826405861788     -5.774E-02 6.087E-03 0.000E+00
 ETOT  3  -11.827439865710     -1.034E-03 5.307E-04 0.000E+00
 ETOT  4  -11.827467284791     -2.742E-05 1.222E-04 0.000E+00
 ETOT  5  -11.827468214954     -9.302E-07 1.571E-05 0.000E+00
 ETOT  6  -11.827468250268     -3.531E-08 4.373E-06 0.000E+00
 ETOT  7  -11.827468251707     -1.439E-09 6.148E-07 0.000E+00
 ETOT  8  -11.827468251768     -6.111E-11 1.943E-07 0.000E+00
 ETOT  9  -11.827468251771     -2.702E-12 2.718E-08 0.000E+00
 ETOT 10  -11.827468251771     -1.439E-13 9.199E-09 0.000E+00
 ETOT 11  -11.827468251771      7.105E-15 1.262E-09 0.000E+00
 ETOT 12  -11.827468251771     -3.553E-15 4.432E-10 0.000E+00
 ETOT 13  -11.827468251771      1.776E-14 6.006E-11 0.000E+00
 ETOT 14  -11.827468251771     -8.882E-15 2.148E-11 0.000E+00
 ETOT 15  -11.827468251771      7.105E-15 2.942E-12 0.000E+00
 ETOT 16  -11.827468251771      3.553E-15 1.047E-12 0.000E+00
 ETOT 17  -11.827468251771     -1.776E-15 1.503E-13 0.000E+00
 ETOT 18  -11.827468251771      3.553E-15 5.163E-14 0.000E+00
 ETOT 19  -11.827468251771      7.105E-15 7.569E-15 0.000E+00
 ETOT 20  -11.827468251771     -3.553E-15 2.563E-15 0.000E+00
 ETOT 21  -11.827468251771     -3.553E-15 3.785E-16 0.000E+00
 ETOT 22  -11.827468251771     -3.553E-15 1.282E-16 0.000E+00
 ETOT 23  -11.827468251771      0.000E+00 1.902E-17 0.000E+00
 ETOT 24  -11.827468251771      0.000E+00 6.435E-18 0.000E+00
 ETOT 25  -11.827468251771     -3.553E-15 9.577E-19 0.000E+00
 ETOT 26  -11.827468251771      8.882E-15 3.234E-19 0.000E+00
 ETOT 27  -11.827468251771      5.329E-15 4.829E-20 0.000E+00
 ETOT 28  -11.827468251771     -3.553E-15 1.627E-20 0.000E+00
 ETOT 29  -11.827468251771     -3.553E-15 9.911E-21 0.000E+00

 At SCF step   29   max residual=  9.91E-21 < tolwfr=  1.00E-20 =>converged.

 ----iterations are completed or convergence reached----

 dfpt_looppert: DFPT cycle converged with prtwf=-1. Will skip output of the 1st-order WFK file.
 dfpt_looppert : ek2=    2.5904441694E+01
          f-sum rule ratio=    9.9688983422E-01
 prteigrs : about to open file /scratch/users/j/a/jabreu/flow_simple_11atoms/flow/w268/t1/tmpdata/tmp_1WF1_EIG
 Expectation of eigenvalue derivatives (hartree) for nkpt=   2  k points:
  (in case of degenerate eigenvalues, averaged derivative)
 kpt#   1, nband= 49, wtk=  0.50000, kpt=  0.5000 -0.5000  0.0000 (reduced coord)
  -0.00000    0.00000    0.00000   -0.00000    0.00000    0.00000   -0.00000   -0.00000
  -0.00000    0.00000   -0.00000   -0.00000    0.00000    0.00000   -0.00000   -0.00000
  -0.00000   -0.00000   -0.00000    0.00000   -0.00000    0.00000   -0.00000   -0.00000
  -0.00000    0.00000   -0.00000    0.00000   -0.00000   -0.00000   -0.00000   -0.00000
   0.00000    0.00000   -0.00000   -0.00000   -0.00000    0.00000    0.00000   -0.00000
   0.00000    0.00000    0.00000    0.00000   -0.00000   -0.00000   -0.00000   -0.00001
  -0.00182
 prteigrs : prtvol=0 or 1, do not print more k-points.

 Eight components of 2nd-order total energy (hartree) are
 1,2,3: 0th-order hamiltonian combined with 1st-order wavefunctions
     kin0=   1.90674229E+01 eigvalue=   2.04589229E+00  local=  -1.25143558E+01
 4,5,6: 1st-order hamiltonian combined with 1st and 0th-order wfs
     kin1=  -2.58238746E+01  Hartree=   0.00000000E+00     xc=   0.00000000E+00
 7,8,9: eventually, occupation + non-local contributions
    edocc=   2.25221352E+00     enl0=   9.76295359E-01   enl1=   2.16893808E+00
 1-9 gives the relaxation energy (to be shifted if some occ is /=2.0)
   erelax=  -1.18274683E+01
  No Ewald or frozen-wf contrib.: the relaxation energy is the total one
 2DEtotal=   -0.1182746825E+02 Ha. Also 2DEtotal=   -0.321841778691E+03 eV
    (  non-var. 2DEtotal :   -1.1827468251E+01 Ha)

 CALCULATION OF EFFECTIVE MASSES
 NOTE : Additional infos (eff. mass eigenvalues, eigenvectors and, if degenerate, average mass) are available in stdout.

 K-point ( 0.500,-0.500, 0.000) | band =    40
 Effective mass tensor:
             -1.4337090384             -0.0817172267              0.6746483672
             -0.0817172267             -1.4353467819              0.6821806676
              0.6746483672              0.6821806676             -1.7915977033
 Effective mass tensor eigenvalues:
             -2.6231886788             -1.3528066325             -0.6846582122
 Angular average effective mass 1/(<1/m>)=  -1.1623392043
 Angular average effective mass for Frohlich model (<m**0.5>)**2=  -1.2667228195
 Effective masses along directions: (cart. coord. / red. coord. -> eff. mass)
    1:   1.000000  0.000000  0.000000 /   0.999940 -0.010926  0.000000 ->  -1.1535616237
    2:   0.000000  1.000000  0.000000 /   0.000000  1.000000  0.000000 ->  -1.1495849131
    3:   0.000000  0.000000  1.000000 /   0.181654  0.181654  0.966439 ->  -1.1844937449
    4:   0.577350  0.577350  0.577350 /   0.553929  0.549136  0.625789 ->  -0.6896089117
    5:   0.000000  0.707107  0.707107 /   0.139374  0.656320  0.741498 ->  -0.8084588318
    6:   0.707107  0.000000  0.707107 /   0.656845  0.133825  0.742055 ->  -0.8122298215
    7:   0.707107  0.707107  0.000000 /   0.711002  0.703190  0.000000 ->  -1.0024590403

 K-point ( 0.000, 0.000, 0.000) | band =    41
 Effective mass tensor:
              0.9222466046             -0.2399699335              0.0424841587
             -0.2399699335              0.9170023005              0.0429496656
              0.0424841587              0.0429496656              0.5804908449
 Effective mass tensor eigenvalues:
              0.5519167774              0.7082142609              1.1596087117
 Angular average effective mass 1/(<1/m>)=   0.7341731915
 Angular average effective mass for Frohlich model (<m**0.5>)**2=   0.7538062781
 Effective masses along directions: (cart. coord. / red. coord. -> eff. mass)
    1:   1.000000  0.000000  0.000000 /   0.999940 -0.010926  0.000000 ->   0.8544596373
    2:   0.000000  1.000000  0.000000 /   0.000000  1.000000  0.000000 ->   0.8495206734
    3:   0.000000  0.000000  1.000000 /   0.181654  0.181654  0.966439 ->   0.5751209778
    4:   0.577350  0.577350  0.577350 /   0.553929  0.549136  0.625789 ->   0.7022807149
    5:   0.000000  0.707107  0.707107 /   0.139374  0.656320  0.741498 ->   0.7418022793
    6:   0.707107  0.000000  0.707107 /   0.656845  0.133825  0.742055 ->   0.7430202598
    7:   0.707107  0.707107  0.000000 /   0.711002  0.703190  0.000000 ->   0.6733615660

 END OF EFFECTIVE MASSES SECTION

 ---- first-order wavefunction calculations are completed ----

 Total localisation tensor (bohr^2) in cartesian coordinates
  WARNING : still subject to testing - especially symmetries.
      direction              matrix element
   alpha     beta       real part   imaginary part
     1        1       1.1003883638    0.0000000000
     1        2      -0.0120216084    0.0000000000
     1        3       0.2933811889    0.0000000000
     2        1      -0.0120216084    0.0000000000
     2        2       1.1001105124    0.0000000000
     2        3       0.2966005484    0.0000000000
     3        1       0.2933811889    0.0000000000
     3        2       0.2966005484    0.0000000000
     3        3       1.3870448616    0.0000000000

 respfn : d/dk was computed, but no 2DTE, so no DDB output.

== END DATASET(S) ==============================================================

 -outvars: echo values of variables after computation  --------
            acell      1.0000000000E+00  1.0000000000E+00  1.0000000000E+00 Bohr
              amu      3.90983000E+01  1.08110000E+01  3.09737620E+01
             ecut      3.80000000E+01 Hartree
           etotal     -1.1827468252E+01
            fcart      0.0000000000E+00  0.0000000000E+00  0.0000000000E+00
                       0.0000000000E+00  0.0000000000E+00  0.0000000000E+00
                       0.0000000000E+00  0.0000000000E+00  0.0000000000E+00
                       0.0000000000E+00  0.0000000000E+00  0.0000000000E+00
                       0.0000000000E+00  0.0000000000E+00  0.0000000000E+00
                       0.0000000000E+00  0.0000000000E+00  0.0000000000E+00
                       0.0000000000E+00  0.0000000000E+00  0.0000000000E+00
                       0.0000000000E+00  0.0000000000E+00  0.0000000000E+00
                       0.0000000000E+00  0.0000000000E+00  0.0000000000E+00
                       0.0000000000E+00  0.0000000000E+00  0.0000000000E+00
                       0.0000000000E+00  0.0000000000E+00  0.0000000000E+00
                       0.0000000000E+00  0.0000000000E+00  0.0000000000E+00
-          fftalg         512
           irdden           1
           irdwfk           1
           istwfk        0    1
              ixc     -116133
              kpt      5.00000000E-01 -5.00000000E-01  0.00000000E+00
                       0.00000000E+00  0.00000000E+00  0.00000000E+00
           kptopt           0
P           mkmem           2
P          mkqmem           2
P          mk1mem           2
            natom          12
            nband          49
           nbdbuf           4
            ngfft          72      72      96
             nkpt           2
            nstep        2000
             nsym           4
           ntypat           3
              occ      2.000000  2.000000  2.000000  2.000000  2.000000  2.000000
                       2.000000  2.000000  2.000000  2.000000  2.000000  2.000000
                       2.000000  2.000000  2.000000  2.000000  2.000000  2.000000
                       2.000000  2.000000  2.000000  2.000000  2.000000  2.000000
                       2.000000  2.000000  2.000000  2.000000  2.000000  2.000000
                       2.000000  2.000000  2.000000  2.000000  2.000000  2.000000
                       2.000000  2.000000  2.000000  2.000000  0.000000  0.000000
                       0.000000  0.000000  0.000000  0.000000  0.000000  0.000000
                       0.000000
        optdriver           1
            prtwf          -1
            rfdir           1       1       1
           rfelfd           2
            rprim      1.1659773411E+01  0.0000000000E+00  3.1434012174E+00
                      -1.2740616560E-01  1.1659077308E+01  3.1434012174E+00
                       0.0000000000E+00  0.0000000000E+00  1.6723542620E+01
          spgroup          15
           strten      0.0000000000E+00  0.0000000000E+00  0.0000000000E+00
                       0.0000000000E+00  0.0000000000E+00  0.0000000000E+00
           symrel      1  0  0   0  1  0   0  0  1      -1  0  0   0 -1  0   0  0 -1
                       0 -1  0  -1  0  0   0  0 -1       0  1  0   1  0  0   0  0  1
            tnons      0.0000000  0.0000000  0.0000000    -0.0000000 -0.0000000  0.0000000
                      -0.0000000 -0.0000000  0.5000000     0.0000000  0.0000000  0.5000000
           tolwfr      1.00000000E-20
            typat      1  1  1  1  1  1  2  2  3  3  3  3
           useylm           1
              wtk        0.50000    0.50000
           xangst      3.9892481366E+00  2.1571370081E+00  3.8758456820E+00
                       2.1134177709E+00  4.0125809765E+00  8.3007044827E+00
                       5.1879119517E+00  4.6097911682E+00  6.9186793766E+00
                       1.5498381843E+00  9.3174464031E-01  8.3301198743E-01
                       9.1475395585E-01  1.5599268163E+00  5.2578707881E+00
                       4.5528277233E+00  5.2379733443E+00  1.1343538177E+01
                       1.7007817470E+00  4.4207325000E+00  3.8758456820E+00
                       4.4018841605E+00  1.7489854846E+00  8.3007044827E+00
                       8.6577705369E-01  3.6382209983E+00  2.5188107122E+00
                       2.4741224483E+00  5.2642378337E+00  5.2328806519E+00
                       3.6285434593E+00  9.0548015085E-01  6.9436695129E+00
                       5.2368888539E+00  2.5314969863E+00  9.6577394525E+00
            xcart      7.5385864544E+00  4.0763981764E+00  7.3242868724E+00
                       3.9937807914E+00  7.5826791316E+00  1.5686058182E+01
                       9.8037327903E+00  8.7112428378E+00  1.3074409223E+01
                       2.9287697185E+00  1.7607421960E+00  1.5741645216E+00
                       1.7286344555E+00  2.9478344702E+00  9.9359358316E+00
                       8.6035975273E+00  9.8983351120E+00  2.1436180533E+01
                       3.2140117137E+00  8.3539737318E+00  7.3242868724E+00
                       8.3183555321E+00  3.3051035762E+00  1.5686058182E+01
                       1.6360815236E+00  6.8752412978E+00  4.7598624267E+00
                       4.6754138465E+00  9.9479678041E+00  9.8887113181E+00
                       6.8569533993E+00  1.7111095039E+00  1.3121633737E+01
                       9.8962857222E+00  4.7838360102E+00  1.8250482628E+01
             xred      6.5036700000E-01  3.4963300000E-01  2.5000000000E-01
                       3.4963300000E-01  6.5036700000E-01  7.5000000000E-01
                       8.4898100000E-01  7.4716400000E-01  4.8178100000E-01
                       2.5283600000E-01  1.5101900000E-01  1.8219000000E-02
                       1.5101900000E-01  2.5283600000E-01  5.1821900000E-01
                       7.4716400000E-01  8.4898100000E-01  9.8178100000E-01
                       2.8347900000E-01  7.1652100000E-01  2.5000000000E-01
                       7.1652100000E-01  2.8347900000E-01  7.5000000000E-01
                       1.4676200000E-01  5.8969000000E-01  1.4619500000E-01
                       4.1031000000E-01  8.5323800000E-01  3.5380500000E-01
                       5.8969000000E-01  1.4676200000E-01  6.4619500000E-01
                       8.5323800000E-01  4.1031000000E-01  8.5380500000E-01
            znucl       19.00000    5.00000   15.00000

- Timing analysis has been suppressed with timopt=0

 Suggested references for the acknowledgment of ABINIT usage.

 Calculation completed.
.Delivered   2 WARNINGs and   5 COMMENTs to log file.