.Version 9.5.2 of ABINIT

 ABINIT is a project of the Universite Catholique de Louvain,
 Corning Inc. and other collaborators, see ~abinit/doc/developers/contributors.txt .
 acknowledgments of the ABINIT effort.

.Starting date : Mon 24 May 2021.
- ( at 23h17 )

- input  file    -> /scratch/users/j/a/jabreu/flow_simple_10atoms/flow/w489/t1/run.abi
- output file    -> /scratch/users/j/a/jabreu/flow_simple_10atoms/flow/w489/t1/run.abo
- root for input  files -> /scratch/users/j/a/jabreu/flow_simple_10atoms/flow/w489/t1/indata/in
- root for output files -> /scratch/users/j/a/jabreu/flow_simple_10atoms/flow/w489/t1/outdata/out

 Symmetries : space group Fm -3 m (#225); Bravais cF (face-center cubic)
     intxc =       0      iscf =       7    lmnmax =      32     lnmax =       8
     mgfft =      72  mpssoang =       4    mqgrid =    3001     natom =      10
  nloc_mem =       1    nspden =       1   nspinor =       1    nsppol =       1
      nsym =      48    n1xccc =    2501    ntypat =       4    occopt =       1
   xclevel =       2
-    mband =          50        mffmem =           1         mkmem =           1
-   mkqmem =           1        mk1mem =           1           mpw =       15593
      nfft =      373248          nkpt =           1
  Rough estimation (10% accuracy) of disk space for files :

------------- Echo of variables that govern the present computation ------------
-
- outvars: echo of selected default values
-   iomode0 =  0 , fftalg0 =512 , wfoptalg0 =  0
-
- outvars: echo of global parameters not present in the input file
-  max_nthreads =    0
-
 -outvars: echo values of preprocessed input variables --------
            acell      1.0000000000E+00  1.0000000000E+00  1.0000000000E+00 Bohr
              amu      1.32905430E+02  3.90983000E+01  6.97230000E+01
                       1.89984032E+01
             ecut      4.20000000E+01 Hartree
-          fftalg         512
           irdden           1
           irdwfk           1
           istwfk        1
              ixc     -116133
           kptopt           0
P           mkmem           1
P          mkqmem           1
P          mk1mem           1
            natom          10
            nband          50
           nbdbuf           4
            ngfft          72      72      72
             nkpt           1
            nstep        2000
             nsym          48
           ntypat           4
              occ      2.000000  2.000000  2.000000  2.000000  2.000000  2.000000
                       2.000000  2.000000  2.000000  2.000000  2.000000  2.000000
                       2.000000  2.000000  2.000000  2.000000  2.000000  2.000000
                       2.000000  2.000000  2.000000  2.000000  2.000000  2.000000
                       2.000000  2.000000  2.000000  2.000000  2.000000  2.000000
                       2.000000  2.000000  2.000000  2.000000  2.000000  2.000000
                       2.000000  2.000000  2.000000  2.000000  2.000000  0.000000
                       0.000000  0.000000  0.000000  0.000000  0.000000  0.000000
                       0.000000  0.000000
        optdriver           1
            prtwf          -1
            rfdir           1       1       1
           rfelfd           2
            rprim      1.0350604514E+01  0.0000000000E+00  5.9759243026E+00
                       3.4502015047E+00  9.7586435219E+00  5.9759243026E+00
                       0.0000000000E+00  0.0000000000E+00  1.1951848605E+01
          spgroup         225
           symrel      1  0  0   0  1  0   0  0  1      -1  0  0   0 -1  0   0  0 -1
                       0 -1  1   0 -1  0   1 -1  0       0  1 -1   0  1  0  -1  1  0
                      -1  0  0  -1  0  1  -1  1  0       1  0  0   1  0 -1   1 -1  0
                       0  1 -1   1  0 -1   0  0 -1       0 -1  1  -1  0  1   0  0  1
                      -1  0  0  -1  1  0  -1  0  1       1  0  0   1 -1  0   1  0 -1
                       0 -1  1   1 -1  0   0 -1  0       0  1 -1  -1  1  0   0  1  0
                       1  0  0   0  0  1   0  1  0      -1  0  0   0  0 -1   0 -1  0
                       0  1 -1   0  0 -1   1  0 -1       0 -1  1   0  0  1  -1  0  1
                      -1  0  1  -1  1  0  -1  0  0       1  0 -1   1 -1  0   1  0  0
                       0 -1  0   1 -1  0   0 -1  1       0  1  0  -1  1  0   0  1 -1
                       1  0 -1   0  0 -1   0  1 -1      -1  0  1   0  0  1   0 -1  1
                       0  1  0   0  0  1   1  0  0       0 -1  0   0  0 -1  -1  0  0
                       1  0 -1   0  1 -1   0  0 -1      -1  0  1   0 -1  1   0  0  1
                       0 -1  0   0 -1  1   1 -1  0       0  1  0   0  1 -1  -1  1  0
                      -1  0  1  -1  0  0  -1  1  0       1  0 -1   1  0  0   1 -1  0
                       0  1  0   1  0  0   0  0  1       0 -1  0  -1  0  0   0  0 -1
                       0  0 -1   0  1 -1   1  0 -1       0  0  1   0 -1  1  -1  0  1
                       1 -1  0   0 -1  1   0 -1  0      -1  1  0   0  1 -1   0  1  0
                       0  0  1   1  0  0   0  1  0       0  0 -1  -1  0  0   0 -1  0
                      -1  1  0  -1  0  0  -1  0  1       1 -1  0   1  0  0   1  0 -1
                       0  0  1   0  1  0   1  0  0       0  0 -1   0 -1  0  -1  0  0
                       1 -1  0   0 -1  0   0 -1  1      -1  1  0   0  1  0   0  1 -1
                       0  0 -1   1  0 -1   0  1 -1       0  0  1  -1  0  1   0 -1  1
                      -1  1  0  -1  0  1  -1  0  0       1 -1  0   1  0 -1   1  0  0
           tolwfr      1.00000000E-20
            typat      1  1  2  3  4  4  4  4  4  4
           useylm           1
           xangst      1.8257680013E+00  1.2910129346E+00  3.1623229412E+00
                       5.4773040040E+00  3.8730388039E+00  9.4869688235E+00
                       3.6515360027E+00  2.5820258693E+00  6.3246458824E+00
                       0.0000000000E+00  0.0000000000E+00  0.0000000000E+00
                       2.6065138687E+00  4.0599103442E+00  8.1346773135E+00
                       4.6965581367E+00  1.1041413944E+00  8.1346773135E+00
                       2.6065138687E+00  4.0599103442E+00  4.5146144512E+00
                       1.5614917347E+00  1.1041413944E+00  6.3246458823E+00
                       5.7415802707E+00  4.0599103442E+00  6.3246458824E+00
                       4.6965581367E+00  1.1041413944E+00  4.5146144512E+00
            xcart      3.4502015047E+00  2.4396608805E+00  5.9759243026E+00
                       1.0350604514E+01  7.3189826414E+00  1.7927772908E+01
                       6.9004030094E+00  4.8793217609E+00  1.1951848605E+01
                       0.0000000000E+00  0.0000000000E+00  0.0000000000E+00
                       4.9255973734E+00  7.6721186746E+00  1.5372312302E+01
                       8.8752086455E+00  2.0865248473E+00  1.5372312302E+01
                       4.9255973734E+00  7.6721186746E+00  8.5313849084E+00
                       2.9507917373E+00  2.0865248473E+00  1.1951848605E+01
                       1.0850014282E+01  7.6721186746E+00  1.1951848605E+01
                       8.8752086455E+00  2.0865248473E+00  8.5313849084E+00
             xred      2.5000000000E-01  2.5000000000E-01  2.5000000000E-01
                       7.5000000000E-01  7.5000000000E-01  7.5000000000E-01
                       5.0000000000E-01  5.0000000000E-01  5.0000000000E-01
                       0.0000000000E+00  0.0000000000E+00  0.0000000000E+00
                       2.1381300000E-01  7.8618700000E-01  7.8618700000E-01
                       7.8618700000E-01  2.1381300000E-01  7.8618700000E-01
                       2.1381300000E-01  7.8618700000E-01  2.1381300000E-01
                       2.1381300000E-01  2.1381300000E-01  7.8618700000E-01
                       7.8618700000E-01  7.8618700000E-01  2.1381300000E-01
                       7.8618700000E-01  2.1381300000E-01  2.1381300000E-01
            znucl       55.00000   19.00000   31.00000    9.00000

 chkinp: Checking input parameters for consistency.

== DATASET  1 ==================================================================
-   mpi_nproc: 1, omp_nthreads: -1 (-1 if OMP is not activated)

--- !DatasetInfo
iteration_state: {dtset: 1, }
dimensions: {natom: 10, nkpt: 1, mband: 50, nsppol: 1, nspinor: 1, nspden: 1, mpw: 15593, }
cutoff_energies: {ecut:  42.0, pawecutdg:  -1.0, }
electrons: {nelect:   8.20000000E+01, charge:   0.00000000E+00, occopt:   1.00000000E+00, tsmear:   1.00000000E-02, }
meta: {optdriver: 1, rfelfd: 2, }
...

 Real(R)+Recip(G) space primitive vectors, cartesian coordinates (Bohr,Bohr^-1):
 R(1)= 10.3506045  0.0000000  5.9759243  G(1)=  0.0966127 -0.0341578  0.0000000
 R(2)=  3.4502015  9.7586435  5.9759243  G(2)=  0.0000000  0.1024733  0.0000000
 R(3)=  0.0000000  0.0000000 11.9518486  G(3)= -0.0483064 -0.0341578  0.0836691
 Unit cell volume ucvol=  1.2072306E+03 bohr^3
 Angles (23,13,12)=  6.00000000E+01  6.00000000E+01  6.00000000E+01 degrees

 getcut: wavevector=  0.0000  0.0000  0.0000  ngfft=  72  72  72
         ecut(hartree)=     42.000   => boxcut(ratio)=   2.06494

--- Pseudopotential description ------------------------------------------------
- pspini: atom type   1  psp file is /scratch/users/j/a/jabreu/pseudos/PBEsol/Cs.psp8
- pspatm: opening atomic psp file    /scratch/users/j/a/jabreu/pseudos/PBEsol/Cs.psp8
- Cs    ONCVPSP-3.3.0  r_core=   2.27353   1.85623   2.01788   1.90105
- 55.00000   9.00000    180112                znucl, zion, pspdat
    8 -116133    3    4       600   0.00000   pspcod,pspxc,lmax,lloc,mmax,r2well
    5.99000000000000    5.00000000000000    0.00000000000000   rchrg,fchrg,qchrg
     nproj     2     2     2     2
     extension_switch     1
  pspatm : epsatm=   22.12462445
         --- l  ekb(1:nproj) -->
             0    6.214110    0.767882
             1    6.311966    0.793598
             2    3.769790    0.913105
             3   -9.247129   -2.432478
 pspatm: atomic psp has been read  and splines computed

- pspini: atom type   2  psp file is /scratch/users/j/a/jabreu/pseudos/PBEsol/K.psp8
- pspatm: opening atomic psp file    /scratch/users/j/a/jabreu/pseudos/PBEsol/K.psp8
- K     ONCVPSP-3.3.0  r_core=   1.36296   1.46408   1.61068
- 19.00000   9.00000    180112                znucl, zion, pspdat
    8 -116133    2    4       400   0.00000   pspcod,pspxc,lmax,lloc,mmax,r2well
    3.99000000000000    5.00000000000000    0.00000000000000   rchrg,fchrg,qchrg
     nproj     2     2     2
     extension_switch     1
  pspatm : epsatm=    8.32487830
         --- l  ekb(1:nproj) -->
             0   10.921326    0.816676
             1    4.431000    0.560368
             2   -3.384038   -1.043186
 pspatm: atomic psp has been read  and splines computed

[...]

- pspini: atom type   4  psp file is /scratch/users/j/a/jabreu/pseudos/PBEsol/F.psp8
- pspatm: opening atomic psp file    /scratch/users/j/a/jabreu/pseudos/PBEsol/F.psp8
- F     ONCVPSP-3.3.0  r_core=   1.30942   1.45782   1.60379
-  9.00000   7.00000    180112                znucl, zion, pspdat
    8 -116133    2    4       600   0.00000   pspcod,pspxc,lmax,lloc,mmax,r2well
[...]
 ETOT  9  -45.893474292167     -4.939E-11 4.740E-07 0.000E+00
 ETOT 10  -45.893474292171     -4.420E-12 1.080E-07 0.000E+00
 ETOT 11  -45.893474292171     -4.121E-13 4.111E-08 0.000E+00
 ETOT 12  -45.893474292171     -1.421E-14 9.425E-09 0.000E+00
 ETOT 13  -45.893474292171     -2.842E-14 3.595E-09 0.000E+00
 ETOT 14  -45.893474292171      2.132E-14 8.308E-10 0.000E+00
 ETOT 15  -45.893474292171     -2.132E-14 3.165E-10 0.000E+00
 ETOT 16  -45.893474292171      2.842E-14 7.378E-11 0.000E+00
 ETOT 17  -45.893474292171      7.105E-15 2.801E-11 0.000E+00
 ETOT 18  -45.893474292171     -3.553E-14 6.589E-12 0.000E+00
 ETOT 19  -45.893474292171      0.000E+00 2.490E-12 0.000E+00
 ETOT 20  -45.893474292171      0.000E+00 5.911E-13 0.000E+00
 ETOT 21  -45.893474292171      2.842E-14 2.221E-13 0.000E+00
 ETOT 22  -45.893474292171     -1.421E-14 5.321E-14 0.000E+00
 ETOT 23  -45.893474292171      0.000E+00 1.986E-14 0.000E+00
 ETOT 24  -45.893474292171      2.842E-14 4.802E-15 0.000E+00
 ETOT 25  -45.893474292171     -1.421E-14 1.781E-15 0.000E+00
 ETOT 26  -45.893474292171      7.105E-15 4.341E-16 0.000E+00
 ETOT 27  -45.893474292171      7.105E-15 1.599E-16 0.000E+00
 ETOT 28  -45.893474292171      0.000E+00 3.930E-17 0.000E+00
 ETOT 29  -45.893474292171      0.000E+00 1.439E-17 0.000E+00
 ETOT 30  -45.893474292171     -7.105E-15 3.561E-18 0.000E+00
 ETOT 31  -45.893474292171     -7.105E-15 1.296E-18 0.000E+00
 ETOT 32  -45.893474292171      7.105E-15 3.229E-19 0.000E+00
 ETOT 33  -45.893474292171      0.000E+00 1.168E-19 0.000E+00
 ETOT 34  -45.893474292171      2.132E-14 2.929E-20 0.000E+00
 ETOT 35  -45.893474292171     -1.421E-14 9.885E-21 0.000E+00

 At SCF step   35   max residual=  9.88E-21 < tolwfr=  1.00E-20 =>converged.

 ----iterations are completed or convergence reached----

 dfpt_looppert: DFPT cycle converged with prtwf=-1. Will skip output of the 1st-order WFK file.
 dfpt_looppert : ek2=    6.7986812052E+01
          f-sum rule ratio=    1.0602435454E+00
 prteigrs : about to open file /scratch/users/j/a/jabreu/flow_simple_10atoms/flow/w489/t1/tmpdata/tmp_1WF1_EIG
 Expectation of eigenvalue derivatives (hartree) for nkpt=   1  k points:
  (in case of degenerate eigenvalues, averaged derivative)
 kpt#   1, nband= 50, wtk=  1.00000, kpt=  0.0000  0.0000  0.0000 (reduced coord)
  -0.00000   -0.00000   -0.00000   -0.00000   -0.00000    0.00000    0.00000   -0.00000
  -0.00000   -0.00000   -0.00000   -0.00000    0.00000    0.00000    0.00000    0.00000
   0.00000   -0.00000   -0.00000   -0.00000    0.00000   -0.00000   -0.00000   -0.00000
  -0.00000   -0.00000   -0.00000    0.00000    0.00000    0.00000    0.00000    0.00000
   0.00000    0.00000    0.00000   -0.00000   -0.00000   -0.00000   -0.00000   -0.00000
  -0.00000   -0.00000   -0.00000   -0.00000   -0.00000   -0.00000   -0.00000   -0.00001
  -0.00000   -0.00000

 Eight components of 2nd-order total energy (hartree) are
 1,2,3: 0th-order hamiltonian combined with 1st-order wavefunctions
     kin0=   5.65677324E+01 eigvalue=   2.90310085E+00  local=  -2.51254162E+01
 4,5,6: 1st-order hamiltonian combined with 1st and 0th-order wfs
     kin1=  -7.20825786E+01  Hartree=   0.00000000E+00     xc=   0.00000000E+00
 7,8,9: eventually, occupation + non-local contributions
    edocc=   7.51892592E+00     enl0=   4.02913139E+00   enl1=  -1.97043699E+01
 1-9 gives the relaxation energy (to be shifted if some occ is /=2.0)
   erelax=  -4.58934743E+01
  No Ewald or frozen-wf contrib.: the relaxation energy is the total one
 2DEtotal=   -0.4589347429E+02 Ha. Also 2DEtotal=   -0.124882494563E+04 eV
    (  non-var. 2DEtotal :   -4.5893474292E+01 Ha)

 CALCULATION OF EFFECTIVE MASSES
 NOTE : Additional infos (eff. mass eigenvalues, eigenvectors and, if degenerate, average mass) are available in stdout.

 COMMENTS:
 - At k-point ( 0.000, 0.000, 0.000), bands    39 through    41
   are DEGENERATE (effective mass tensor is therefore not defined).
   See Section IIIB Eqs. (67)-(70) and Appendix E of PRB 93 205147 (2016).
 - Angular average effective mass for Frohlich model is to be averaged over degenerate bands. See later.
 - Associated theta integrals calculated with ntheta=   1000 points.

 K-point ( 0.000, 0.000, 0.000) | band =    39
 Transport equivalent effective mass tensor:
             -7.6434349160             -0.0000001648             -0.0000002082
             -0.0000001648             -7.6434369042             -0.0000000916
             -0.0000002082             -0.0000000916             -7.6434338507
 Transport equivalent effective mass tensor eigenvalues:
             -7.6434369217             -7.6434349390             -7.6434338103
 Angular average effective mass 1/(<1/m>)=  -7.4061456167
 Angular average effective mass for Frohlich model (<m**0.5>)**2=  -7.4161084631
 Effective masses along directions: (cart. coord. / red. coord. -> eff. mass)
    1:   1.000000  0.000000  0.000000 /   0.948683  0.316228  0.000000 ->  -7.7932922114
    2:   0.000000  1.000000  0.000000 /   0.000000  1.000000  0.000000 ->  -8.3083059665
    3:   0.000000  0.000000  1.000000 /   0.408248  0.408248  0.816497 ->  -7.1122888540
    4:   0.577350  0.577350  0.577350 /   0.585539  0.688047  0.428644 ->  -7.6083405697
    5:   0.000000  0.707107  0.707107 /   0.289489  0.762222  0.578977 ->  -7.1565322230
    6:   0.707107  0.000000  0.707107 /   0.731423  0.422287  0.535439 ->  -7.3482161726
    7:   0.707107  0.707107  0.000000 /   0.616798  0.787122  0.000000 ->  -7.1680833070

[...]

 K-point ( 0.000, 0.000, 0.000) | band =    41
 Transport equivalent effective mass tensor:
           -122.8590174173              0.0000480571              0.0000024531
              0.0000480571           -122.8590193906             -0.0000012227
              0.0000024531             -0.0000012227           -122.8590307041
 Transport equivalent effective mass tensor eigenvalues:
           -122.8590666578           -122.8590305308           -122.8589703233
 Angular average effective mass 1/(<1/m>)= -21.7102748075
 Angular average effective mass for Frohlich model (<m**0.5>)**2= -25.2196033759
 Effective masses along directions: (cart. coord. / red. coord. -> eff. mass)
    1:   1.000000  0.000000  0.000000 /   0.948683  0.316228  0.000000 -> -19.3426068080
    2:   0.000000  1.000000  0.000000 /   0.000000  1.000000  0.000000 -> -11.5425339261
    3:   0.000000  0.000000  1.000000 /   0.408248  0.408248  0.816497 -> -16.7635302573
    4:   0.577350  0.577350  0.577350 /   0.585539  0.688047  0.428644 -> -18.7083656178
    5:   0.000000  0.707107  0.707107 /   0.289489  0.762222  0.578977 -> -30.3092023859
    6:   0.707107  0.000000  0.707107 /   0.731423  0.422287  0.535439 -> -18.1345412190
    7:   0.707107  0.707107  0.000000 /   0.616798  0.787122  0.000000 -> -63.1334917393

 Angular average effective mass for Frohlich model, averaged over degenerate bands.
 Value of     (<<m**0.5>>)**2 =     1.282569E+01
 Absolute Value of <<m**0.5>> =     3.581297E+00

 K-point ( 0.000, 0.000, 0.000) | band =    42
 Effective mass tensor:
              0.4755065198             -0.0000000002             -0.0000000007
             -0.0000000002              0.4755065189             -0.0000000000
             -0.0000000007             -0.0000000000              0.4755065191
 Effective mass tensor eigenvalues:
              0.4755065186              0.4755065189              0.4755065203
 Angular average effective mass 1/(<1/m>)=   0.4755065193
 Angular average effective mass for Frohlich model (<m**0.5>)**2=   0.4755065193
 Effective masses along directions: (cart. coord. / red. coord. -> eff. mass)
    1:   1.000000  0.000000  0.000000 /   0.948683  0.316228  0.000000 ->   0.4755065198
    2:   0.000000  1.000000  0.000000 /   0.000000  1.000000  0.000000 ->   0.4755065189
    3:   0.000000  0.000000  1.000000 /   0.408248  0.408248  0.816497 ->   0.4755065191
    4:   0.577350  0.577350  0.577350 /   0.585539  0.688047  0.428644 ->   0.4755065187
    5:   0.000000  0.707107  0.707107 /   0.289489  0.762222  0.578977 ->   0.4755065190
    6:   0.707107  0.000000  0.707107 /   0.731423  0.422287  0.535439 ->   0.4755065187
    7:   0.707107  0.707107  0.000000 /   0.616798  0.787122  0.000000 ->   0.4755065192

 END OF EFFECTIVE MASSES SECTION

 ---- first-order wavefunction calculations are completed ----

 Total localisation tensor (bohr^2) in cartesian coordinates
  WARNING : still subject to testing - especially symmetries.
      direction              matrix element
   alpha     beta       real part   imaginary part
     1        1       0.8143324265    0.0000000000
     1        2       0.2303413694    0.0000000000
     1        3       0.5641915159    0.0000000000
     2        1       0.2303413694    0.0000000000
     2        2       0.6515037772    0.0000000000
     2        3       0.3989629549    0.0000000000
     3        1       0.5641915159    0.0000000000
     3        2       0.3989629549    0.0000000000
     3        3       1.4658624523    0.0000000000

 respfn : d/dk was computed, but no 2DTE, so no DDB output.

== END DATASET(S) ==============================================================

 -outvars: echo values of variables after computation  --------
            acell      1.0000000000E+00  1.0000000000E+00  1.0000000000E+00 Bohr
              amu      1.32905430E+02  3.90983000E+01  6.97230000E+01
                       1.89984032E+01
             ecut      4.20000000E+01 Hartree
           etotal     -4.5893474292E+01
            fcart      0.0000000000E+00  0.0000000000E+00  0.0000000000E+00
                       0.0000000000E+00  0.0000000000E+00  0.0000000000E+00
                       0.0000000000E+00  0.0000000000E+00  0.0000000000E+00
                       0.0000000000E+00  0.0000000000E+00  0.0000000000E+00
                       0.0000000000E+00  0.0000000000E+00  0.0000000000E+00
                       0.0000000000E+00  0.0000000000E+00  0.0000000000E+00
                       0.0000000000E+00  0.0000000000E+00  0.0000000000E+00
                       0.0000000000E+00  0.0000000000E+00  0.0000000000E+00
                       0.0000000000E+00  0.0000000000E+00  0.0000000000E+00
                       0.0000000000E+00  0.0000000000E+00  0.0000000000E+00
-          fftalg         512
           irdden           1
           irdwfk           1
           istwfk        1
              ixc     -116133
           kptopt           0
P           mkmem           1
P          mkqmem           1
P          mk1mem           1
            natom          10
            nband          50
           nbdbuf           4
            ngfft          72      72      72
             nkpt           1
            nstep        2000
             nsym          48
           ntypat           4
              occ      2.000000  2.000000  2.000000  2.000000  2.000000  2.000000
                       2.000000  2.000000  2.000000  2.000000  2.000000  2.000000
                       2.000000  2.000000  2.000000  2.000000  2.000000  2.000000
                       2.000000  2.000000  2.000000  2.000000  2.000000  2.000000
                       2.000000  2.000000  2.000000  2.000000  2.000000  2.000000
                       2.000000  2.000000  2.000000  2.000000  2.000000  2.000000
                       2.000000  2.000000  2.000000  2.000000  2.000000  0.000000
                       0.000000  0.000000  0.000000  0.000000  0.000000  0.000000
                       0.000000  0.000000
        optdriver           1
            prtwf          -1
            rfdir           1       1       1
           rfelfd           2
            rprim      1.0350604514E+01  0.0000000000E+00  5.9759243026E+00
                       3.4502015047E+00  9.7586435219E+00  5.9759243026E+00
                       0.0000000000E+00  0.0000000000E+00  1.1951848605E+01
          spgroup         225
           strten      0.0000000000E+00  0.0000000000E+00  0.0000000000E+00
                       0.0000000000E+00  0.0000000000E+00  0.0000000000E+00
           symrel      1  0  0   0  1  0   0  0  1      -1  0  0   0 -1  0   0  0 -1
                       0 -1  1   0 -1  0   1 -1  0       0  1 -1   0  1  0  -1  1  0
                      -1  0  0  -1  0  1  -1  1  0       1  0  0   1  0 -1   1 -1  0
                       0  1 -1   1  0 -1   0  0 -1       0 -1  1  -1  0  1   0  0  1
                      -1  0  0  -1  1  0  -1  0  1       1  0  0   1 -1  0   1  0 -1
                       0 -1  1   1 -1  0   0 -1  0       0  1 -1  -1  1  0   0  1  0
                       1  0  0   0  0  1   0  1  0      -1  0  0   0  0 -1   0 -1  0
                       0  1 -1   0  0 -1   1  0 -1       0 -1  1   0  0  1  -1  0  1
                      -1  0  1  -1  1  0  -1  0  0       1  0 -1   1 -1  0   1  0  0
                       0 -1  0   1 -1  0   0 -1  1       0  1  0  -1  1  0   0  1 -1
                       1  0 -1   0  0 -1   0  1 -1      -1  0  1   0  0  1   0 -1  1
                       0  1  0   0  0  1   1  0  0       0 -1  0   0  0 -1  -1  0  0
                       1  0 -1   0  1 -1   0  0 -1      -1  0  1   0 -1  1   0  0  1
                       0 -1  0   0 -1  1   1 -1  0       0  1  0   0  1 -1  -1  1  0
                      -1  0  1  -1  0  0  -1  1  0       1  0 -1   1  0  0   1 -1  0
                       0  1  0   1  0  0   0  0  1       0 -1  0  -1  0  0   0  0 -1
                       0  0 -1   0  1 -1   1  0 -1       0  0  1   0 -1  1  -1  0  1
                       1 -1  0   0 -1  1   0 -1  0      -1  1  0   0  1 -1   0  1  0
                       0  0  1   1  0  0   0  1  0       0  0 -1  -1  0  0   0 -1  0
                      -1  1  0  -1  0  0  -1  0  1       1 -1  0   1  0  0   1  0 -1
                       0  0  1   0  1  0   1  0  0       0  0 -1   0 -1  0  -1  0  0
                       1 -1  0   0 -1  0   0 -1  1      -1  1  0   0  1  0   0  1 -1
                       0  0 -1   1  0 -1   0  1 -1       0  0  1  -1  0  1   0 -1  1
                      -1  1  0  -1  0  1  -1  0  0       1 -1  0   1  0 -1   1  0  0
           tolwfr      1.00000000E-20
            typat      1  1  2  3  4  4  4  4  4  4
           useylm           1
           xangst      1.8257680013E+00  1.2910129346E+00  3.1623229412E+00
                       5.4773040040E+00  3.8730388039E+00  9.4869688235E+00
                       3.6515360027E+00  2.5820258693E+00  6.3246458824E+00
                       0.0000000000E+00  0.0000000000E+00  0.0000000000E+00
                       2.6065138687E+00  4.0599103442E+00  8.1346773135E+00
                       4.6965581367E+00  1.1041413944E+00  8.1346773135E+00
                       2.6065138687E+00  4.0599103442E+00  4.5146144512E+00
                       1.5614917347E+00  1.1041413944E+00  6.3246458823E+00
                       5.7415802707E+00  4.0599103442E+00  6.3246458824E+00
                       4.6965581367E+00  1.1041413944E+00  4.5146144512E+00
            xcart      3.4502015047E+00  2.4396608805E+00  5.9759243026E+00
                       1.0350604514E+01  7.3189826414E+00  1.7927772908E+01
                       6.9004030094E+00  4.8793217609E+00  1.1951848605E+01
                       0.0000000000E+00  0.0000000000E+00  0.0000000000E+00
                       4.9255973734E+00  7.6721186746E+00  1.5372312302E+01
                       8.8752086455E+00  2.0865248473E+00  1.5372312302E+01
                       4.9255973734E+00  7.6721186746E+00  8.5313849084E+00
                       2.9507917373E+00  2.0865248473E+00  1.1951848605E+01
                       1.0850014282E+01  7.6721186746E+00  1.1951848605E+01
                       8.8752086455E+00  2.0865248473E+00  8.5313849084E+00
             xred      2.5000000000E-01  2.5000000000E-01  2.5000000000E-01
                       7.5000000000E-01  7.5000000000E-01  7.5000000000E-01
                       5.0000000000E-01  5.0000000000E-01  5.0000000000E-01
                       0.0000000000E+00  0.0000000000E+00  0.0000000000E+00
                       2.1381300000E-01  7.8618700000E-01  7.8618700000E-01
                       7.8618700000E-01  2.1381300000E-01  7.8618700000E-01
                       2.1381300000E-01  7.8618700000E-01  2.1381300000E-01
                       2.1381300000E-01  2.1381300000E-01  7.8618700000E-01
                       7.8618700000E-01  7.8618700000E-01  2.1381300000E-01
                       7.8618700000E-01  2.1381300000E-01  2.1381300000E-01
            znucl       55.00000   19.00000   31.00000    9.00000

- Timing analysis has been suppressed with timopt=0

 Suggested references for the acknowledgment of ABINIT usage.

 Calculation completed.
.Delivered   2 WARNINGs and   5 COMMENTs to log file.