.Version 9.5.1 of ABINIT

 ABINIT is a project of the Universite Catholique de Louvain,
 Corning Inc. and other collaborators, see ~abinit/doc/developers/contributors.txt .
 acknowledgments of the ABINIT effort.

.Starting date : Mon 26 Apr 2021.
- ( at 00h47 )

- input  file    -> /scratch/users/j/a/jabreu/flow_simple/flow/w98/t1/run.abi
- output file    -> /scratch/users/j/a/jabreu/flow_simple/flow/w98/t1/run.abo
- root for input  files -> /scratch/users/j/a/jabreu/flow_simple/flow/w98/t1/indata/in
- root for output files -> /scratch/users/j/a/jabreu/flow_simple/flow/w98/t1/outdata/out

 Symmetries : space group F-4 3 m (#216); Bravais cF (face-center cubic)
     intxc =       0      iscf =       7    lmnmax =      32     lnmax =       8
     mgfft =      48  mpssoang =       4    mqgrid =    3001     natom =       3
  nloc_mem =       1    nspden =       1   nspinor =       1    nsppol =       1
      nsym =      24    n1xccc =    2501    ntypat =       3    occopt =       1
   xclevel =       2
-    mband =          31        mffmem =           1         mkmem =           1
-   mkqmem =           1        mk1mem =           1           mpw =        5029
      nfft =      110592          nkpt =           1
  Rough estimation (10% accuracy) of disk space for files :

------------- Echo of variables that govern the present computation ------------
-
- outvars: echo of selected default values
-   iomode0 =  0 , fftalg0 =512 , wfoptalg0 =  0
-
- outvars: echo of global parameters not present in the input file
-  max_nthreads =    0
-
 -outvars: echo values of preprocessed input variables --------
            acell      1.0000000000E+00  1.0000000000E+00  1.0000000000E+00 Bohr
              amu      4.78800000E+01  1.27600000E+02  1.90200000E+02
             ecut      4.20000000E+01 Hartree
-          fftalg         512
           irdden           1
           irdwfk           1
           istwfk        1
              ixc     -116133
           kptopt           0
P           mkmem           1
P          mkqmem           1
P          mk1mem           1
            natom           3
            nband          31
           nbdbuf           4
            ngfft          48      48      48
             nkpt           1
            nstep         100
             nsym          24
           ntypat           3
              occ      2.000000  2.000000  2.000000  2.000000  2.000000  2.000000
                       2.000000  2.000000  2.000000  2.000000  2.000000  2.000000
                       2.000000  2.000000  2.000000  2.000000  2.000000  2.000000
                       2.000000  2.000000  2.000000  2.000000  0.000000  0.000000
                       0.000000  0.000000  0.000000  0.000000  0.000000  0.000000
                       0.000000
        optdriver           1
            prtwf          -1
            rfdir           1       1       1
           rfelfd           2
            rprim      7.0688156658E+00  0.0000000000E+00  4.0811826275E+00
                       2.3562718886E+00  6.6645433230E+00  4.0811826275E+00
                       0.0000000000E+00  0.0000000000E+00  8.1623652550E+00
          spgroup         216
           symrel      1  0  0   0  1  0   0  0  1       0 -1  1   0 -1  0   1 -1  0
                      -1  0  0  -1  0  1  -1  1  0       0  1 -1   1  0 -1   0  0 -1
                      -1  0  0  -1  1  0  -1  0  1       0 -1  1   1 -1  0   0 -1  0
                       1  0  0   0  0  1   0  1  0       0  1 -1   0  0 -1   1  0 -1
                      -1  0  1  -1  1  0  -1  0  0       0 -1  0   1 -1  0   0 -1  1
                       1  0 -1   0  0 -1   0  1 -1       0  1  0   0  0  1   1  0  0
                       1  0 -1   0  1 -1   0  0 -1       0 -1  0   0 -1  1   1 -1  0
                      -1  0  1  -1  0  0  -1  1  0       0  1  0   1  0  0   0  0  1
                       0  0 -1   0  1 -1   1  0 -1       1 -1  0   0 -1  1   0 -1  0
                       0  0  1   1  0  0   0  1  0      -1  1  0  -1  0  0  -1  0  1
                       0  0  1   0  1  0   1  0  0       1 -1  0   0 -1  0   0 -1  1
                       0  0 -1   1  0 -1   0  1 -1      -1  1  0  -1  0  1  -1  0  0
           tolwfr      1.00000000E-20
            typat      1  2  3
           useylm           1
           xangst      2.4937707614E+00  1.7633622161E+00  4.3193376611E+00
                       0.0000000000E+00  0.0000000000E+00  0.0000000000E+00
                       1.2468853807E+00  8.8168110805E-01  2.1596688306E+00
            xcart      4.7125437772E+00  3.3322716615E+00  8.1623652550E+00
                       0.0000000000E+00  0.0000000000E+00  0.0000000000E+00
                       2.3562718886E+00  1.6661358308E+00  4.0811826275E+00
             xred      5.0000000000E-01  5.0000000000E-01  5.0000000000E-01
                       0.0000000000E+00  0.0000000000E+00  0.0000000000E+00
                       2.5000000000E-01  2.5000000000E-01  2.5000000000E-01
            znucl       22.00000   52.00000   76.00000

 chkinp: Checking input parameters for consistency.

== DATASET  1 ==================================================================
-   mpi_nproc: 1, omp_nthreads: -1 (-1 if OMP is not activated)

--- !DatasetInfo
iteration_state: {dtset: 1, }
dimensions: {natom: 3, nkpt: 1, mband: 31, nsppol: 1, nspinor: 1, nspden: 1, mpw: 5029, }
cutoff_energies: {ecut:  42.0, pawecutdg:  -1.0, }
electrons: {nelect:   4.40000000E+01, charge:   0.00000000E+00, occopt:   1.00000000E+00, tsmear:   1.00000000E-02, }
meta: {optdriver: 1, rfelfd: 2, }
...

 Real(R)+Recip(G) space primitive vectors, cartesian coordinates (Bohr,Bohr^-1):
 R(1)=  7.0688157  0.0000000  4.0811826  G(1)=  0.1414664 -0.0500159  0.0000000
 R(2)=  2.3562719  6.6645433  4.0811826  G(2)=  0.0000000  0.1500478  0.0000000
 R(3)=  0.0000000  0.0000000  8.1623653  G(3)= -0.0707332 -0.0500159  0.1225135
 Unit cell volume ucvol=  3.8453252E+02 bohr^3
 Angles (23,13,12)=  6.00000000E+01  6.00000000E+01  6.00000000E+01 degrees

 getcut: wavevector=  0.0000  0.0000  0.0000  ngfft=  48  48  48
         ecut(hartree)=     42.000   => boxcut(ratio)=   2.01574

--- Pseudopotential description ------------------------------------------------
- pspini: atom type   1  psp file is /scratch/users/j/a/jabreu/pseudos/PBEsol/Ti.psp8
- pspatm: opening atomic psp file    /scratch/users/j/a/jabreu/pseudos/PBEsol/Ti.psp8
- Ti    ONCVPSP-3.3.0  r_core=   1.35825   1.31050   1.66360
- 22.00000  12.00000    180112                znucl, zion, pspdat
    8 -116133    2    4       600   0.00000   pspcod,pspxc,lmax,lloc,mmax,r2well
    5.99000000000000    2.50000000000000    0.00000000000000   rchrg,fchrg,qchrg
     nproj     2     2     2
     extension_switch     1
  pspatm : epsatm=   14.76919902
         --- l  ekb(1:nproj) -->
             0   11.321950    1.254474
             1    1.946894   -0.084268
             2   -5.237105   -1.488377
 pspatm: atomic psp has been read  and splines computed

- pspini: atom type   2  psp file is /scratch/users/j/a/jabreu/pseudos/PBEsol/Te.psp8
- pspatm: opening atomic psp file    /scratch/users/j/a/jabreu/pseudos/PBEsol/Te.psp8
- Te    ONCVPSP-3.3.0  r_core=   2.26547   1.91704   1.80604
- 52.00000  16.00000    180112                znucl, zion, pspdat
    8 -116133    2    4       600   0.00000   pspcod,pspxc,lmax,lloc,mmax,r2well
    5.99000000000000    5.00000000000000    0.00000000000000   rchrg,fchrg,qchrg
     nproj     2     2     2
     extension_switch     1
  pspatm : epsatm=   36.82679836
         --- l  ekb(1:nproj) -->
             0    6.345999    0.785432
             1    5.709019    1.070069
             2   -6.035173   -1.870937
 pspatm: atomic psp has been read  and splines computed

- pspini: atom type   3  psp file is /scratch/users/j/a/jabreu/pseudos/PBEsol/Os.psp8
- pspatm: opening atomic psp file    /scratch/users/j/a/jabreu/pseudos/PBEsol/Os.psp8
- Os    ONCVPSP-3.3.0  r_core=   1.51352   1.55006   1.55006   2.27051
- 76.00000  16.00000    180112                znucl, zion, pspdat
    8 -116133    3    4       600   0.00000   pspcod,pspxc,lmax,lloc,mmax,r2well
    5.99000000000000    5.00000000000000    0.00000000000000   rchrg,fchrg,qchrg
     nproj     2     2     2     2
     extension_switch     1
  pspatm : epsatm=   26.11825460
         --- l  ekb(1:nproj) -->
             0    7.994989   -1.246074
             1    8.240861    1.154929
             2    2.240487    0.219183
             3    0.647575    0.186609
 pspatm: atomic psp has been read  and splines computed

   3.41942709E+03                                ecore*ucvol(ha*bohr**3)

-inwffil : will read wavefunctions from disk file /scratch/users/j/a/jabreu/flow_simple/flow/w98/t1/indata/in_WFK

 ==>  initialize data related to q vector <==

 The list of irreducible perturbations for this q vector is:
    1)    idir= 1    ipert=   4
    2)    idir= 2    ipert=   4
    3)    idir= 3    ipert=   4

 Perturbation wavevector (in red.coord.)   0.000000  0.000000  0.000000
 Perturbation : derivative vs k along direction   1

 dfpt_looppert : COMMENT -
  In a d/dk calculation, iscf is set to -3 automatically.
 The set of symmetries contains only one element for this perturbation.
 symkpt : not enough symmetry to change the number of k points.

[...]

 Initialisation of the first-order wave-functions :
  ireadwf=   0

--- !BeginCycle
iteration_state: {dtset: 1, }
solver: {iscf: 7, nstep: 100, nline: 4, wfoptalg: 0, }
tolerances: {tolwfr: 1.00E-20, }
...

     iter   2DEtotal(Ha)        deltaE(Ha) residm    vres2
-ETOT  1  -72.820719225076     -7.282E+01 7.710E-02 0.000E+00
 ETOT  2  -72.866634510601     -4.592E-02 8.821E-03 0.000E+00
 ETOT  3  -72.866889947220     -2.554E-04 2.825E-04 0.000E+00
 ETOT  4  -72.866893403391     -3.456E-06 4.780E-05 0.000E+00
 ETOT  5  -72.866893514161     -1.108E-07 2.271E-06 0.000E+00
 ETOT  6  -72.866893519327     -5.165E-09 4.047E-07 0.000E+00
 ETOT  7  -72.866893519594     -2.678E-10 3.920E-08 0.000E+00
 ETOT  8  -72.866893519609     -1.424E-11 5.321E-09 0.000E+00
 ETOT  9  -72.866893519610     -7.816E-13 6.034E-10 0.000E+00
 ETOT 10  -72.866893519610     -9.948E-14 9.004E-11 0.000E+00
 ETOT 11  -72.866893519610      1.137E-13 1.042E-11 0.000E+00
 ETOT 12  -72.866893519610     -8.527E-14 1.587E-12 0.000E+00
 ETOT 13  -72.866893519610     -1.421E-14 1.983E-13 0.000E+00
 ETOT 14  -72.866893519610      4.263E-14 2.950E-14 0.000E+00
 ETOT 15  -72.866893519610     -2.842E-14 3.927E-15 0.000E+00
 ETOT 16  -72.866893519610     -2.842E-14 5.701E-16 0.000E+00
 ETOT 17  -72.866893519610      4.263E-14 7.826E-17 0.000E+00
 ETOT 18  -72.866893519610     -2.842E-14 1.119E-17 0.000E+00
 ETOT 19  -72.866893519610      2.842E-14 1.559E-18 0.000E+00
 ETOT 20  -72.866893519610     -1.421E-14 2.212E-19 0.000E+00
 ETOT 21  -72.866893519610      1.421E-14 3.106E-20 0.000E+00
 ETOT 22  -72.866893519610     -1.421E-14 9.761E-21 0.000E+00

 At SCF step   22   max residual=  9.76E-21 < tolwfr=  1.00E-20 =>converged.

 ----iterations are completed or convergence reached----

 dfpt_looppert: DFPT cycle converged with prtwf=-1. Will skip output of the 1st-order WFK file.
 dfpt_looppert : ek2=    7.8217083447E+01
          f-sum rule ratio=    1.3211263234E+00
 prteigrs : about to open file /scratch/users/j/a/jabreu/flow_simple/flow/w98/t1/tmpdata/tmp_1WF1_EIG
 Expectation of eigenvalue derivatives (hartree) for nkpt=   1  k points:
  (in case of degenerate eigenvalues, averaged derivative)
 kpt#   1, nband= 31, wtk=  1.00000, kpt=  0.0000  0.0000  0.0000 (reduced coord)
  -0.00000   -0.00000    0.00000    0.00000    0.00000   -0.00000   -0.00000   -0.00000
   0.00000    0.00000   -0.00000   -0.00000   -0.00000   -0.00000    0.00000    0.00000
   0.00000    0.00000    0.00000   -0.00000   -0.00000   -0.00000    0.00000    0.00000
   0.00000    0.00000    0.00000    0.00000    0.00001   -0.00000   -0.00000

 Eight components of 2nd-order total energy (hartree) are
 1,2,3: 0th-order hamiltonian combined with 1st-order wavefunctions
     kin0=   5.90218712E+01 eigvalue=   3.85042321E+00  local=  -2.74016923E+01
 4,5,6: 1st-order hamiltonian combined with 1st and 0th-order wfs
     kin1=  -1.03334648E+02  Hartree=   0.00000000E+00     xc=   0.00000000E+00
 7,8,9: eventually, occupation + non-local contributions
    edocc=   3.15295376E+01     enl0=   5.86675372E+00   enl1=  -4.23991392E+01
 1-9 gives the relaxation energy (to be shifted if some occ is /=2.0)
   erelax=  -7.28668935E+01
  No Ewald or frozen-wf contrib.: the relaxation energy is the total one
 2DEtotal=   -0.7286689352E+02 Ha. Also 2DEtotal=   -0.198280901025E+04 eV
    (  non-var. 2DEtotal :   -7.2866893519E+01 Ha)

 Perturbation wavevector (in red.coord.)   0.000000  0.000000  0.000000
 Perturbation : derivative vs k along direction   2
 The set of symmetries contains only one element for this perturbation.
 symkpt : not enough symmetry to change the number of k points.

[...]

 Perturbation wavevector (in red.coord.)   0.000000  0.000000  0.000000
 Perturbation : derivative vs k along direction   3
 The set of symmetries contains only one element for this perturbation.
 symkpt : not enough symmetry to change the number of k points.

-inwffil : will read wavefunctions from disk file /scratch/users/j/a/jabreu/flow_simple/flow/w98/t1/indata/in_WFK

 Initialisation of the first-order wave-functions :
  ireadwf=   0

--- !BeginCycle
iteration_state: {dtset: 1, }
solver: {iscf: 7, nstep: 100, nline: 4, wfoptalg: 0, }
tolerances: {tolwfr: 1.00E-20, }
...

     iter   2DEtotal(Ha)        deltaE(Ha) residm    vres2
-ETOT  1  -72.820693804715     -7.282E+01 1.067E-01 0.000E+00
 ETOT  2  -72.866641121018     -4.595E-02 1.875E-02 0.000E+00
 ETOT  3  -72.866892698274     -2.516E-04 6.043E-04 0.000E+00
 ETOT  4  -72.866896451626     -3.753E-06 8.206E-05 0.000E+00
 ETOT  5  -72.866896575225     -1.236E-07 4.457E-06 0.000E+00
 ETOT  6  -72.866896581013     -5.788E-09 6.823E-07 0.000E+00
 ETOT  7  -72.866896581307     -2.944E-10 3.776E-08 0.000E+00
 ETOT  8  -72.866896581322     -1.523E-11 5.790E-09 0.000E+00
 ETOT  9  -72.866896581323     -8.242E-13 5.586E-10 0.000E+00
 ETOT 10  -72.866896581323     -7.105E-14 7.264E-11 0.000E+00
 ETOT 11  -72.866896581323      9.948E-14 9.879E-12 0.000E+00
 ETOT 12  -72.866896581323     -8.527E-14 1.336E-12 0.000E+00
 ETOT 13  -72.866896581323      5.684E-14 1.946E-13 0.000E+00
 ETOT 14  -72.866896581323     -8.527E-14 2.610E-14 0.000E+00
 ETOT 15  -72.866896581323      2.842E-14 3.988E-15 0.000E+00
 ETOT 16  -72.866896581323      0.000E+00 5.272E-16 0.000E+00
 ETOT 17  -72.866896581323      0.000E+00 8.233E-17 0.000E+00
 ETOT 18  -72.866896581323     -1.421E-14 1.078E-17 0.000E+00
 ETOT 19  -72.866896581323      0.000E+00 1.701E-18 0.000E+00
 ETOT 20  -72.866896581323      0.000E+00 2.216E-19 0.000E+00
 ETOT 21  -72.866896581323      1.421E-14 3.517E-20 0.000E+00
 ETOT 22  -72.866896581323      0.000E+00 9.840E-21 0.000E+00

 At SCF step   22   max residual=  9.84E-21 < tolwfr=  1.00E-20 =>converged.

 ----iterations are completed or convergence reached----

 dfpt_looppert: DFPT cycle converged with prtwf=-1. Will skip output of the 1st-order WFK file.
 dfpt_looppert : ek2=    7.8217083447E+01
          f-sum rule ratio=    1.3211264016E+00
 prteigrs : about to open file /scratch/users/j/a/jabreu/flow_simple/flow/w98/t1/tmpdata/tmp_1WF1_EIG
 Expectation of eigenvalue derivatives (hartree) for nkpt=   1  k points:
  (in case of degenerate eigenvalues, averaged derivative)
 kpt#   1, nband= 31, wtk=  1.00000, kpt=  0.0000  0.0000  0.0000 (reduced coord)
   0.00000    0.00000   -0.00000   -0.00000   -0.00000   -0.00000   -0.00000   -0.00000
   0.00000    0.00000    0.00000    0.00000    0.00000    0.00000   -0.00000   -0.00000
  -0.00000    0.00000    0.00000   -0.00000   -0.00000   -0.00000   -0.00000   -0.00000
  -0.00000   -0.00000   -0.00000   -0.00000   -0.00023    0.00000    0.00000

 Eight components of 2nd-order total energy (hartree) are
 1,2,3: 0th-order hamiltonian combined with 1st-order wavefunctions
     kin0=   5.95532024E+01 eigvalue=   3.85744560E+00  local=  -2.76563738E+01
 4,5,6: 1st-order hamiltonian combined with 1st and 0th-order wfs
     kin1=  -1.03334654E+02  Hartree=   0.00000000E+00     xc=   0.00000000E+00
 7,8,9: eventually, occupation + non-local contributions
    edocc=   3.13437735E+01     enl0=   5.76884887E+00   enl1=  -4.23991392E+01
 1-9 gives the relaxation energy (to be shifted if some occ is /=2.0)
   erelax=  -7.28668966E+01
  No Ewald or frozen-wf contrib.: the relaxation energy is the total one
 2DEtotal=   -0.7286689658E+02 Ha. Also 2DEtotal=   -0.198280909356E+04 eV
    (  non-var. 2DEtotal :   -7.2866896581E+01 Ha)

 CALCULATION OF EFFECTIVE MASSES
 NOTE : Additional infos (eff. mass eigenvalues, eigenvectors and, if degenerate, average mass) are available in stdout.

 COMMENTS:
 - At k-point ( 0.000, 0.000, 0.000), bands    20 through    22
   are DEGENERATE (effective mass tensor is therefore not defined).
   See Section IIIB Eqs. (67)-(70) and Appendix E of PRB 93 205147 (2016).
 - Angular average effective mass for Frohlich model is to be averaged over degenerate bands. See later.
 - Associated theta integrals calculated with ntheta=   1000 points.

 K-point ( 0.000, 0.000, 0.000) | band =    20
 Transport equivalent effective mass tensor:
             -0.1781456531              0.0000000074              0.0000000391
              0.0000000074             -0.1781455587              0.0000000403
              0.0000000391              0.0000000403             -0.1781455278
 Transport equivalent effective mass tensor eigenvalues:
             -0.1781456645             -0.1781455833             -0.1781454918
 Angular average effective mass 1/(<1/m>)=  -0.1672887519
 Angular average effective mass for Frohlich model (<m**0.5>)**2=  -0.1679989720
 Effective masses along directions: (cart. coord. / red. coord. -> eff. mass)
    1:   1.000000  0.000000  0.000000 /   0.948683  0.316228  0.000000 ->  -0.1598946074
    2:   0.000000  1.000000  0.000000 /   0.000000  1.000000  0.000000 ->  -0.1509688869
    3:   0.000000  0.000000  1.000000 /   0.408248  0.408248  0.816497 ->  -0.1616026659
    4:   0.577350  0.577350  0.577350 /   0.585539  0.688047  0.428644 ->  -0.1598247341
    5:   0.000000  0.707107  0.707107 /   0.289489  0.762222  0.578977 ->  -0.1745189434
    6:   0.707107  0.000000  0.707107 /   0.731423  0.422287  0.535439 ->  -0.1607337380
    7:   0.707107  0.707107  0.000000 /   0.616798  0.787122  0.000000 ->  -0.1971401364

[...]

 K-point ( 0.000, 0.000, 0.000) | band =    22
 Transport equivalent effective mass tensor:
            -96.9321976462              0.0000718068              0.0000090929
              0.0000718068            -96.9321484355              0.0000089141
              0.0000090929              0.0000089141            -96.9320293547
 Transport equivalent effective mass tensor eigenvalues:
            -96.9322489688            -96.9320993796            -96.9320270879
 Angular average effective mass 1/(<1/m>)=  -2.0403393175
 Angular average effective mass for Frohlich model (<m**0.5>)**2=  -2.8970340358
 Effective masses along directions: (cart. coord. / red. coord. -> eff. mass)
    1:   1.000000  0.000000  0.000000 /   0.948683  0.316228  0.000000 ->  -2.2706086458
    2:   0.000000  1.000000  0.000000 /   0.000000  1.000000  0.000000 ->  -1.9742645007
    3:   0.000000  0.000000  1.000000 /   0.408248  0.408248  0.816497 -> -14.1538673448
    4:   0.577350  0.577350  0.577350 /   0.585539  0.688047  0.428644 ->  -2.9209232273
    5:   0.000000  0.707107  0.707107 /   0.289489  0.762222  0.578977 ->  -1.7737469303
    6:   0.707107  0.000000  0.707107 /   0.731423  0.422287  0.535439 ->  -4.6745940395
    7:   0.707107  0.707107  0.000000 /   0.616798  0.787122  0.000000 ->  -0.8173112285

 Angular average effective mass for Frohlich model, averaged over degenerate bands.
 Value of     (<<m**0.5>>)**2 =     1.034322E+00
 Absolute Value of <<m**0.5>> =     1.017016E+00

 K-point ( 0.000, 0.000, 0.000) | band =    23
 Effective mass tensor:
              0.1709799464              0.0000000001              0.0000000000
              0.0000000001              0.1709799464             -0.0000000000
              0.0000000000             -0.0000000000              0.1709799465
 Effective mass tensor eigenvalues:
              0.1709799463              0.1709799465              0.1709799465
 Angular average effective mass 1/(<1/m>)=   0.1709799464
 Angular average effective mass for Frohlich model (<m**0.5>)**2=   0.1709799464
 Effective masses along directions: (cart. coord. / red. coord. -> eff. mass)
    1:   1.000000  0.000000  0.000000 /   0.948683  0.316228  0.000000 ->   0.1709799464
    2:   0.000000  1.000000  0.000000 /   0.000000  1.000000  0.000000 ->   0.1709799464
    3:   0.000000  0.000000  1.000000 /   0.408248  0.408248  0.816497 ->   0.1709799465
    4:   0.577350  0.577350  0.577350 /   0.585539  0.688047  0.428644 ->   0.1709799465
    5:   0.000000  0.707107  0.707107 /   0.289489  0.762222  0.578977 ->   0.1709799464
    6:   0.707107  0.000000  0.707107 /   0.731423  0.422287  0.535439 ->   0.1709799465
    7:   0.707107  0.707107  0.000000 /   0.616798  0.787122  0.000000 ->   0.1709799464

 END OF EFFECTIVE MASSES SECTION

 ---- first-order wavefunction calculations are completed ----

 Total localisation tensor (bohr^2) in cartesian coordinates
  WARNING : still subject to testing - especially symmetries.
      direction              matrix element
   alpha     beta       real part   imaginary part
     1        1       7.0728398944    0.0000000000
     1        2       2.0005013562    0.0000000000
     1        3       4.9002072757    0.0000000000
     2        1       2.0005013562    0.0000000000
     2        2       5.6582722989    0.0000000000
     2        3       3.4649699895    0.0000000000
     3        1       4.9002072757    0.0000000000
     3        2       3.4649699895    0.0000000000
     3        3      12.7311120807    0.0000000000

 respfn : d/dk was computed, but no 2DTE, so no DDB output.

== END DATASET(S) ==============================================================

 -outvars: echo values of variables after computation  --------
            acell      1.0000000000E+00  1.0000000000E+00  1.0000000000E+00 Bohr
              amu      4.78800000E+01  1.27600000E+02  1.90200000E+02
             ecut      4.20000000E+01 Hartree
           etotal     -7.2866896581E+01
            fcart      0.0000000000E+00  0.0000000000E+00  0.0000000000E+00
                       0.0000000000E+00  0.0000000000E+00  0.0000000000E+00
                       0.0000000000E+00  0.0000000000E+00  0.0000000000E+00
-          fftalg         512
           irdden           1
           irdwfk           1
           istwfk        1
              ixc     -116133
           kptopt           0
P           mkmem           1
P          mkqmem           1
P          mk1mem           1
            natom           3
            nband          31
           nbdbuf           4
            ngfft          48      48      48
             nkpt           1
            nstep         100
             nsym          24
           ntypat           3
              occ      2.000000  2.000000  2.000000  2.000000  2.000000  2.000000
                       2.000000  2.000000  2.000000  2.000000  2.000000  2.000000
                       2.000000  2.000000  2.000000  2.000000  2.000000  2.000000
                       2.000000  2.000000  2.000000  2.000000  0.000000  0.000000
                       0.000000  0.000000  0.000000  0.000000  0.000000  0.000000
                       0.000000
        optdriver           1
            prtwf          -1
            rfdir           1       1       1
           rfelfd           2
            rprim      7.0688156658E+00  0.0000000000E+00  4.0811826275E+00
                       2.3562718886E+00  6.6645433230E+00  4.0811826275E+00
                       0.0000000000E+00  0.0000000000E+00  8.1623652550E+00
          spgroup         216
           strten      0.0000000000E+00  0.0000000000E+00  0.0000000000E+00
                       0.0000000000E+00  0.0000000000E+00  0.0000000000E+00
           symrel      1  0  0   0  1  0   0  0  1       0 -1  1   0 -1  0   1 -1  0
                      -1  0  0  -1  0  1  -1  1  0       0  1 -1   1  0 -1   0  0 -1
                      -1  0  0  -1  1  0  -1  0  1       0 -1  1   1 -1  0   0 -1  0
                       1  0  0   0  0  1   0  1  0       0  1 -1   0  0 -1   1  0 -1
                      -1  0  1  -1  1  0  -1  0  0       0 -1  0   1 -1  0   0 -1  1
                       1  0 -1   0  0 -1   0  1 -1       0  1  0   0  0  1   1  0  0
                       1  0 -1   0  1 -1   0  0 -1       0 -1  0   0 -1  1   1 -1  0
                      -1  0  1  -1  0  0  -1  1  0       0  1  0   1  0  0   0  0  1
                       0  0 -1   0  1 -1   1  0 -1       1 -1  0   0 -1  1   0 -1  0
                       0  0  1   1  0  0   0  1  0      -1  1  0  -1  0  0  -1  0  1
                       0  0  1   0  1  0   1  0  0       1 -1  0   0 -1  0   0 -1  1
                       0  0 -1   1  0 -1   0  1 -1      -1  1  0  -1  0  1  -1  0  0
           tolwfr      1.00000000E-20
            typat      1  2  3
           useylm           1
           xangst      2.4937707614E+00  1.7633622161E+00  4.3193376611E+00
                       0.0000000000E+00  0.0000000000E+00  0.0000000000E+00
                       1.2468853807E+00  8.8168110805E-01  2.1596688306E+00
            xcart      4.7125437772E+00  3.3322716615E+00  8.1623652550E+00
                       0.0000000000E+00  0.0000000000E+00  0.0000000000E+00
                       2.3562718886E+00  1.6661358308E+00  4.0811826275E+00
             xred      5.0000000000E-01  5.0000000000E-01  5.0000000000E-01
                       0.0000000000E+00  0.0000000000E+00  0.0000000000E+00
                       2.5000000000E-01  2.5000000000E-01  2.5000000000E-01
            znucl       22.00000   52.00000   76.00000

- Timing analysis has been suppressed with timopt=0

 Suggested references for the acknowledgment of ABINIT usage.

 Calculation completed.
.Delivered   6 WARNINGs and   5 COMMENTs to log file.