.Version 9.5.1 of ABINIT

 ABINIT is a project of the Universite Catholique de Louvain,
 Corning Inc. and other collaborators, see ~abinit/doc/developers/contributors.txt .
 acknowledgments of the ABINIT effort.

.Starting date : Tue  4 May 2021.
- ( at 19h49 )

- input  file    -> /scratch/users/j/a/jabreu/flow_simple_6atoms/flow/w238/t1/run.abi
- output file    -> /scratch/users/j/a/jabreu/flow_simple_6atoms/flow/w238/t1/run.abo
- root for input  files -> /scratch/users/j/a/jabreu/flow_simple_6atoms/flow/w238/t1/indata/in
- root for output files -> /scratch/users/j/a/jabreu/flow_simple_6atoms/flow/w238/t1/outdata/out

 Symmetries : space group Cm c m (# 63); Bravais oC (1-face-center ortho.)
     intxc =       0      iscf =       7    lmnmax =      25     lnmax =       7
     mgfft =      80  mpssoang =       4    mqgrid =    3784     natom =       6
  nloc_mem =       1    nspden =       1   nspinor =       1    nsppol =       1
      nsym =       8    n1xccc =    2501    ntypat =       3    occopt =       1
   xclevel =       2
-    mband =          53        mffmem =           1         mkmem =           2
-   mkqmem =           2        mk1mem =           2           mpw =       17450
      nfft =      288000          nkpt =           2
  Rough estimation (10% accuracy) of disk space for files :

------------- Echo of variables that govern the present computation ------------
-
- outvars: echo of selected default values
-   iomode0 =  0 , fftalg0 =512 , wfoptalg0 =  0
-
- outvars: echo of global parameters not present in the input file
-  max_nthreads =    0
-
 -outvars: echo values of preprocessed input variables --------
            acell      1.0000000000E+00  1.0000000000E+00  1.0000000000E+00 Bohr
              amu      8.54678000E+01  1.96966540E+02  7.89600000E+01
             ecut      4.30000000E+01 Hartree
-          fftalg         512
           irdden           1
           irdwfk           1
              ixc     -116133
              kpt     -5.00000000E-01  5.00000000E-01  0.00000000E+00
                      -6.52173913E-02  6.52173913E-02  0.00000000E+00
           kptopt           0
P           mkmem           2
P          mkqmem           2
P          mk1mem           2
            natom           6
            nband          53
           nbdbuf           4
            ngfft          60      60      80
             nkpt           2
            nstep        1000
             nsym           8
           ntypat           3
              occ      2.000000  2.000000  2.000000  2.000000  2.000000  2.000000
                       2.000000  2.000000  2.000000  2.000000  2.000000  2.000000
                       2.000000  2.000000  2.000000  2.000000  2.000000  2.000000
                       2.000000  2.000000  2.000000  2.000000  2.000000  2.000000
                       2.000000  2.000000  2.000000  2.000000  2.000000  2.000000
                       2.000000  2.000000  2.000000  2.000000  2.000000  2.000000
                       2.000000  2.000000  2.000000  2.000000  2.000000  2.000000
                       2.000000  2.000000  0.000000  0.000000  0.000000  0.000000
                       0.000000  0.000000  0.000000  0.000000  0.000000
        optdriver           1
            prtwf          -1
            rfdir           1       1       1
           rfelfd           2
            rprim      1.0153636266E+01  0.0000000000E+00  0.0000000000E+00
                      -2.1224689282E+00  9.9293229920E+00  0.0000000000E+00
                       0.0000000000E+00  0.0000000000E+00  1.2818830309E+01
          spgroup          63
           symrel      1  0  0   0  1  0   0  0  1      -1  0  0   0 -1  0   0  0 -1
                       0 -1  0  -1  0  0   0  0 -1       0  1  0   1  0  0   0  0  1
                      -1  0  0   0 -1  0   0  0  1       1  0  0   0  1  0   0  0 -1
                       0  1  0   1  0  0   0  0 -1       0 -1  0  -1  0  0   0  0  1
            tnons      0.0000000  0.0000000  0.0000000     0.0000000  0.0000000  0.0000000
                       0.0000000  0.0000000  0.5000000     0.0000000  0.0000000  0.5000000
                       0.0000000  0.0000000  0.5000000     0.0000000  0.0000000  0.5000000
                       0.0000000  0.0000000  0.0000000     0.0000000  0.0000000  0.0000000
           tolwfr      1.00000000E-20
            typat      1  1  2  2  3  3
           useylm           1
              wtk        0.50000    0.50000
           xangst      3.0009141912E+00  1.9186810149E+00  1.6958582101E+00
                       1.2489965226E+00  3.3356904092E+00  5.0875746303E+00
                       0.0000000000E+00  0.0000000000E+00  0.0000000000E+00
                       0.0000000000E+00  0.0000000000E+00  3.3917164202E+00
                       2.2044762246E-01  4.1676150368E+00  1.6958582101E+00
                       4.0294630913E+00  1.0867563873E+00  5.0875746303E+00
            xcart      5.6709059696E+00  3.6257816544E+00  3.2047075773E+00
                       2.3602613686E+00  6.3035413376E+00  9.6141227318E+00
                       0.0000000000E+00  0.0000000000E+00  0.0000000000E+00
                       0.0000000000E+00  0.0000000000E+00  6.4094151546E+00
                       4.1658563309E-01  7.8756510469E+00  3.2047075773E+00
                       7.6145817051E+00  2.0536719451E+00  9.6141227318E+00
             xred      6.3484100000E-01  3.6515900000E-01  2.5000000000E-01
                       3.6515900000E-01  6.3484100000E-01  7.5000000000E-01
                       0.0000000000E+00  0.0000000000E+00  0.0000000000E+00
                       0.0000000000E+00  0.0000000000E+00  5.0000000000E-01
                       2.0682900000E-01  7.9317100000E-01  2.5000000000E-01
                       7.9317100000E-01  2.0682900000E-01  7.5000000000E-01
            znucl       37.00000   79.00000   34.00000

 chkinp: Checking input parameters for consistency.

== DATASET  1 ==================================================================
-   mpi_nproc: 1, omp_nthreads: -1 (-1 if OMP is not activated)

--- !DatasetInfo
iteration_state: {dtset: 1, }
dimensions: {natom: 6, nkpt: 2, mband: 53, nsppol: 1, nspinor: 1, nspden: 1, mpw: 17450, }
cutoff_energies: {ecut:  43.0, pawecutdg:  -1.0, }
electrons: {nelect:   8.80000000E+01, charge:   0.00000000E+00, occopt:   1.00000000E+00, tsmear:   1.00000000E-02, }
meta: {optdriver: 1, rfelfd: 2, }
...

 Real(R)+Recip(G) space primitive vectors, cartesian coordinates (Bohr,Bohr^-1):
 R(1)= 10.1536363  0.0000000  0.0000000  G(1)=  0.0984869  0.0210523  0.0000000
 R(2)= -2.1224689  9.9293230  0.0000000  G(2)=  0.0000000  0.1007118  0.0000000
 R(3)=  0.0000000  0.0000000 12.8188303  G(3)=  0.0000000  0.0000000  0.0780102
 Unit cell volume ucvol=  1.2923782E+03 bohr^3
 Angles (23,13,12)=  9.00000000E+01  9.00000000E+01  1.02065827E+02 degrees

 getcut: wavevector=  0.0000  0.0000  0.0000  ngfft=  60  60  80
         ecut(hartree)=     43.000   => boxcut(ratio)=   2.00193

--- Pseudopotential description ------------------------------------------------
- pspini: atom type   1  psp file is /scratch/users/j/a/jabreu/pseudos/PBEsol/Rb.psp8
- pspatm: opening atomic psp file    /scratch/users/j/a/jabreu/pseudos/PBEsol/Rb.psp8
- Rb    ONCVPSP-3.3.0  r_core=   1.71227   1.75361   1.90633
- 37.00000   9.00000    180112                znucl, zion, pspdat
    8 -116133    2    4       600   0.00000   pspcod,pspxc,lmax,lloc,mmax,r2well
    5.99000000000000    7.00000000000000    0.00000000000000   rchrg,fchrg,qchrg
     nproj     2     2     2
     extension_switch     1
  pspatm : epsatm=   34.48400912
         --- l  ekb(1:nproj) -->
             0    8.196957   -0.477221
             1    3.231347   -0.378736
             2   -1.047201    0.996637
 pspatm: atomic psp has been read  and splines computed

- pspini: atom type   2  psp file is /scratch/users/j/a/jabreu/pseudos/PBEsol/Au.psp8
- pspatm: opening atomic psp file    /scratch/users/j/a/jabreu/pseudos/PBEsol/Au.psp8
- Au    ONCVPSP-3.3.0  r_core=   1.45604   1.56407   1.56407   1.60183
- 79.00000  19.00000    180112                znucl, zion, pspdat
    8 -116133    3    4       500   0.00000   pspcod,pspxc,lmax,lloc,mmax,r2well
    4.99000000000000    5.00000000000000    0.00000000000000   rchrg,fchrg,qchrg
     nproj     2     2     2     1
     extension_switch     1
  pspatm : epsatm=   32.21965837
         --- l  ekb(1:nproj) -->
             0    9.413866   -0.196587
             1    2.474292   -1.517497
             2    1.503483    0.298081
             3    1.177996
 pspatm: atomic psp has been read  and splines computed

- pspini: atom type   3  psp file is /scratch/users/j/a/jabreu/pseudos/PBEsol/Se.psp8
- pspatm: opening atomic psp file    /scratch/users/j/a/jabreu/pseudos/PBEsol/Se.psp8
- Se    ONCVPSP-3.3.0  r_core=   1.81943   1.50330   1.90835
- 34.00000  16.00000    180112                znucl, zion, pspdat
    8 -116133    2    4       600   0.00000   pspcod,pspxc,lmax,lloc,mmax,r2well
    5.99000000000000    5.00000000000000    0.00000000000000   rchrg,fchrg,qchrg
     nproj     2     2     2
     extension_switch     1
  pspatm : epsatm=   29.17862020
         --- l  ekb(1:nproj) -->
             0    8.973804    1.019550
             1    6.849857    1.297308
             2   -9.203962   -3.731027
 pspatm: atomic psp has been read  and splines computed

   1.68752826E+04                                ecore*ucvol(ha*bohr**3)

-inwffil : will read wavefunctions from disk file /scratch/users/j/a/jabreu/flow_simple_6atoms/flow/w238/t1/indata/in_WFK

 ==>  initialize data related to q vector <==

 The list of irreducible perturbations for this q vector is:
    1)    idir= 1    ipert=   7
    2)    idir= 2    ipert=   7
    3)    idir= 3    ipert=   7

 Perturbation wavevector (in red.coord.)   0.000000  0.000000  0.000000
 Perturbation : derivative vs k along direction   1

 dfpt_looppert : COMMENT -
  In a d/dk calculation, iscf is set to -3 automatically.
 The set of symmetries contains only one element for this perturbation.
 symkpt : not enough symmetry to change the number of k points.

[...]

 Initialisation of the first-order wave-functions :
  ireadwf=   0

--- !BeginCycle
iteration_state: {dtset: 1, }
solver: {iscf: 7, nstep: 1000, nline: 4, wfoptalg: 0, }
tolerances: {tolwfr: 1.00E-20, }
...

     iter   2DEtotal(Ha)        deltaE(Ha) residm    vres2
-ETOT  1  -57.814516889895     -5.781E+01 5.167E-02 0.000E+00
 ETOT  2  -57.866670823176     -5.215E-02 1.615E-03 0.000E+00
 ETOT  3  -57.866857796643     -1.870E-04 3.108E-05 0.000E+00
 ETOT  4  -57.866859478526     -1.682E-06 2.677E-06 0.000E+00
 ETOT  5  -57.866859497756     -1.923E-08 7.463E-08 0.000E+00
 ETOT  6  -57.866859498008     -2.512E-10 8.999E-09 0.000E+00
 ETOT  7  -57.866859498011     -3.624E-12 2.705E-10 0.000E+00
 ETOT  8  -57.866859498011     -2.842E-14 3.345E-11 0.000E+00
 ETOT  9  -57.866859498011      1.421E-14 1.030E-12 0.000E+00
 ETOT 10  -57.866859498011     -5.684E-14 1.271E-13 0.000E+00
 ETOT 11  -57.866859498011      7.105E-15 3.960E-15 0.000E+00
 ETOT 12  -57.866859498011      1.421E-14 4.885E-16 0.000E+00
 ETOT 13  -57.866859498011      7.105E-15 1.533E-17 0.000E+00
 ETOT 14  -57.866859498011      7.105E-15 1.892E-18 0.000E+00
 ETOT 15  -57.866859498011      0.000E+00 5.968E-20 0.000E+00
 ETOT 16  -57.866859498011      2.132E-14 9.994E-21 0.000E+00

 At SCF step   16   max residual=  9.99E-21 < tolwfr=  1.00E-20 =>converged.

 ----iterations are completed or convergence reached----

 dfpt_looppert: DFPT cycle converged with prtwf=-1. Will skip output of the 1st-order WFK file.
 dfpt_looppert : ek2=    7.0474682545E+01
          f-sum rule ratio=    1.0410509157E+00
 prteigrs : about to open file /scratch/users/j/a/jabreu/flow_simple_6atoms/flow/w238/t1/tmpdata/tmp_1WF1_EIG
 Expectation of eigenvalue derivatives (hartree) for nkpt=   2  k points:
  (in case of degenerate eigenvalues, averaged derivative)
 kpt#   1, nband= 53, wtk=  0.50000, kpt= -0.5000  0.5000  0.0000 (reduced coord)
  -0.00000    0.00000    0.00000    0.00000   -0.00000   -0.00000    0.00000    0.00000
  -0.00000   -0.00000    0.00000   -0.00000   -0.00000    0.00000   -0.00000   -0.00000
  -0.00000   -0.00000   -0.00000   -0.00000   -0.00000   -0.00000    0.00000    0.00000
  -0.00000   -0.00000    0.00000   -0.00000    0.00000   -0.00000   -0.00000    0.00000
   0.00000   -0.00000    0.00000    0.00000    0.00000    0.00000    0.00000   -0.00000
  -0.00000   -0.00000    0.00000   -0.00000   -0.00000    0.00000   -0.00000   -0.00000
  -0.00000   -0.00000    0.00000   -0.00000    0.00049
 prteigrs : prtvol=0 or 1, do not print more k-points.

 Eight components of 2nd-order total energy (hartree) are
 1,2,3: 0th-order hamiltonian combined with 1st-order wavefunctions
     kin0=   7.18992207E+01 eigvalue=   8.38171027E+00  local=  -3.46301130E+01
 4,5,6: 1st-order hamiltonian combined with 1st and 0th-order wfs
     kin1=  -7.33677328E+01  Hartree=   0.00000000E+00     xc=   0.00000000E+00
 7,8,9: eventually, occupation + non-local contributions
    edocc=   7.89188061E+00     enl0=   4.32416094E+00   enl1=  -4.23659862E+01
 1-9 gives the relaxation energy (to be shifted if some occ is /=2.0)
   erelax=  -5.78668595E+01
  No Ewald or frozen-wf contrib.: the relaxation energy is the total one
 2DEtotal=   -0.5786685950E+02 Ha. Also 2DEtotal=   -0.157463732657E+04 eV
    (  non-var. 2DEtotal :   -5.7866859498E+01 Ha)

 Perturbation wavevector (in red.coord.)   0.000000  0.000000  0.000000
 Perturbation : derivative vs k along direction   2
 The set of symmetries contains only one element for this perturbation.
 symkpt : not enough symmetry to change the number of k points.

[...]

 Perturbation wavevector (in red.coord.)   0.000000  0.000000  0.000000
 Perturbation : derivative vs k along direction   3
 The set of symmetries contains only one element for this perturbation.
 symkpt : not enough symmetry to change the number of k points.

-inwffil : will read wavefunctions from disk file /scratch/users/j/a/jabreu/flow_simple_6atoms/flow/w238/t1/indata/in_WFK

 Initialisation of the first-order wave-functions :
  ireadwf=   0

--- !BeginCycle
iteration_state: {dtset: 1, }
solver: {iscf: 7, nstep: 1000, nline: 4, wfoptalg: 0, }
tolerances: {tolwfr: 1.00E-20, }
...

     iter   2DEtotal(Ha)        deltaE(Ha) residm    vres2
-ETOT  1  -34.591522575228     -3.459E+01 1.590E-01 0.000E+00
 ETOT  2  -34.618963815001     -2.744E-02 7.274E-03 0.000E+00
 ETOT  3  -34.619070356356     -1.065E-04 6.096E-04 0.000E+00
 ETOT  4  -34.619071711648     -1.355E-06 5.499E-05 0.000E+00
 ETOT  5  -34.619071734637     -2.299E-08 5.878E-06 0.000E+00
 ETOT  6  -34.619071735094     -4.571E-10 5.473E-07 0.000E+00
 ETOT  7  -34.619071735104     -9.933E-12 6.631E-08 0.000E+00
 ETOT  8  -34.619071735105     -2.416E-13 5.938E-09 0.000E+00
 ETOT  9  -34.619071735105     -7.105E-15 8.169E-10 0.000E+00
 ETOT 10  -34.619071735105     -2.132E-14 7.045E-11 0.000E+00
 ETOT 11  -34.619071735105     -1.421E-14 1.030E-11 0.000E+00
 ETOT 12  -34.619071735105      1.421E-14 8.605E-13 0.000E+00
 ETOT 13  -34.619071735105      1.421E-14 1.274E-13 0.000E+00
 ETOT 14  -34.619071735105      0.000E+00 1.062E-14 0.000E+00
 ETOT 15  -34.619071735105     -1.421E-14 1.583E-15 0.000E+00
 ETOT 16  -34.619071735105      7.105E-15 1.318E-16 0.000E+00
 ETOT 17  -34.619071735105     -7.105E-15 1.975E-17 0.000E+00
 ETOT 18  -34.619071735105      0.000E+00 1.641E-18 0.000E+00
 ETOT 19  -34.619071735105      7.105E-15 2.471E-19 0.000E+00
 ETOT 20  -34.619071735105      0.000E+00 2.047E-20 0.000E+00
 ETOT 21  -34.619071735105     -7.105E-15 9.966E-21 0.000E+00

 At SCF step   21   max residual=  9.97E-21 < tolwfr=  1.00E-20 =>converged.

 ----iterations are completed or convergence reached----

 dfpt_looppert: DFPT cycle converged with prtwf=-1. Will skip output of the 1st-order WFK file.
 dfpt_looppert : ek2=    4.2283955533E+01
          f-sum rule ratio=    1.0360312819E+00
 prteigrs : about to open file /scratch/users/j/a/jabreu/flow_simple_6atoms/flow/w238/t1/tmpdata/tmp_1WF1_EIG
 Expectation of eigenvalue derivatives (hartree) for nkpt=   2  k points:
  (in case of degenerate eigenvalues, averaged derivative)
 kpt#   1, nband= 53, wtk=  0.50000, kpt= -0.5000  0.5000  0.0000 (reduced coord)
   0.00000    0.00000   -0.00000   -0.00000   -0.00000   -0.00000    0.00000   -0.00000
  -0.00000   -0.00000    0.00000    0.00000   -0.00000   -0.00000   -0.00000    0.00000
  -0.00000    0.00000   -0.00000    0.00000    0.00000   -0.00000   -0.00000    0.00000
  -0.00000   -0.00000   -0.00000    0.00000   -0.00000    0.00000   -0.00000   -0.00000
  -0.00000    0.00000   -0.00000   -0.00000    0.00000    0.00000   -0.00000   -0.00000
   0.00000   -0.00000   -0.00000    0.00000   -0.00000    0.00000    0.00000    0.00000
  -0.00000   -0.00000    0.00000    0.00001    0.00008
 prteigrs : prtvol=0 or 1, do not print more k-points.

 Eight components of 2nd-order total energy (hartree) are
 1,2,3: 0th-order hamiltonian combined with 1st-order wavefunctions
     kin0=   4.14714016E+01 eigvalue=   5.02243561E+00  local=  -1.98405452E+01
 4,5,6: 1st-order hamiltonian combined with 1st and 0th-order wfs
     kin1=  -4.38075007E+01  Hartree=   0.00000000E+00     xc=   0.00000000E+00
 7,8,9: eventually, occupation + non-local contributions
    edocc=   5.45892446E+00     enl0=   2.50685520E+00   enl1=  -2.54306428E+01
 1-9 gives the relaxation energy (to be shifted if some occ is /=2.0)
   erelax=  -3.46190717E+01
  No Ewald or frozen-wf contrib.: the relaxation energy is the total one
 2DEtotal=   -0.3461907174E+02 Ha. Also 2DEtotal=   -0.942032849861E+03 eV
    (  non-var. 2DEtotal :   -3.4619071735E+01 Ha)

 CALCULATION OF EFFECTIVE MASSES
 NOTE : Additional infos (eff. mass eigenvalues, eigenvectors and, if degenerate, average mass) are available in stdout.

 K-point (-0.500, 0.500, 0.000) | band =    44
 Effective mass tensor:
             -1.8338987646              0.9143988136              0.0000000672
              0.9143988136             -1.4425053903              0.0000000850
              0.0000000672              0.0000000850             -0.4411678755
 Effective mass tensor eigenvalues:
             -2.5733076242             -0.7030965307             -0.4411678755
 Angular average effective mass 1/(<1/m>)=  -0.7357277000
 Angular average effective mass for Frohlich model (<m**0.5>)**2=  -0.8334395113
 Effective masses along directions: (cart. coord. / red. coord. -> eff. mass)
    1:   1.000000  0.000000  0.000000 /   0.978843 -0.204613  0.000000 ->  -1.2542647502
    2:   0.000000  1.000000  0.000000 /   0.000000  1.000000  0.000000 ->  -0.9865777206
    3:   0.000000  0.000000  1.000000 /   0.000000  0.000000  1.000000 ->  -0.4411678755
    4:   0.577350  0.577350  0.577350 /   0.560328  0.430821  0.707407 ->  -0.5895783766
    5:   0.000000  0.707107  0.707107 /   0.000000  0.612369  0.790572 ->  -0.6096973102
    6:   0.707107  0.000000  0.707107 /   0.615741 -0.128712  0.777365 ->  -0.6527434093
    7:   0.707107  0.707107  0.000000 /   0.792761  0.609532  0.000000 ->  -0.7088000593

 K-point (-0.065, 0.065, 0.000) | band =    45
 Effective mass tensor:
              0.5443272519              0.3191709635              0.0000000968
              0.3191709635              0.6807793109              0.0000001381
              0.0000000968              0.0000001381              0.2710573367
 Effective mass tensor eigenvalues:
              0.2710573367              0.2861717638              0.9389347990
 Angular average effective mass 1/(<1/m>)=   0.3636937665
 Angular average effective mass for Frohlich model (<m**0.5>)**2=   0.3918534479
 Effective masses along directions: (cart. coord. / red. coord. -> eff. mass)
    1:   1.000000  0.000000  0.000000 /   0.978843 -0.204613  0.000000 ->   0.3946897669
    2:   0.000000  1.000000  0.000000 /   0.000000  1.000000  0.000000 ->   0.4936306726
    3:   0.000000  0.000000  1.000000 /   0.000000  0.000000  1.000000 ->   0.2710573367
    4:   0.577350  0.577350  0.577350 /   0.560328  0.430821  0.707407 ->   0.5108123230
    5:   0.000000  0.707107  0.707107 /   0.000000  0.612369  0.790572 ->   0.3499525095
    6:   0.707107  0.000000  0.707107 /   0.615741 -0.128712  0.777365 ->   0.3213940151
    7:   0.707107  0.707107  0.000000 /   0.792761  0.609532  0.000000 ->   0.9158582883

 END OF EFFECTIVE MASSES SECTION

 ---- first-order wavefunction calculations are completed ----

 Total localisation tensor (bohr^2) in cartesian coordinates
  WARNING : still subject to testing - especially symmetries.
      direction              matrix element
   alpha     beta       real part   imaginary part
     1        1       0.9932859563    0.0000000000
     1        2      -0.1945454300    0.0000000000
     1        3       0.0000000000    0.0000000000
     2        1      -0.1945454300    0.0000000000
     2        2       0.9101214087    0.0000000000
     2        3       0.0000000000    0.0000000000
     3        1       0.0000000000    0.0000000000
     3        2       0.0000000000    0.0000000000
     3        3       1.0726413722    0.0000000000

 respfn : d/dk was computed, but no 2DTE, so no DDB output.

== END DATASET(S) ==============================================================

 -outvars: echo values of variables after computation  --------
            acell      1.0000000000E+00  1.0000000000E+00  1.0000000000E+00 Bohr
              amu      8.54678000E+01  1.96966540E+02  7.89600000E+01
             ecut      4.30000000E+01 Hartree
           etotal     -3.4619071735E+01
            fcart      0.0000000000E+00  0.0000000000E+00  0.0000000000E+00
                       0.0000000000E+00  0.0000000000E+00  0.0000000000E+00
                       0.0000000000E+00  0.0000000000E+00  0.0000000000E+00
                       0.0000000000E+00  0.0000000000E+00  0.0000000000E+00
                       0.0000000000E+00  0.0000000000E+00  0.0000000000E+00
                       0.0000000000E+00  0.0000000000E+00  0.0000000000E+00
-          fftalg         512
           irdden           1
           irdwfk           1
              ixc     -116133
              kpt     -5.00000000E-01  5.00000000E-01  0.00000000E+00
                      -6.52173913E-02  6.52173913E-02  0.00000000E+00
           kptopt           0
P           mkmem           2
P          mkqmem           2
P          mk1mem           2
            natom           6
            nband          53
           nbdbuf           4
            ngfft          60      60      80
             nkpt           2
            nstep        1000
             nsym           8
           ntypat           3
              occ      2.000000  2.000000  2.000000  2.000000  2.000000  2.000000
                       2.000000  2.000000  2.000000  2.000000  2.000000  2.000000
                       2.000000  2.000000  2.000000  2.000000  2.000000  2.000000
                       2.000000  2.000000  2.000000  2.000000  2.000000  2.000000
                       2.000000  2.000000  2.000000  2.000000  2.000000  2.000000
                       2.000000  2.000000  2.000000  2.000000  2.000000  2.000000
                       2.000000  2.000000  2.000000  2.000000  2.000000  2.000000
                       2.000000  2.000000  0.000000  0.000000  0.000000  0.000000
                       0.000000  0.000000  0.000000  0.000000  0.000000
        optdriver           1
            prtwf          -1
            rfdir           1       1       1
           rfelfd           2
            rprim      1.0153636266E+01  0.0000000000E+00  0.0000000000E+00
                      -2.1224689282E+00  9.9293229920E+00  0.0000000000E+00
                       0.0000000000E+00  0.0000000000E+00  1.2818830309E+01
          spgroup          63
           strten      0.0000000000E+00  0.0000000000E+00  0.0000000000E+00
                       0.0000000000E+00  0.0000000000E+00  0.0000000000E+00
           symrel      1  0  0   0  1  0   0  0  1      -1  0  0   0 -1  0   0  0 -1
                       0 -1  0  -1  0  0   0  0 -1       0  1  0   1  0  0   0  0  1
                      -1  0  0   0 -1  0   0  0  1       1  0  0   0  1  0   0  0 -1
                       0  1  0   1  0  0   0  0 -1       0 -1  0  -1  0  0   0  0  1
            tnons      0.0000000  0.0000000  0.0000000     0.0000000  0.0000000  0.0000000
                       0.0000000  0.0000000  0.5000000     0.0000000  0.0000000  0.5000000
                       0.0000000  0.0000000  0.5000000     0.0000000  0.0000000  0.5000000
                       0.0000000  0.0000000  0.0000000     0.0000000  0.0000000  0.0000000
           tolwfr      1.00000000E-20
            typat      1  1  2  2  3  3
           useylm           1
              wtk        0.50000    0.50000
           xangst      3.0009141912E+00  1.9186810149E+00  1.6958582101E+00
                       1.2489965226E+00  3.3356904092E+00  5.0875746303E+00
                       0.0000000000E+00  0.0000000000E+00  0.0000000000E+00
                       0.0000000000E+00  0.0000000000E+00  3.3917164202E+00
                       2.2044762246E-01  4.1676150368E+00  1.6958582101E+00
                       4.0294630913E+00  1.0867563873E+00  5.0875746303E+00
            xcart      5.6709059696E+00  3.6257816544E+00  3.2047075773E+00
                       2.3602613686E+00  6.3035413376E+00  9.6141227318E+00
                       0.0000000000E+00  0.0000000000E+00  0.0000000000E+00
                       0.0000000000E+00  0.0000000000E+00  6.4094151546E+00
                       4.1658563309E-01  7.8756510469E+00  3.2047075773E+00
                       7.6145817051E+00  2.0536719451E+00  9.6141227318E+00
             xred      6.3484100000E-01  3.6515900000E-01  2.5000000000E-01
                       3.6515900000E-01  6.3484100000E-01  7.5000000000E-01
                       0.0000000000E+00  0.0000000000E+00  0.0000000000E+00
                       0.0000000000E+00  0.0000000000E+00  5.0000000000E-01
                       2.0682900000E-01  7.9317100000E-01  2.5000000000E-01
                       7.9317100000E-01  2.0682900000E-01  7.5000000000E-01
            znucl       37.00000   79.00000   34.00000

- Timing analysis has been suppressed with timopt=0

 Suggested references for the acknowledgment of ABINIT usage.

 Calculation completed.
.Delivered  14 WARNINGs and   9 COMMENTs to log file.