.Version 9.5.1 of ABINIT

 ABINIT is a project of the Universite Catholique de Louvain,
 Corning Inc. and other collaborators, see ~abinit/doc/developers/contributors.txt .
 acknowledgments of the ABINIT effort.

.Starting date : Wed 19 May 2021.
- ( at 01h20 )

- input  file    -> /scratch/users/j/a/jabreu/flow_simple_8atoms/flow/w415/t1/run.abi
- output file    -> /scratch/users/j/a/jabreu/flow_simple_8atoms/flow/w415/t1/run.abo
- root for input  files -> /scratch/users/j/a/jabreu/flow_simple_8atoms/flow/w415/t1/indata/in
- root for output files -> /scratch/users/j/a/jabreu/flow_simple_8atoms/flow/w415/t1/outdata/out

 Symmetries : space group Cm c m (# 63); Bravais oC (1-face-center ortho.)
     intxc =       0      iscf =       7    lmnmax =      25     lnmax =       7
     mgfft =      72  mpssoang =       4    mqgrid =    3382     natom =       8
  nloc_mem =       1    nspden =       1   nspinor =       1    nsppol =       1
      nsym =       8    n1xccc =    2501    ntypat =       3    occopt =       1
   xclevel =       2
-    mband =          49        mffmem =           1         mkmem =           2
-   mkqmem =           2        mk1mem =           2           mpw =       14458
      nfft =      373248          nkpt =           2
  Rough estimation (10% accuracy) of disk space for files :

------------- Echo of variables that govern the present computation ------------
-
- outvars: echo of selected default values
-   iomode0 =  0 , fftalg0 =512 , wfoptalg0 =  0
-
- outvars: echo of global parameters not present in the input file
-  max_nthreads =    0
-
 -outvars: echo values of preprocessed input variables --------
            acell      1.0000000000E+00  1.0000000000E+00  1.0000000000E+00 Bohr
              amu      3.90983000E+01  1.96966540E+02  1.59994000E+01
             ecut      4.40000000E+01 Hartree
-          fftalg         512
           irdden           1
           irdwfk           1
           istwfk        1    0
              ixc     -116133
              kpt      0.00000000E+00  0.00000000E+00  0.00000000E+00
                      -5.00000000E-01  5.00000000E-01  4.37500000E-01
           kptopt           0
P           mkmem           2
P          mkqmem           2
P          mk1mem           2
            natom           8
            nband          49
           nbdbuf           4
            ngfft          72      72      72
             nkpt           2
            nstep        2000
             nsym           8
           ntypat           3
              occ      2.000000  2.000000  2.000000  2.000000  2.000000  2.000000
                       2.000000  2.000000  2.000000  2.000000  2.000000  2.000000
                       2.000000  2.000000  2.000000  2.000000  2.000000  2.000000
                       2.000000  2.000000  2.000000  2.000000  2.000000  2.000000
                       2.000000  2.000000  2.000000  2.000000  2.000000  2.000000
                       2.000000  2.000000  2.000000  2.000000  2.000000  2.000000
                       2.000000  2.000000  2.000000  2.000000  0.000000  0.000000
                       0.000000  0.000000  0.000000  0.000000  0.000000  0.000000
                       0.000000
        optdriver           1
            prtwf          -1
            rfdir           1       1       1
           rfelfd           2
            rprim      1.1901829520E+01  0.0000000000E+00  0.0000000000E+00
                      -9.0950875816E+00  7.6767784783E+00  0.0000000000E+00
                       0.0000000000E+00  0.0000000000E+00  1.1324134518E+01
          spgroup          63
           symrel      1  0  0   0  1  0   0  0  1      -1  0  0   0 -1  0   0  0 -1
                       0  1  0   1  0  0   0  0 -1       0 -1  0  -1  0  0   0  0  1
                      -1  0  0   0 -1  0   0  0  1       1  0  0   0  1  0   0  0 -1
                       0 -1  0  -1  0  0   0  0 -1       0  1  0   1  0  0   0  0  1
            tnons      0.0000000  0.0000000  0.0000000     0.0000000  0.0000000  0.0000000
                       0.0000000 -0.0000000  0.0000000     0.0000000  0.0000000  0.0000000
                       0.0000000  0.0000000  0.5000000     0.0000000  0.0000000  0.5000000
                       0.0000000  0.0000000  0.5000000     0.0000000 -0.0000000  0.5000000
           tolwfr      1.00000000E-20
            typat      1  1  2  2  3  3  3  3
           useylm           1
              wtk        0.50000    0.50000
           xangst     -2.5375840521E+00  3.2304828066E+00  1.4981184735E+00
                       4.0228479162E+00  8.3189339949E-01  4.4943554204E+00
                       7.7330965151E-01  2.0199718824E+00  4.4943554204E+00
                       7.1195421263E-01  2.0424043238E+00  1.4981184735E+00
                       1.9860073453E+00  1.5765919561E+00  2.9642431288E+00
                      -5.0074348114E-01  2.4857842500E+00  3.0282307650E+00
                      -5.0074348114E-01  2.4857842500E+00  5.9604800757E+00
                       1.9860073453E+00  1.5765919561E+00  3.1993818119E-02
            xcart     -4.7953388976E+00  6.1047277815E+00  2.8310336294E+00
                       7.6020808359E+00  1.5720506968E+00  8.4931008883E+00
                       1.4613434573E+00  3.8171936538E+00  8.4931008883E+00
                       1.3453984810E+00  3.8595848245E+00  2.8310336294E+00
                       3.7530099805E+00  2.9793270203E+00  5.6016077047E+00
                      -9.4626804218E-01  4.6974514580E+00  5.7225268131E+00
                      -9.4626804218E-01  4.6974514580E+00  1.1263674964E+01
                       3.7530099805E+00  2.9793270203E+00  6.0459554191E-02
             xred      2.0478000000E-01  7.9522000000E-01  2.5000000000E-01
                       7.9522000000E-01  2.0478000000E-01  7.5000000000E-01
                       5.0276100000E-01  4.9723900000E-01  7.5000000000E-01
                       4.9723900000E-01  5.0276100000E-01  2.5000000000E-01
                       6.1190400000E-01  3.8809600000E-01  4.9466100000E-01
                       3.8809600000E-01  6.1190400000E-01  5.0533900000E-01
                       3.8809600000E-01  6.1190400000E-01  9.9466100000E-01
                       6.1190400000E-01  3.8809600000E-01  5.3390000000E-03
            znucl       19.00000   79.00000    8.00000

 chkinp: Checking input parameters for consistency.

== DATASET  1 ==================================================================
-   mpi_nproc: 1, omp_nthreads: -1 (-1 if OMP is not activated)

--- !DatasetInfo
iteration_state: {dtset: 1, }
dimensions: {natom: 8, nkpt: 2, mband: 49, nsppol: 1, nspinor: 1, nspden: 1, mpw: 14458, }
cutoff_energies: {ecut:  44.0, pawecutdg:  -1.0, }
electrons: {nelect:   8.00000000E+01, charge:   0.00000000E+00, occopt:   1.00000000E+00, tsmear:   1.00000000E-02, }
meta: {optdriver: 1, rfelfd: 2, }
...

 Real(R)+Recip(G) space primitive vectors, cartesian coordinates (Bohr,Bohr^-1):
 R(1)= 11.9018295  0.0000000  0.0000000  G(1)=  0.0840207  0.0995438  0.0000000
 R(2)= -9.0950876  7.6767785  0.0000000  G(2)=  0.0000000  0.1302630  0.0000000
 R(3)=  0.0000000  0.0000000 11.3241345  G(3)=  0.0000000  0.0000000  0.0883070
 Unit cell volume ucvol=  1.0346602E+03 bohr^3
 Angles (23,13,12)=  9.00000000E+01  9.00000000E+01  1.39833704E+02 degrees

 getcut: wavevector=  0.0000  0.0000  0.0000  ngfft=  72  72  72
         ecut(hartree)=     44.000   => boxcut(ratio)=   2.02639

--- Pseudopotential description ------------------------------------------------
- pspini: atom type   1  psp file is /scratch/users/j/a/jabreu/pseudos/PBEsol/K.psp8
- pspatm: opening atomic psp file    /scratch/users/j/a/jabreu/pseudos/PBEsol/K.psp8
- K     ONCVPSP-3.3.0  r_core=   1.36296   1.46408   1.61068
- 19.00000   9.00000    180112                znucl, zion, pspdat
    8 -116133    2    4       400   0.00000   pspcod,pspxc,lmax,lloc,mmax,r2well
    3.99000000000000    5.00000000000000    0.00000000000000   rchrg,fchrg,qchrg
     nproj     2     2     2
     extension_switch     1
  pspatm : epsatm=    8.32487830
         --- l  ekb(1:nproj) -->
             0   10.921326    0.816676
             1    4.431000    0.560368
             2   -3.384038   -1.043186
 pspatm: atomic psp has been read  and splines computed

- pspini: atom type   2  psp file is /scratch/users/j/a/jabreu/pseudos/PBEsol/Au.psp8
- pspatm: opening atomic psp file    /scratch/users/j/a/jabreu/pseudos/PBEsol/Au.psp8
- Au    ONCVPSP-3.3.0  r_core=   1.45604   1.56407   1.56407   1.60183
- 79.00000  19.00000    180112                znucl, zion, pspdat
    8 -116133    3    4       500   0.00000   pspcod,pspxc,lmax,lloc,mmax,r2well
    4.99000000000000    5.00000000000000    0.00000000000000   rchrg,fchrg,qchrg
     nproj     2     2     2     1
     extension_switch     1
  pspatm : epsatm=   32.21965837
         --- l  ekb(1:nproj) -->
             0    9.413866   -0.196587
             1    2.474292   -1.517497
             2    1.503483    0.298081
             3    1.177996
 pspatm: atomic psp has been read  and splines computed

- pspini: atom type   3  psp file is /scratch/users/j/a/jabreu/pseudos/PBEsol/O.psp8
- pspatm: opening atomic psp file    /scratch/users/j/a/jabreu/pseudos/PBEsol/O.psp8
- O     ONCVPSP-3.3.0  r_core=   1.35509   1.45563   1.26150
-  8.00000   6.00000    180112                znucl, zion, pspdat
    8 -116133    2    4       600   0.00000   pspcod,pspxc,lmax,lloc,mmax,r2well
    5.99000000000000    4.00000000000000    0.00000000000000   rchrg,fchrg,qchrg
     nproj     2     2     1
     extension_switch     1
  pspatm : epsatm=    6.22910522
         --- l  ekb(1:nproj) -->
             0    6.050032    0.820363
             1   -4.739617   -1.153841
             2   -1.335834
 pspatm: atomic psp has been read  and splines computed

   8.48043954E+03                                ecore*ucvol(ha*bohr**3)

-inwffil : will read wavefunctions from disk file /scratch/users/j/a/jabreu/flow_simple_8atoms/flow/w415/t1/indata/in_WFK

 ==>  initialize data related to q vector <==

 The list of irreducible perturbations for this q vector is:
    1)    idir= 1    ipert=   9
    2)    idir= 2    ipert=   9
    3)    idir= 3    ipert=   9

 Perturbation wavevector (in red.coord.)   0.000000  0.000000  0.000000
 Perturbation : derivative vs k along direction   1

 dfpt_looppert : COMMENT -
  In a d/dk calculation, iscf is set to -3 automatically.
 The set of symmetries contains only one element for this perturbation.
 symkpt : not enough symmetry to change the number of k points.

[...]

 Initialisation of the first-order wave-functions :
  ireadwf=   0

--- !BeginCycle
iteration_state: {dtset: 1, }
solver: {iscf: 7, nstep: 2000, nline: 4, wfoptalg: 0, }
tolerances: {tolwfr: 1.00E-20, }
...

     iter   2DEtotal(Ha)        deltaE(Ha) residm    vres2
-ETOT  1  -53.955050855746     -5.396E+01 1.208E-01 0.000E+00
 ETOT  2  -54.039121505693     -8.407E-02 2.072E-03 0.000E+00
 ETOT  3  -54.039681385807     -5.599E-04 2.693E-04 0.000E+00
 ETOT  4  -54.039687607060     -6.221E-06 2.226E-05 0.000E+00
 ETOT  5  -54.039687698109     -9.105E-08 4.210E-06 0.000E+00
 ETOT  6  -54.039687699693     -1.583E-09 3.571E-07 0.000E+00
 ETOT  7  -54.039687699724     -3.108E-11 7.641E-08 0.000E+00
 ETOT  8  -54.039687699724     -7.105E-13 6.532E-09 0.000E+00
 ETOT  9  -54.039687699724     -2.842E-14 1.483E-09 0.000E+00
 ETOT 10  -54.039687699724      4.974E-14 1.258E-10 0.000E+00
 ETOT 11  -54.039687699724      0.000E+00 3.013E-11 0.000E+00
 ETOT 12  -54.039687699724      2.132E-14 2.494E-12 0.000E+00
 ETOT 13  -54.039687699724     -2.132E-14 6.285E-13 0.000E+00
 ETOT 14  -54.039687699724      0.000E+00 5.043E-14 0.000E+00
 ETOT 15  -54.039687699724      2.842E-14 1.332E-14 0.000E+00
 ETOT 16  -54.039687699724      7.105E-15 1.037E-15 0.000E+00
 ETOT 17  -54.039687699724     -1.421E-14 2.853E-16 0.000E+00
 ETOT 18  -54.039687699724      0.000E+00 2.160E-17 0.000E+00
 ETOT 19  -54.039687699724      0.000E+00 6.162E-18 0.000E+00
 ETOT 20  -54.039687699724     -7.105E-15 4.555E-19 0.000E+00
 ETOT 21  -54.039687699724     -7.105E-15 1.340E-19 0.000E+00
 ETOT 22  -54.039687699724      0.000E+00 9.964E-21 0.000E+00

 At SCF step   22   max residual=  9.96E-21 < tolwfr=  1.00E-20 =>converged.

 ----iterations are completed or convergence reached----

 dfpt_looppert: DFPT cycle converged with prtwf=-1. Will skip output of the 1st-order WFK file.
 dfpt_looppert : ek2=    1.0718196180E+02
          f-sum rule ratio=    1.0031143718E+00
 prteigrs : about to open file /scratch/users/j/a/jabreu/flow_simple_8atoms/flow/w415/t1/tmpdata/tmp_1WF1_EIG
 Expectation of eigenvalue derivatives (hartree) for nkpt=   2  k points:
  (in case of degenerate eigenvalues, averaged derivative)
 kpt#   1, nband= 49, wtk=  0.50000, kpt=  0.0000  0.0000  0.0000 (reduced coord)
  -0.00000   -0.00000   -0.00000   -0.00000   -0.00000   -0.00000   -0.00000   -0.00000
   0.00000    0.00000    0.00000   -0.00000    0.00000   -0.00000    0.00000    0.00000
   0.00000   -0.00000    0.00000   -0.00000   -0.00000    0.00000   -0.00000   -0.00000
  -0.00000   -0.00000    0.00000   -0.00000   -0.00000    0.00000   -0.00000    0.00000
   0.00000    0.00000   -0.00000   -0.00000   -0.00000   -0.00000    0.00000    0.00000
  -0.00000   -0.00000   -0.00000   -0.00000    0.00000   -0.00000    0.00000   -0.00000
  -0.00000
 prteigrs : prtvol=0 or 1, do not print more k-points.

 Eight components of 2nd-order total energy (hartree) are
 1,2,3: 0th-order hamiltonian combined with 1st-order wavefunctions
     kin0=   8.77538795E+01 eigvalue=   3.54744969E+00  local=  -4.49512768E+01
 4,5,6: 1st-order hamiltonian combined with 1st and 0th-order wfs
     kin1=  -1.07515766E+02  Hartree=   0.00000000E+00     xc=   0.00000000E+00
 7,8,9: eventually, occupation + non-local contributions
    edocc=   6.83942249E+00     enl0=   8.50212805E-01   enl1=  -5.63609122E-01
 1-9 gives the relaxation energy (to be shifted if some occ is /=2.0)
   erelax=  -5.40396877E+01
  No Ewald or frozen-wf contrib.: the relaxation energy is the total one
 2DEtotal=   -0.5403968770E+02 Ha. Also 2DEtotal=   -0.147049468567E+04 eV
    (  non-var. 2DEtotal :   -5.4039687700E+01 Ha)

 Perturbation wavevector (in red.coord.)   0.000000  0.000000  0.000000
 Perturbation : derivative vs k along direction   2
 The set of symmetries contains only one element for this perturbation.
 symkpt : not enough symmetry to change the number of k points.

[...]

 Perturbation wavevector (in red.coord.)   0.000000  0.000000  0.000000
 Perturbation : derivative vs k along direction   3
 The set of symmetries contains only one element for this perturbation.
 symkpt : not enough symmetry to change the number of k points.

-inwffil : will read wavefunctions from disk file /scratch/users/j/a/jabreu/flow_simple_8atoms/flow/w415/t1/indata/in_WFK

 Initialisation of the first-order wave-functions :
  ireadwf=   0

--- !BeginCycle
iteration_state: {dtset: 1, }
solver: {iscf: 7, nstep: 2000, nline: 4, wfoptalg: 0, }
tolerances: {tolwfr: 1.00E-20, }
...

     iter   2DEtotal(Ha)        deltaE(Ha) residm    vres2
-ETOT  1  -25.126633908508     -2.513E+01 4.824E-02 0.000E+00
 ETOT  2  -25.159763190403     -3.313E-02 5.928E-03 0.000E+00
 ETOT  3  -25.159939533058     -1.763E-04 4.289E-04 0.000E+00
 ETOT  4  -25.159941335520     -1.802E-06 3.726E-05 0.000E+00
 ETOT  5  -25.159941361520     -2.600E-08 4.607E-06 0.000E+00
 ETOT  6  -25.159941361964     -4.437E-10 4.416E-07 0.000E+00
 ETOT  7  -25.159941361972     -8.303E-12 6.459E-08 0.000E+00
 ETOT  8  -25.159941361972     -1.954E-13 6.360E-09 0.000E+00
 ETOT  9  -25.159941361972      7.105E-15 9.701E-10 0.000E+00
 ETOT 10  -25.159941361972      1.776E-14 9.629E-11 0.000E+00
 ETOT 11  -25.159941361972      0.000E+00 1.492E-11 0.000E+00
 ETOT 12  -25.159941361972     -7.105E-15 1.485E-12 0.000E+00
 ETOT 13  -25.159941361972      0.000E+00 2.322E-13 0.000E+00
 ETOT 14  -25.159941361972      7.105E-15 2.311E-14 0.000E+00
 ETOT 15  -25.159941361972     -7.105E-15 3.639E-15 0.000E+00
 ETOT 16  -25.159941361972      3.553E-15 3.615E-16 0.000E+00
 ETOT 17  -25.159941361972     -7.105E-15 5.732E-17 0.000E+00
 ETOT 18  -25.159941361972      0.000E+00 5.676E-18 0.000E+00
 ETOT 19  -25.159941361972      1.066E-14 9.065E-19 0.000E+00
 ETOT 20  -25.159941361972     -7.105E-15 8.943E-20 0.000E+00
 ETOT 21  -25.159941361972      0.000E+00 1.438E-20 0.000E+00
 ETOT 22  -25.159941361972      0.000E+00 9.752E-21 0.000E+00

 At SCF step   22   max residual=  9.75E-21 < tolwfr=  1.00E-20 =>converged.

 ----iterations are completed or convergence reached----

 dfpt_looppert: DFPT cycle converged with prtwf=-1. Will skip output of the 1st-order WFK file.
 dfpt_looppert : ek2=    4.9257195363E+01
          f-sum rule ratio=    1.0194240067E+00
 prteigrs : about to open file /scratch/users/j/a/jabreu/flow_simple_8atoms/flow/w415/t1/tmpdata/tmp_1WF1_EIG
 Expectation of eigenvalue derivatives (hartree) for nkpt=   2  k points:
  (in case of degenerate eigenvalues, averaged derivative)
 kpt#   1, nband= 49, wtk=  0.50000, kpt=  0.0000  0.0000  0.0000 (reduced coord)
  -0.00000    0.00000    0.00000    0.00000    0.00000    0.00000    0.00000   -0.00000
  -0.00000   -0.00000    0.00000    0.00000    0.00000    0.00000    0.00000   -0.00000
  -0.00000    0.00000   -0.00000    0.00000    0.00000   -0.00000    0.00000   -0.00000
   0.00000   -0.00000   -0.00000   -0.00000    0.00000   -0.00000    0.00000    0.00000
  -0.00000   -0.00000   -0.00000    0.00000    0.00000    0.00000   -0.00000    0.00000
  -0.00000    0.00000   -0.00000   -0.00000   -0.00000    0.00000    0.00000    0.00000
   0.00000
 prteigrs : prtvol=0 or 1, do not print more k-points.

 Eight components of 2nd-order total energy (hartree) are
 1,2,3: 0th-order hamiltonian combined with 1st-order wavefunctions
     kin0=   3.84783994E+01 eigvalue=   1.28141683E+00  local=  -2.04538762E+01
 4,5,6: 1st-order hamiltonian combined with 1st and 0th-order wfs
     kin1=  -5.02139675E+01  Hartree=   0.00000000E+00     xc=   0.00000000E+00
 7,8,9: eventually, occupation + non-local contributions
    edocc=   5.72877554E+00     enl0=   1.25225796E-01   enl1=  -1.05915269E-01
 1-9 gives the relaxation energy (to be shifted if some occ is /=2.0)
   erelax=  -2.51599414E+01
  No Ewald or frozen-wf contrib.: the relaxation energy is the total one
 2DEtotal=   -0.2515994136E+02 Ha. Also 2DEtotal=   -0.684636822296E+03 eV
    (  non-var. 2DEtotal :   -2.5159941362E+01 Ha)

 CALCULATION OF EFFECTIVE MASSES
 NOTE : Additional infos (eff. mass eigenvalues, eigenvectors and, if degenerate, average mass) are available in stdout.

 K-point ( 0.000, 0.000, 0.000) | band =    40
 Effective mass tensor:
             -6.0318270294             -8.2454313105              0.0000000749
             -8.2454313105            -25.5694286674              0.0000000868
              0.0000000749              0.0000000868             -1.1037768682
 Effective mass tensor eigenvalues:
            -28.5840783583             -3.0171773386             -1.1037768682
 Angular average effective mass 1/(<1/m>)=  -2.3577485277
 Angular average effective mass for Frohlich model (<m**0.5>)**2=  -3.2593412416
 Effective masses along directions: (cart. coord. / red. coord. -> eff. mass)
    1:   1.000000  0.000000  0.000000 /   0.794561 -0.607184  0.000000 ->  -3.3729042048
    2:   0.000000  1.000000  0.000000 /   0.000000  1.000000  0.000000 -> -14.2980282832
    3:   0.000000  0.000000  1.000000 /   0.000000  0.000000  1.000000 ->  -1.1037768682
    4:   0.577350  0.577350  0.577350 /   0.721786 -0.086013  0.686751 ->  -2.7747282927
    5:   0.000000  0.707107  0.707107 /   0.000000  0.561128  0.827729 ->  -2.0493484701
    6:   0.707107  0.000000  0.707107 /   0.633821 -0.484350  0.603056 ->  -1.6632561048
    7:   0.707107  0.707107  0.000000 /   0.992974 -0.118330  0.000000 -> -11.4150880171

 K-point (-0.500, 0.500, 0.438) | band =    41
 Effective mass tensor:
              1.8106587488              0.6318503188              0.0000055346
              0.6318503188              3.3075947459              0.0000447286
              0.0000055346              0.0000447286              0.5942863814
 Effective mass tensor eigenvalues:
              0.5942863806              1.5796170894              3.5386364060
 Angular average effective mass 1/(<1/m>)=   1.1545788826
 Angular average effective mass for Frohlich model (<m**0.5>)**2=   1.3437413566
 Effective masses along directions: (cart. coord. / red. coord. -> eff. mass)
    1:   1.000000  0.000000  0.000000 /   0.794561 -0.607184  0.000000 ->   1.6899562879
    2:   0.000000  1.000000  0.000000 /   0.000000  1.000000  0.000000 ->   3.0871032639
    3:   0.000000  0.000000  1.000000 /   0.000000  0.000000  1.000000 ->   0.5942863808
    4:   0.577350  0.577350  0.577350 /   0.721786 -0.086013  0.686751 ->   1.2646316436
    5:   0.000000  0.707107  0.707107 /   0.000000  0.561128  0.827729 ->   0.9967247480
    6:   0.707107  0.000000  0.707107 /   0.633821 -0.484350  0.603056 ->   0.8793420883
    7:   0.707107  0.707107  0.000000 /   0.992974 -0.118330  0.000000 ->   2.9003055576

 END OF EFFECTIVE MASSES SECTION

 ---- first-order wavefunction calculations are completed ----

 Total localisation tensor (bohr^2) in cartesian coordinates
  WARNING : still subject to testing - especially symmetries.
      direction              matrix element
   alpha     beta       real part   imaginary part
     1        1       2.1279464365    0.0000000000
     1        2      -0.6621853254    0.0000000000
     1        3       0.0000000000    0.0000000000
     2        1      -0.6621853254    0.0000000000
     2        2       0.5589226062    0.0000000000
     2        3       0.0000000000    0.0000000000
     3        1       0.0000000000    0.0000000000
     3        2       0.0000000000    0.0000000000
     3        3       0.8005850835    0.0000000000

 respfn : d/dk was computed, but no 2DTE, so no DDB output.

== END DATASET(S) ==============================================================

 -outvars: echo values of variables after computation  --------
            acell      1.0000000000E+00  1.0000000000E+00  1.0000000000E+00 Bohr
              amu      3.90983000E+01  1.96966540E+02  1.59994000E+01
             ecut      4.40000000E+01 Hartree
           etotal     -2.5159941362E+01
            fcart      0.0000000000E+00  0.0000000000E+00  0.0000000000E+00
                       0.0000000000E+00  0.0000000000E+00  0.0000000000E+00
                       0.0000000000E+00  0.0000000000E+00  0.0000000000E+00
                       0.0000000000E+00  0.0000000000E+00  0.0000000000E+00
                       0.0000000000E+00  0.0000000000E+00  0.0000000000E+00
                       0.0000000000E+00  0.0000000000E+00  0.0000000000E+00
                       0.0000000000E+00  0.0000000000E+00  0.0000000000E+00
                       0.0000000000E+00  0.0000000000E+00  0.0000000000E+00
-          fftalg         512
           irdden           1
           irdwfk           1
           istwfk        1    0
              ixc     -116133
              kpt      0.00000000E+00  0.00000000E+00  0.00000000E+00
                      -5.00000000E-01  5.00000000E-01  4.37500000E-01
           kptopt           0
P           mkmem           2
P          mkqmem           2
P          mk1mem           2
            natom           8
            nband          49
           nbdbuf           4
            ngfft          72      72      72
             nkpt           2
            nstep        2000
             nsym           8
           ntypat           3
              occ      2.000000  2.000000  2.000000  2.000000  2.000000  2.000000
                       2.000000  2.000000  2.000000  2.000000  2.000000  2.000000
                       2.000000  2.000000  2.000000  2.000000  2.000000  2.000000
                       2.000000  2.000000  2.000000  2.000000  2.000000  2.000000
                       2.000000  2.000000  2.000000  2.000000  2.000000  2.000000
                       2.000000  2.000000  2.000000  2.000000  2.000000  2.000000
                       2.000000  2.000000  2.000000  2.000000  0.000000  0.000000
                       0.000000  0.000000  0.000000  0.000000  0.000000  0.000000
                       0.000000
        optdriver           1
            prtwf          -1
            rfdir           1       1       1
           rfelfd           2
            rprim      1.1901829520E+01  0.0000000000E+00  0.0000000000E+00
                      -9.0950875816E+00  7.6767784783E+00  0.0000000000E+00
                       0.0000000000E+00  0.0000000000E+00  1.1324134518E+01
          spgroup          63
           strten      0.0000000000E+00  0.0000000000E+00  0.0000000000E+00
                       0.0000000000E+00  0.0000000000E+00  0.0000000000E+00
           symrel      1  0  0   0  1  0   0  0  1      -1  0  0   0 -1  0   0  0 -1
                       0  1  0   1  0  0   0  0 -1       0 -1  0  -1  0  0   0  0  1
                      -1  0  0   0 -1  0   0  0  1       1  0  0   0  1  0   0  0 -1
                       0 -1  0  -1  0  0   0  0 -1       0  1  0   1  0  0   0  0  1
            tnons      0.0000000  0.0000000  0.0000000     0.0000000  0.0000000  0.0000000
                       0.0000000 -0.0000000  0.0000000     0.0000000  0.0000000  0.0000000
                       0.0000000  0.0000000  0.5000000     0.0000000  0.0000000  0.5000000
                       0.0000000  0.0000000  0.5000000     0.0000000 -0.0000000  0.5000000
           tolwfr      1.00000000E-20
            typat      1  1  2  2  3  3  3  3
           useylm           1
              wtk        0.50000    0.50000
           xangst     -2.5375840521E+00  3.2304828066E+00  1.4981184735E+00
                       4.0228479162E+00  8.3189339949E-01  4.4943554204E+00
                       7.7330965151E-01  2.0199718824E+00  4.4943554204E+00
                       7.1195421263E-01  2.0424043238E+00  1.4981184735E+00
                       1.9860073453E+00  1.5765919561E+00  2.9642431288E+00
                      -5.0074348114E-01  2.4857842500E+00  3.0282307650E+00
                      -5.0074348114E-01  2.4857842500E+00  5.9604800757E+00
                       1.9860073453E+00  1.5765919561E+00  3.1993818119E-02
            xcart     -4.7953388976E+00  6.1047277815E+00  2.8310336294E+00
                       7.6020808359E+00  1.5720506968E+00  8.4931008883E+00
                       1.4613434573E+00  3.8171936538E+00  8.4931008883E+00
                       1.3453984810E+00  3.8595848245E+00  2.8310336294E+00
                       3.7530099805E+00  2.9793270203E+00  5.6016077047E+00
                      -9.4626804218E-01  4.6974514580E+00  5.7225268131E+00
                      -9.4626804218E-01  4.6974514580E+00  1.1263674964E+01
                       3.7530099805E+00  2.9793270203E+00  6.0459554191E-02
             xred      2.0478000000E-01  7.9522000000E-01  2.5000000000E-01
                       7.9522000000E-01  2.0478000000E-01  7.5000000000E-01
                       5.0276100000E-01  4.9723900000E-01  7.5000000000E-01
                       4.9723900000E-01  5.0276100000E-01  2.5000000000E-01
                       6.1190400000E-01  3.8809600000E-01  4.9466100000E-01
                       3.8809600000E-01  6.1190400000E-01  5.0533900000E-01
                       3.8809600000E-01  6.1190400000E-01  9.9466100000E-01
                       6.1190400000E-01  3.8809600000E-01  5.3390000000E-03
            znucl       19.00000   79.00000    8.00000

- Timing analysis has been suppressed with timopt=0

 Suggested references for the acknowledgment of ABINIT usage.

 Calculation completed.
.Delivered  14 WARNINGs and   9 COMMENTs to log file.