.Version 9.5.1 of ABINIT

 ABINIT is a project of the Universite Catholique de Louvain,
 Corning Inc. and other collaborators, see ~abinit/doc/developers/contributors.txt .
 acknowledgments of the ABINIT effort.

.Starting date : Tue 11 May 2021.
- ( at 22h00 )

- input  file    -> /scratch/users/j/a/jabreu/flow_simple_8atoms/flow/w380/t1/run.abi
- output file    -> /scratch/users/j/a/jabreu/flow_simple_8atoms/flow/w380/t1/run.abo
- root for input  files -> /scratch/users/j/a/jabreu/flow_simple_8atoms/flow/w380/t1/indata/in
- root for output files -> /scratch/users/j/a/jabreu/flow_simple_8atoms/flow/w380/t1/outdata/out

 Symmetries : space group C2/m (# 12); Bravais mC (1-face-center monocl.)
     intxc =       0      iscf =       7    lmnmax =      18     lnmax =       6
     mgfft =      72  mpssoang =       3    mqgrid =    3222     natom =       8
  nloc_mem =       1    nspden =       1   nspinor =       1    nsppol =       1
      nsym =       4    n1xccc =    2501    ntypat =       3    occopt =       1
   xclevel =       2
-    mband =          50        mffmem =           1         mkmem =           2
-   mkqmem =           2        mk1mem =           2           mpw =       11376
      nfft =      233280          nkpt =           2
  Rough estimation (10% accuracy) of disk space for files :

------------- Echo of variables that govern the present computation ------------
-
- outvars: echo of selected default values
-   iomode0 =  0 , fftalg0 =512 , wfoptalg0 =  0
-
- outvars: echo of global parameters not present in the input file
-  max_nthreads =    0
-
 -outvars: echo values of preprocessed input variables --------
            acell      1.0000000000E+00  1.0000000000E+00  1.0000000000E+00 Bohr
              amu      8.76200000E+01  1.07868200E+02  1.59994000E+01
             ecut      4.40000000E+01 Hartree
-          fftalg         512
           irdden           1
           irdwfk           1
           istwfk        0    1
              ixc     -116133
              kpt      3.00000000E-01 -3.00000000E-01  5.00000000E-01
                       5.00000000E-01  0.00000000E+00  5.00000000E-01
           kptopt           0
P           mkmem           2
P          mkqmem           2
P          mk1mem           2
            natom           8
            nband          50
           nbdbuf           4
            ngfft          72      72      45
             nkpt           2
            nstep        2000
             nsym           4
           ntypat           3
              occ      2.000000  2.000000  2.000000  2.000000  2.000000  2.000000
                       2.000000  2.000000  2.000000  2.000000  2.000000  2.000000
                       2.000000  2.000000  2.000000  2.000000  2.000000  2.000000
                       2.000000  2.000000  2.000000  2.000000  2.000000  2.000000
                       2.000000  2.000000  2.000000  2.000000  2.000000  2.000000
                       2.000000  2.000000  2.000000  2.000000  2.000000  2.000000
                       2.000000  2.000000  2.000000  2.000000  2.000000  0.000000
                       0.000000  0.000000  0.000000  0.000000  0.000000  0.000000
                       0.000000  0.000000
        optdriver           1
            prtwf          -1
            rfdir           1       1       1
           rfelfd           2
            rprim      1.1208062977E+01  0.0000000000E+00  7.4183964800E-02
                      -3.0369376168E+00  1.0788775909E+01  7.4183964800E-02
                       0.0000000000E+00  0.0000000000E+00  6.7369509430E+00
          spgroup          12
           symrel      1  0  0   0  1  0   0  0  1      -1  0  0   0 -1  0   0  0 -1
                       0 -1  0  -1  0  0   0  0 -1       0  1  0   1  0  0   0  0  1
           tolwfr      1.00000000E-20
            typat      1  1  2  2  3  3  3  3
           useylm           1
              wtk        0.50000    0.50000
           xangst      2.9655257400E+00  0.0000000000E+00  1.9628231708E-02
                      -8.0353908536E-01  2.8545871598E+00  1.9628231708E-02
                       0.0000000000E+00  0.0000000000E+00  1.7825204472E+00
                       2.1619866547E+00  2.8545871598E+00  1.8217769106E+00
                       3.8005951257E+00  1.6135496829E+00  1.8217769106E+00
                       5.2337818371E-01  4.0956246368E+00  1.8217769106E+00
                       3.2435550705E+00  4.2826400599E+00  8.3358565378E-01
                       1.0804182389E+00  1.4265342597E+00  2.8099681675E+00
            xcart      5.6040314887E+00  0.0000000000E+00  3.7091982400E-02
                      -1.5184688084E+00  5.3943879545E+00  3.7091982400E-02
                       0.0000000000E+00  0.0000000000E+00  3.3684754715E+00
                       4.0855626803E+00  5.3943879545E+00  3.4426594363E+00
                       7.1820839295E+00  3.0491670025E+00  3.4426594363E+00
                       9.8904143114E-01  7.7396089066E+00  3.4426594363E+00
                       6.1294307801E+00  8.0930168390E+00  1.5752485940E+00
                       2.0416945805E+00  2.6957590701E+00  5.3100702786E+00
             xred      5.0000000000E-01  0.0000000000E+00 -8.6736173799E-19
                      -2.7755575616E-17  5.0000000000E-01 -4.3368086899E-19
                       0.0000000000E+00  0.0000000000E+00  5.0000000000E-01
                       5.0000000000E-01  5.0000000000E-01  5.0000000000E-01
                       7.1737600000E-01  2.8262400000E-01  5.0000000000E-01
                       2.8262400000E-01  7.1737600000E-01  5.0000000000E-01
                       7.5013300000E-01  7.5013300000E-01  2.1730200000E-01
                       2.4986700000E-01  2.4986700000E-01  7.8269800000E-01
            znucl       38.00000   47.00000    8.00000

 chkinp: Checking input parameters for consistency.

== DATASET  1 ==================================================================
-   mpi_nproc: 1, omp_nthreads: -1 (-1 if OMP is not activated)

--- !DatasetInfo
iteration_state: {dtset: 1, }
dimensions: {natom: 8, nkpt: 2, mband: 50, nsppol: 1, nspinor: 1, nspden: 1, mpw: 11376, }
cutoff_energies: {ecut:  44.0, pawecutdg:  -1.0, }
electrons: {nelect:   8.20000000E+01, charge:   0.00000000E+00, occopt:   1.00000000E+00, tsmear:   1.00000000E-02, }
meta: {optdriver: 1, rfelfd: 2, }
...

 Real(R)+Recip(G) space primitive vectors, cartesian coordinates (Bohr,Bohr^-1):
 R(1)= 11.2080630  0.0000000  0.0741840  G(1)=  0.0892215  0.0251150  0.0000000
 R(2)= -3.0369376 10.7887759  0.0741840  G(2)=  0.0000000  0.0926889  0.0000000
 R(3)=  0.0000000  0.0000000  6.7369509  G(3)= -0.0009825 -0.0012972  0.1484351
 Unit cell volume ucvol=  8.1464073E+02 bohr^3
 Angles (23,13,12)=  8.96207760E+01  8.96207760E+01  1.05718091E+02 degrees

 getcut: wavevector=  0.0000  0.0000  0.0000  ngfft=  72  72  45
         ecut(hartree)=     44.000   => boxcut(ratio)=   2.15140

--- Pseudopotential description ------------------------------------------------
- pspini: atom type   1  psp file is /scratch/users/j/a/jabreu/pseudos/PBEsol/Sr.psp8
- pspatm: opening atomic psp file    /scratch/users/j/a/jabreu/pseudos/PBEsol/Sr.psp8
- Sr    ONCVPSP-3.3.0  r_core=   1.66721   1.31335   1.51547
- 38.00000  10.00000    180112                znucl, zion, pspdat
    8 -116133    2    4       600   0.00000   pspcod,pspxc,lmax,lloc,mmax,r2well
    5.99000000000000    6.00000000000000    0.00000000000000   rchrg,fchrg,qchrg
     nproj     2     2     2
     extension_switch     1
  pspatm : epsatm=   12.46450977
         --- l  ekb(1:nproj) -->
             0   10.029206    1.044171
             1    7.472414    1.670829
             2    4.142950    0.968140
 pspatm: atomic psp has been read  and splines computed

- pspini: atom type   2  psp file is /scratch/users/j/a/jabreu/pseudos/PBEsol/Ag.psp8
- pspatm: opening atomic psp file    /scratch/users/j/a/jabreu/pseudos/PBEsol/Ag.psp8
- Ag    ONCVPSP-3.3.0  r_core=   1.41384   1.46535   1.61207
- 47.00000  19.00000    180112                znucl, zion, pspdat
    8 -116133    2    4       600   0.00000   pspcod,pspxc,lmax,lloc,mmax,r2well
    5.99000000000000    7.00000000000000    0.00000000000000   rchrg,fchrg,qchrg
     nproj     2     2     2
     extension_switch     1
  pspatm : epsatm=   27.64581383
         --- l  ekb(1:nproj) -->
             0    9.559407   -0.398585
             1    3.418858   -0.136622
             2   -1.644397   -0.401551
 pspatm: atomic psp has been read  and splines computed

- pspini: atom type   3  psp file is /scratch/users/j/a/jabreu/pseudos/PBEsol/O.psp8
- pspatm: opening atomic psp file    /scratch/users/j/a/jabreu/pseudos/PBEsol/O.psp8
- O     ONCVPSP-3.3.0  r_core=   1.35509   1.45563   1.26150
-  8.00000   6.00000    180112                znucl, zion, pspdat
    8 -116133    2    4       600   0.00000   pspcod,pspxc,lmax,lloc,mmax,r2well
    5.99000000000000    4.00000000000000    0.00000000000000   rchrg,fchrg,qchrg
     nproj     2     2     1
     extension_switch     1
  pspatm : epsatm=    6.22910522
         --- l  ekb(1:nproj) -->
             0    6.050032    0.820363
             1   -4.739617   -1.153841
             2   -1.335834
 pspatm: atomic psp has been read  and splines computed

   8.62123958E+03                                ecore*ucvol(ha*bohr**3)

-inwffil : will read wavefunctions from disk file /scratch/users/j/a/jabreu/flow_simple_8atoms/flow/w380/t1/indata/in_WFK

 ==>  initialize data related to q vector <==

 The list of irreducible perturbations for this q vector is:
    1)    idir= 1    ipert=   9
    2)    idir= 2    ipert=   9
    3)    idir= 3    ipert=   9

 Perturbation wavevector (in red.coord.)   0.000000  0.000000  0.000000
 Perturbation : derivative vs k along direction   1

 dfpt_looppert : COMMENT -
  In a d/dk calculation, iscf is set to -3 automatically.
 The set of symmetries contains only one element for this perturbation.
 symkpt : not enough symmetry to change the number of k points.

[...]

 Initialisation of the first-order wave-functions :
  ireadwf=   0

--- !BeginCycle
iteration_state: {dtset: 1, }
solver: {iscf: 7, nstep: 2000, nline: 4, wfoptalg: 0, }
tolerances: {tolwfr: 1.00E-20, }
...

     iter   2DEtotal(Ha)        deltaE(Ha) residm    vres2
-ETOT  1  -30.074745274989     -3.007E+01 5.398E-02 0.000E+00
 ETOT  2  -30.114589094158     -3.984E-02 2.063E-03 0.000E+00
 ETOT  3  -30.114780542600     -1.914E-04 9.643E-05 0.000E+00
 ETOT  4  -30.114781992434     -1.450E-06 6.354E-06 0.000E+00
 ETOT  5  -30.114782005999     -1.356E-08 4.606E-07 0.000E+00
 ETOT  6  -30.114782006140     -1.417E-10 3.330E-08 0.000E+00
 ETOT  7  -30.114782006142     -1.663E-12 2.748E-09 0.000E+00
 ETOT  8  -30.114782006142      1.421E-14 2.069E-10 0.000E+00
 ETOT  9  -30.114782006142     -3.553E-15 1.786E-11 0.000E+00
 ETOT 10  -30.114782006142      3.553E-15 1.385E-12 0.000E+00
 ETOT 11  -30.114782006142     -7.105E-15 1.216E-13 0.000E+00
 ETOT 12  -30.114782006142     -1.421E-14 9.640E-15 0.000E+00
 ETOT 13  -30.114782006142     -3.553E-15 8.536E-16 0.000E+00
 ETOT 14  -30.114782006142     -3.553E-15 6.876E-17 0.000E+00
 ETOT 15  -30.114782006142      3.553E-15 6.116E-18 0.000E+00
 ETOT 16  -30.114782006142      3.553E-15 4.986E-19 0.000E+00
 ETOT 17  -30.114782006142     -1.066E-14 4.445E-20 0.000E+00
 ETOT 18  -30.114782006142      7.105E-15 9.767E-21 0.000E+00

 At SCF step   18   max residual=  9.77E-21 < tolwfr=  1.00E-20 =>converged.

 ----iterations are completed or convergence reached----

 dfpt_looppert: DFPT cycle converged with prtwf=-1. Will skip output of the 1st-order WFK file.
 dfpt_looppert : ek2=    5.5623618741E+01
          f-sum rule ratio=    1.0620040321E+00
 prteigrs : about to open file /scratch/users/j/a/jabreu/flow_simple_8atoms/flow/w380/t1/tmpdata/tmp_1WF1_EIG
 Expectation of eigenvalue derivatives (hartree) for nkpt=   2  k points:
  (in case of degenerate eigenvalues, averaged derivative)
 kpt#   1, nband= 50, wtk=  0.50000, kpt=  0.3000 -0.3000  0.5000 (reduced coord)
   0.00000    0.00000   -0.00000   -0.00000    0.00000   -0.00000    0.00000   -0.00000
   0.00022   -0.00023    0.02752   -0.02599    0.00146   -0.01230   -0.00019    0.00007
  -0.02658   -0.00222    0.04226    0.00078   -0.00460   -0.01121   -0.02516   -0.02557
  -0.01541   -0.00777    0.05387    0.01241   -0.00009   -0.00090    0.01551    0.00188
   0.02883    0.04322   -0.02030    0.01502    0.03446   -0.03338   -0.02134   -0.03410
   0.00782   -0.02748    0.06799    0.01968   -0.01022    0.01771    0.08446   -0.01145
  -0.11001   -0.11834
 prteigrs : prtvol=0 or 1, do not print more k-points.

 Eight components of 2nd-order total energy (hartree) are
 1,2,3: 0th-order hamiltonian combined with 1st-order wavefunctions
     kin0=   4.48602155E+01 eigvalue=  -1.01298297E+00  local=  -2.14590132E+01
 4,5,6: 1st-order hamiltonian combined with 1st and 0th-order wfs
     kin1=  -5.90725074E+01  Hartree=   0.00000000E+00     xc=   0.00000000E+00
 7,8,9: eventually, occupation + non-local contributions
    edocc=   6.75336934E+00     enl0=   9.73193298E-01   enl1=  -1.15705663E+00
 1-9 gives the relaxation energy (to be shifted if some occ is /=2.0)
   erelax=  -3.01147820E+01
  No Ewald or frozen-wf contrib.: the relaxation energy is the total one
 2DEtotal=   -0.3011478201E+02 Ha. Also 2DEtotal=   -0.819464893029E+03 eV
    (  non-var. 2DEtotal :   -3.0114782006E+01 Ha)

 Perturbation wavevector (in red.coord.)   0.000000  0.000000  0.000000
 Perturbation : derivative vs k along direction   2
 The set of symmetries contains only one element for this perturbation.
 symkpt : not enough symmetry to change the number of k points.

[...]

 Perturbation wavevector (in red.coord.)   0.000000  0.000000  0.000000
 Perturbation : derivative vs k along direction   3
 The set of symmetries contains only one element for this perturbation.
 symkpt : not enough symmetry to change the number of k points.

-inwffil : will read wavefunctions from disk file /scratch/users/j/a/jabreu/flow_simple_8atoms/flow/w380/t1/indata/in_WFK

 Initialisation of the first-order wave-functions :
  ireadwf=   0

--- !BeginCycle
iteration_state: {dtset: 1, }
solver: {iscf: 7, nstep: 2000, nline: 4, wfoptalg: 0, }
tolerances: {tolwfr: 1.00E-20, }
...

     iter   2DEtotal(Ha)        deltaE(Ha) residm    vres2
-ETOT  1  -73.097070997838     -7.310E+01 5.843E-02 0.000E+00
 ETOT  2  -73.182947912149     -8.588E-02 4.818E-03 0.000E+00
 ETOT  3  -73.183342363885     -3.945E-04 5.959E-05 0.000E+00
 ETOT  4  -73.183345549583     -3.186E-06 5.749E-06 0.000E+00
 ETOT  5  -73.183345583739     -3.416E-08 1.056E-07 0.000E+00
 ETOT  6  -73.183345584172     -4.329E-10 1.011E-08 0.000E+00
 ETOT  7  -73.183345584178     -6.025E-12 2.169E-10 0.000E+00
 ETOT  8  -73.183345584178     -1.705E-13 2.103E-11 0.000E+00
 ETOT  9  -73.183345584178      4.263E-14 6.818E-13 0.000E+00
 ETOT 10  -73.183345584178      2.842E-14 6.044E-14 0.000E+00
 ETOT 11  -73.183345584178     -2.842E-14 2.538E-15 0.000E+00
 ETOT 12  -73.183345584178     -4.263E-14 2.313E-16 0.000E+00
 ETOT 13  -73.183345584178      5.684E-14 9.577E-18 0.000E+00
 ETOT 14  -73.183345584178      0.000E+00 8.895E-19 0.000E+00
 ETOT 15  -73.183345584178      1.421E-14 3.641E-20 0.000E+00
 ETOT 16  -73.183345584178     -2.842E-14 9.978E-21 0.000E+00

 At SCF step   16   max residual=  9.98E-21 < tolwfr=  1.00E-20 =>converged.

 ----iterations are completed or convergence reached----

 dfpt_looppert: DFPT cycle converged with prtwf=-1. Will skip output of the 1st-order WFK file.
 dfpt_looppert : ek2=    1.4266879920E+02
          f-sum rule ratio=    9.9044583990E-01
 prteigrs : about to open file /scratch/users/j/a/jabreu/flow_simple_8atoms/flow/w380/t1/tmpdata/tmp_1WF1_EIG
 Expectation of eigenvalue derivatives (hartree) for nkpt=   2  k points:
  (in case of degenerate eigenvalues, averaged derivative)
 kpt#   1, nband= 50, wtk=  0.50000, kpt=  0.3000 -0.3000  0.5000 (reduced coord)
   0.00000    0.00000    0.00000    0.00000   -0.00000   -0.00000   -0.00000   -0.00000
   0.00000    0.00000    0.00000   -0.00000    0.00000   -0.00000   -0.00000   -0.00000
  -0.00000   -0.00000    0.00000    0.00000   -0.00000    0.00000    0.00000   -0.00000
   0.00000   -0.00000   -0.00000   -0.00000    0.00000    0.00000    0.00000   -0.00000
  -0.00000    0.00000    0.00000    0.00000   -0.00000   -0.00000    0.00000    0.00000
   0.00000   -0.00000    0.00000    0.00000   -0.00000   -0.00000    0.00000   -0.00000
   0.00000   -0.00003
 prteigrs : prtvol=0 or 1, do not print more k-points.

 Eight components of 2nd-order total energy (hartree) are
 1,2,3: 0th-order hamiltonian combined with 1st-order wavefunctions
     kin0=   1.15740173E+02 eigvalue=  -2.05282180E+00  local=  -5.59835697E+01
 4,5,6: 1st-order hamiltonian combined with 1st and 0th-order wfs
     kin1=  -1.41305719E+02  Hartree=   0.00000000E+00     xc=   0.00000000E+00
 7,8,9: eventually, occupation + non-local contributions
    edocc=   1.17009531E+01     enl0=   3.77861112E+00   enl1=  -5.06097251E+00
 1-9 gives the relaxation energy (to be shifted if some occ is /=2.0)
   erelax=  -7.31833456E+01
  No Ewald or frozen-wf contrib.: the relaxation energy is the total one
 2DEtotal=   -0.7318334558E+02 Ha. Also 2DEtotal=   -0.199142010885E+04 eV
    (  non-var. 2DEtotal :   -7.3183345584E+01 Ha)

 CALCULATION OF EFFECTIVE MASSES
 NOTE : Additional infos (eff. mass eigenvalues, eigenvectors and, if degenerate, average mass) are available in stdout.

--- !WARNING
src_file: m_efmas.F90
src_line: 0
message: |

    Band(s)    41,
    are not band extrema, but saddle points;
    the transport equivalent formalism breaks down in these conditions.
    The associated tensor(s) will therefore not be printed.
...

 K-point ( 0.300,-0.300, 0.500) | band =    41
 Effective mass tensor:
     *** SADDLE POINT: TRANSPORT EQV. EFF. MASS NOT DEFINED (see WARNING above) ***
 Angular average effective mass 1/(<1/m>)=  -0.7076304387
 Angular average effective mass for Frohlich model (<m**0.5>)**2=  -1.4390430523
 Effective masses along directions: (cart. coord. / red. coord. -> eff. mass)
    1:   1.000000  0.000000  0.000000 /   0.965195 -0.261529  0.000000 ->  -0.4546261619
    2:   0.000000  1.000000  0.000000 /   0.000000  1.000000  0.000000 ->  -0.6539755489
    3:   0.000000  0.000000  1.000000 /   0.011010  0.011010  0.999879 ->  -1.9577806002
    4:   0.577350  0.577350  0.577350 /   0.737666  0.511688  0.440481 ->  -0.8538565891
    5:   0.000000  0.707107  0.707107 /   0.005803  0.849821  0.527039 ->  -0.6706548483
    6:   0.707107  0.000000  0.707107 /   0.837554 -0.219944  0.500127 ->  -0.5841043239
    7:   0.707107  0.707107  0.000000 /   0.822453  0.568833  0.000000 ->  -1.4850391293

 K-point ( 0.500, 0.000, 0.500) | band =    42
 Effective mass tensor:
              0.3240656635              0.2136949723              0.5547342374
              0.2136949723              1.4192031738              1.3550257438
              0.5547342374              1.3550257438              2.7298963736
 Effective mass tensor eigenvalues:
              0.1895928033              0.6023009879              3.6812714197
 Angular average effective mass 1/(<1/m>)=   0.4162962476
 Angular average effective mass for Frohlich model (<m**0.5>)**2=   0.5671960411
 Effective masses along directions: (cart. coord. / red. coord. -> eff. mass)
    1:   1.000000  0.000000  0.000000 /   0.965195 -0.261529  0.000000 ->   0.2062481795
    2:   0.000000  1.000000  0.000000 /   0.000000  1.000000  0.000000 ->   0.7286281074
    3:   0.000000  0.000000  1.000000 /   0.011010  0.011010  0.999879 ->   1.0147785855
    4:   0.577350  0.577350  0.577350 /   0.737666  0.511688  0.440481 ->   0.7292155976
    5:   0.000000  0.707107  0.707107 /   0.005803  0.849821  0.527039 ->   2.4018601255
    6:   0.707107  0.000000  0.707107 /   0.837554 -0.219944  0.500127 ->   0.5770388404
    7:   0.707107  0.707107  0.000000 /   0.822453  0.568833  0.000000 ->   0.2848289954

 END OF EFFECTIVE MASSES SECTION

 ---- first-order wavefunction calculations are completed ----

 Total localisation tensor (bohr^2) in cartesian coordinates
  WARNING : still subject to testing - especially symmetries.
      direction              matrix element
   alpha     beta       real part   imaginary part
     1        1       1.7779026360    0.0000000000
     1        2      -0.2549954601    0.0000000000
     1        3       0.0095391414    0.0000000000
     2        1      -0.2549954601    0.0000000000
     2        2       0.9058759923    0.0000000000
     2        3       0.0062288320    0.0000000000
     3        1       0.0095391414    0.0000000000
     3        2       0.0062288320    0.0000000000
     3        3       0.7075187821    0.0000000000

 respfn : d/dk was computed, but no 2DTE, so no DDB output.

== END DATASET(S) ==============================================================

 -outvars: echo values of variables after computation  --------
            acell      1.0000000000E+00  1.0000000000E+00  1.0000000000E+00 Bohr
              amu      8.76200000E+01  1.07868200E+02  1.59994000E+01
             ecut      4.40000000E+01 Hartree
           etotal     -7.3183345584E+01
            fcart      0.0000000000E+00  0.0000000000E+00  0.0000000000E+00
                       0.0000000000E+00  0.0000000000E+00  0.0000000000E+00
                       0.0000000000E+00  0.0000000000E+00  0.0000000000E+00
                       0.0000000000E+00  0.0000000000E+00  0.0000000000E+00
                       0.0000000000E+00  0.0000000000E+00  0.0000000000E+00
                       0.0000000000E+00  0.0000000000E+00  0.0000000000E+00
                       0.0000000000E+00  0.0000000000E+00  0.0000000000E+00
                       0.0000000000E+00  0.0000000000E+00  0.0000000000E+00
-          fftalg         512
           irdden           1
           irdwfk           1
           istwfk        0    1
              ixc     -116133
              kpt      3.00000000E-01 -3.00000000E-01  5.00000000E-01
                       5.00000000E-01  0.00000000E+00  5.00000000E-01
           kptopt           0
P           mkmem           2
P          mkqmem           2
P          mk1mem           2
            natom           8
            nband          50
           nbdbuf           4
            ngfft          72      72      45
             nkpt           2
            nstep        2000
             nsym           4
           ntypat           3
              occ      2.000000  2.000000  2.000000  2.000000  2.000000  2.000000
                       2.000000  2.000000  2.000000  2.000000  2.000000  2.000000
                       2.000000  2.000000  2.000000  2.000000  2.000000  2.000000
                       2.000000  2.000000  2.000000  2.000000  2.000000  2.000000
                       2.000000  2.000000  2.000000  2.000000  2.000000  2.000000
                       2.000000  2.000000  2.000000  2.000000  2.000000  2.000000
                       2.000000  2.000000  2.000000  2.000000  2.000000  0.000000
                       0.000000  0.000000  0.000000  0.000000  0.000000  0.000000
                       0.000000  0.000000
        optdriver           1
            prtwf          -1
            rfdir           1       1       1
           rfelfd           2
            rprim      1.1208062977E+01  0.0000000000E+00  7.4183964800E-02
                      -3.0369376168E+00  1.0788775909E+01  7.4183964800E-02
                       0.0000000000E+00  0.0000000000E+00  6.7369509430E+00
          spgroup          12
           strten      0.0000000000E+00  0.0000000000E+00  0.0000000000E+00
                       0.0000000000E+00  0.0000000000E+00  0.0000000000E+00
           symrel      1  0  0   0  1  0   0  0  1      -1  0  0   0 -1  0   0  0 -1
                       0 -1  0  -1  0  0   0  0 -1       0  1  0   1  0  0   0  0  1
           tolwfr      1.00000000E-20
            typat      1  1  2  2  3  3  3  3
           useylm           1
              wtk        0.50000    0.50000
           xangst      2.9655257400E+00  0.0000000000E+00  1.9628231708E-02
                      -8.0353908536E-01  2.8545871598E+00  1.9628231708E-02
                       0.0000000000E+00  0.0000000000E+00  1.7825204472E+00
                       2.1619866547E+00  2.8545871598E+00  1.8217769106E+00
                       3.8005951257E+00  1.6135496829E+00  1.8217769106E+00
                       5.2337818371E-01  4.0956246368E+00  1.8217769106E+00
                       3.2435550705E+00  4.2826400599E+00  8.3358565378E-01
                       1.0804182389E+00  1.4265342597E+00  2.8099681675E+00
            xcart      5.6040314887E+00  0.0000000000E+00  3.7091982400E-02
                      -1.5184688084E+00  5.3943879545E+00  3.7091982400E-02
                       0.0000000000E+00  0.0000000000E+00  3.3684754715E+00
                       4.0855626803E+00  5.3943879545E+00  3.4426594363E+00
                       7.1820839295E+00  3.0491670025E+00  3.4426594363E+00
                       9.8904143114E-01  7.7396089066E+00  3.4426594363E+00
                       6.1294307801E+00  8.0930168390E+00  1.5752485940E+00
                       2.0416945805E+00  2.6957590701E+00  5.3100702786E+00
             xred      5.0000000000E-01  0.0000000000E+00 -8.6736173799E-19
                      -2.7755575616E-17  5.0000000000E-01 -4.3368086899E-19
                       0.0000000000E+00  0.0000000000E+00  5.0000000000E-01
                       5.0000000000E-01  5.0000000000E-01  5.0000000000E-01
                       7.1737600000E-01  2.8262400000E-01  5.0000000000E-01
                       2.8262400000E-01  7.1737600000E-01  5.0000000000E-01
                       7.5013300000E-01  7.5013300000E-01  2.1730200000E-01
                       2.4986700000E-01  2.4986700000E-01  7.8269800000E-01
            znucl       38.00000   47.00000    8.00000

- Timing analysis has been suppressed with timopt=0

 Suggested references for the acknowledgment of ABINIT usage.

 Calculation completed.
.Delivered  15 WARNINGs and   9 COMMENTs to log file.