.Version 9.5.1 of ABINIT

 ABINIT is a project of the Universite Catholique de Louvain,
 Corning Inc. and other collaborators, see ~abinit/doc/developers/contributors.txt .
 acknowledgments of the ABINIT effort.

.Starting date : Tue 27 Apr 2021.
- ( at 18h32 )

- input  file    -> /scratch/users/j/a/jabreu/flow_simple_4atoms/flow/w193/t1/run.abi
- output file    -> /scratch/users/j/a/jabreu/flow_simple_4atoms/flow/w193/t1/run.abo
- root for input  files -> /scratch/users/j/a/jabreu/flow_simple_4atoms/flow/w193/t1/indata/in
- root for output files -> /scratch/users/j/a/jabreu/flow_simple_4atoms/flow/w193/t1/outdata/out

 Symmetries : space group C2/m (# 12); Bravais mC (1-face-center monocl.)
     intxc =       0      iscf =       7    lmnmax =      18     lnmax =       6
     mgfft =      64  mpssoang =       3    mqgrid =    3001     natom =       4
  nloc_mem =       1    nspden =       1   nspinor =       1    nsppol =       1
      nsym =       4    n1xccc =    2501    ntypat =       3    occopt =       1
   xclevel =       2
-    mband =          26        mffmem =           1         mkmem =           2
-   mkqmem =           2        mk1mem =           2           mpw =        3761
      nfft =      102400          nkpt =           2
  Rough estimation (10% accuracy) of disk space for files :

------------- Echo of variables that govern the present computation ------------
-
- outvars: echo of selected default values
-   iomode0 =  0 , fftalg0 =512 , wfoptalg0 =  0
-
- outvars: echo of global parameters not present in the input file
-  max_nthreads =    0
-
 -outvars: echo values of preprocessed input variables --------
            acell      1.0000000000E+00  1.0000000000E+00  1.0000000000E+00 Bohr
              amu      6.94100000E+00  6.35460000E+01  1.59994000E+01
             ecut      4.60000000E+01 Hartree
-          fftalg         512
           irdden           1
           irdwfk           1
           istwfk        1    0
              ixc     -116133
              kpt      0.00000000E+00  0.00000000E+00  0.00000000E+00
                       1.49861577E-01 -1.49861577E-01  5.00000000E-01
           kptopt           0
P           mkmem           2
P          mkqmem           2
P          mk1mem           2
            natom           4
            nband          26
           nbdbuf           4
            ngfft          40      40      64
             nkpt           2
            nstep         100
             nsym           4
           ntypat           3
              occ      2.000000  2.000000  2.000000  2.000000  2.000000  2.000000
                       2.000000  2.000000  2.000000  2.000000  2.000000  2.000000
                       2.000000  2.000000  2.000000  2.000000  2.000000  0.000000
                       0.000000  0.000000  0.000000  0.000000  0.000000  0.000000
                       0.000000  0.000000
        optdriver           1
            prtwf          -1
            rfdir           1       1       1
           rfelfd           2
            rprim      5.3939520552E+00  0.0000000000E+00  2.6264566561E+00
                       2.9861721887E+00  4.4919366017E+00  2.6264566561E+00
                       0.0000000000E+00  0.0000000000E+00  1.0371710642E+01
          spgroup          12
           symrel      1  0  0   0  1  0   0  0  1      -1  0  0   0 -1  0   0  0 -1
                       0 -1  0  -1  0  0   0  0 -1       0  1  0   1  0  0   0  0  1
           tolwfr      1.00000000E-20
            typat      1  2  3  3
           useylm           1
              wtk        0.50000    0.50000
           xangst      0.0000000000E+00  0.0000000000E+00  2.7442364430E+00
                       0.0000000000E+00  0.0000000000E+00  0.0000000000E+00
                       1.8412869923E+00  9.8697157636E-01  2.5461220066E+00
                       2.5932837627E+00  1.3900588957E+00  5.7220728830E+00
            xcart      0.0000000000E+00  0.0000000000E+00  5.1858553211E+00
                       0.0000000000E+00  0.0000000000E+00  0.0000000000E+00
                       3.4795281476E+00  1.8651059803E+00  4.8114732933E+00
                       4.9005960963E+00  2.6268306214E+00  1.0813150661E+01
             xred      0.0000000000E+00  0.0000000000E+00  5.0000000000E-01
                       0.0000000000E+00  0.0000000000E+00  0.0000000000E+00
                       4.1521200000E-01  4.1521200000E-01  2.5361300000E-01
                       5.8478800000E-01  5.8478800000E-01  7.4638700000E-01
            znucl        3.00000   29.00000    8.00000

 chkinp: Checking input parameters for consistency.

== DATASET  1 ==================================================================
-   mpi_nproc: 1, omp_nthreads: -1 (-1 if OMP is not activated)

--- !DatasetInfo
iteration_state: {dtset: 1, }
dimensions: {natom: 4, nkpt: 2, mband: 26, nsppol: 1, nspinor: 1, nspden: 1, mpw: 3761, }
cutoff_energies: {ecut:  46.0, pawecutdg:  -1.0, }
electrons: {nelect:   3.40000000E+01, charge:   0.00000000E+00, occopt:   1.00000000E+00, tsmear:   1.00000000E-02, }
meta: {optdriver: 1, rfelfd: 2, }
...

 Real(R)+Recip(G) space primitive vectors, cartesian coordinates (Bohr,Bohr^-1):
 R(1)=  5.3939521  0.0000000  2.6264567  G(1)=  0.1853928 -0.1232464  0.0000000
 R(2)=  2.9861722  4.4919366  2.6264567  G(2)=  0.0000000  0.2226211  0.0000000
 R(3)=  0.0000000  0.0000000 10.3717106  G(3)= -0.0469475 -0.0251649  0.0964161
 Unit cell volume ucvol=  2.5129919E+02 bohr^3
 Angles (23,13,12)=  6.40373351E+01  6.40373351E+01  5.02702452E+01 degrees

 getcut: wavevector=  0.0000  0.0000  0.0000  ngfft=  40  40  64
         ecut(hartree)=     46.000   => boxcut(ratio)=   2.02114

--- Pseudopotential description ------------------------------------------------
- pspini: atom type   1  psp file is /scratch/users/j/a/jabreu/pseudos/PBEsol/Li.psp8
- pspatm: opening atomic psp file    /scratch/users/j/a/jabreu/pseudos/PBEsol/Li.psp8
- Li    ONCVPSP-3.3.0  r_core=   1.40824   1.10935
-  3.00000   3.00000    180112                znucl, zion, pspdat
    8 -116133    1    4       400   0.00000   pspcod,pspxc,lmax,lloc,mmax,r2well
    3.99000000000000    0.00000000000000    0.00000000000000   rchrg,fchrg,qchrg
     nproj     2     2
     extension_switch     1
  pspatm : epsatm=    2.60859637
         --- l  ekb(1:nproj) -->
             0   -4.855856   -1.482423
             1   -2.171544   -0.427615
 pspatm: atomic psp has been read  and splines computed

- pspini: atom type   2  psp file is /scratch/users/j/a/jabreu/pseudos/PBEsol/Cu.psp8
- pspatm: opening atomic psp file    /scratch/users/j/a/jabreu/pseudos/PBEsol/Cu.psp8
- Cu    ONCVPSP-3.3.0  r_core=   1.26204   1.45626   1.76249
- 29.00000  19.00000    180112                znucl, zion, pspdat
    8 -116133    2    4       600   0.00000   pspcod,pspxc,lmax,lloc,mmax,r2well
    5.99000000000000    3.50000000000000    0.00000000000000   rchrg,fchrg,qchrg
     nproj     2     2     2
     extension_switch     1
  pspatm : epsatm=   21.63488701
         --- l  ekb(1:nproj) -->
             0    5.008230   -0.401634
             1   -3.496700   -0.765945
             2   -6.895851   -2.521180
 pspatm: atomic psp has been read  and splines computed

- pspini: atom type   3  psp file is /scratch/users/j/a/jabreu/pseudos/PBEsol/O.psp8
- pspatm: opening atomic psp file    /scratch/users/j/a/jabreu/pseudos/PBEsol/O.psp8
- O     ONCVPSP-3.3.0  r_core=   1.35509   1.45563   1.26150
-  8.00000   6.00000    180112                znucl, zion, pspdat
    8 -116133    2    4       600   0.00000   pspcod,pspxc,lmax,lloc,mmax,r2well
    5.99000000000000    4.00000000000000    0.00000000000000   rchrg,fchrg,qchrg
     nproj     2     2     1
     extension_switch     1
  pspatm : epsatm=    6.22910522
         --- l  ekb(1:nproj) -->
             0    6.050032    0.820363
             1   -4.739617   -1.153841
             2   -1.335834
 pspatm: atomic psp has been read  and splines computed

   1.24785759E+03                                ecore*ucvol(ha*bohr**3)

-inwffil : will read wavefunctions from disk file /scratch/users/j/a/jabreu/flow_simple_4atoms/flow/w193/t1/indata/in_WFK

 ==>  initialize data related to q vector <==

 The list of irreducible perturbations for this q vector is:
    1)    idir= 1    ipert=   5
    2)    idir= 2    ipert=   5
    3)    idir= 3    ipert=   5

 Perturbation wavevector (in red.coord.)   0.000000  0.000000  0.000000
 Perturbation : derivative vs k along direction   1

 dfpt_looppert : COMMENT -
  In a d/dk calculation, iscf is set to -3 automatically.
 The set of symmetries contains only one element for this perturbation.
 symkpt : not enough symmetry to change the number of k points.

[...]

 Initialisation of the first-order wave-functions :
  ireadwf=   0

--- !BeginCycle
iteration_state: {dtset: 1, }
solver: {iscf: 7, nstep: 100, nline: 4, wfoptalg: 0, }
tolerances: {tolwfr: 1.00E-20, }
...

     iter   2DEtotal(Ha)        deltaE(Ha) residm    vres2
-ETOT  1  -78.437034992254     -7.844E+01 7.084E-02 0.000E+00
 ETOT  2  -78.489251355338     -5.222E-02 2.019E-04 0.000E+00
 ETOT  3  -78.489319101133     -6.775E-05 8.104E-07 0.000E+00
 ETOT  4  -78.489319325307     -2.242E-07 3.761E-09 0.000E+00
 ETOT  5  -78.489319326286     -9.794E-10 1.957E-11 0.000E+00
 ETOT  6  -78.489319326291     -4.775E-12 1.247E-13 0.000E+00
 ETOT  7  -78.489319326291     -1.563E-13 1.016E-15 0.000E+00
 ETOT  8  -78.489319326291      0.000E+00 6.539E-18 0.000E+00
 ETOT  9  -78.489319326291      5.684E-14 7.373E-20 0.000E+00
 ETOT 10  -78.489319326291     -2.842E-14 9.795E-21 0.000E+00

 At SCF step   10   max residual=  9.79E-21 < tolwfr=  1.00E-20 =>converged.

 ----iterations are completed or convergence reached----

 dfpt_looppert: DFPT cycle converged with prtwf=-1. Will skip output of the 1st-order WFK file.
 dfpt_looppert : ek2=    1.3304587475E+02
          f-sum rule ratio=    1.1105458129E+00
 prteigrs : about to open file /scratch/users/j/a/jabreu/flow_simple_4atoms/flow/w193/t1/tmpdata/tmp_1WF1_EIG
 Expectation of eigenvalue derivatives (hartree) for nkpt=   2  k points:
  (in case of degenerate eigenvalues, averaged derivative)
 kpt#   1, nband= 26, wtk=  0.50000, kpt=  0.0000  0.0000  0.0000 (reduced coord)
  -0.00000    0.00000   -0.00000   -0.00000    0.00000    0.00000   -0.00000   -0.00000
   0.00000    0.00000   -0.00000    0.00000    0.00000   -0.00000   -0.00000    0.00000
   0.00000   -0.00000   -0.00000    0.00000   -0.00000   -0.00000    0.00000   -0.00000
  -0.00000    0.09923
 prteigrs : prtvol=0 or 1, do not print more k-points.

 Eight components of 2nd-order total energy (hartree) are
 1,2,3: 0th-order hamiltonian combined with 1st-order wavefunctions
     kin0=   9.40291164E+01 eigvalue=   1.33639242E+00  local=  -3.38171769E+01
 4,5,6: 1st-order hamiltonian combined with 1st and 0th-order wfs
     kin1=  -1.47753539E+02  Hartree=   0.00000000E+00     xc=   0.00000000E+00
 7,8,9: eventually, occupation + non-local contributions
    edocc=   2.19553629E+01     enl0=  -5.01437549E+00   enl1=  -9.22509953E+00
 1-9 gives the relaxation energy (to be shifted if some occ is /=2.0)
   erelax=  -7.84893193E+01
  No Ewald or frozen-wf contrib.: the relaxation energy is the total one
 2DEtotal=   -0.7848931933E+02 Ha. Also 2DEtotal=   -0.213580299710E+04 eV
    (  non-var. 2DEtotal :   -7.8489319326E+01 Ha)

 Perturbation wavevector (in red.coord.)   0.000000  0.000000  0.000000
 Perturbation : derivative vs k along direction   2
 The set of symmetries contains only one element for this perturbation.
 symkpt : not enough symmetry to change the number of k points.

[...]

 Perturbation wavevector (in red.coord.)   0.000000  0.000000  0.000000
 Perturbation : derivative vs k along direction   3
 The set of symmetries contains only one element for this perturbation.
 symkpt : not enough symmetry to change the number of k points.

-inwffil : will read wavefunctions from disk file /scratch/users/j/a/jabreu/flow_simple_4atoms/flow/w193/t1/indata/in_WFK

 Initialisation of the first-order wave-functions :
  ireadwf=   0

--- !BeginCycle
iteration_state: {dtset: 1, }
solver: {iscf: 7, nstep: 100, nline: 4, wfoptalg: 0, }
tolerances: {tolwfr: 1.00E-20, }
...

     iter   2DEtotal(Ha)        deltaE(Ha) residm    vres2
-ETOT  1  -19.252585046913     -1.925E+01 2.300E-02 0.000E+00
 ETOT  2  -19.265591996750     -1.301E-02 7.308E-05 0.000E+00
 ETOT  3  -19.265606394725     -1.440E-05 3.341E-07 0.000E+00
 ETOT  4  -19.265606426399     -3.167E-08 2.238E-09 0.000E+00
 ETOT  5  -19.265606426489     -8.962E-11 1.063E-11 0.000E+00
 ETOT  6  -19.265606426489     -2.842E-13 8.608E-14 0.000E+00
 ETOT  7  -19.265606426489     -3.553E-15 4.216E-16 0.000E+00
 ETOT  8  -19.265606426489      3.553E-15 3.532E-18 0.000E+00
 ETOT  9  -19.265606426489      3.553E-15 1.748E-20 0.000E+00
 ETOT 10  -19.265606426489     -3.553E-15 9.526E-21 0.000E+00

 At SCF step   10   max residual=  9.53E-21 < tolwfr=  1.00E-20 =>converged.

 ----iterations are completed or convergence reached----

 dfpt_looppert: DFPT cycle converged with prtwf=-1. Will skip output of the 1st-order WFK file.
 dfpt_looppert : ek2=    3.2572535970E+01
          f-sum rule ratio=    1.1152081087E+00
 prteigrs : about to open file /scratch/users/j/a/jabreu/flow_simple_4atoms/flow/w193/t1/tmpdata/tmp_1WF1_EIG
 Expectation of eigenvalue derivatives (hartree) for nkpt=   2  k points:
  (in case of degenerate eigenvalues, averaged derivative)
 kpt#   1, nband= 26, wtk=  0.50000, kpt=  0.0000  0.0000  0.0000 (reduced coord)
   0.00000   -0.00000   -0.00000   -0.00000   -0.00000   -0.00000   -0.00000    0.00000
   0.00000    0.00000   -0.00000    0.00000    0.00000   -0.00000   -0.00000   -0.00000
  -0.00000   -0.00000    0.00000   -0.00000    0.00000    0.00000    0.00000   -0.00000
  -0.00000   -0.01022
 prteigrs : prtvol=0 or 1, do not print more k-points.

 Eight components of 2nd-order total energy (hartree) are
 1,2,3: 0th-order hamiltonian combined with 1st-order wavefunctions
     kin0=   2.23882573E+01 eigvalue=   3.77461981E-01  local=  -7.97476546E+00
 4,5,6: 1st-order hamiltonian combined with 1st and 0th-order wfs
     kin1=  -3.63251562E+01  Hartree=   0.00000000E+00     xc=   0.00000000E+00
 7,8,9: eventually, occupation + non-local contributions
    edocc=   5.59540889E+00     enl0=  -1.12075630E+00   enl1=  -2.20605662E+00
 1-9 gives the relaxation energy (to be shifted if some occ is /=2.0)
   erelax=  -1.92656064E+01
  No Ewald or frozen-wf contrib.: the relaxation energy is the total one
 2DEtotal=   -0.1926560643E+02 Ha. Also 2DEtotal=   -0.524243811767E+03 eV
    (  non-var. 2DEtotal :   -1.9265606426E+01 Ha)

 CALCULATION OF EFFECTIVE MASSES
 NOTE : Additional infos (eff. mass eigenvalues, eigenvectors and, if degenerate, average mass) are available in stdout.

--- !WARNING
src_file: m_efmas.F90
src_line: 0
message: |

    Band(s)    17,
    are not band extrema, but saddle points;
    the transport equivalent formalism breaks down in these conditions.
    The associated tensor(s) will therefore not be printed.
...

 K-point ( 0.000, 0.000, 0.000) | band =    17
 Effective mass tensor:
     *** SADDLE POINT: TRANSPORT EQV. EFF. MASS NOT DEFINED (see WARNING above) ***
 Angular average effective mass 1/(<1/m>)=  -2.6830433133
 Angular average effective mass for Frohlich model (<m**0.5>)**2=  -5.5533756651
 Effective masses along directions: (cart. coord. / red. coord. -> eff. mass)
    1:   1.000000  0.000000  0.000000 /   0.874877  0.484345  0.000000 ->  -1.5796978144
    2:   0.000000  1.000000  0.000000 /   0.000000  1.000000  0.000000 ->  -1.9168601316
    3:   0.000000  0.000000  1.000000 /   0.238406  0.238406  0.941449 ->  27.3331106047
    4:   0.577350  0.577350  0.577350 /   0.484529  0.610437  0.626576 ->  -1.6428305843
    5:   0.000000  0.707107  0.707107 /   0.204381  0.553928  0.807089 ->  -2.9686655227
    6:   0.707107  0.000000  0.707107 /   0.562367  0.393541  0.727234 ->  -2.1089076745
    7:   0.707107  0.707107  0.000000 /   0.584998  0.811034  0.000000 ->  -1.5126440612

 K-point ( 0.150,-0.150, 0.500) | band =    18
 Effective mass tensor:
              2.3749469324              0.9848736286              1.2033819854
              0.9848736286              1.0654886163              0.6450401492
              1.2033819854              0.6450401492              1.3354252504
 Effective mass tensor eigenvalues:
              0.5375739841              0.5448438342              3.6934429809
 Angular average effective mass 1/(<1/m>)=   0.7563633881
 Angular average effective mass for Frohlich model (<m**0.5>)**2=   0.8799135958
 Effective masses along directions: (cart. coord. / red. coord. -> eff. mass)
    1:   1.000000  0.000000  0.000000 /   0.874877  0.484345  0.000000 ->   1.0744764936
    2:   0.000000  1.000000  0.000000 /   0.000000  1.000000  0.000000 ->   0.6276919328
    3:   0.000000  0.000000  1.000000 /   0.238406  0.238406  0.941449 ->   0.6932296254
    4:   0.577350  0.577350  0.577350 /   0.484529  0.610437  0.626576 ->   2.6483569500
    5:   0.000000  0.707107  0.707107 /   0.204381  0.553928  0.807089 ->   0.8352195979
    6:   0.707107  0.000000  0.707107 /   0.562367  0.393541  0.727234 ->   1.6989286659
    7:   0.707107  0.707107  0.000000 /   0.584998  0.811034  0.000000 ->   1.3094721487

 END OF EFFECTIVE MASSES SECTION

 ---- first-order wavefunction calculations are completed ----

 Total localisation tensor (bohr^2) in cartesian coordinates
  WARNING : still subject to testing - especially symmetries.
      direction              matrix element
   alpha     beta       real part   imaginary part
     1        1       1.5946172151    0.0000000000
     1        2       0.5627118063    0.0000000000
     1        3       0.9233306704    0.0000000000
     2        1       0.5627118063    0.0000000000
     2        2       0.8464568013    0.0000000000
     2        3       0.4949273102    0.0000000000
     3        1       0.9233306704    0.0000000000
     3        2       0.4949273102    0.0000000000
     3        3       1.8055860124    0.0000000000

 respfn : d/dk was computed, but no 2DTE, so no DDB output.

== END DATASET(S) ==============================================================

 -outvars: echo values of variables after computation  --------
            acell      1.0000000000E+00  1.0000000000E+00  1.0000000000E+00 Bohr
              amu      6.94100000E+00  6.35460000E+01  1.59994000E+01
             ecut      4.60000000E+01 Hartree
           etotal     -1.9265606426E+01
            fcart      0.0000000000E+00  0.0000000000E+00  0.0000000000E+00
                       0.0000000000E+00  0.0000000000E+00  0.0000000000E+00
                       0.0000000000E+00  0.0000000000E+00  0.0000000000E+00
                       0.0000000000E+00  0.0000000000E+00  0.0000000000E+00
-          fftalg         512
           irdden           1
           irdwfk           1
           istwfk        1    0
              ixc     -116133
              kpt      0.00000000E+00  0.00000000E+00  0.00000000E+00
                       1.49861577E-01 -1.49861577E-01  5.00000000E-01
           kptopt           0
P           mkmem           2
P          mkqmem           2
P          mk1mem           2
            natom           4
            nband          26
           nbdbuf           4
            ngfft          40      40      64
             nkpt           2
            nstep         100
             nsym           4
           ntypat           3
              occ      2.000000  2.000000  2.000000  2.000000  2.000000  2.000000
                       2.000000  2.000000  2.000000  2.000000  2.000000  2.000000
                       2.000000  2.000000  2.000000  2.000000  2.000000  0.000000
                       0.000000  0.000000  0.000000  0.000000  0.000000  0.000000
                       0.000000  0.000000
        optdriver           1
            prtwf          -1
            rfdir           1       1       1
           rfelfd           2
            rprim      5.3939520552E+00  0.0000000000E+00  2.6264566561E+00
                       2.9861721887E+00  4.4919366017E+00  2.6264566561E+00
                       0.0000000000E+00  0.0000000000E+00  1.0371710642E+01
          spgroup          12
           strten      0.0000000000E+00  0.0000000000E+00  0.0000000000E+00
                       0.0000000000E+00  0.0000000000E+00  0.0000000000E+00
           symrel      1  0  0   0  1  0   0  0  1      -1  0  0   0 -1  0   0  0 -1
                       0 -1  0  -1  0  0   0  0 -1       0  1  0   1  0  0   0  0  1
           tolwfr      1.00000000E-20
            typat      1  2  3  3
           useylm           1
              wtk        0.50000    0.50000
           xangst      0.0000000000E+00  0.0000000000E+00  2.7442364430E+00
                       0.0000000000E+00  0.0000000000E+00  0.0000000000E+00
                       1.8412869923E+00  9.8697157636E-01  2.5461220066E+00
                       2.5932837627E+00  1.3900588957E+00  5.7220728830E+00
            xcart      0.0000000000E+00  0.0000000000E+00  5.1858553211E+00
                       0.0000000000E+00  0.0000000000E+00  0.0000000000E+00
                       3.4795281476E+00  1.8651059803E+00  4.8114732933E+00
                       4.9005960963E+00  2.6268306214E+00  1.0813150661E+01
             xred      0.0000000000E+00  0.0000000000E+00  5.0000000000E-01
                       0.0000000000E+00  0.0000000000E+00  0.0000000000E+00
                       4.1521200000E-01  4.1521200000E-01  2.5361300000E-01
                       5.8478800000E-01  5.8478800000E-01  7.4638700000E-01
            znucl        3.00000   29.00000    8.00000

- Timing analysis has been suppressed with timopt=0

 Suggested references for the acknowledgment of ABINIT usage.

 Calculation completed.
.Delivered  15 WARNINGs and   9 COMMENTs to log file.