.Version 9.5.2 of ABINIT

 ABINIT is a project of the Universite Catholique de Louvain,
 Corning Inc. and other collaborators, see ~abinit/doc/developers/contributors.txt .
 acknowledgments of the ABINIT effort.

.Starting date : Mon 24 May 2021.
- ( at 22h50 )

- input  file    -> /scratch/users/j/a/jabreu/flow_simple_10atoms/flow/w447/t1/run.abi
- output file    -> /scratch/users/j/a/jabreu/flow_simple_10atoms/flow/w447/t1/run.abo
- root for input  files -> /scratch/users/j/a/jabreu/flow_simple_10atoms/flow/w447/t1/indata/in
- root for output files -> /scratch/users/j/a/jabreu/flow_simple_10atoms/flow/w447/t1/outdata/out

 Symmetries : space group Fm -3 m (#225); Bravais cF (face-center cubic)
     intxc =       0      iscf =       7    lmnmax =      32     lnmax =       8
     mgfft =      90  mpssoang =       4    mqgrid =    3422     natom =      10
  nloc_mem =       1    nspden =       1   nspinor =       1    nsppol =       1
      nsym =      48    n1xccc =    2501    ntypat =       4    occopt =       1
   xclevel =       2
-    mband =          50        mffmem =           1         mkmem =           1
-   mkqmem =           1        mk1mem =           1           mpw =       27317
      nfft =      729000          nkpt =           1
  Rough estimation (10% accuracy) of disk space for files :

------------- Echo of variables that govern the present computation ------------
-
- outvars: echo of selected default values
-   iomode0 =  0 , fftalg0 =512 , wfoptalg0 =  0
-
- outvars: echo of global parameters not present in the input file
-  max_nthreads =    0
-
 -outvars: echo values of preprocessed input variables --------
            acell      1.0000000000E+00  1.0000000000E+00  1.0000000000E+00 Bohr
              amu      1.32905430E+02  2.29897680E+01  1.14820000E+02
                       3.54527000E+01
             ecut      4.40000000E+01 Hartree
-          fftalg         512
           irdden           1
           irdwfk           1
           istwfk        1
              ixc     -116133
           kptopt           0
P           mkmem           1
P          mkqmem           1
P          mk1mem           1
            natom          10
            nband          50
           nbdbuf           4
            ngfft          90      90      90
             nkpt           1
            nstep        2000
             nsym          48
           ntypat           4
              occ      2.000000  2.000000  2.000000  2.000000  2.000000  2.000000
                       2.000000  2.000000  2.000000  2.000000  2.000000  2.000000
                       2.000000  2.000000  2.000000  2.000000  2.000000  2.000000
                       2.000000  2.000000  2.000000  2.000000  2.000000  2.000000
                       2.000000  2.000000  2.000000  2.000000  2.000000  2.000000
                       2.000000  2.000000  2.000000  2.000000  2.000000  2.000000
                       2.000000  2.000000  2.000000  2.000000  2.000000  0.000000
                       0.000000  0.000000  0.000000  0.000000  0.000000  0.000000
                       0.000000  0.000000
        optdriver           1
            prtwf          -1
            rfdir           1       1       1
           rfelfd           2
            rprim      1.2153583072E+01  0.0000000000E+00  7.0168744581E+00
                       4.0511943573E+00  1.1458508008E+01  7.0168744581E+00
                       0.0000000000E+00  0.0000000000E+00  1.4033748916E+01
          spgroup         225
           symrel      1  0  0   0  1  0   0  0  1      -1  0  0   0 -1  0   0  0 -1
                       0 -1  1   0 -1  0   1 -1  0       0  1 -1   0  1  0  -1  1  0
                      -1  0  0  -1  0  1  -1  1  0       1  0  0   1  0 -1   1 -1  0
                       0  1 -1   1  0 -1   0  0 -1       0 -1  1  -1  0  1   0  0  1
                      -1  0  0  -1  1  0  -1  0  1       1  0  0   1 -1  0   1  0 -1
                       0 -1  1   1 -1  0   0 -1  0       0  1 -1  -1  1  0   0  1  0
                       1  0  0   0  0  1   0  1  0      -1  0  0   0  0 -1   0 -1  0
                       0  1 -1   0  0 -1   1  0 -1       0 -1  1   0  0  1  -1  0  1
                      -1  0  1  -1  1  0  -1  0  0       1  0 -1   1 -1  0   1  0  0
                       0 -1  0   1 -1  0   0 -1  1       0  1  0  -1  1  0   0  1 -1
                       1  0 -1   0  0 -1   0  1 -1      -1  0  1   0  0  1   0 -1  1
                       0  1  0   0  0  1   1  0  0       0 -1  0   0  0 -1  -1  0  0
                       1  0 -1   0  1 -1   0  0 -1      -1  0  1   0 -1  1   0  0  1
                       0 -1  0   0 -1  1   1 -1  0       0  1  0   0  1 -1  -1  1  0
                      -1  0  1  -1  0  0  -1  1  0       1  0 -1   1  0  0   1 -1  0
                       0  1  0   1  0  0   0  0  1       0 -1  0  -1  0  0   0  0 -1
                       0  0 -1   0  1 -1   1  0 -1       0  0  1   0 -1  1  -1  0  1
                       1 -1  0   0 -1  1   0 -1  0      -1  1  0   0  1 -1   0  1  0
                       0  0  1   1  0  0   0  1  0       0  0 -1  -1  0  0   0 -1  0
                      -1  1  0  -1  0  0  -1  0  1       1 -1  0   1  0  0   1  0 -1
                       0  0  1   0  1  0   1  0  0       0  0 -1   0 -1  0  -1  0  0
                       1 -1  0   0 -1  0   0 -1  1      -1  1  0   0  1  0   0  1 -1
                       0  0 -1   1  0 -1   0  1 -1       0  0  1  -1  0  1   0 -1  1
                      -1  1  0  -1  0  1  -1  0  0       1 -1  0   1  0 -1   1  0  0
           tolwfr      1.00000000E-20
            typat      1  1  2  3  4  4  4  4  4  4
           useylm           1
           xangst      2.1437997214E+00  1.5158953205E+00  3.7131700388E+00
                       6.4313991643E+00  4.5476859616E+00  1.1139510116E+01
                       0.0000000000E+00  0.0000000000E+00  0.0000000000E+00
                       4.2875994429E+00  3.0317906411E+00  7.4263400775E+00
                       3.2601448380E+00  4.4848308780E+00  9.2059436557E+00
                       5.3150540478E+00  1.5787504041E+00  9.2059436557E+00
                       3.2601448380E+00  4.4848308780E+00  5.6467364994E+00
                       2.2326902331E+00  1.5787504041E+00  7.4263400775E+00
                       6.3425086527E+00  4.4848308780E+00  7.4263400775E+00
                       5.3150540478E+00  1.5787504041E+00  5.6467364994E+00
            xcart      4.0511943573E+00  2.8646270019E+00  7.0168744581E+00
                       1.2153583072E+01  8.5938810058E+00  2.1050623374E+01
                       0.0000000000E+00  0.0000000000E+00  0.0000000000E+00
                       8.1023887145E+00  5.7292540039E+00  1.4033748916E+01
                       6.1607808973E+00  8.4751021118E+00  1.7396712304E+01
                       1.0043996532E+01  2.9834058959E+00  1.7396712304E+01
                       6.1607808973E+00  8.4751021118E+00  1.0670785528E+01
                       4.2191730801E+00  2.9834058959E+00  1.4033748916E+01
                       1.1985604349E+01  8.4751021118E+00  1.4033748916E+01
                       1.0043996532E+01  2.9834058959E+00  1.0670785528E+01
             xred      2.5000000000E-01  2.5000000000E-01  2.5000000000E-01
                       7.5000000000E-01  7.5000000000E-01  7.5000000000E-01
                       0.0000000000E+00  0.0000000000E+00  0.0000000000E+00
                       5.0000000000E-01  5.0000000000E-01  5.0000000000E-01
                       2.6036600000E-01  7.3963400000E-01  7.3963400000E-01
                       7.3963400000E-01  2.6036600000E-01  7.3963400000E-01
                       2.6036600000E-01  7.3963400000E-01  2.6036600000E-01
                       2.6036600000E-01  2.6036600000E-01  7.3963400000E-01
                       7.3963400000E-01  7.3963400000E-01  2.6036600000E-01
                       7.3963400000E-01  2.6036600000E-01  2.6036600000E-01
            znucl       55.00000   11.00000   49.00000   17.00000

 chkinp: Checking input parameters for consistency.

== DATASET  1 ==================================================================
-   mpi_nproc: 1, omp_nthreads: -1 (-1 if OMP is not activated)

--- !DatasetInfo
iteration_state: {dtset: 1, }
dimensions: {natom: 10, nkpt: 1, mband: 50, nsppol: 1, nspinor: 1, nspden: 1, mpw: 27317, }
cutoff_energies: {ecut:  44.0, pawecutdg:  -1.0, }
electrons: {nelect:   8.20000000E+01, charge:   0.00000000E+00, occopt:   1.00000000E+00, tsmear:   1.00000000E-02, }
meta: {optdriver: 1, rfelfd: 2, }
...

 Real(R)+Recip(G) space primitive vectors, cartesian coordinates (Bohr,Bohr^-1):
 R(1)= 12.1535831  0.0000000  7.0168745  G(1)=  0.0822803 -0.0290905  0.0000000
 R(2)=  4.0511944 11.4585080  7.0168745  G(2)=  0.0000000  0.0872714  0.0000000
 R(3)=  0.0000000  0.0000000 14.0337489  G(3)= -0.0411401 -0.0290905  0.0712568
 Unit cell volume ucvol=  1.9543669E+03 bohr^3
 Angles (23,13,12)=  6.00000000E+01  6.00000000E+01  6.00000000E+01 degrees

 getcut: wavevector=  0.0000  0.0000  0.0000  ngfft=  90  90  90
         ecut(hartree)=     44.000   => boxcut(ratio)=   2.14798

--- Pseudopotential description ------------------------------------------------
- pspini: atom type   1  psp file is /scratch/users/j/a/jabreu/pseudos/PBEsol/Cs.psp8
- pspatm: opening atomic psp file    /scratch/users/j/a/jabreu/pseudos/PBEsol/Cs.psp8
- Cs    ONCVPSP-3.3.0  r_core=   2.27353   1.85623   2.01788   1.90105
- 55.00000   9.00000    180112                znucl, zion, pspdat
    8 -116133    3    4       600   0.00000   pspcod,pspxc,lmax,lloc,mmax,r2well
    5.99000000000000    5.00000000000000    0.00000000000000   rchrg,fchrg,qchrg
     nproj     2     2     2     2
     extension_switch     1
  pspatm : epsatm=   22.12462445
         --- l  ekb(1:nproj) -->
             0    6.214110    0.767882
             1    6.311966    0.793598
             2    3.769790    0.913105
             3   -9.247129   -2.432478
 pspatm: atomic psp has been read  and splines computed

- pspini: atom type   2  psp file is /scratch/users/j/a/jabreu/pseudos/PBEsol/Na.psp8
- pspatm: opening atomic psp file    /scratch/users/j/a/jabreu/pseudos/PBEsol/Na.psp8
- Na    ONCVPSP-3.3.0  r_core=   1.20708   1.55069
- 11.00000   9.00000    180112                znucl, zion, pspdat
    8 -116133    1    4       400   0.00000   pspcod,pspxc,lmax,lloc,mmax,r2well
    3.99000000000000    0.00000000000000    0.00000000000000   rchrg,fchrg,qchrg
     nproj     2     2
     extension_switch     1
  pspatm : epsatm=    9.32878306
         --- l  ekb(1:nproj) -->
             0    2.657905   -0.678300
             1   -6.761319   -2.404728
 pspatm: atomic psp has been read  and splines computed

[...]

- pspini: atom type   4  psp file is /scratch/users/j/a/jabreu/pseudos/PBEsol/Cl.psp8
- pspatm: opening atomic psp file    /scratch/users/j/a/jabreu/pseudos/PBEsol/Cl.psp8
- Cl    ONCVPSP-3.3.0  r_core=   1.56009   1.35202   1.75774
- 17.00000   7.00000    180112                znucl, zion, pspdat
    8 -116133    2    4       600   0.00000   pspcod,pspxc,lmax,lloc,mmax,r2well
[...]
 ETOT  2  -32.970793497842     -3.522E-02 5.987E-04 0.000E+00
 ETOT  3  -32.970987617648     -1.941E-04 4.091E-05 0.000E+00
 ETOT  4  -32.970992833863     -5.216E-06 8.047E-06 0.000E+00
 ETOT  5  -32.970993382473     -5.486E-07 1.577E-06 0.000E+00
 ETOT  6  -32.970993447333     -6.486E-08 3.864E-07 0.000E+00
 ETOT  7  -32.970993455581     -8.248E-09 8.026E-08 0.000E+00
 ETOT  8  -32.970993456661     -1.080E-09 2.040E-08 0.000E+00
 ETOT  9  -32.970993456807     -1.460E-10 4.312E-09 0.000E+00
 ETOT 10  -32.970993456827     -2.012E-11 1.125E-09 0.000E+00
 ETOT 11  -32.970993456830     -2.764E-12 2.379E-10 0.000E+00
 ETOT 12  -32.970993456830     -4.476E-13 6.327E-11 0.000E+00
 ETOT 13  -32.970993456830     -5.684E-14 1.332E-11 0.000E+00
 ETOT 14  -32.970993456830     -2.132E-14 3.597E-12 0.000E+00
 ETOT 15  -32.970993456830      1.421E-14 7.522E-13 0.000E+00
 ETOT 16  -32.970993456830      4.974E-14 2.059E-13 0.000E+00
 ETOT 17  -32.970993456830     -5.684E-14 4.276E-14 0.000E+00
 ETOT 18  -32.970993456830      1.421E-14 1.199E-14 0.000E+00
 ETOT 19  -32.970993456830      0.000E+00 2.443E-15 0.000E+00
 ETOT 20  -32.970993456830     -1.421E-14 7.164E-16 0.000E+00
 ETOT 21  -32.970993456830     -1.421E-14 1.401E-16 0.000E+00
 ETOT 22  -32.970993456830      0.000E+00 4.418E-17 0.000E+00
 ETOT 23  -32.970993456830      0.000E+00 8.063E-18 0.000E+00
 ETOT 24  -32.970993456830      0.000E+00 2.735E-18 0.000E+00
 ETOT 25  -32.970993456830      0.000E+00 4.654E-19 0.000E+00
 ETOT 26  -32.970993456830      0.000E+00 1.698E-19 0.000E+00
 ETOT 27  -32.970993456830      0.000E+00 2.695E-20 0.000E+00
 ETOT 28  -32.970993456830      0.000E+00 9.907E-21 0.000E+00

 At SCF step   28   max residual=  9.91E-21 < tolwfr=  1.00E-20 =>converged.

 ----iterations are completed or convergence reached----

 dfpt_looppert: DFPT cycle converged with prtwf=-1. Will skip output of the 1st-order WFK file.
 dfpt_looppert : ek2=    4.9311412130E+01
          f-sum rule ratio=    1.1320194280E+00
 prteigrs : about to open file /scratch/users/j/a/jabreu/flow_simple_10atoms/flow/w447/t1/tmpdata/tmp_1WF1_EIG
 Expectation of eigenvalue derivatives (hartree) for nkpt=   1  k points:
  (in case of degenerate eigenvalues, averaged derivative)
 kpt#   1, nband= 50, wtk=  1.00000, kpt=  0.0000  0.0000  0.0000 (reduced coord)
   0.00000   -0.00000   -0.00000   -0.00000    0.00000   -0.00000    0.00000    0.00000
   0.00000    0.00000    0.00000    0.00000    0.00000    0.00000    0.00000    0.00000
   0.00000    0.00000    0.00000    0.00000   -0.00000   -0.00000   -0.00000   -0.00000
  -0.00000   -0.00000   -0.00000    0.00000    0.00000    0.00000   -0.00000   -0.00000
  -0.00000   -0.00000   -0.00000    0.00000    0.00000    0.00000    0.00000    0.00000
   0.00000   -0.00000   -0.00000    0.00000    0.00000    0.00000    0.00000    0.00000
  -0.00000   -0.00000

 Eight components of 2nd-order total energy (hartree) are
 1,2,3: 0th-order hamiltonian combined with 1st-order wavefunctions
     kin0=   3.97874014E+01 eigvalue=   3.10554156E+00  local=  -2.25462354E+01
 4,5,6: 1st-order hamiltonian combined with 1st and 0th-order wfs
     kin1=  -5.58214766E+01  Hartree=   0.00000000E+00     xc=   0.00000000E+00
 7,8,9: eventually, occupation + non-local contributions
    edocc=   7.69904829E+00     enl0=   4.92523763E+00   enl1=  -1.01205104E+01
 1-9 gives the relaxation energy (to be shifted if some occ is /=2.0)
   erelax=  -3.29709935E+01
  No Ewald or frozen-wf contrib.: the relaxation energy is the total one
 2DEtotal=   -0.3297099346E+02 Ha. Also 2DEtotal=   -0.897186359199E+03 eV
    (  non-var. 2DEtotal :   -3.2970993457E+01 Ha)

 CALCULATION OF EFFECTIVE MASSES
 NOTE : Additional infos (eff. mass eigenvalues, eigenvectors and, if degenerate, average mass) are available in stdout.

 COMMENTS:
 - At k-point ( 0.000, 0.000, 0.000), bands    39 through    41
   are DEGENERATE (effective mass tensor is therefore not defined).
   See Section IIIB Eqs. (67)-(70) and Appendix E of PRB 93 205147 (2016).
 - Angular average effective mass for Frohlich model is to be averaged over degenerate bands. See later.
 - Associated theta integrals calculated with ntheta=   1000 points.

 K-point ( 0.000, 0.000, 0.000) | band =    39
 Transport equivalent effective mass tensor:
             -1.1683544393             -0.0000003256              0.0000000002
             -0.0000003256             -1.1683541298              0.0000000001
              0.0000000002              0.0000000001             -1.1683527181
 Transport equivalent effective mass tensor eigenvalues:
             -1.1683546450             -1.1683539240             -1.1683527181
 Angular average effective mass 1/(<1/m>)=  -1.1196690206
 Angular average effective mass for Frohlich model (<m**0.5>)**2=  -1.1215800724
 Effective masses along directions: (cart. coord. / red. coord. -> eff. mass)
    1:   1.000000  0.000000  0.000000 /   0.948683  0.316228  0.000000 ->  -1.1841900125
    2:   0.000000  1.000000  0.000000 /   0.000000  1.000000  0.000000 ->  -1.3219498192
    3:   0.000000  0.000000  1.000000 /   0.408248  0.408248  0.816497 ->  -1.0724323150
    4:   0.577350  0.577350  0.577350 /   0.585539  0.688047  0.428644 ->  -1.1492016521
    5:   0.000000  0.707107  0.707107 /   0.289489  0.762222  0.578977 ->  -1.0790480210
    6:   0.707107  0.000000  0.707107 /   0.731423  0.422287  0.535439 ->  -1.1079893023
    7:   0.707107  0.707107  0.000000 /   0.616798  0.787122  0.000000 ->  -1.0811856785

[...]

 K-point ( 0.000, 0.000, 0.000) | band =    41
 Transport equivalent effective mass tensor:
            -63.2543630759             -0.0000000024              0.0000000035
             -0.0000000024            -63.2543630843              0.0000000039
              0.0000000035              0.0000000039            -63.2543630879
 Transport equivalent effective mass tensor eigenvalues:
            -63.2543630916            -63.2543630819            -63.2543630747
 Angular average effective mass 1/(<1/m>)=  -4.4788080350
 Angular average effective mass for Frohlich model (<m**0.5>)**2=  -5.6231405888
 Effective masses along directions: (cart. coord. / red. coord. -> eff. mass)
    1:   1.000000  0.000000  0.000000 /   0.948683  0.316228  0.000000 ->  -3.8019719221
    2:   0.000000  1.000000  0.000000 /   0.000000  1.000000  0.000000 ->  -2.6149901477
    3:   0.000000  0.000000  1.000000 /   0.408248  0.408248  0.816497 ->  -3.3966247758
    4:   0.577350  0.577350  0.577350 /   0.585539  0.688047  0.428644 ->  -3.6856681199
    5:   0.000000  0.707107  0.707107 /   0.289489  0.762222  0.578977 ->  -6.4066376802
    6:   0.707107  0.000000  0.707107 /   0.731423  0.422287  0.535439 ->  -3.6002671243
    7:   0.707107  0.707107  0.000000 /   0.616798  0.787122  0.000000 -> -19.3436768259

 Angular average effective mass for Frohlich model, averaged over degenerate bands.
 Value of     (<<m**0.5>>)**2 =     2.317579E+00
 Absolute Value of <<m**0.5>> =     1.522360E+00

 K-point ( 0.000, 0.000, 0.000) | band =    42
 Effective mass tensor:
              0.4232480144             -0.0000000000             -0.0000000000
             -0.0000000000              0.4232480144             -0.0000000000
             -0.0000000000             -0.0000000000              0.4232480144
 Effective mass tensor eigenvalues:
              0.4232480144              0.4232480144              0.4232480144
 Angular average effective mass 1/(<1/m>)=   0.4232480144
 Angular average effective mass for Frohlich model (<m**0.5>)**2=   0.4232480144
 Effective masses along directions: (cart. coord. / red. coord. -> eff. mass)
    1:   1.000000  0.000000  0.000000 /   0.948683  0.316228  0.000000 ->   0.4232480144
    2:   0.000000  1.000000  0.000000 /   0.000000  1.000000  0.000000 ->   0.4232480144
    3:   0.000000  0.000000  1.000000 /   0.408248  0.408248  0.816497 ->   0.4232480144
    4:   0.577350  0.577350  0.577350 /   0.585539  0.688047  0.428644 ->   0.4232480144
    5:   0.000000  0.707107  0.707107 /   0.289489  0.762222  0.578977 ->   0.4232480144
    6:   0.707107  0.000000  0.707107 /   0.731423  0.422287  0.535439 ->   0.4232480144
    7:   0.707107  0.707107  0.000000 /   0.616798  0.787122  0.000000 ->   0.4232480144

 END OF EFFECTIVE MASSES SECTION

 ---- first-order wavefunction calculations are completed ----

 Total localisation tensor (bohr^2) in cartesian coordinates
  WARNING : still subject to testing - especially symmetries.
      direction              matrix element
   alpha     beta       real part   imaginary part
     1        1       1.5298170935    0.0000000000
     1        2       0.4326977170    0.0000000000
     1        3       1.0598884140    0.0000000000
     2        1       0.4326977170    0.0000000000
     2        2       1.2238539596    0.0000000000
     2        3       0.7494544302    0.0000000000
     3        1       1.0598884140    0.0000000000
     3        2       0.7494544302    0.0000000000
     3        3       2.7536715252    0.0000000000

 respfn : d/dk was computed, but no 2DTE, so no DDB output.

== END DATASET(S) ==============================================================

 -outvars: echo values of variables after computation  --------
            acell      1.0000000000E+00  1.0000000000E+00  1.0000000000E+00 Bohr
              amu      1.32905430E+02  2.29897680E+01  1.14820000E+02
                       3.54527000E+01
             ecut      4.40000000E+01 Hartree
           etotal     -3.2970993457E+01
            fcart      0.0000000000E+00  0.0000000000E+00  0.0000000000E+00
                       0.0000000000E+00  0.0000000000E+00  0.0000000000E+00
                       0.0000000000E+00  0.0000000000E+00  0.0000000000E+00
                       0.0000000000E+00  0.0000000000E+00  0.0000000000E+00
                       0.0000000000E+00  0.0000000000E+00  0.0000000000E+00
                       0.0000000000E+00  0.0000000000E+00  0.0000000000E+00
                       0.0000000000E+00  0.0000000000E+00  0.0000000000E+00
                       0.0000000000E+00  0.0000000000E+00  0.0000000000E+00
                       0.0000000000E+00  0.0000000000E+00  0.0000000000E+00
                       0.0000000000E+00  0.0000000000E+00  0.0000000000E+00
-          fftalg         512
           irdden           1
           irdwfk           1
           istwfk        1
              ixc     -116133
           kptopt           0
P           mkmem           1
P          mkqmem           1
P          mk1mem           1
            natom          10
            nband          50
           nbdbuf           4
            ngfft          90      90      90
             nkpt           1
            nstep        2000
             nsym          48
           ntypat           4
              occ      2.000000  2.000000  2.000000  2.000000  2.000000  2.000000
                       2.000000  2.000000  2.000000  2.000000  2.000000  2.000000
                       2.000000  2.000000  2.000000  2.000000  2.000000  2.000000
                       2.000000  2.000000  2.000000  2.000000  2.000000  2.000000
                       2.000000  2.000000  2.000000  2.000000  2.000000  2.000000
                       2.000000  2.000000  2.000000  2.000000  2.000000  2.000000
                       2.000000  2.000000  2.000000  2.000000  2.000000  0.000000
                       0.000000  0.000000  0.000000  0.000000  0.000000  0.000000
                       0.000000  0.000000
        optdriver           1
            prtwf          -1
            rfdir           1       1       1
           rfelfd           2
            rprim      1.2153583072E+01  0.0000000000E+00  7.0168744581E+00
                       4.0511943573E+00  1.1458508008E+01  7.0168744581E+00
                       0.0000000000E+00  0.0000000000E+00  1.4033748916E+01
          spgroup         225
           strten      0.0000000000E+00  0.0000000000E+00  0.0000000000E+00
                       0.0000000000E+00  0.0000000000E+00  0.0000000000E+00
           symrel      1  0  0   0  1  0   0  0  1      -1  0  0   0 -1  0   0  0 -1
                       0 -1  1   0 -1  0   1 -1  0       0  1 -1   0  1  0  -1  1  0
                      -1  0  0  -1  0  1  -1  1  0       1  0  0   1  0 -1   1 -1  0
                       0  1 -1   1  0 -1   0  0 -1       0 -1  1  -1  0  1   0  0  1
                      -1  0  0  -1  1  0  -1  0  1       1  0  0   1 -1  0   1  0 -1
                       0 -1  1   1 -1  0   0 -1  0       0  1 -1  -1  1  0   0  1  0
                       1  0  0   0  0  1   0  1  0      -1  0  0   0  0 -1   0 -1  0
                       0  1 -1   0  0 -1   1  0 -1       0 -1  1   0  0  1  -1  0  1
                      -1  0  1  -1  1  0  -1  0  0       1  0 -1   1 -1  0   1  0  0
                       0 -1  0   1 -1  0   0 -1  1       0  1  0  -1  1  0   0  1 -1
                       1  0 -1   0  0 -1   0  1 -1      -1  0  1   0  0  1   0 -1  1
                       0  1  0   0  0  1   1  0  0       0 -1  0   0  0 -1  -1  0  0
                       1  0 -1   0  1 -1   0  0 -1      -1  0  1   0 -1  1   0  0  1
                       0 -1  0   0 -1  1   1 -1  0       0  1  0   0  1 -1  -1  1  0
                      -1  0  1  -1  0  0  -1  1  0       1  0 -1   1  0  0   1 -1  0
                       0  1  0   1  0  0   0  0  1       0 -1  0  -1  0  0   0  0 -1
                       0  0 -1   0  1 -1   1  0 -1       0  0  1   0 -1  1  -1  0  1
                       1 -1  0   0 -1  1   0 -1  0      -1  1  0   0  1 -1   0  1  0
                       0  0  1   1  0  0   0  1  0       0  0 -1  -1  0  0   0 -1  0
                      -1  1  0  -1  0  0  -1  0  1       1 -1  0   1  0  0   1  0 -1
                       0  0  1   0  1  0   1  0  0       0  0 -1   0 -1  0  -1  0  0
                       1 -1  0   0 -1  0   0 -1  1      -1  1  0   0  1  0   0  1 -1
                       0  0 -1   1  0 -1   0  1 -1       0  0  1  -1  0  1   0 -1  1
                      -1  1  0  -1  0  1  -1  0  0       1 -1  0   1  0 -1   1  0  0
           tolwfr      1.00000000E-20
            typat      1  1  2  3  4  4  4  4  4  4
           useylm           1
           xangst      2.1437997214E+00  1.5158953205E+00  3.7131700388E+00
                       6.4313991643E+00  4.5476859616E+00  1.1139510116E+01
                       0.0000000000E+00  0.0000000000E+00  0.0000000000E+00
                       4.2875994429E+00  3.0317906411E+00  7.4263400775E+00
                       3.2601448380E+00  4.4848308780E+00  9.2059436557E+00
                       5.3150540478E+00  1.5787504041E+00  9.2059436557E+00
                       3.2601448380E+00  4.4848308780E+00  5.6467364994E+00
                       2.2326902331E+00  1.5787504041E+00  7.4263400775E+00
                       6.3425086527E+00  4.4848308780E+00  7.4263400775E+00
                       5.3150540478E+00  1.5787504041E+00  5.6467364994E+00
            xcart      4.0511943573E+00  2.8646270019E+00  7.0168744581E+00
                       1.2153583072E+01  8.5938810058E+00  2.1050623374E+01
                       0.0000000000E+00  0.0000000000E+00  0.0000000000E+00
                       8.1023887145E+00  5.7292540039E+00  1.4033748916E+01
                       6.1607808973E+00  8.4751021118E+00  1.7396712304E+01
                       1.0043996532E+01  2.9834058959E+00  1.7396712304E+01
                       6.1607808973E+00  8.4751021118E+00  1.0670785528E+01
                       4.2191730801E+00  2.9834058959E+00  1.4033748916E+01
                       1.1985604349E+01  8.4751021118E+00  1.4033748916E+01
                       1.0043996532E+01  2.9834058959E+00  1.0670785528E+01
             xred      2.5000000000E-01  2.5000000000E-01  2.5000000000E-01
                       7.5000000000E-01  7.5000000000E-01  7.5000000000E-01
                       0.0000000000E+00  0.0000000000E+00  0.0000000000E+00
                       5.0000000000E-01  5.0000000000E-01  5.0000000000E-01
                       2.6036600000E-01  7.3963400000E-01  7.3963400000E-01
                       7.3963400000E-01  2.6036600000E-01  7.3963400000E-01
                       2.6036600000E-01  7.3963400000E-01  2.6036600000E-01
                       2.6036600000E-01  2.6036600000E-01  7.3963400000E-01
                       7.3963400000E-01  7.3963400000E-01  2.6036600000E-01
                       7.3963400000E-01  2.6036600000E-01  2.6036600000E-01
            znucl       55.00000   11.00000   49.00000   17.00000

- Timing analysis has been suppressed with timopt=0

 Suggested references for the acknowledgment of ABINIT usage.

 Calculation completed.
.Delivered   2 WARNINGs and   5 COMMENTs to log file.