.Version 9.7.2 of ABINIT

 ABINIT is a project of the Universite Catholique de Louvain,
 Corning Inc. and other collaborators, see ~abinit/doc/developers/contributors.txt .
 acknowledgments of the ABINIT effort.

.Starting date : Wed  1 Dec 2021.
- ( at 21h26 )

- input  file    -> /scratch/users/j/a/jabreu/flow_simple_remain_atoms/flow/w200/t1/run.abi
- output file    -> /scratch/users/j/a/jabreu/flow_simple_remain_atoms/flow/w200/t1/run.abo
- root for input  files -> /scratch/users/j/a/jabreu/flow_simple_remain_atoms/flow/w200/t1/indata/in
- root for output files -> /scratch/users/j/a/jabreu/flow_simple_remain_atoms/flow/w200/t1/outdata/out

 Symmetries : space group I4/m m m (#139); Bravais tI (body-center tetrag.)
     intxc =       0      iscf =       7    lmnmax =      18     lnmax =       6
     mgfft =      80  mpssoang =       3    mqgrid =    3001     natom =       5
  nloc_mem =       1    nspden =       1   nspinor =       1    nsppol =       1
      nsym =      16    n1xccc =    2501    ntypat =       3    occopt =       1
   xclevel =       2
-    mband =          34        mffmem =           1         mkmem =           1
-   mkqmem =           1        mk1mem =           1           mpw =        8059
      nfft =      512000          nkpt =           1
  Rough estimation (10% accuracy) of disk space for files :

------------- Echo of variables that govern the present computation ------------
-
- outvars: echo of selected default values
-   iomode0 =  0 , fftalg0 =512 , wfoptalg0 =  0
-
- outvars: echo of global parameters not present in the input file
-  max_nthreads =    0
-
 -outvars: echo values of preprocessed input variables --------
            acell      1.0000000000E+00  1.0000000000E+00  1.0000000000E+00 Bohr
              amu      8.76200000E+01  6.53900000E+01  1.40067400E+01
             ecut      4.20000000E+01 Hartree
-          fftalg         512
           irdden           1
           irdwfk           1
           istwfk        1
              ixc     -116133
           kptopt           0
P           mkmem           1
P          mkqmem           1
P          mk1mem           1
            natom           5
            nband          34
           nbdbuf           4
            ngfft          80      80      80
             nkpt           1
            nstep        2000
             nsym          16
           ntypat           3
              occ      2.000000  2.000000  2.000000  2.000000  2.000000  2.000000
                       2.000000  2.000000  2.000000  2.000000  2.000000  2.000000
                       2.000000  2.000000  2.000000  2.000000  2.000000  2.000000
                       2.000000  2.000000  2.000000  2.000000  2.000000  2.000000
                       2.000000  0.000000  0.000000  0.000000  0.000000  0.000000
                       0.000000  0.000000  0.000000  0.000000
        optdriver           1
            prtwf          -1
            rfdir           1       1       1
           rfelfd           2
            rprim      6.9336148232E+00  0.0000000000E+00 -1.1025753751E+01
                      -5.7627973910E-01  6.9096248942E+00 -1.1025753751E+01
                       0.0000000000E+00  0.0000000000E+00  1.3024678894E+01
          spgroup         139
           symrel      1  0  0   0  1  0   0  0  1      -1  0  0   0 -1  0   0  0 -1
                      -1 -1 -1   0  0  1   0  1  0       1  1  1   0  0 -1   0 -1  0
                       0  1  0   1  0  0  -1 -1 -1       0 -1  0  -1  0  0   1  1  1
                       0  0  1  -1 -1 -1   1  0  0       0  0 -1   1  1  1  -1  0  0
                       0  1  0   1  0  0   0  0  1       0 -1  0  -1  0  0   0  0 -1
                      -1 -1 -1   0  0  1   1  0  0       1  1  1   0  0 -1  -1  0  0
                       1  0  0   0  1  0  -1 -1 -1      -1  0  0   0 -1  0   1  1  1
                       0  0  1  -1 -1 -1   0  1  0       0  0 -1   1  1  1   0 -1  0
           tolwfr      1.00000000E-20
            typat      1  1  2  3  3
           useylm           1
           xangst      2.2152804543E+00  2.4077316631E+00 -7.6840803435E+00
                       1.1488763796E+00  1.2486843508E+00 -3.9850748414E+00
                       0.0000000000E+00  0.0000000000E+00  0.0000000000E+00
                       2.8817535647E+00  3.1321042396E+00 -9.9958566772E+00
                       4.8240326919E-01  5.2431177432E-01 -1.6732985077E+00
            xcart      4.1862733662E+00  4.5499534447E+00 -1.4520807432E+01
                       2.1710617179E+00  2.3596714495E+00 -7.5307000693E+00
                       0.0000000000E+00  0.0000000000E+00  0.0000000000E+00
                       5.4457250197E+00  5.9188192325E+00 -1.8889431583E+01
                       9.1161006438E-01  9.9080566170E-01 -3.1620759182E+00
             xred      6.5849500000E-01  6.5849500000E-01 -1.1102230246E-16
                       3.4150500000E-01  3.4150500000E-01  0.0000000000E+00
                       0.0000000000E+00  0.0000000000E+00  0.0000000000E+00
                       8.5660500000E-01  8.5660500000E-01  0.0000000000E+00
                       1.4339500000E-01  1.4339500000E-01 -2.7755575616E-17
            znucl       38.00000   30.00000    7.00000

 chkinp: Checking input parameters for consistency.

== DATASET  1 ==================================================================
-   mpi_nproc: 1, omp_nthreads: -1 (-1 if OMP is not activated)

--- !DatasetInfo
iteration_state: {dtset: 1, }
dimensions: {natom: 5, nkpt: 1, mband: 34, nsppol: 1, nspinor: 1, nspden: 1, mpw: 8059, }
cutoff_energies: {ecut:  42.0, pawecutdg:  -1.0, }
electrons: {nelect:   5.00000000E+01, charge:   0.00000000E+00, occopt:   1.00000000E+00, tsmear:   1.00000000E-02, }
meta: {optdriver: 1, rfelfd: 2, }
...

 Real(R)+Recip(G) space primitive vectors, cartesian coordinates (Bohr,Bohr^-1):
 R(1)=  6.9336148  0.0000000-11.0257538  G(1)=  0.1442249  0.0120287  0.0000000
 R(2)= -0.5762797  6.9096249-11.0257538  G(2)=  0.0000000  0.1447257  0.0000000
 R(3)=  0.0000000  0.0000000 13.0246789  G(3)=  0.1220904  0.1326969  0.0767773
 Unit cell volume ucvol=  6.2399514E+02 bohr^3
 Angles (23,13,12)=  1.47836006E+02  1.47836006E+02  4.61275126E+01 degrees

 getcut: wavevector=  0.0000  0.0000  0.0000  ngfft=  80  80  80
         ecut(hartree)=     42.000   => boxcut(ratio)=   2.10549

--- Pseudopotential description ------------------------------------------------
- pspini: atom type   1  psp file is /scratch/users/j/a/jabreu/pseudos/PBEsol/Sr.psp8
- pspatm: opening atomic psp file    /scratch/users/j/a/jabreu/pseudos/PBEsol/Sr.psp8
- Sr    ONCVPSP-3.3.0  r_core=   1.66721   1.31335   1.51547
- 38.00000  10.00000    180112                znucl, zion, pspdat
    8 -116133    2    4       600   0.00000   pspcod,pspxc,lmax,lloc,mmax,r2well
    5.99000000000000    6.00000000000000    0.00000000000000   rchrg,fchrg,qchrg
     nproj     2     2     2
     extension_switch     1
  pspatm : epsatm=   12.46450977
         --- l  ekb(1:nproj) -->
             0   10.029206    1.044171
             1    7.472414    1.670829
             2    4.142950    0.968140
 pspatm: atomic psp has been read  and splines computed

- pspini: atom type   2  psp file is /scratch/users/j/a/jabreu/pseudos/PBEsol/Zn.psp8
- pspatm: opening atomic psp file    /scratch/users/j/a/jabreu/pseudos/PBEsol/Zn.psp8
- Zn    ONCVPSP-3.3.0  r_core=   1.35823   1.66358   1.85211
- 30.00000  20.00000    180112                znucl, zion, pspdat
    8 -116133    2    4       600   0.00000   pspcod,pspxc,lmax,lloc,mmax,r2well
    5.99000000000000    2.50000000000000    0.00000000000000   rchrg,fchrg,qchrg
     nproj     2     2     2
     extension_switch     1
  pspatm : epsatm=   26.57343589
         --- l  ekb(1:nproj) -->
             0    2.830835   -1.519107
             1   -4.626739   -1.324150
             2   -6.948510   -2.555500
 pspatm: atomic psp has been read  and splines computed

- pspini: atom type   3  psp file is /scratch/users/j/a/jabreu/pseudos/PBEsol/N.psp8
- pspatm: opening atomic psp file    /scratch/users/j/a/jabreu/pseudos/PBEsol/N.psp8
- N     ONCVPSP-3.3.0  r_core=   1.20551   1.35824
-  7.00000   5.00000    180112                znucl, zion, pspdat
    8 -116133    1    4       600   0.00000   pspcod,pspxc,lmax,lloc,mmax,r2well
    5.99000000000000    4.00000000000000    0.00000000000000   rchrg,fchrg,qchrg
     nproj     2     2
     extension_switch     1
  pspatm : epsatm=    5.26508895
         --- l  ekb(1:nproj) -->
             0    7.464189    0.625868
             1   -4.309714   -1.012941
 pspatm: atomic psp has been read  and splines computed

   3.10163167E+03                                ecore*ucvol(ha*bohr**3)

 ==>  initialize data related to q vector <==

 The list of irreducible perturbations for this q vector is:
    1)    idir= 1    ipert=   6
    2)    idir= 2    ipert=   6
    3)    idir= 3    ipert=   6

 Perturbation wavevector (in red.coord.)   0.000000  0.000000  0.000000
 Perturbation : derivative vs k along direction   1

 dfpt_looppert : COMMENT -
  In a d/dk calculation, iscf is set to -3 automatically.
 The set of symmetries contains only one element for this perturbation.
 symkpt : not enough symmetry to change the number of k points.

 Initialisation of the first-order wave-functions :
  ireadwf=   0

--- !BeginCycle
iteration_state: {dtset: 1, }
solver: {iscf: 7, nstep: 2000, nline: 4, wfoptalg: 0, }
tolerances: {tolwfr: 1.00E-20, }
...

     iter   2DEtotal(Ha)        deltaE(Ha) residm    vres2
-ETOT  1  -58.927536724568     -5.893E+01 5.495E-02 0.000E+00
 ETOT  2  -59.009827486450     -8.229E-02 2.038E-03 0.000E+00
 ETOT  3  -59.010417595671     -5.901E-04 2.285E-05 0.000E+00
 ETOT  4  -59.010423508892     -5.913E-06 1.492E-06 0.000E+00
 ETOT  5  -59.010423586074     -7.718E-08 7.342E-08 0.000E+00
 ETOT  6  -59.010423587269     -1.195E-09 6.008E-09 0.000E+00
 ETOT  7  -59.010423587290     -2.091E-11 3.310E-10 0.000E+00
 ETOT  8  -59.010423587290     -3.482E-13 2.998E-11 0.000E+00
 ETOT  9  -59.010423587290     -2.132E-14 1.592E-12 0.000E+00
 ETOT 10  -59.010423587290     -1.421E-13 1.588E-13 0.000E+00
 ETOT 11  -59.010423587290      7.816E-14 1.010E-14 0.000E+00
 ETOT 12  -59.010423587290      0.000E+00 1.587E-15 0.000E+00
 ETOT 13  -59.010423587290      7.105E-15 3.769E-16 0.000E+00
 ETOT 14  -59.010423587290     -7.105E-15 6.603E-17 0.000E+00
 ETOT 15  -59.010423587290      1.421E-14 2.252E-17 0.000E+00
 ETOT 16  -59.010423587290     -1.421E-14 3.968E-18 0.000E+00
 ETOT 17  -59.010423587290      1.421E-14 1.366E-18 0.000E+00
 ETOT 18  -59.010423587290     -1.421E-14 2.387E-19 0.000E+00
 ETOT 19  -59.010423587290      0.000E+00 8.287E-20 0.000E+00
 ETOT 20  -59.010423587290      0.000E+00 1.437E-20 0.000E+00
 ETOT 21  -59.010423587290     -7.105E-15 9.989E-21 0.000E+00

 At SCF step   21   max residual=  9.99E-21 < tolwfr=  1.00E-20 =>converged.

 ----iterations are completed or convergence reached----

 dfpt_looppert: DFPT cycle converged with prtwf=-1. Will skip output of the 1st-order WFK file.
 dfpt_looppert : ek2=    8.2689581542E+01
          f-sum rule ratio=    1.3514294717E+00
 prteigrs : about to open file /scratch/users/j/a/jabreu/flow_simple_remain_atoms/flow/w200/t1/tmpdata/tmp_1WF1_EIG
 Expectation of eigenvalue derivatives (hartree) for nkpt=   1  k points:
  (in case of degenerate eigenvalues, averaged derivative)
 kpt#   1, nband= 34, wtk=  1.00000, kpt=  0.0000  0.0000  0.0000 (reduced coord)
   0.00000    0.00000    0.00000    0.00000   -0.00000   -0.00000    0.00000    0.00000
  -0.00000   -0.00000   -0.00000   -0.00000   -0.00000    0.00000    0.00000    0.00000
   0.00000    0.00000    0.00000    0.00000    0.00000   -0.00000   -0.00000    0.00000
   0.00000   -0.00000   -0.00000   -0.00000    0.00000   -0.00000   -0.00000   -0.00000
  -0.00000   -0.00000

 Eight components of 2nd-order total energy (hartree) are
 1,2,3: 0th-order hamiltonian combined with 1st-order wavefunctions
     kin0=   7.51281734E+01 eigvalue=  -2.54354156E+00  local=  -3.61523467E+01
 4,5,6: 1st-order hamiltonian combined with 1st and 0th-order wfs
     kin1=  -1.11749138E+02  Hartree=   0.00000000E+00     xc=   0.00000000E+00
 7,8,9: eventually, occupation + non-local contributions
    edocc=   2.08742635E+01     enl0=   1.70387493E+00   enl1=  -6.27170967E+00
 1-9 gives the relaxation energy (to be shifted if some occ is /=2.0)
   erelax=  -5.90104236E+01
  No Ewald or frozen-wf contrib.: the relaxation energy is the total one
 2DEtotal=   -0.5901042359E+02 Ha. Also 2DEtotal=   -0.160575528797E+04 eV
    (  non-var. 2DEtotal :   -5.9010423587E+01 Ha)

 Perturbation wavevector (in red.coord.)   0.000000  0.000000  0.000000
 Perturbation : derivative vs k along direction   2
 The set of symmetries contains only one element for this perturbation.
 symkpt : not enough symmetry to change the number of k points.

[...]

 Perturbation wavevector (in red.coord.)   0.000000  0.000000  0.000000
 Perturbation : derivative vs k along direction   3
 The set of symmetries contains only one element for this perturbation.
 symkpt : not enough symmetry to change the number of k points.

 Initialisation of the first-order wave-functions :
  ireadwf=   0

--- !BeginCycle
iteration_state: {dtset: 1, }
solver: {iscf: 7, nstep: 2000, nline: 4, wfoptalg: 0, }
tolerances: {tolwfr: 1.00E-20, }
...

     iter   2DEtotal(Ha)        deltaE(Ha) residm    vres2
-ETOT  1  -109.83870117899     -1.098E+02 1.610E-01 0.000E+00
 ETOT  2  -109.96401100863     -1.253E-01 3.580E-03 0.000E+00
 ETOT  3  -109.96476555567     -7.545E-04 1.009E-04 0.000E+00
 ETOT  4  -109.96477253845     -6.983E-06 9.369E-06 0.000E+00
 ETOT  5  -109.96477262794     -8.949E-08 4.190E-07 0.000E+00
 ETOT  6  -109.96477262930     -1.357E-09 3.831E-08 0.000E+00
 ETOT  7  -109.96477262932     -2.279E-11 2.025E-09 0.000E+00
 ETOT  8  -109.96477262932     -3.979E-13 1.811E-10 0.000E+00
 ETOT  9  -109.96477262932     -2.842E-14 1.077E-11 0.000E+00
 ETOT 10  -109.96477262932      2.700E-13 9.356E-13 0.000E+00
 ETOT 11  -109.96477262932     -9.948E-14 6.910E-14 0.000E+00
 ETOT 12  -109.96477262932     -2.842E-14 7.339E-15 0.000E+00
 ETOT 13  -109.96477262932      4.263E-14 1.948E-15 0.000E+00
 ETOT 14  -109.96477262932     -1.421E-14 2.527E-16 0.000E+00
 ETOT 15  -109.96477262932      2.842E-14 1.126E-16 0.000E+00
 ETOT 16  -109.96477262932     -5.684E-14 1.548E-17 0.000E+00
 ETOT 17  -109.96477262932      5.684E-14 6.844E-18 0.000E+00
 ETOT 18  -109.96477262932      0.000E+00 9.476E-19 0.000E+00
 ETOT 19  -109.96477262932      1.421E-14 4.178E-19 0.000E+00
 ETOT 20  -109.96477262932     -1.421E-14 5.798E-20 0.000E+00
 ETOT 21  -109.96477262932      0.000E+00 2.554E-20 0.000E+00
 ETOT 22  -109.96477262932      2.842E-14 8.926E-21 0.000E+00

 At SCF step   22   max residual=  8.93E-21 < tolwfr=  1.00E-20 =>converged.

 ----iterations are completed or convergence reached----

 dfpt_looppert: DFPT cycle converged with prtwf=-1. Will skip output of the 1st-order WFK file.
 dfpt_looppert : ek2=    1.5163385666E+02
          f-sum rule ratio=    1.3762182922E+00
 prteigrs : about to open file /scratch/users/j/a/jabreu/flow_simple_remain_atoms/flow/w200/t1/tmpdata/tmp_1WF1_EIG
 Expectation of eigenvalue derivatives (hartree) for nkpt=   1  k points:
  (in case of degenerate eigenvalues, averaged derivative)
 kpt#   1, nband= 34, wtk=  1.00000, kpt=  0.0000  0.0000  0.0000 (reduced coord)
  -0.00000    0.00000    0.00000    0.00000   -0.00000   -0.00000   -0.00000    0.00000
  -0.00000   -0.00000    0.00000    0.00000   -0.00000   -0.00000    0.00000    0.00000
   0.00000    0.00000   -0.00000    0.00000    0.00000   -0.00000   -0.00000    0.00000
   0.00000    0.00000   -0.00000   -0.00000   -0.00000   -0.00000   -0.00000    0.00000
   0.00000    0.00000

 Eight components of 2nd-order total energy (hartree) are
 1,2,3: 0th-order hamiltonian combined with 1st-order wavefunctions
     kin0=   1.39111627E+02 eigvalue=  -5.03590394E+00  local=  -6.69907822E+01
 4,5,6: 1st-order hamiltonian combined with 1st and 0th-order wfs
     kin1=  -2.08681287E+02  Hartree=   0.00000000E+00     xc=   0.00000000E+00
 7,8,9: eventually, occupation + non-local contributions
    edocc=   3.96071274E+01     enl0=   3.27270394E+00   enl1=  -1.12482580E+01
 1-9 gives the relaxation energy (to be shifted if some occ is /=2.0)
   erelax=  -1.09964773E+02
  No Ewald or frozen-wf contrib.: the relaxation energy is the total one
 2DEtotal=   -0.1099647726E+03 Ha. Also 2DEtotal=   -0.299229363909E+04 eV
    (  non-var. 2DEtotal :   -1.0996477263E+02 Ha)

 CALCULATION OF EFFECTIVE MASSES
 NOTE : Additional infos (eff. mass eigenvalues, eigenvectors and, if degenerate, average mass) are available in stdout.

 COMMENTS:
 - At k-point ( 0.000, 0.000, 0.000), bands    24 through    25
   are DEGENERATE (effective mass tensor is therefore not defined).
   See Section IIIB Eqs. (67)-(70) and Appendix E of PRB 93 205147 (2016).
 - Angular average effective mass for Frohlich model is to be averaged over degenerate bands. See later.
 - Associated theta integrals calculated with ntheta=   1000 points.

 K-point ( 0.000, 0.000, 0.000) | band =    24
 Transport equivalent effective mass tensor:
             -1.6299095441             -1.3803224656              4.4051872760
             -1.3803224656             -1.8601540441              4.7878852240
              4.4051872760              4.7878852240            -15.6400644818
 Transport equivalent effective mass tensor eigenvalues:
            -18.4102942605             -0.3599169103             -0.3599168993
 Angular average effective mass 1/(<1/m>)=  -0.5321109130
 Angular average effective mass for Frohlich model (<m**0.5>)**2=  -0.7479592770
 Effective masses along directions: (cart. coord. / red. coord. -> eff. mass)
    1:   1.000000  0.000000  0.000000 /   0.996564 -0.082828  0.000000 ->  -0.3700817927
    2:   0.000000  1.000000  0.000000 /   0.000000  1.000000  0.000000 ->  -0.3743835880
    3:   0.000000  0.000000  1.000000 /  -0.542689 -0.542689  0.641076 ->  -2.1956351451
    4:   0.577350  0.577350  0.577350 /  -0.283462 -0.325042  0.902218 ->  -0.3921347507
    5:   0.000000  0.707107  0.707107 /  -0.628096 -0.234480  0.741967 ->  -0.4334026181
    6:   0.707107  0.000000  0.707107 /  -0.228403 -0.647567  0.726972 ->  -0.4385363083
    7:   0.707107  0.707107  0.000000 /   0.738345  0.674423  0.000000 ->  -0.4409765135

 K-point ( 0.000, 0.000, 0.000) | band =    25
 Transport equivalent effective mass tensor:
             -2.1439109270             -1.3898351525              4.4355466057
             -1.3898351525             -2.3757421609              4.8208819487
              4.4355466057              4.8208819487            -16.2506212168
 Transport equivalent effective mass tensor eigenvalues:
            -19.0399424104             -0.8651659477             -0.8651659467
 Angular average effective mass 1/(<1/m>)=  -1.2361709569
 Angular average effective mass for Frohlich model (<m**0.5>)**2=  -1.6264018721
 Effective masses along directions: (cart. coord. / red. coord. -> eff. mass)
    1:   1.000000  0.000000  0.000000 /   0.996564 -0.082828  0.000000 ->  -0.9966211547
    2:   0.000000  1.000000  0.000000 /   0.000000  1.000000  0.000000 ->  -1.0151283805
    3:   0.000000  0.000000  1.000000 /  -0.542689 -0.542689  0.641076 ->  -4.0375973583
    4:   0.577350  0.577350  0.577350 /  -0.283462 -0.325042  0.902218 ->  -0.7972611520
    5:   0.000000  0.707107  0.707107 /  -0.628096 -0.234480  0.741967 ->  -1.1131425852
    6:   0.707107  0.000000  0.707107 /  -0.228403 -0.647567  0.726972 ->  -1.1520384688
    7:   0.707107  0.707107  0.000000 /   0.738345  0.674423  0.000000 ->  -0.8949926268

 Angular average effective mass for Frohlich model, averaged over degenerate bands.
 Value of     (<<m**0.5>>)**2 =     1.145062E+00
 Absolute Value of <<m**0.5>> =     1.070076E+00

 K-point ( 0.000, 0.000, 0.000) | band =    26
 Effective mass tensor:
              0.4446768047             -0.0189438587              0.0604577910
             -0.0189438587              0.4415168759              0.0657100263
              0.0604577910              0.0657100263              0.2523982514
 Effective mass tensor eigenvalues:
              0.2143789882              0.4621064713              0.4621064724
 Angular average effective mass 1/(<1/m>)=   0.3336060320
 Angular average effective mass for Frohlich model (<m**0.5>)**2=   0.3484089752
 Effective masses along directions: (cart. coord. / red. coord. -> eff. mass)
    1:   1.000000  0.000000  0.000000 /   0.996564 -0.082828  0.000000 ->   0.4273607374
    2:   0.000000  1.000000  0.000000 /   0.000000  1.000000  0.000000 ->   0.4216134604
    3:   0.000000  0.000000  1.000000 /  -0.542689 -0.542689  0.641076 ->   0.2335979861
    4:   0.577350  0.577350  0.577350 /  -0.283462 -0.325042  0.902218 ->   0.4393709195
    5:   0.000000  0.707107  0.707107 /  -0.628096 -0.234480  0.741967 ->   0.3755087470
    6:   0.707107  0.000000  0.707107 /  -0.228403 -0.647567  0.726972 ->   0.3703535295
    7:   0.707107  0.707107  0.000000 /   0.738345  0.674423  0.000000 ->   0.3926007399

 END OF EFFECTIVE MASSES SECTION

 ---- first-order wavefunction calculations are completed ----

 Total localisation tensor (bohr^2) in cartesian coordinates
  WARNING : still subject to testing - especially symmetries.
      direction              matrix element
   alpha     beta       real part   imaginary part
     1        1       2.1247903764    0.0000000000
     1        2      -0.1747812064    0.0000000000
     1        3      -3.0767364845    0.0000000000
     2        1      -0.1747812064    0.0000000000
     2        2       2.0956360132    0.0000000000
     2        3      -3.3440261934    0.0000000000
     3        1      -3.0767364845    0.0000000000
     3        2      -3.3440261934    0.0000000000
     3        3      24.8593902028    0.0000000000

 respfn : d/dk was computed, but no 2DTE, so no DDB output.

== END DATASET(S) ==============================================================

 -outvars: echo values of variables after computation  --------
            acell      1.0000000000E+00  1.0000000000E+00  1.0000000000E+00 Bohr
              amu      8.76200000E+01  6.53900000E+01  1.40067400E+01
             ecut      4.20000000E+01 Hartree
           etotal     -1.0996477263E+02
            fcart      0.0000000000E+00  0.0000000000E+00  0.0000000000E+00
                       0.0000000000E+00  0.0000000000E+00  0.0000000000E+00
                       0.0000000000E+00  0.0000000000E+00  0.0000000000E+00
                       0.0000000000E+00  0.0000000000E+00  0.0000000000E+00
                       0.0000000000E+00  0.0000000000E+00  0.0000000000E+00
-          fftalg         512
           irdden           1
           irdwfk           1
           istwfk        1
              ixc     -116133
           kptopt           0
P           mkmem           1
P          mkqmem           1
P          mk1mem           1
            natom           5
            nband          34
           nbdbuf           4
            ngfft          80      80      80
             nkpt           1
            nstep        2000
             nsym          16
           ntypat           3
              occ      2.000000  2.000000  2.000000  2.000000  2.000000  2.000000
                       2.000000  2.000000  2.000000  2.000000  2.000000  2.000000
                       2.000000  2.000000  2.000000  2.000000  2.000000  2.000000
                       2.000000  2.000000  2.000000  2.000000  2.000000  2.000000
                       2.000000  0.000000  0.000000  0.000000  0.000000  0.000000
                       0.000000  0.000000  0.000000  0.000000
        optdriver           1
            prtwf          -1
            rfdir           1       1       1
           rfelfd           2
            rprim      6.9336148232E+00  0.0000000000E+00 -1.1025753751E+01
                      -5.7627973910E-01  6.9096248942E+00 -1.1025753751E+01
                       0.0000000000E+00  0.0000000000E+00  1.3024678894E+01
          spgroup         139
           strten      0.0000000000E+00  0.0000000000E+00  0.0000000000E+00
                       0.0000000000E+00  0.0000000000E+00  0.0000000000E+00
           symrel      1  0  0   0  1  0   0  0  1      -1  0  0   0 -1  0   0  0 -1
                      -1 -1 -1   0  0  1   0  1  0       1  1  1   0  0 -1   0 -1  0
                       0  1  0   1  0  0  -1 -1 -1       0 -1  0  -1  0  0   1  1  1
                       0  0  1  -1 -1 -1   1  0  0       0  0 -1   1  1  1  -1  0  0
                       0  1  0   1  0  0   0  0  1       0 -1  0  -1  0  0   0  0 -1
                      -1 -1 -1   0  0  1   1  0  0       1  1  1   0  0 -1  -1  0  0
                       1  0  0   0  1  0  -1 -1 -1      -1  0  0   0 -1  0   1  1  1
                       0  0  1  -1 -1 -1   0  1  0       0  0 -1   1  1  1   0 -1  0
           tolwfr      1.00000000E-20
            typat      1  1  2  3  3
           useylm           1
           xangst      2.2152804543E+00  2.4077316631E+00 -7.6840803435E+00
                       1.1488763796E+00  1.2486843508E+00 -3.9850748414E+00
                       0.0000000000E+00  0.0000000000E+00  0.0000000000E+00
                       2.8817535647E+00  3.1321042396E+00 -9.9958566772E+00
                       4.8240326919E-01  5.2431177432E-01 -1.6732985077E+00
            xcart      4.1862733662E+00  4.5499534447E+00 -1.4520807432E+01
                       2.1710617179E+00  2.3596714495E+00 -7.5307000693E+00
                       0.0000000000E+00  0.0000000000E+00  0.0000000000E+00
                       5.4457250197E+00  5.9188192325E+00 -1.8889431583E+01
                       9.1161006438E-01  9.9080566170E-01 -3.1620759182E+00
             xred      6.5849500000E-01  6.5849500000E-01 -1.1102230246E-16
                       3.4150500000E-01  3.4150500000E-01  0.0000000000E+00
                       0.0000000000E+00  0.0000000000E+00  0.0000000000E+00
                       8.5660500000E-01  8.5660500000E-01  0.0000000000E+00
                       1.4339500000E-01  1.4339500000E-01 -2.7755575616E-17
            znucl       38.00000   30.00000    7.00000

- Timing analysis has been suppressed with timopt=0

 Suggested references for the acknowledgment of ABINIT usage.

 Calculation completed.
.Delivered   2 WARNINGs and   5 COMMENTs to log file.