.Version 9.5.1 of ABINIT

 ABINIT is a project of the Universite Catholique de Louvain,
 Corning Inc. and other collaborators, see ~abinit/doc/developers/contributors.txt .
 acknowledgments of the ABINIT effort.

.Starting date : Tue 11 May 2021.
- ( at 21h42 )

- input  file    -> /scratch/users/j/a/jabreu/flow_simple_8atoms/flow/w343/t1/run.abi
- output file    -> /scratch/users/j/a/jabreu/flow_simple_8atoms/flow/w343/t1/run.abo
- root for input  files -> /scratch/users/j/a/jabreu/flow_simple_8atoms/flow/w343/t1/indata/in
- root for output files -> /scratch/users/j/a/jabreu/flow_simple_8atoms/flow/w343/t1/outdata/out

 Symmetries : space group I4_1 2 2 (# 98); Bravais tI (body-center tetrag.)
     intxc =       0      iscf =       7    lmnmax =      25     lnmax =       7
     mgfft =      72  mpssoang =       4    mqgrid =    3001     natom =       8
  nloc_mem =       1    nspden =       1   nspinor =       1    nsppol =       1
      nsym =       8    n1xccc =    2501    ntypat =       3    occopt =       1
   xclevel =       2
-    mband =          43        mffmem =           1         mkmem =           2
-   mkqmem =           2        mk1mem =           2           mpw =        8788
      nfft =      373248          nkpt =           2
  Rough estimation (10% accuracy) of disk space for files :

------------- Echo of variables that govern the present computation ------------
-
- outvars: echo of selected default values
-   iomode0 =  0 , fftalg0 =512 , wfoptalg0 =  0
-
- outvars: echo of global parameters not present in the input file
-  max_nthreads =    0
-
 -outvars: echo values of preprocessed input variables --------
            acell      1.0000000000E+00  1.0000000000E+00  1.0000000000E+00 Bohr
              amu      6.94100000E+00  1.96966540E+02  1.59994000E+01
             ecut      4.40000000E+01 Hartree
-          fftalg         512
           irdden           1
           irdwfk           1
           istwfk        1    0
              ixc     -116133
              kpt      0.00000000E+00  5.00000000E-01  0.00000000E+00
                       3.34124455E-01  6.65875545E-01 -3.34124455E-01
           kptopt           0
P           mkmem           2
P          mkqmem           2
P          mk1mem           2
            natom           8
            nband          43
           nbdbuf           4
            ngfft          72      72      72
             nkpt           2
            nstep        2000
             nsym           8
           ntypat           3
              occ      2.000000  2.000000  2.000000  2.000000  2.000000  2.000000
                       2.000000  2.000000  2.000000  2.000000  2.000000  2.000000
                       2.000000  2.000000  2.000000  2.000000  2.000000  2.000000
                       2.000000  2.000000  2.000000  2.000000  2.000000  2.000000
                       2.000000  2.000000  2.000000  2.000000  2.000000  2.000000
                       2.000000  2.000000  2.000000  2.000000  0.000000  0.000000
                       0.000000  0.000000  0.000000  0.000000  0.000000  0.000000
                       0.000000
        optdriver           1
            prtwf          -1
            rfdir           1       1       1
           rfelfd           2
            rprim      7.4573866566E+00  0.0000000000E+00 -8.6684608627E+00
                      -1.0261872876E+00  7.3864440292E+00 -8.6684608627E+00
                       0.0000000000E+00  0.0000000000E+00  1.1434807802E+01
          spgroup          98
           symrel      1  0  0   0  1  0   0  0  1       0  0  1  -1 -1 -1   1  0  0
                       0  1  0   1  0  0  -1 -1 -1      -1 -1 -1   0  0  1   0  1  0
                       0 -1  0  -1  0  0   0  0 -1       0  0 -1   1  1  1   0 -1  0
                      -1  0  0   0 -1  0   1  1  1       1  1  1   0  0 -1  -1  0  0
            tnons      0.0000000  0.0000000  0.0000000    -0.2500000  0.2500000  0.5000000
                       0.0000000  0.0000000  0.0000000    -0.2500000  0.2500000  0.5000000
                       0.0000000  0.0000000  0.0000000    -0.2500000  0.2500000  0.5000000
                       0.0000000  0.0000000  0.0000000    -0.2500000  0.2500000  0.5000000
           tolwfr      1.00000000E-20
            typat      1  1  2  2  3  3  3  3
           useylm           1
              wtk        0.50000    0.50000
           xangst      0.0000000000E+00  0.0000000000E+00  0.0000000000E+00
                       2.8239505597E+00  9.7718445819E-01 -1.5616320853E+00
                       5.7929357032E-01  2.9315533746E+00 -1.5616320853E+00
                       1.7016220650E+00  1.9543689164E+00 -4.5871519221E+00
                       1.0030091619E+00  3.4323095958E+00 -5.7293842839E+00
                       3.2510460006E+00  1.4536126952E+00  3.1254415223E-01
                       2.4108258638E+00  4.8859222910E-01 -3.4358083229E+00
                       1.4160723366E-01  2.4429611455E+00  2.6061201133E+00
            xcart      0.0000000000E+00  0.0000000000E+00  0.0000000000E+00
                       5.3364931705E+00  1.8466110073E+00 -2.9510569616E+00
                       1.0947061984E+00  5.5398330219E+00 -2.9510569616E+00
                       3.2155996845E+00  3.6932220146E+00 -8.6684608627E+00
                       1.8954126247E+00  6.4861251394E+00 -1.0826967207E+01
                       6.1435865865E+00  2.7469298971E+00  5.9062285215E-01
                       4.5558006367E+00  9.2330550365E-01 -6.4927367753E+00
                       2.6759889005E-01  4.6165275182E+00  4.9248532835E+00
             xred      0.0000000000E+00  0.0000000000E+00  0.0000000000E+00
                       7.5000000000E-01  2.5000000000E-01  5.0000000000E-01
                       2.5000000000E-01  7.5000000000E-01  5.0000000000E-01
                       5.0000000000E-01  5.0000000000E-01  0.0000000000E+00
                       3.7500000000E-01  8.7811200000E-01  3.1120000000E-03
                       8.7500000000E-01  3.7188800000E-01  9.9688800000E-01
                       6.2811200000E-01  1.2500000000E-01  3.1120000000E-03
                       1.2188800000E-01  6.2500000000E-01  9.9688800000E-01
            znucl        3.00000   79.00000    8.00000

 chkinp: Checking input parameters for consistency.

== DATASET  1 ==================================================================
-   mpi_nproc: 1, omp_nthreads: -1 (-1 if OMP is not activated)

--- !DatasetInfo
iteration_state: {dtset: 1, }
dimensions: {natom: 8, nkpt: 2, mband: 43, nsppol: 1, nspinor: 1, nspden: 1, mpw: 8788, }
cutoff_energies: {ecut:  44.0, pawecutdg:  -1.0, }
electrons: {nelect:   6.80000000E+01, charge:   0.00000000E+00, occopt:   1.00000000E+00, tsmear:   1.00000000E-02, }
meta: {optdriver: 1, rfelfd: 2, }
...

 Real(R)+Recip(G) space primitive vectors, cartesian coordinates (Bohr,Bohr^-1):
 R(1)=  7.4573867  0.0000000 -8.6684609  G(1)=  0.1340952  0.0186296  0.0000000
 R(2)= -1.0261873  7.3864440 -8.6684609  G(2)=  0.0000000  0.1353831  0.0000000
 R(3)=  0.0000000  0.0000000 11.4348078  G(3)=  0.1016545  0.1167535  0.0874523
 Unit cell volume ucvol=  6.2987003E+02 bohr^3
 Angles (23,13,12)=  1.39294932E+02  1.39294932E+02  5.89254248E+01 degrees

 getcut: wavevector=  0.0000  0.0000  0.0000  ngfft=  72  72  72
         ecut(hartree)=     44.000   => boxcut(ratio)=   2.10906

--- Pseudopotential description ------------------------------------------------
- pspini: atom type   1  psp file is /scratch/users/j/a/jabreu/pseudos/PBEsol/Li.psp8
- pspatm: opening atomic psp file    /scratch/users/j/a/jabreu/pseudos/PBEsol/Li.psp8
- Li    ONCVPSP-3.3.0  r_core=   1.40824   1.10935
-  3.00000   3.00000    180112                znucl, zion, pspdat
    8 -116133    1    4       400   0.00000   pspcod,pspxc,lmax,lloc,mmax,r2well
    3.99000000000000    0.00000000000000    0.00000000000000   rchrg,fchrg,qchrg
     nproj     2     2
     extension_switch     1
  pspatm : epsatm=    2.60859637
         --- l  ekb(1:nproj) -->
             0   -4.855856   -1.482423
             1   -2.171544   -0.427615
 pspatm: atomic psp has been read  and splines computed

- pspini: atom type   2  psp file is /scratch/users/j/a/jabreu/pseudos/PBEsol/Au.psp8
- pspatm: opening atomic psp file    /scratch/users/j/a/jabreu/pseudos/PBEsol/Au.psp8
- Au    ONCVPSP-3.3.0  r_core=   1.45604   1.56407   1.56407   1.60183
- 79.00000  19.00000    180112                znucl, zion, pspdat
    8 -116133    3    4       500   0.00000   pspcod,pspxc,lmax,lloc,mmax,r2well
    4.99000000000000    5.00000000000000    0.00000000000000   rchrg,fchrg,qchrg
     nproj     2     2     2     1
     extension_switch     1
  pspatm : epsatm=   32.21965837
         --- l  ekb(1:nproj) -->
             0    9.413866   -0.196587
             1    2.474292   -1.517497
             2    1.503483    0.298081
             3    1.177996
 pspatm: atomic psp has been read  and splines computed

- pspini: atom type   3  psp file is /scratch/users/j/a/jabreu/pseudos/PBEsol/O.psp8
- pspatm: opening atomic psp file    /scratch/users/j/a/jabreu/pseudos/PBEsol/O.psp8
- O     ONCVPSP-3.3.0  r_core=   1.35509   1.45563   1.26150
-  8.00000   6.00000    180112                znucl, zion, pspdat
    8 -116133    2    4       600   0.00000   pspcod,pspxc,lmax,lloc,mmax,r2well
    5.99000000000000    4.00000000000000    0.00000000000000   rchrg,fchrg,qchrg
     nproj     2     2     1
     extension_switch     1
  pspatm : epsatm=    6.22910522
         --- l  ekb(1:nproj) -->
             0    6.050032    0.820363
             1   -4.739617   -1.153841
             2   -1.335834
 pspatm: atomic psp has been read  and splines computed

   6.43095926E+03                                ecore*ucvol(ha*bohr**3)

-inwffil : will read wavefunctions from disk file /scratch/users/j/a/jabreu/flow_simple_8atoms/flow/w343/t1/indata/in_WFK

 ==>  initialize data related to q vector <==

 The list of irreducible perturbations for this q vector is:
    1)    idir= 1    ipert=   9
    2)    idir= 2    ipert=   9
    3)    idir= 3    ipert=   9

 Perturbation wavevector (in red.coord.)   0.000000  0.000000  0.000000
 Perturbation : derivative vs k along direction   1

 dfpt_looppert : COMMENT -
  In a d/dk calculation, iscf is set to -3 automatically.
 The set of symmetries contains only one element for this perturbation.
 symkpt : not enough symmetry to change the number of k points.

[...]

 Initialisation of the first-order wave-functions :
  ireadwf=   0

--- !BeginCycle
iteration_state: {dtset: 1, }
solver: {iscf: 7, nstep: 2000, nline: 4, wfoptalg: 0, }
tolerances: {tolwfr: 1.00E-20, }
...

     iter   2DEtotal(Ha)        deltaE(Ha) residm    vres2
-ETOT  1  -51.707131255943     -5.171E+01 2.324E-02 0.000E+00
 ETOT  2  -51.725711859160     -1.858E-02 1.344E-04 0.000E+00
 ETOT  3  -51.725730844229     -1.899E-05 1.121E-06 0.000E+00
 ETOT  4  -51.725730891713     -4.748E-08 1.497E-08 0.000E+00
 ETOT  5  -51.725730891881     -1.678E-10 2.454E-10 0.000E+00
 ETOT  6  -51.725730891882     -7.176E-13 4.555E-12 0.000E+00
 ETOT  7  -51.725730891882      2.132E-14 8.218E-14 0.000E+00
 ETOT  8  -51.725730891882     -1.421E-14 1.612E-15 0.000E+00
 ETOT  9  -51.725730891882      3.553E-14 2.973E-17 0.000E+00
 ETOT 10  -51.725730891882      0.000E+00 5.970E-19 0.000E+00
 ETOT 11  -51.725730891882      0.000E+00 1.111E-20 0.000E+00
 ETOT 12  -51.725730891882     -7.105E-15 9.964E-21 0.000E+00

 At SCF step   12   max residual=  9.96E-21 < tolwfr=  1.00E-20 =>converged.

 ----iterations are completed or convergence reached----

 dfpt_looppert: DFPT cycle converged with prtwf=-1. Will skip output of the 1st-order WFK file.
 dfpt_looppert : ek2=    9.8407414708E+01
          f-sum rule ratio=    1.0115277214E+00
 prteigrs : about to open file /scratch/users/j/a/jabreu/flow_simple_8atoms/flow/w343/t1/tmpdata/tmp_1WF1_EIG
 Expectation of eigenvalue derivatives (hartree) for nkpt=   2  k points:
  (in case of degenerate eigenvalues, averaged derivative)
 kpt#   1, nband= 43, wtk=  0.50000, kpt=  0.0000  0.5000  0.0000 (reduced coord)
   0.00000    0.00000    0.00000    0.00000   -0.00000    0.00000    0.00000    0.00000
  -0.00000    0.00000   -0.00000    0.00000    0.00000    0.00000   -0.00000   -0.00000
   0.00000    0.00000   -0.00000    0.00000   -0.00000   -0.00000    0.00000   -0.00000
  -0.00000    0.00000   -0.00000    0.00000   -0.00000    0.00000    0.00000    0.00000
  -0.00000    0.00000    0.00000   -0.00000    0.00000   -0.00000    0.00000   -0.00000
   0.00000    0.00013    0.00032
 prteigrs : prtvol=0 or 1, do not print more k-points.

 Eight components of 2nd-order total energy (hartree) are
 1,2,3: 0th-order hamiltonian combined with 1st-order wavefunctions
     kin0=   7.40172900E+01 eigvalue=   8.59852808E-01  local=  -3.34782803E+01
 4,5,6: 1st-order hamiltonian combined with 1st and 0th-order wfs
     kin1=  -9.95418280E+01  Hartree=   0.00000000E+00     xc=   0.00000000E+00
 7,8,9: eventually, occupation + non-local contributions
    edocc=   1.13863918E+01     enl0=  -1.05952343E+00   enl1=  -3.90963382E+00
 1-9 gives the relaxation energy (to be shifted if some occ is /=2.0)
   erelax=  -5.17257309E+01
  No Ewald or frozen-wf contrib.: the relaxation energy is the total one
 2DEtotal=   -0.5172573089E+02 Ha. Also 2DEtotal=   -0.140752871874E+04 eV
    (  non-var. 2DEtotal :   -5.1725730892E+01 Ha)

 Perturbation wavevector (in red.coord.)   0.000000  0.000000  0.000000
 Perturbation : derivative vs k along direction   2
 The set of symmetries contains only one element for this perturbation.
 symkpt : not enough symmetry to change the number of k points.

[...]

 Perturbation wavevector (in red.coord.)   0.000000  0.000000  0.000000
 Perturbation : derivative vs k along direction   3
 The set of symmetries contains only one element for this perturbation.
 symkpt : not enough symmetry to change the number of k points.

-inwffil : will read wavefunctions from disk file /scratch/users/j/a/jabreu/flow_simple_8atoms/flow/w343/t1/indata/in_WFK

 Initialisation of the first-order wave-functions :
  ireadwf=   0

--- !BeginCycle
iteration_state: {dtset: 1, }
solver: {iscf: 7, nstep: 2000, nline: 4, wfoptalg: 0, }
tolerances: {tolwfr: 1.00E-20, }
...

     iter   2DEtotal(Ha)        deltaE(Ha) residm    vres2
-ETOT  1  -88.442399325703     -8.844E+01 5.919E-02 0.000E+00
 ETOT  2  -88.471460877917     -2.906E-02 5.418E-04 0.000E+00
 ETOT  3  -88.471491079589     -3.020E-05 2.889E-06 0.000E+00
 ETOT  4  -88.471491154059     -7.447E-08 7.887E-08 0.000E+00
 ETOT  5  -88.471491154317     -2.584E-10 8.703E-10 0.000E+00
 ETOT  6  -88.471491154318     -1.165E-12 2.899E-11 0.000E+00
 ETOT  7  -88.471491154318      1.421E-14 3.738E-13 0.000E+00
 ETOT  8  -88.471491154318      2.842E-14 1.265E-14 0.000E+00
 ETOT  9  -88.471491154318     -1.421E-14 1.706E-16 0.000E+00
 ETOT 10  -88.471491154318      2.842E-14 5.787E-18 0.000E+00
 ETOT 11  -88.471491154318     -4.263E-14 8.036E-20 0.000E+00
 ETOT 12  -88.471491154318      1.421E-14 9.254E-21 0.000E+00

 At SCF step   12   max residual=  9.25E-21 < tolwfr=  1.00E-20 =>converged.

 ----iterations are completed or convergence reached----

 dfpt_looppert: DFPT cycle converged with prtwf=-1. Will skip output of the 1st-order WFK file.
 dfpt_looppert : ek2=    1.6973176595E+02
          f-sum rule ratio=    1.0015788437E+00
 prteigrs : about to open file /scratch/users/j/a/jabreu/flow_simple_8atoms/flow/w343/t1/tmpdata/tmp_1WF1_EIG
 Expectation of eigenvalue derivatives (hartree) for nkpt=   2  k points:
  (in case of degenerate eigenvalues, averaged derivative)
 kpt#   1, nband= 43, wtk=  0.50000, kpt=  0.0000  0.5000  0.0000 (reduced coord)
   0.00000   -0.00000    0.00000    0.00000    0.00000    0.00000    0.00000    0.00000
  -0.00000    0.00000    0.00000    0.00000    0.00000   -0.00000   -0.00000   -0.00000
   0.00000    0.00000    0.00000    0.00000    0.00000   -0.00000    0.00000    0.00000
   0.00000    0.00000    0.00000    0.00000    0.00000    0.00000    0.00000    0.00000
   0.00000    0.00000    0.00000   -0.00000    0.00000    0.00000   -0.00000   -0.00000
   0.00001    0.00013   -0.00024
 prteigrs : prtvol=0 or 1, do not print more k-points.

 Eight components of 2nd-order total energy (hartree) are
 1,2,3: 0th-order hamiltonian combined with 1st-order wavefunctions
     kin0=   1.26768554E+02 eigvalue=   1.37835163E+00  local=  -5.68482301E+01
 4,5,6: 1st-order hamiltonian combined with 1st and 0th-order wfs
     kin1=  -1.69999746E+02  Hartree=   0.00000000E+00     xc=   0.00000000E+00
 7,8,9: eventually, occupation + non-local contributions
    edocc=   1.87420427E+01     enl0=  -1.56922760E+00   enl1=  -6.94323643E+00
 1-9 gives the relaxation energy (to be shifted if some occ is /=2.0)
   erelax=  -8.84714912E+01
  No Ewald or frozen-wf contrib.: the relaxation energy is the total one
 2DEtotal=   -0.8847149115E+02 Ha. Also 2DEtotal=   -0.240743170647E+04 eV
    (  non-var. 2DEtotal :   -8.8471491154E+01 Ha)

 CALCULATION OF EFFECTIVE MASSES
 NOTE : Additional infos (eff. mass eigenvalues, eigenvectors and, if degenerate, average mass) are available in stdout.

--- !WARNING
src_file: m_efmas.F90
src_line: 0
message: |

    Band(s)    34,
    are not band extrema, but saddle points;
    the transport equivalent formalism breaks down in these conditions.
    The associated tensor(s) will therefore not be printed.
...

 K-point ( 0.000, 0.500, 0.000) | band =    34
 Effective mass tensor:
     *** SADDLE POINT: TRANSPORT EQV. EFF. MASS NOT DEFINED (see WARNING above) ***
 Angular average effective mass 1/(<1/m>)=  -4.2585017709
 Angular average effective mass for Frohlich model (<m**0.5>)**2=  -8.7630275530
 Effective masses along directions: (cart. coord. / red. coord. -> eff. mass)
    1:   1.000000  0.000000  0.000000 /   0.990665 -0.136322  0.000000 ->  -2.5359355916
    2:   0.000000  1.000000  0.000000 /   0.000000  1.000000  0.000000 ->  -8.8367126918
    3:   0.000000  0.000000  1.000000 /  -0.517081 -0.517081  0.682096 ->  -5.0767328503
    4:   0.577350  0.577350  0.577350 /  -0.103262 -0.196809  0.974989 ->  -4.4319412121
    5:   0.000000  0.707107  0.707107 /  -0.601714 -0.088990  0.793738 -> 554.0802773677
    6:   0.707107  0.000000  0.707107 /  -0.080522 -0.644582  0.760283 ->  -2.6278110802
    7:   0.707107  0.707107  0.000000 /   0.760857  0.648920  0.000000 ->  -3.2056559889

 K-point ( 0.334, 0.666,-0.334) | band =    35
 Effective mass tensor:
              3.0282405249             -0.0518825033              0.8876464757
             -0.0518825033              0.9526669725              0.1413438583
              0.8876464757              0.1413438583              0.9651080359
 Effective mass tensor eigenvalues:
              0.5756471737              1.0127952975              3.3575730621
 Angular average effective mass 1/(<1/m>)=   0.9925966392
 Angular average effective mass for Frohlich model (<m**0.5>)**2=   1.1269046409
 Effective masses along directions: (cart. coord. / red. coord. -> eff. mass)
    1:   1.000000  0.000000  0.000000 /   0.990665 -0.136322  0.000000 ->   2.1763424849
    2:   0.000000  1.000000  0.000000 /   0.000000  1.000000  0.000000 ->   0.9170102759
    3:   0.000000  0.000000  1.000000 /  -0.517081 -0.517081  0.682096 ->   0.6791683847
    4:   0.577350  0.577350  0.577350 /  -0.103262 -0.196809  0.974989 ->   1.6252463145
    5:   0.000000  0.707107  0.707107 /  -0.601714 -0.088990  0.793738 ->   0.9622222775
    6:   0.707107  0.000000  0.707107 /  -0.080522 -0.644582  0.760283 ->   1.8860893455
    7:   0.707107  0.707107  0.000000 /   0.760857  0.648920  0.000000 ->   1.1565153802

 END OF EFFECTIVE MASSES SECTION

 ---- first-order wavefunction calculations are completed ----

 Total localisation tensor (bohr^2) in cartesian coordinates
  WARNING : still subject to testing - especially symmetries.
      direction              matrix element
   alpha     beta       real part   imaginary part
     1        1       0.7677740244    0.0000000000
     1        2      -0.0951950529    0.0000000000
     1        3      -0.7653694535    0.0000000000
     2        1      -0.0951950529    0.0000000000
     2        2       0.6852091604    0.0000000000
     2        3      -0.8041364378    0.0000000000
     3        1      -0.7653694535    0.0000000000
     3        2      -0.8041364378    0.0000000000
     3        3       4.8423763348    0.0000000000

 respfn : d/dk was computed, but no 2DTE, so no DDB output.

== END DATASET(S) ==============================================================

 -outvars: echo values of variables after computation  --------
            acell      1.0000000000E+00  1.0000000000E+00  1.0000000000E+00 Bohr
              amu      6.94100000E+00  1.96966540E+02  1.59994000E+01
             ecut      4.40000000E+01 Hartree
           etotal     -8.8471491154E+01
            fcart      0.0000000000E+00  0.0000000000E+00  0.0000000000E+00
                       0.0000000000E+00  0.0000000000E+00  0.0000000000E+00
                       0.0000000000E+00  0.0000000000E+00  0.0000000000E+00
                       0.0000000000E+00  0.0000000000E+00  0.0000000000E+00
                       0.0000000000E+00  0.0000000000E+00  0.0000000000E+00
                       0.0000000000E+00  0.0000000000E+00  0.0000000000E+00
                       0.0000000000E+00  0.0000000000E+00  0.0000000000E+00
                       0.0000000000E+00  0.0000000000E+00  0.0000000000E+00
-          fftalg         512
           irdden           1
           irdwfk           1
           istwfk        1    0
              ixc     -116133
              kpt      0.00000000E+00  5.00000000E-01  0.00000000E+00
                       3.34124455E-01  6.65875545E-01 -3.34124455E-01
           kptopt           0
P           mkmem           2
P          mkqmem           2
P          mk1mem           2
            natom           8
            nband          43
           nbdbuf           4
            ngfft          72      72      72
             nkpt           2
            nstep        2000
             nsym           8
           ntypat           3
              occ      2.000000  2.000000  2.000000  2.000000  2.000000  2.000000
                       2.000000  2.000000  2.000000  2.000000  2.000000  2.000000
                       2.000000  2.000000  2.000000  2.000000  2.000000  2.000000
                       2.000000  2.000000  2.000000  2.000000  2.000000  2.000000
                       2.000000  2.000000  2.000000  2.000000  2.000000  2.000000
                       2.000000  2.000000  2.000000  2.000000  0.000000  0.000000
                       0.000000  0.000000  0.000000  0.000000  0.000000  0.000000
                       0.000000
        optdriver           1
            prtwf          -1
            rfdir           1       1       1
           rfelfd           2
            rprim      7.4573866566E+00  0.0000000000E+00 -8.6684608627E+00
                      -1.0261872876E+00  7.3864440292E+00 -8.6684608627E+00
                       0.0000000000E+00  0.0000000000E+00  1.1434807802E+01
          spgroup          98
           strten      0.0000000000E+00  0.0000000000E+00  0.0000000000E+00
                       0.0000000000E+00  0.0000000000E+00  0.0000000000E+00
           symrel      1  0  0   0  1  0   0  0  1       0  0  1  -1 -1 -1   1  0  0
                       0  1  0   1  0  0  -1 -1 -1      -1 -1 -1   0  0  1   0  1  0
                       0 -1  0  -1  0  0   0  0 -1       0  0 -1   1  1  1   0 -1  0
                      -1  0  0   0 -1  0   1  1  1       1  1  1   0  0 -1  -1  0  0
            tnons      0.0000000  0.0000000  0.0000000    -0.2500000  0.2500000  0.5000000
                       0.0000000  0.0000000  0.0000000    -0.2500000  0.2500000  0.5000000
                       0.0000000  0.0000000  0.0000000    -0.2500000  0.2500000  0.5000000
                       0.0000000  0.0000000  0.0000000    -0.2500000  0.2500000  0.5000000
           tolwfr      1.00000000E-20
            typat      1  1  2  2  3  3  3  3
           useylm           1
              wtk        0.50000    0.50000
           xangst      0.0000000000E+00  0.0000000000E+00  0.0000000000E+00
                       2.8239505597E+00  9.7718445819E-01 -1.5616320853E+00
                       5.7929357032E-01  2.9315533746E+00 -1.5616320853E+00
                       1.7016220650E+00  1.9543689164E+00 -4.5871519221E+00
                       1.0030091619E+00  3.4323095958E+00 -5.7293842839E+00
                       3.2510460006E+00  1.4536126952E+00  3.1254415223E-01
                       2.4108258638E+00  4.8859222910E-01 -3.4358083229E+00
                       1.4160723366E-01  2.4429611455E+00  2.6061201133E+00
            xcart      0.0000000000E+00  0.0000000000E+00  0.0000000000E+00
                       5.3364931705E+00  1.8466110073E+00 -2.9510569616E+00
                       1.0947061984E+00  5.5398330219E+00 -2.9510569616E+00
                       3.2155996845E+00  3.6932220146E+00 -8.6684608627E+00
                       1.8954126247E+00  6.4861251394E+00 -1.0826967207E+01
                       6.1435865865E+00  2.7469298971E+00  5.9062285215E-01
                       4.5558006367E+00  9.2330550365E-01 -6.4927367753E+00
                       2.6759889005E-01  4.6165275182E+00  4.9248532835E+00
             xred      0.0000000000E+00  0.0000000000E+00  0.0000000000E+00
                       7.5000000000E-01  2.5000000000E-01  5.0000000000E-01
                       2.5000000000E-01  7.5000000000E-01  5.0000000000E-01
                       5.0000000000E-01  5.0000000000E-01  0.0000000000E+00
                       3.7500000000E-01  8.7811200000E-01  3.1120000000E-03
                       8.7500000000E-01  3.7188800000E-01  9.9688800000E-01
                       6.2811200000E-01  1.2500000000E-01  3.1120000000E-03
                       1.2188800000E-01  6.2500000000E-01  9.9688800000E-01
            znucl        3.00000   79.00000    8.00000

- Timing analysis has been suppressed with timopt=0

 Suggested references for the acknowledgment of ABINIT usage.

 Calculation completed.
.Delivered  15 WARNINGs and   9 COMMENTs to log file.