.Version 9.5.1 of ABINIT

 ABINIT is a project of the Universite Catholique de Louvain,
 Corning Inc. and other collaborators, see ~abinit/doc/developers/contributors.txt .
 acknowledgments of the ABINIT effort.

.Starting date : Tue 27 Apr 2021.
- ( at 15h32 )

- input  file    -> /scratch/users/j/a/jabreu/flow_simple/flow/w136/t1/run.abi
- output file    -> /scratch/users/j/a/jabreu/flow_simple/flow/w136/t1/run.abo
- root for input  files -> /scratch/users/j/a/jabreu/flow_simple/flow/w136/t1/indata/in
- root for output files -> /scratch/users/j/a/jabreu/flow_simple/flow/w136/t1/outdata/out

 Symmetries : space group F-4 3 m (#216); Bravais cF (face-center cubic)
     intxc =       0      iscf =       7    lmnmax =      18     lnmax =       6
     mgfft =      45  mpssoang =       3    mqgrid =    3001     natom =       3
  nloc_mem =       1    nspden =       1   nspinor =       1    nsppol =       1
      nsym =      24    n1xccc =    2501    ntypat =       3    occopt =       1
   xclevel =       2
-    mband =          23        mffmem =           1         mkmem =           2
-   mkqmem =           2        mk1mem =           2           mpw =        3906
      nfft =       91125          nkpt =           2
  Rough estimation (10% accuracy) of disk space for files :

------------- Echo of variables that govern the present computation ------------
-
- outvars: echo of selected default values
-   iomode0 =  0 , fftalg0 =512 , wfoptalg0 =  0
-
- outvars: echo of global parameters not present in the input file
-  max_nthreads =    0
-
 -outvars: echo values of preprocessed input variables --------
            acell      1.0000000000E+00  1.0000000000E+00  1.0000000000E+00 Bohr
              amu      6.94100000E+00  6.53900000E+01  3.09737620E+01
             ecut      4.20000000E+01 Hartree
-          fftalg         512
           irdden           1
           irdwfk           1
           istwfk        1    1
              ixc     -116133
              kpt      0.00000000E+00  0.00000000E+00  0.00000000E+00
                       5.00000000E-01  5.00000000E-01  5.00000000E-01
           kptopt           0
P           mkmem           2
P          mkqmem           2
P          mk1mem           2
            natom           3
            nband          23
           nbdbuf           4
            ngfft          45      45      45
             nkpt           2
            nstep         100
             nsym          24
           ntypat           3
              occ      2.000000  2.000000  2.000000  2.000000  2.000000  2.000000
                       2.000000  2.000000  2.000000  2.000000  2.000000  2.000000
                       2.000000  2.000000  0.000000  0.000000  0.000000  0.000000
                       0.000000  0.000000  0.000000  0.000000  0.000000
        optdriver           1
            prtwf          -1
            rfdir           1       1       1
           rfelfd           2
            rprim      6.5195108655E+00  0.0000000000E+00  3.7640413532E+00
                       2.1731702885E+00  6.1466537907E+00  3.7640413532E+00
                       0.0000000000E+00  0.0000000000E+00  7.5280827064E+00
          spgroup         216
           symrel      1  0  0   0  1  0   0  0  1       0 -1  1   0 -1  0   1 -1  0
                      -1  0  0  -1  0  1  -1  1  0       0  1 -1   1  0 -1   0  0 -1
                      -1  0  0  -1  1  0  -1  0  1       0 -1  1   1 -1  0   0 -1  0
                       1  0  0   0  0  1   0  1  0       0  1 -1   0  0 -1   1  0 -1
                      -1  0  1  -1  1  0  -1  0  0       0 -1  0   1 -1  0   0 -1  1
                       1  0 -1   0  0 -1   0  1 -1       0  1  0   0  0  1   1  0  0
                       1  0 -1   0  1 -1   0  0 -1       0 -1  0   0 -1  1   1 -1  0
                      -1  0  1  -1  0  0  -1  1  0       0  1  0   1  0  0   0  0  1
                       0  0 -1   0  1 -1   1  0 -1       1 -1  0   0 -1  1   0 -1  0
                       0  0  1   1  0  0   0  1  0      -1  1  0  -1  0  0  -1  0  1
                       0  0  1   0  1  0   1  0  0       1 -1  0   0 -1  0   0 -1  1
                       0  0 -1   1  0 -1   0  1 -1      -1  1  0  -1  0  1  -1  0  0
           tolwfr      1.00000000E-20
            typat      1  2  3
           useylm           1
              wtk        0.50000    0.50000
           xangst      0.0000000000E+00  0.0000000000E+00  0.0000000000E+00
                       3.4499765612E+00  2.4395018213E+00  5.9755346889E+00
                       2.2999843741E+00  1.6263345476E+00  3.9836897926E+00
            xcart      0.0000000000E+00  0.0000000000E+00  0.0000000000E+00
                       6.5195108655E+00  4.6099903430E+00  1.1292124060E+01
                       4.3463405770E+00  3.0733268953E+00  7.5280827064E+00
             xred      0.0000000000E+00  0.0000000000E+00  0.0000000000E+00
                       7.5000000000E-01  7.5000000000E-01  7.5000000000E-01
                       5.0000000000E-01  5.0000000000E-01  5.0000000000E-01
            znucl        3.00000   30.00000   15.00000

 chkinp: Checking input parameters for consistency.

== DATASET  1 ==================================================================
-   mpi_nproc: 1, omp_nthreads: -1 (-1 if OMP is not activated)

--- !DatasetInfo
iteration_state: {dtset: 1, }
dimensions: {natom: 3, nkpt: 2, mband: 23, nsppol: 1, nspinor: 1, nspden: 1, mpw: 3906, }
cutoff_energies: {ecut:  42.0, pawecutdg:  -1.0, }
electrons: {nelect:   2.80000000E+01, charge:   0.00000000E+00, occopt:   1.00000000E+00, tsmear:   1.00000000E-02, }
meta: {optdriver: 1, rfelfd: 2, }
...

 Real(R)+Recip(G) space primitive vectors, cartesian coordinates (Bohr,Bohr^-1):
 R(1)=  6.5195109  0.0000000  3.7640414  G(1)=  0.1533857 -0.0542300  0.0000000
 R(2)=  2.1731703  6.1466538  3.7640414  G(2)=  0.0000000  0.1626901  0.0000000
 R(3)=  0.0000000  0.0000000  7.5280827  G(3)= -0.0766929 -0.0542300  0.1328359
 Unit cell volume ucvol=  3.0167418E+02 bohr^3
 Angles (23,13,12)=  6.00000000E+01  6.00000000E+01  6.00000000E+01 degrees

 getcut: wavevector=  0.0000  0.0000  0.0000  ngfft=  45  45  45
         ecut(hartree)=     42.000   => boxcut(ratio)=   2.00345

--- Pseudopotential description ------------------------------------------------
- pspini: atom type   1  psp file is /scratch/users/j/a/jabreu/pseudos/PBEsol/Li.psp8
- pspatm: opening atomic psp file    /scratch/users/j/a/jabreu/pseudos/PBEsol/Li.psp8
- Li    ONCVPSP-3.3.0  r_core=   1.40824   1.10935
-  3.00000   3.00000    180112                znucl, zion, pspdat
    8 -116133    1    4       400   0.00000   pspcod,pspxc,lmax,lloc,mmax,r2well
    3.99000000000000    0.00000000000000    0.00000000000000   rchrg,fchrg,qchrg
     nproj     2     2
     extension_switch     1
  pspatm : epsatm=    2.60859637
         --- l  ekb(1:nproj) -->
             0   -4.855856   -1.482423
             1   -2.171544   -0.427615
 pspatm: atomic psp has been read  and splines computed

- pspini: atom type   2  psp file is /scratch/users/j/a/jabreu/pseudos/PBEsol/Zn.psp8
- pspatm: opening atomic psp file    /scratch/users/j/a/jabreu/pseudos/PBEsol/Zn.psp8
- Zn    ONCVPSP-3.3.0  r_core=   1.35823   1.66358   1.85211
- 30.00000  20.00000    180112                znucl, zion, pspdat
    8 -116133    2    4       600   0.00000   pspcod,pspxc,lmax,lloc,mmax,r2well
    5.99000000000000    2.50000000000000    0.00000000000000   rchrg,fchrg,qchrg
     nproj     2     2     2
     extension_switch     1
  pspatm : epsatm=   26.57343589
         --- l  ekb(1:nproj) -->
             0    2.830835   -1.519107
             1   -4.626739   -1.324150
             2   -6.948510   -2.555500
 pspatm: atomic psp has been read  and splines computed

- pspini: atom type   3  psp file is /scratch/users/j/a/jabreu/pseudos/PBEsol/P.psp8
- pspatm: opening atomic psp file    /scratch/users/j/a/jabreu/pseudos/PBEsol/P.psp8
- P     ONCVPSP-3.3.0  r_core=   1.46089   1.55067   1.70594
- 15.00000   5.00000    180112                znucl, zion, pspdat
    8 -116133    2    4       600   0.00000   pspcod,pspxc,lmax,lloc,mmax,r2well
    5.99000000000000    5.00000000000000    0.00000000000000   rchrg,fchrg,qchrg
     nproj     2     2     2
     extension_switch     1
  pspatm : epsatm=    7.31221086
         --- l  ekb(1:nproj) -->
             0    6.742364    1.063650
             1    3.449117    0.910422
             2   -3.077645   -0.799176
 pspatm: atomic psp has been read  and splines computed

   1.02183881E+03                                ecore*ucvol(ha*bohr**3)

-inwffil : will read wavefunctions from disk file /scratch/users/j/a/jabreu/flow_simple/flow/w136/t1/indata/in_WFK

 ==>  initialize data related to q vector <==

 The list of irreducible perturbations for this q vector is:
    1)    idir= 1    ipert=   4
    2)    idir= 2    ipert=   4
    3)    idir= 3    ipert=   4

 Perturbation wavevector (in red.coord.)   0.000000  0.000000  0.000000
 Perturbation : derivative vs k along direction   1

 dfpt_looppert : COMMENT -
  In a d/dk calculation, iscf is set to -3 automatically.
 The set of symmetries contains only one element for this perturbation.
 symkpt : not enough symmetry to change the number of k points.

[...]

 Initialisation of the first-order wave-functions :
  ireadwf=   0

--- !BeginCycle
iteration_state: {dtset: 1, }
solver: {iscf: 7, nstep: 100, nline: 4, wfoptalg: 0, }
tolerances: {tolwfr: 1.00E-20, }
...

     iter   2DEtotal(Ha)        deltaE(Ha) residm    vres2
-ETOT  1  -55.602411741172     -5.560E+01 3.566E+00 0.000E+00
 ETOT  2  -55.628622607269     -2.621E-02 8.095E-03 0.000E+00
 ETOT  3  -55.628725852478     -1.032E-04 2.264E-03 0.000E+00
 ETOT  4  -55.628726804162     -9.517E-07 1.013E-05 0.000E+00
 ETOT  5  -55.628726815647     -1.148E-08 4.735E-06 0.000E+00
 ETOT  6  -55.628726815807     -1.597E-10 2.271E-08 0.000E+00
 ETOT  7  -55.628726815809     -2.437E-12 1.094E-08 0.000E+00
 ETOT  8  -55.628726815809      5.684E-14 5.173E-11 0.000E+00
 ETOT  9  -55.628726815809     -3.553E-14 2.653E-11 0.000E+00
 ETOT 10  -55.628726815809      7.105E-15 1.220E-13 0.000E+00
 ETOT 11  -55.628726815809      0.000E+00 6.780E-14 0.000E+00
 ETOT 12  -55.628726815809      7.105E-15 2.943E-16 0.000E+00
 ETOT 13  -55.628726815809     -1.421E-14 1.847E-16 0.000E+00
 ETOT 14  -55.628726815809      1.421E-14 7.157E-19 0.000E+00
 ETOT 15  -55.628726815809     -7.105E-15 5.338E-19 0.000E+00
 ETOT 16  -55.628726815809      1.421E-14 9.750E-21 0.000E+00

 At SCF step   16   max residual=  9.75E-21 < tolwfr=  1.00E-20 =>converged.

 ----iterations are completed or convergence reached----

 dfpt_looppert: DFPT cycle converged with prtwf=-1. Will skip output of the 1st-order WFK file.
 dfpt_looppert : ek2=    5.8515410928E+01
          f-sum rule ratio=    1.7955403219E+00
 prteigrs : about to open file /scratch/users/j/a/jabreu/flow_simple/flow/w136/t1/tmpdata/tmp_1WF1_EIG
 Expectation of eigenvalue derivatives (hartree) for nkpt=   2  k points:
  (in case of degenerate eigenvalues, averaged derivative)
 kpt#   1, nband= 23, wtk=  0.50000, kpt=  0.0000  0.0000  0.0000 (reduced coord)
  -0.00000   -0.00000   -0.00000   -0.00000    0.00000   -0.00000    0.00000    0.00000
   0.00000   -0.00000   -0.00000    0.00000    0.00000    0.00000    0.00000   -0.00000
  -0.00000   -0.00000    0.00000    0.00000    0.00000    0.00000   -0.00000
 prteigrs : prtvol=0 or 1, do not print more k-points.

 Eight components of 2nd-order total energy (hartree) are
 1,2,3: 0th-order hamiltonian combined with 1st-order wavefunctions
     kin0=   4.02925486E+01 eigvalue=   1.18900319E+00  local=  -1.40362037E+01
 4,5,6: 1st-order hamiltonian combined with 1st and 0th-order wfs
     kin1=  -1.05066780E+02  Hartree=   0.00000000E+00     xc=   0.00000000E+00
 7,8,9: eventually, occupation + non-local contributions
    edocc=   2.94216792E+01     enl0=  -1.23830045E+00   enl1=  -6.19067386E+00
 1-9 gives the relaxation energy (to be shifted if some occ is /=2.0)
   erelax=  -5.56287268E+01
  No Ewald or frozen-wf contrib.: the relaxation energy is the total one
 2DEtotal=   -0.5562872682E+02 Ha. Also 2DEtotal=   -0.151373463903E+04 eV
    (  non-var. 2DEtotal :   -5.5628726816E+01 Ha)

 Perturbation wavevector (in red.coord.)   0.000000  0.000000  0.000000
 Perturbation : derivative vs k along direction   2
 The set of symmetries contains only one element for this perturbation.
 symkpt : not enough symmetry to change the number of k points.

[...]

 Perturbation wavevector (in red.coord.)   0.000000  0.000000  0.000000
 Perturbation : derivative vs k along direction   3
 The set of symmetries contains only one element for this perturbation.
 symkpt : not enough symmetry to change the number of k points.

-inwffil : will read wavefunctions from disk file /scratch/users/j/a/jabreu/flow_simple/flow/w136/t1/indata/in_WFK

 Initialisation of the first-order wave-functions :
  ireadwf=   0

--- !BeginCycle
iteration_state: {dtset: 1, }
solver: {iscf: 7, nstep: 100, nline: 4, wfoptalg: 0, }
tolerances: {tolwfr: 1.00E-20, }
...

     iter   2DEtotal(Ha)        deltaE(Ha) residm    vres2
-ETOT  1  -55.601473339632     -5.560E+01 4.576E-02 0.000E+00
 ETOT  2  -55.628626773788     -2.715E-02 1.636E-02 0.000E+00
 ETOT  3  -55.628726286038     -9.951E-05 2.004E-04 0.000E+00
 ETOT  4  -55.628727198623     -9.126E-07 4.091E-04 0.000E+00
 ETOT  5  -55.628727209392     -1.077E-08 8.528E-06 0.000E+00
 ETOT  6  -55.628727209540     -1.479E-10 1.409E-05 0.000E+00
 ETOT  7  -55.628727209542     -2.260E-12 3.247E-07 0.000E+00
 ETOT  8  -55.628727209542     -4.263E-14 5.133E-07 0.000E+00
 ETOT  9  -55.628727209542     -1.421E-14 1.260E-08 0.000E+00
 ETOT 10  -55.628727209542     -2.842E-14 1.945E-08 0.000E+00
 ETOT 11  -55.628727209542      7.105E-15 4.944E-10 0.000E+00
 ETOT 12  -55.628727209542      1.421E-14 7.547E-10 0.000E+00
 ETOT 13  -55.628727209542     -2.132E-14 1.958E-11 0.000E+00
 ETOT 14  -55.628727209542      0.000E+00 2.963E-11 0.000E+00
 ETOT 15  -55.628727209542      7.105E-15 7.790E-13 0.000E+00
 ETOT 16  -55.628727209542      0.000E+00 1.170E-12 0.000E+00
 ETOT 17  -55.628727209542      0.000E+00 3.105E-14 0.000E+00
 ETOT 18  -55.628727209542      0.000E+00 4.633E-14 0.000E+00
 ETOT 19  -55.628727209542     -7.105E-15 1.239E-15 0.000E+00
 ETOT 20  -55.628727209542      2.132E-14 1.840E-15 0.000E+00
 ETOT 21  -55.628727209542     -7.105E-15 4.946E-17 0.000E+00
 ETOT 22  -55.628727209542      7.105E-15 7.319E-17 0.000E+00
 ETOT 23  -55.628727209542     -7.105E-15 1.976E-18 0.000E+00
 ETOT 24  -55.628727209542     -1.421E-14 2.916E-18 0.000E+00
 ETOT 25  -55.628727209542      2.132E-14 7.898E-20 0.000E+00
 ETOT 26  -55.628727209542     -2.132E-14 1.163E-19 0.000E+00
 ETOT 27  -55.628727209542      2.842E-14 9.991E-21 0.000E+00

 At SCF step   27   max residual=  9.99E-21 < tolwfr=  1.00E-20 =>converged.

 ----iterations are completed or convergence reached----

 dfpt_looppert: DFPT cycle converged with prtwf=-1. Will skip output of the 1st-order WFK file.
 dfpt_looppert : ek2=    5.8515410928E+01
          f-sum rule ratio=    1.7955403472E+00
 prteigrs : about to open file /scratch/users/j/a/jabreu/flow_simple/flow/w136/t1/tmpdata/tmp_1WF1_EIG
 Expectation of eigenvalue derivatives (hartree) for nkpt=   2  k points:
  (in case of degenerate eigenvalues, averaged derivative)
 kpt#   1, nband= 23, wtk=  0.50000, kpt=  0.0000  0.0000  0.0000 (reduced coord)
   0.00000    0.00000    0.00000    0.00000    0.00000    0.00000   -0.00000   -0.00000
  -0.00000    0.00000    0.00000    0.00000    0.00000    0.00000   -0.00000    0.00000
   0.00000    0.00000    0.00000    0.00000    0.00000    0.00000    0.00000
 prteigrs : prtvol=0 or 1, do not print more k-points.

 Eight components of 2nd-order total energy (hartree) are
 1,2,3: 0th-order hamiltonian combined with 1st-order wavefunctions
     kin0=   4.03010149E+01 eigvalue=   1.18211943E+00  local=  -1.40443670E+01
 4,5,6: 1st-order hamiltonian combined with 1st and 0th-order wfs
     kin1=  -1.05066781E+02  Hartree=   0.00000000E+00     xc=   0.00000000E+00
 7,8,9: eventually, occupation + non-local contributions
    edocc=   2.94414008E+01     enl0=  -1.25144095E+00   enl1=  -6.19067316E+00
 1-9 gives the relaxation energy (to be shifted if some occ is /=2.0)
   erelax=  -5.56287272E+01
  No Ewald or frozen-wf contrib.: the relaxation energy is the total one
 2DEtotal=   -0.5562872721E+02 Ha. Also 2DEtotal=   -0.151373464974E+04 eV
    (  non-var. 2DEtotal :   -5.5628727210E+01 Ha)

 CALCULATION OF EFFECTIVE MASSES
 NOTE : Additional infos (eff. mass eigenvalues, eigenvectors and, if degenerate, average mass) are available in stdout.

 COMMENTS:
 - At k-point ( 0.000, 0.000, 0.000), bands    12 through    14
   are DEGENERATE (effective mass tensor is therefore not defined).
   See Section IIIB Eqs. (67)-(70) and Appendix E of PRB 93 205147 (2016).
 - Angular average effective mass for Frohlich model is to be averaged over degenerate bands. See later.
 - Associated theta integrals calculated with ntheta=   1000 points.

 K-point ( 0.000, 0.000, 0.000) | band =    12
 Transport equivalent effective mass tensor:
             -0.1188655582              0.0000000000             -0.0000000001
              0.0000000000             -0.1188655582              0.0000000001
             -0.0000000001              0.0000000001             -0.1188655582
 Transport equivalent effective mass tensor eigenvalues:
             -0.1188655584             -0.1188655581             -0.1188655580
 Angular average effective mass 1/(<1/m>)=  -0.1052490309
 Angular average effective mass for Frohlich model (<m**0.5>)**2=  -0.1060888190
 Effective masses along directions: (cart. coord. / red. coord. -> eff. mass)
    1:   1.000000  0.000000  0.000000 /   0.948683  0.316228  0.000000 ->  -0.0988581059
    2:   0.000000  1.000000  0.000000 /   0.000000  1.000000  0.000000 ->  -0.0919778890
    3:   0.000000  0.000000  1.000000 /   0.408248  0.408248  0.816497 ->  -0.1009221155
    4:   0.577350  0.577350  0.577350 /   0.585539  0.688047  0.428644 ->  -0.0989060361
    5:   0.000000  0.707107  0.707107 /   0.289489  0.762222  0.578977 ->  -0.1112204518
    6:   0.707107  0.000000  0.707107 /   0.731423  0.422287  0.535439 ->  -0.0998537424
    7:   0.707107  0.707107  0.000000 /   0.616798  0.787122  0.000000 ->  -0.1329323266

[...]

 K-point ( 0.000, 0.000, 0.000) | band =    14
 Transport equivalent effective mass tensor:
            -34.0669169994              0.0000267217             -0.0000000148
              0.0000267217            -34.0669064108              0.0000000151
             -0.0000000148              0.0000000151            -34.0668641344
 Transport equivalent effective mass tensor eigenvalues:
            -34.0669389463            -34.0668844640            -34.0668641344
 Angular average effective mass 1/(<1/m>)=  -0.9515650872
 Angular average effective mass for Frohlich model (<m**0.5>)**2=  -1.3154616493
 Effective masses along directions: (cart. coord. / red. coord. -> eff. mass)
    1:   1.000000  0.000000  0.000000 /   0.948683  0.316228  0.000000 ->  -1.0717624099
    2:   0.000000  1.000000  0.000000 /   0.000000  1.000000  0.000000 ->  -0.8772545228
    3:   0.000000  0.000000  1.000000 /   0.408248  0.408248  0.816497 ->  -5.6698084878
    4:   0.577350  0.577350  0.577350 /   0.585539  0.688047  0.428644 ->  -1.3570706065
    5:   0.000000  0.707107  0.707107 /   0.289489  0.762222  0.578977 ->  -0.8513165967
    6:   0.707107  0.000000  0.707107 /   0.731423  0.422287  0.535439 ->  -2.1171181678
    7:   0.707107  0.707107  0.000000 /   0.616798  0.787122  0.000000 ->  -0.3780663459

 Angular average effective mass for Frohlich model, averaged over degenerate bands.
 Value of     (<<m**0.5>>)**2 =     4.910664E-01
 Absolute Value of <<m**0.5>> =     7.007613E-01

 K-point ( 0.500, 0.500, 0.500) | band =    15
 Effective mass tensor:
              0.4360091346              0.2184234641              0.5350260450
              0.2184234641              0.2815604020              0.3783205283
              0.5350260450              0.3783205283              1.0538039670
 Effective mass tensor eigenvalues:
              0.1271116960              0.1271116960              1.5171501116
 Angular average effective mass 1/(<1/m>)=   0.1830013254
 Angular average effective mass for Frohlich model (<m**0.5>)**2=   0.2262896853
 Effective masses along directions: (cart. coord. / red. coord. -> eff. mass)
    1:   1.000000  0.000000  0.000000 /   0.948683  0.316228  0.000000 ->   0.1596086052
    2:   0.000000  1.000000  0.000000 /   0.000000  1.000000  0.000000 ->   0.1415185476
    3:   0.000000  0.000000  1.000000 /   0.408248  0.408248  0.816497 ->   0.3266067626
    4:   0.577350  0.577350  0.577350 /   0.585539  0.688047  0.428644 ->   0.6443487175
    5:   0.000000  0.707107  0.707107 /   0.289489  0.762222  0.578977 ->   0.3223478347
    6:   0.707107  0.000000  0.707107 /   0.731423  0.422287  0.535439 ->   0.5293221558
    7:   0.707107  0.707107  0.000000 /   0.616798  0.787122  0.000000 ->   0.1807289983

 END OF EFFECTIVE MASSES SECTION

 ---- first-order wavefunction calculations are completed ----

 Total localisation tensor (bohr^2) in cartesian coordinates
  WARNING : still subject to testing - especially symmetries.
      direction              matrix element
   alpha     beta       real part   imaginary part
     1        1       6.1908718946    0.0000000000
     1        2       1.7510429986    0.0000000000
     1        3       4.2891618656    0.0000000000
     2        1       1.7510429986    0.0000000000
     2        2       4.9526975138    0.0000000000
     2        3       3.0328954398    0.0000000000
     3        1       4.2891618656    0.0000000000
     3        2       3.0328954398    0.0000000000
     3        3      11.1435694203    0.0000000000

 respfn : d/dk was computed, but no 2DTE, so no DDB output.

== END DATASET(S) ==============================================================

 -outvars: echo values of variables after computation  --------
            acell      1.0000000000E+00  1.0000000000E+00  1.0000000000E+00 Bohr
              amu      6.94100000E+00  6.53900000E+01  3.09737620E+01
             ecut      4.20000000E+01 Hartree
           etotal     -5.5628727210E+01
            fcart      0.0000000000E+00  0.0000000000E+00  0.0000000000E+00
                       0.0000000000E+00  0.0000000000E+00  0.0000000000E+00
                       0.0000000000E+00  0.0000000000E+00  0.0000000000E+00
-          fftalg         512
           irdden           1
           irdwfk           1
           istwfk        1    1
              ixc     -116133
              kpt      0.00000000E+00  0.00000000E+00  0.00000000E+00
                       5.00000000E-01  5.00000000E-01  5.00000000E-01
           kptopt           0
P           mkmem           2
P          mkqmem           2
P          mk1mem           2
            natom           3
            nband          23
           nbdbuf           4
            ngfft          45      45      45
             nkpt           2
            nstep         100
             nsym          24
           ntypat           3
              occ      2.000000  2.000000  2.000000  2.000000  2.000000  2.000000
                       2.000000  2.000000  2.000000  2.000000  2.000000  2.000000
                       2.000000  2.000000  0.000000  0.000000  0.000000  0.000000
                       0.000000  0.000000  0.000000  0.000000  0.000000
        optdriver           1
            prtwf          -1
            rfdir           1       1       1
           rfelfd           2
            rprim      6.5195108655E+00  0.0000000000E+00  3.7640413532E+00
                       2.1731702885E+00  6.1466537907E+00  3.7640413532E+00
                       0.0000000000E+00  0.0000000000E+00  7.5280827064E+00
          spgroup         216
           strten      0.0000000000E+00  0.0000000000E+00  0.0000000000E+00
                       0.0000000000E+00  0.0000000000E+00  0.0000000000E+00
           symrel      1  0  0   0  1  0   0  0  1       0 -1  1   0 -1  0   1 -1  0
                      -1  0  0  -1  0  1  -1  1  0       0  1 -1   1  0 -1   0  0 -1
                      -1  0  0  -1  1  0  -1  0  1       0 -1  1   1 -1  0   0 -1  0
                       1  0  0   0  0  1   0  1  0       0  1 -1   0  0 -1   1  0 -1
                      -1  0  1  -1  1  0  -1  0  0       0 -1  0   1 -1  0   0 -1  1
                       1  0 -1   0  0 -1   0  1 -1       0  1  0   0  0  1   1  0  0
                       1  0 -1   0  1 -1   0  0 -1       0 -1  0   0 -1  1   1 -1  0
                      -1  0  1  -1  0  0  -1  1  0       0  1  0   1  0  0   0  0  1
                       0  0 -1   0  1 -1   1  0 -1       1 -1  0   0 -1  1   0 -1  0
                       0  0  1   1  0  0   0  1  0      -1  1  0  -1  0  0  -1  0  1
                       0  0  1   0  1  0   1  0  0       1 -1  0   0 -1  0   0 -1  1
                       0  0 -1   1  0 -1   0  1 -1      -1  1  0  -1  0  1  -1  0  0
           tolwfr      1.00000000E-20
            typat      1  2  3
           useylm           1
              wtk        0.50000    0.50000
           xangst      0.0000000000E+00  0.0000000000E+00  0.0000000000E+00
                       3.4499765612E+00  2.4395018213E+00  5.9755346889E+00
                       2.2999843741E+00  1.6263345476E+00  3.9836897926E+00
            xcart      0.0000000000E+00  0.0000000000E+00  0.0000000000E+00
                       6.5195108655E+00  4.6099903430E+00  1.1292124060E+01
                       4.3463405770E+00  3.0733268953E+00  7.5280827064E+00
             xred      0.0000000000E+00  0.0000000000E+00  0.0000000000E+00
                       7.5000000000E-01  7.5000000000E-01  7.5000000000E-01
                       5.0000000000E-01  5.0000000000E-01  5.0000000000E-01
            znucl        3.00000   30.00000   15.00000

- Timing analysis has been suppressed with timopt=0

 Suggested references for the acknowledgment of ABINIT usage.

 Calculation completed.
.Delivered  14 WARNINGs and   9 COMMENTs to log file.