.Version 9.5.1 of ABINIT

 ABINIT is a project of the Universite Catholique de Louvain,
 Corning Inc. and other collaborators, see ~abinit/doc/developers/contributors.txt .
 acknowledgments of the ABINIT effort.

.Starting date : Tue 11 May 2021.
- ( at 21h10 )

- input  file    -> /scratch/users/j/a/jabreu/flow_simple_8atoms/flow/w259/t1/run.abi
- output file    -> /scratch/users/j/a/jabreu/flow_simple_8atoms/flow/w259/t1/run.abo
- root for input  files -> /scratch/users/j/a/jabreu/flow_simple_8atoms/flow/w259/t1/indata/in
- root for output files -> /scratch/users/j/a/jabreu/flow_simple_8atoms/flow/w259/t1/outdata/out

 Symmetries : space group Pm n a (# 53); Bravais oP (primitive ortho.)
     intxc =       0      iscf =       7    lmnmax =      18     lnmax =       6
     mgfft =      64  mpssoang =       3    mqgrid =    3015     natom =       8
  nloc_mem =       1    nspden =       1   nspinor =       1    nsppol =       1
      nsym =       8    n1xccc =    2501    ntypat =       3    occopt =       1
   xclevel =       2
-    mband =          43        mffmem =           1         mkmem =           2
-   mkqmem =           2        mk1mem =           2           mpw =        8622
      nfft =      155520          nkpt =           2
  Rough estimation (10% accuracy) of disk space for files :

------------- Echo of variables that govern the present computation ------------
-
- outvars: echo of selected default values
-   iomode0 =  0 , fftalg0 =512 , wfoptalg0 =  0
-
- outvars: echo of global parameters not present in the input file
-  max_nthreads =    0
-
 -outvars: echo values of preprocessed input variables --------
            acell      1.0000000000E+00  1.0000000000E+00  1.0000000000E+00 Bohr
              amu      6.94100000E+00  1.07868200E+02  1.59994000E+01
             ecut      4.40000000E+01 Hartree
-          fftalg         512
           irdden           1
           irdwfk           1
           istwfk        1    0
              ixc     -116133
              kpt      0.00000000E+00  0.00000000E+00  0.00000000E+00
                       0.00000000E+00  5.00000000E-01  3.88888889E-01
           kptopt           0
P           mkmem           2
P          mkqmem           2
P          mk1mem           2
            natom           8
            nband          43
           nbdbuf           4
            ngfft          45      54      64
             nkpt           2
            nstep        2000
             nsym           8
           ntypat           3
              occ      2.000000  2.000000  2.000000  2.000000  2.000000  2.000000
                       2.000000  2.000000  2.000000  2.000000  2.000000  2.000000
                       2.000000  2.000000  2.000000  2.000000  2.000000  2.000000
                       2.000000  2.000000  2.000000  2.000000  2.000000  2.000000
                       2.000000  2.000000  2.000000  2.000000  2.000000  2.000000
                       2.000000  2.000000  2.000000  2.000000  0.000000  0.000000
                       0.000000  0.000000  0.000000  0.000000  0.000000  0.000000
                       0.000000
        optdriver           1
            prtwf          -1
            rfdir           1       1       1
           rfelfd           2
            rprim      6.8674993464E+00  0.0000000000E+00  0.0000000000E+00
                       0.0000000000E+00  8.8976836360E+00  0.0000000000E+00
                       0.0000000000E+00  0.0000000000E+00  1.0094108930E+01
          spgroup          53
           symrel      1  0  0   0  1  0   0  0  1      -1  0  0   0 -1  0   0  0 -1
                      -1  0  0   0  1  0   0  0 -1       1  0  0   0 -1  0   0  0  1
                      -1  0  0   0 -1  0   0  0  1       1  0  0   0  1  0   0  0 -1
                       1  0  0   0 -1  0   0  0 -1      -1  0  0   0  1  0   0  0  1
            tnons      0.0000000  0.0000000  0.0000000     0.0000000  0.0000000  0.0000000
                       0.5000000  0.0000000  0.5000000     0.5000000  0.0000000  0.5000000
                       0.0000000  0.0000000  0.0000000     0.0000000  0.0000000  0.0000000
                       0.5000000  0.0000000  0.5000000     0.5000000  0.0000000  0.5000000
           tolwfr      1.00000000E-20
            typat      1  1  2  2  3  3  3  3
           useylm           1
              wtk        0.50000    0.50000
           xangst      1.8170620671E+00  2.3542256947E+00  2.6707861933E+00
                       0.0000000000E+00  2.3542256947E+00  0.0000000000E+00
                       0.0000000000E+00  0.0000000000E+00  2.6707861933E+00
                       1.8170620671E+00  0.0000000000E+00  0.0000000000E+00
                       9.0853103353E-01  3.5494566630E+00  4.0061792900E+00
                       9.0853103353E-01  3.5494566630E+00  1.3353930967E+00
                       2.7255931006E+00  1.1589947264E+00  4.0061792900E+00
                       2.7255931006E+00  1.1589947264E+00  1.3353930967E+00
            xcart      3.4337496732E+00  4.4488418180E+00  5.0470544649E+00
                       0.0000000000E+00  4.4488418180E+00  0.0000000000E+00
                       0.0000000000E+00  0.0000000000E+00  5.0470544649E+00
                       3.4337496732E+00  0.0000000000E+00  0.0000000000E+00
                       1.7168748366E+00  6.7075010136E+00  7.5705816974E+00
                       1.7168748366E+00  6.7075010136E+00  2.5235272325E+00
                       5.1506245098E+00  2.1901826224E+00  7.5705816974E+00
                       5.1506245098E+00  2.1901826224E+00  2.5235272325E+00
             xred      5.0000000000E-01  5.0000000000E-01  5.0000000000E-01
                       0.0000000000E+00  5.0000000000E-01  0.0000000000E+00
                       0.0000000000E+00  0.0000000000E+00  5.0000000000E-01
                       5.0000000000E-01  0.0000000000E+00  0.0000000000E+00
                       2.5000000000E-01  7.5384800000E-01  7.5000000000E-01
                       2.5000000000E-01  7.5384800000E-01  2.5000000000E-01
                       7.5000000000E-01  2.4615200000E-01  7.5000000000E-01
                       7.5000000000E-01  2.4615200000E-01  2.5000000000E-01
            znucl        3.00000   47.00000    8.00000

 chkinp: Checking input parameters for consistency.

== DATASET  1 ==================================================================
-   mpi_nproc: 1, omp_nthreads: -1 (-1 if OMP is not activated)

--- !DatasetInfo
iteration_state: {dtset: 1, }
dimensions: {natom: 8, nkpt: 2, mband: 43, nsppol: 1, nspinor: 1, nspden: 1, mpw: 8622, }
cutoff_energies: {ecut:  44.0, pawecutdg:  -1.0, }
electrons: {nelect:   6.80000000E+01, charge:   0.00000000E+00, occopt:   1.00000000E+00, tsmear:   1.00000000E-02, }
meta: {optdriver: 1, rfelfd: 2, }
...

 Real(R)+Recip(G) space primitive vectors, cartesian coordinates (Bohr,Bohr^-1):
 R(1)=  6.8674993  0.0000000  0.0000000  G(1)=  0.1456134  0.0000000  0.0000000
 R(2)=  0.0000000  8.8976836  0.0000000  G(2)=  0.0000000  0.1123888  0.0000000
 R(3)=  0.0000000  0.0000000 10.0941089  G(3)=  0.0000000  0.0000000  0.0990677
 Unit cell volume ucvol=  6.1679888E+02 bohr^3
 Angles (23,13,12)=  9.00000000E+01  9.00000000E+01  9.00000000E+01 degrees

 getcut: wavevector=  0.0000  0.0000  0.0000  ngfft=  45  54  64
         ecut(hartree)=     44.000   => boxcut(ratio)=   2.03248

--- Pseudopotential description ------------------------------------------------
- pspini: atom type   1  psp file is /scratch/users/j/a/jabreu/pseudos/PBEsol/Li.psp8
- pspatm: opening atomic psp file    /scratch/users/j/a/jabreu/pseudos/PBEsol/Li.psp8
- Li    ONCVPSP-3.3.0  r_core=   1.40824   1.10935
-  3.00000   3.00000    180112                znucl, zion, pspdat
    8 -116133    1    4       400   0.00000   pspcod,pspxc,lmax,lloc,mmax,r2well
    3.99000000000000    0.00000000000000    0.00000000000000   rchrg,fchrg,qchrg
     nproj     2     2
     extension_switch     1
  pspatm : epsatm=    2.60859637
         --- l  ekb(1:nproj) -->
             0   -4.855856   -1.482423
             1   -2.171544   -0.427615
 pspatm: atomic psp has been read  and splines computed

- pspini: atom type   2  psp file is /scratch/users/j/a/jabreu/pseudos/PBEsol/Ag.psp8
- pspatm: opening atomic psp file    /scratch/users/j/a/jabreu/pseudos/PBEsol/Ag.psp8
- Ag    ONCVPSP-3.3.0  r_core=   1.41384   1.46535   1.61207
- 47.00000  19.00000    180112                znucl, zion, pspdat
    8 -116133    2    4       600   0.00000   pspcod,pspxc,lmax,lloc,mmax,r2well
    5.99000000000000    7.00000000000000    0.00000000000000   rchrg,fchrg,qchrg
     nproj     2     2     2
     extension_switch     1
  pspatm : epsatm=   27.64581383
         --- l  ekb(1:nproj) -->
             0    9.559407   -0.398585
             1    3.418858   -0.136622
             2   -1.644397   -0.401551
 pspatm: atomic psp has been read  and splines computed

- pspini: atom type   3  psp file is /scratch/users/j/a/jabreu/pseudos/PBEsol/O.psp8
- pspatm: opening atomic psp file    /scratch/users/j/a/jabreu/pseudos/PBEsol/O.psp8
- O     ONCVPSP-3.3.0  r_core=   1.35509   1.45563   1.26150
-  8.00000   6.00000    180112                znucl, zion, pspdat
    8 -116133    2    4       600   0.00000   pspcod,pspxc,lmax,lloc,mmax,r2well
    5.99000000000000    4.00000000000000    0.00000000000000   rchrg,fchrg,qchrg
     nproj     2     2     1
     extension_switch     1
  pspatm : epsatm=    6.22910522
         --- l  ekb(1:nproj) -->
             0    6.050032    0.820363
             1   -4.739617   -1.153841
             2   -1.335834
 pspatm: atomic psp has been read  and splines computed

   5.80891641E+03                                ecore*ucvol(ha*bohr**3)

-inwffil : will read wavefunctions from disk file /scratch/users/j/a/jabreu/flow_simple_8atoms/flow/w259/t1/indata/in_WFK

 ==>  initialize data related to q vector <==

 The list of irreducible perturbations for this q vector is:
    1)    idir= 1    ipert=   9
    2)    idir= 2    ipert=   9
    3)    idir= 3    ipert=   9

 Perturbation wavevector (in red.coord.)   0.000000  0.000000  0.000000
 Perturbation : derivative vs k along direction   1

 dfpt_looppert : COMMENT -
  In a d/dk calculation, iscf is set to -3 automatically.
 The set of symmetries contains only one element for this perturbation.
 symkpt : not enough symmetry to change the number of k points.

[...]

 Initialisation of the first-order wave-functions :
  ireadwf=   0

--- !BeginCycle
iteration_state: {dtset: 1, }
solver: {iscf: 7, nstep: 2000, nline: 4, wfoptalg: 0, }
tolerances: {tolwfr: 1.00E-20, }
...

     iter   2DEtotal(Ha)        deltaE(Ha) residm    vres2
-ETOT  1  -63.287063952432     -6.329E+01 2.868E-02 0.000E+00
 ETOT  2  -63.324365687361     -3.730E-02 5.742E-05 0.000E+00
 ETOT  3  -63.324383992353     -1.830E-05 1.098E-07 0.000E+00
 ETOT  4  -63.324384014088     -2.174E-08 1.267E-09 0.000E+00
 ETOT  5  -63.324384014127     -3.840E-11 4.003E-12 0.000E+00
 ETOT  6  -63.324384014127     -6.395E-14 5.636E-14 0.000E+00
 ETOT  7  -63.324384014127     -7.105E-14 1.964E-16 0.000E+00
 ETOT  8  -63.324384014127     -6.395E-14 2.940E-18 0.000E+00
 ETOT  9  -63.324384014127      2.842E-14 1.074E-20 0.000E+00
 ETOT 10  -63.324384014127      7.105E-15 9.904E-21 0.000E+00

 At SCF step   10   max residual=  9.90E-21 < tolwfr=  1.00E-20 =>converged.

 ----iterations are completed or convergence reached----

 dfpt_looppert: DFPT cycle converged with prtwf=-1. Will skip output of the 1st-order WFK file.
 dfpt_looppert : ek2=    1.1384170501E+02
          f-sum rule ratio=    1.0961926157E+00
 prteigrs : about to open file /scratch/users/j/a/jabreu/flow_simple_8atoms/flow/w259/t1/tmpdata/tmp_1WF1_EIG
 Expectation of eigenvalue derivatives (hartree) for nkpt=   2  k points:
  (in case of degenerate eigenvalues, averaged derivative)
 kpt#   1, nband= 43, wtk=  0.50000, kpt=  0.0000  0.0000  0.0000 (reduced coord)
   0.00000    0.00000    0.00000    0.00000   -0.00000    0.00000   -0.00000    0.00000
   0.00000   -0.00000   -0.00000    0.00000   -0.00000    0.00000   -0.00000    0.00000
   0.00000   -0.00000   -0.00000   -0.00000   -0.00000   -0.00000    0.00000    0.00000
  -0.00000   -0.00000   -0.00000    0.00000   -0.00000   -0.00000    0.00000   -0.00000
  -0.00000   -0.00000    0.00000    0.00000   -0.00000    0.00000    0.00000   -0.00000
   0.00000    0.00000    0.00001
 prteigrs : prtvol=0 or 1, do not print more k-points.

 Eight components of 2nd-order total energy (hartree) are
 1,2,3: 0th-order hamiltonian combined with 1st-order wavefunctions
     kin0=   8.86925459E+01 eigvalue=   1.93423758E+00  local=  -3.87757765E+01
 4,5,6: 1st-order hamiltonian combined with 1st and 0th-order wfs
     kin1=  -1.24792436E+02  Hartree=   0.00000000E+00     xc=   0.00000000E+00
 7,8,9: eventually, occupation + non-local contributions
    edocc=   1.30939808E+01     enl0=  -1.62060382E+00   enl1=  -1.85633163E+00
 1-9 gives the relaxation energy (to be shifted if some occ is /=2.0)
   erelax=  -6.33243840E+01
  No Ewald or frozen-wf contrib.: the relaxation energy is the total one
 2DEtotal=   -0.6332438401E+02 Ha. Also 2DEtotal=   -0.172314412111E+04 eV
    (  non-var. 2DEtotal :   -6.3324384014E+01 Ha)

 Perturbation wavevector (in red.coord.)   0.000000  0.000000  0.000000
 Perturbation : derivative vs k along direction   2
 The set of symmetries contains only one element for this perturbation.
 symkpt : not enough symmetry to change the number of k points.

[...]

 Perturbation wavevector (in red.coord.)   0.000000  0.000000  0.000000
 Perturbation : derivative vs k along direction   3
 The set of symmetries contains only one element for this perturbation.
 symkpt : not enough symmetry to change the number of k points.

-inwffil : will read wavefunctions from disk file /scratch/users/j/a/jabreu/flow_simple_8atoms/flow/w259/t1/indata/in_WFK

 Initialisation of the first-order wave-functions :
  ireadwf=   0

--- !BeginCycle
iteration_state: {dtset: 1, }
solver: {iscf: 7, nstep: 2000, nline: 4, wfoptalg: 0, }
tolerances: {tolwfr: 1.00E-20, }
...

     iter   2DEtotal(Ha)        deltaE(Ha) residm    vres2
-ETOT  1  -27.668912566675     -2.767E+01 5.158E-02 0.000E+00
 ETOT  2  -27.684089325255     -1.518E-02 2.511E-04 0.000E+00
 ETOT  3  -27.684097048822     -7.724E-06 8.990E-07 0.000E+00
 ETOT  4  -27.684097056918     -8.096E-09 8.321E-09 0.000E+00
 ETOT  5  -27.684097056931     -1.322E-11 4.676E-11 0.000E+00
 ETOT  6  -27.684097056931     -5.684E-14 6.225E-13 0.000E+00
 ETOT  7  -27.684097056931      0.000E+00 4.199E-15 0.000E+00
 ETOT  8  -27.684097056931     -3.553E-15 5.823E-17 0.000E+00
 ETOT  9  -27.684097056931      7.105E-15 4.147E-19 0.000E+00
 ETOT 10  -27.684097056931     -1.066E-14 9.603E-21 0.000E+00

 At SCF step   10   max residual=  9.60E-21 < tolwfr=  1.00E-20 =>converged.

 ----iterations are completed or convergence reached----

 dfpt_looppert: DFPT cycle converged with prtwf=-1. Will skip output of the 1st-order WFK file.
 dfpt_looppert : ek2=    5.2694182463E+01
          f-sum rule ratio=    1.0183126769E+00
 prteigrs : about to open file /scratch/users/j/a/jabreu/flow_simple_8atoms/flow/w259/t1/tmpdata/tmp_1WF1_EIG
 Expectation of eigenvalue derivatives (hartree) for nkpt=   2  k points:
  (in case of degenerate eigenvalues, averaged derivative)
 kpt#   1, nband= 43, wtk=  0.50000, kpt=  0.0000  0.0000  0.0000 (reduced coord)
   0.00000    0.00000   -0.00000    0.00000    0.00000   -0.00000    0.00000    0.00000
   0.00000   -0.00000    0.00000   -0.00000   -0.00000   -0.00000   -0.00000    0.00000
  -0.00000    0.00000   -0.00000   -0.00000    0.00000    0.00000   -0.00000   -0.00000
  -0.00000    0.00000   -0.00000    0.00000    0.00000   -0.00000    0.00000    0.00000
  -0.00000    0.00000   -0.00000    0.00000   -0.00000    0.00000   -0.00000    0.00000
   0.00000    0.00000    0.00003
 prteigrs : prtvol=0 or 1, do not print more k-points.

 Eight components of 2nd-order total energy (hartree) are
 1,2,3: 0th-order hamiltonian combined with 1st-order wavefunctions
     kin0=   4.11746136E+01 eigvalue=   5.65283822E-01  local=  -1.81659626E+01
 4,5,6: 1st-order hamiltonian combined with 1st and 0th-order wfs
     kin1=  -5.36591540E+01  Hartree=   0.00000000E+00     xc=   0.00000000E+00
 7,8,9: eventually, occupation + non-local contributions
    edocc=   4.84415530E+00     enl0=  -7.33993145E-01   enl1=  -1.70904011E+00
 1-9 gives the relaxation energy (to be shifted if some occ is /=2.0)
   erelax=  -2.76840971E+01
  No Ewald or frozen-wf contrib.: the relaxation energy is the total one
 2DEtotal=   -0.2768409706E+02 Ha. Also 2DEtotal=   -0.753322591834E+03 eV
    (  non-var. 2DEtotal :   -2.7684097057E+01 Ha)

 CALCULATION OF EFFECTIVE MASSES
 NOTE : Additional infos (eff. mass eigenvalues, eigenvectors and, if degenerate, average mass) are available in stdout.

 K-point ( 0.000, 0.000, 0.000) | band =    34
 Effective mass tensor:
             -1.9774126114              0.0000011517             -0.0000000006
              0.0000011517             -2.2913347055              0.0000000013
             -0.0000000006              0.0000000013             -0.9380293589
 Effective mass tensor eigenvalues:
             -2.2913347055             -1.9774126114             -0.9380293589
 Angular average effective mass 1/(<1/m>)=  -1.4938729410
 Angular average effective mass for Frohlich model (<m**0.5>)**2=  -1.5707821653
 Effective masses along directions: (cart. coord. / red. coord. -> eff. mass)
    1:   1.000000  0.000000  0.000000 /   1.000000  0.000000  0.000000 ->  -1.9774126114
    2:   0.000000  1.000000  0.000000 /   0.000000  1.000000  0.000000 ->  -2.2913347055
    3:   0.000000  0.000000  1.000000 /   0.000000  0.000000  1.000000 ->  -0.9380293589
    4:   0.577350  0.577350  0.577350 /   0.454590  0.588976  0.668173 ->  -1.4938725624
    5:   0.000000  0.707107  0.707107 /   0.000000  0.661250  0.750165 ->  -1.3311222769
    6:   0.707107  0.000000  0.707107 /   0.562506  0.000000  0.826793 ->  -1.2724458959
    7:   0.707107  0.707107  0.000000 /   0.611003  0.791629  0.000000 ->  -2.1228296558

 K-point ( 0.000, 0.500, 0.389) | band =    35
 Effective mass tensor:
              0.4978983526             -0.0000089307             -0.0000001365
             -0.0000089307              0.6966666937              0.0000250596
             -0.0000001365              0.0000250596              0.5733351239
 Effective mass tensor eigenvalues:
              0.4978983522              0.5733351188              0.6966666992
 Angular average effective mass 1/(<1/m>)=   0.5782542491
 Angular average effective mass for Frohlich model (<m**0.5>)**2=   0.5814967835
 Effective masses along directions: (cart. coord. / red. coord. -> eff. mass)
    1:   1.000000  0.000000  0.000000 /   1.000000  0.000000  0.000000 ->   0.4978983524
    2:   0.000000  1.000000  0.000000 /   0.000000  1.000000  0.000000 ->   0.6966666925
    3:   0.000000  0.000000  1.000000 /   0.000000  0.000000  1.000000 ->   0.5733351230
    4:   0.577350  0.577350  0.577350 /   0.454590  0.588976  0.668173 ->   0.5782623893
    5:   0.000000  0.707107  0.707107 /   0.000000  0.661250  0.750165 ->   0.6290372855
    6:   0.707107  0.000000  0.707107 /   0.562506  0.000000  0.826793 ->   0.5329604556
    7:   0.707107  0.707107  0.000000 /   0.611003  0.791629  0.000000 ->   0.5807369193

 END OF EFFECTIVE MASSES SECTION

 ---- first-order wavefunction calculations are completed ----

 Total localisation tensor (bohr^2) in cartesian coordinates
  WARNING : still subject to testing - especially symmetries.
      direction              matrix element
   alpha     beta       real part   imaginary part
     1        1       0.9869372134    0.0000000000
     1        2       0.0000000000    0.0000000000
     1        3       0.0000000000    0.0000000000
     2        1       0.0000000000    0.0000000000
     2        2       0.7317864898    0.0000000000
     2        3       0.0000000000    0.0000000000
     3        1       0.0000000000    0.0000000000
     3        2       0.0000000000    0.0000000000
     3        3       0.7634497550    0.0000000000

 respfn : d/dk was computed, but no 2DTE, so no DDB output.

== END DATASET(S) ==============================================================

 -outvars: echo values of variables after computation  --------
            acell      1.0000000000E+00  1.0000000000E+00  1.0000000000E+00 Bohr
              amu      6.94100000E+00  1.07868200E+02  1.59994000E+01
             ecut      4.40000000E+01 Hartree
           etotal     -2.7684097057E+01
            fcart      0.0000000000E+00  0.0000000000E+00  0.0000000000E+00
                       0.0000000000E+00  0.0000000000E+00  0.0000000000E+00
                       0.0000000000E+00  0.0000000000E+00  0.0000000000E+00
                       0.0000000000E+00  0.0000000000E+00  0.0000000000E+00
                       0.0000000000E+00  0.0000000000E+00  0.0000000000E+00
                       0.0000000000E+00  0.0000000000E+00  0.0000000000E+00
                       0.0000000000E+00  0.0000000000E+00  0.0000000000E+00
                       0.0000000000E+00  0.0000000000E+00  0.0000000000E+00
-          fftalg         512
           irdden           1
           irdwfk           1
           istwfk        1    0
              ixc     -116133
              kpt      0.00000000E+00  0.00000000E+00  0.00000000E+00
                       0.00000000E+00  5.00000000E-01  3.88888889E-01
           kptopt           0
P           mkmem           2
P          mkqmem           2
P          mk1mem           2
            natom           8
            nband          43
           nbdbuf           4
            ngfft          45      54      64
             nkpt           2
            nstep        2000
             nsym           8
           ntypat           3
              occ      2.000000  2.000000  2.000000  2.000000  2.000000  2.000000
                       2.000000  2.000000  2.000000  2.000000  2.000000  2.000000
                       2.000000  2.000000  2.000000  2.000000  2.000000  2.000000
                       2.000000  2.000000  2.000000  2.000000  2.000000  2.000000
                       2.000000  2.000000  2.000000  2.000000  2.000000  2.000000
                       2.000000  2.000000  2.000000  2.000000  0.000000  0.000000
                       0.000000  0.000000  0.000000  0.000000  0.000000  0.000000
                       0.000000
        optdriver           1
            prtwf          -1
            rfdir           1       1       1
           rfelfd           2
            rprim      6.8674993464E+00  0.0000000000E+00  0.0000000000E+00
                       0.0000000000E+00  8.8976836360E+00  0.0000000000E+00
                       0.0000000000E+00  0.0000000000E+00  1.0094108930E+01
          spgroup          53
           strten      0.0000000000E+00  0.0000000000E+00  0.0000000000E+00
                       0.0000000000E+00  0.0000000000E+00  0.0000000000E+00
           symrel      1  0  0   0  1  0   0  0  1      -1  0  0   0 -1  0   0  0 -1
                      -1  0  0   0  1  0   0  0 -1       1  0  0   0 -1  0   0  0  1
                      -1  0  0   0 -1  0   0  0  1       1  0  0   0  1  0   0  0 -1
                       1  0  0   0 -1  0   0  0 -1      -1  0  0   0  1  0   0  0  1
            tnons      0.0000000  0.0000000  0.0000000     0.0000000  0.0000000  0.0000000
                       0.5000000  0.0000000  0.5000000     0.5000000  0.0000000  0.5000000
                       0.0000000  0.0000000  0.0000000     0.0000000  0.0000000  0.0000000
                       0.5000000  0.0000000  0.5000000     0.5000000  0.0000000  0.5000000
           tolwfr      1.00000000E-20
            typat      1  1  2  2  3  3  3  3
           useylm           1
              wtk        0.50000    0.50000
           xangst      1.8170620671E+00  2.3542256947E+00  2.6707861933E+00
                       0.0000000000E+00  2.3542256947E+00  0.0000000000E+00
                       0.0000000000E+00  0.0000000000E+00  2.6707861933E+00
                       1.8170620671E+00  0.0000000000E+00  0.0000000000E+00
                       9.0853103353E-01  3.5494566630E+00  4.0061792900E+00
                       9.0853103353E-01  3.5494566630E+00  1.3353930967E+00
                       2.7255931006E+00  1.1589947264E+00  4.0061792900E+00
                       2.7255931006E+00  1.1589947264E+00  1.3353930967E+00
            xcart      3.4337496732E+00  4.4488418180E+00  5.0470544649E+00
                       0.0000000000E+00  4.4488418180E+00  0.0000000000E+00
                       0.0000000000E+00  0.0000000000E+00  5.0470544649E+00
                       3.4337496732E+00  0.0000000000E+00  0.0000000000E+00
                       1.7168748366E+00  6.7075010136E+00  7.5705816974E+00
                       1.7168748366E+00  6.7075010136E+00  2.5235272325E+00
                       5.1506245098E+00  2.1901826224E+00  7.5705816974E+00
                       5.1506245098E+00  2.1901826224E+00  2.5235272325E+00
             xred      5.0000000000E-01  5.0000000000E-01  5.0000000000E-01
                       0.0000000000E+00  5.0000000000E-01  0.0000000000E+00
                       0.0000000000E+00  0.0000000000E+00  5.0000000000E-01
                       5.0000000000E-01  0.0000000000E+00  0.0000000000E+00
                       2.5000000000E-01  7.5384800000E-01  7.5000000000E-01
                       2.5000000000E-01  7.5384800000E-01  2.5000000000E-01
                       7.5000000000E-01  2.4615200000E-01  7.5000000000E-01
                       7.5000000000E-01  2.4615200000E-01  2.5000000000E-01
            znucl        3.00000   47.00000    8.00000

- Timing analysis has been suppressed with timopt=0

 Suggested references for the acknowledgment of ABINIT usage.

 Calculation completed.
.Delivered  14 WARNINGs and   9 COMMENTs to log file.