.Version 9.5.2 of ABINIT

 ABINIT is a project of the Universite Catholique de Louvain,
 Corning Inc. and other collaborators, see ~abinit/doc/developers/contributors.txt .
 acknowledgments of the ABINIT effort.

.Starting date : Wed 26 May 2021.
- ( at 03h02 )

- input  file    -> /scratch/users/j/a/jabreu/flow_simple_11atoms/flow/w282/t1/run.abi
- output file    -> /scratch/users/j/a/jabreu/flow_simple_11atoms/flow/w282/t1/run.abo
- root for input  files -> /scratch/users/j/a/jabreu/flow_simple_11atoms/flow/w282/t1/indata/in
- root for output files -> /scratch/users/j/a/jabreu/flow_simple_11atoms/flow/w282/t1/outdata/out

 Symmetries : space group C2/c (# 15); Bravais mC (1-face-center monocl.)
     intxc =       0      iscf =       7    lmnmax =      18     lnmax =       6
     mgfft =     100  mpssoang =       3    mqgrid =    4562     natom =      12
  nloc_mem =       1    nspden =       1   nspinor =       1    nsppol =       1
      nsym =       4    n1xccc =    2501    ntypat =       3    occopt =       1
   xclevel =       2
-    mband =          49        mffmem =           1         mkmem =           2
-   mkqmem =           2        mk1mem =           2           mpw =       28394
      nfft =      518400          nkpt =           2
  Rough estimation (10% accuracy) of disk space for files :

------------- Echo of variables that govern the present computation ------------
-
- outvars: echo of selected default values
-   iomode0 =  0 , fftalg0 =512 , wfoptalg0 =  0
-
- outvars: echo of global parameters not present in the input file
-  max_nthreads =    0
-
 -outvars: echo values of preprocessed input variables --------
            acell      1.0000000000E+00  1.0000000000E+00  1.0000000000E+00 Bohr
              amu      8.54678000E+01  1.08110000E+01  3.09737620E+01
             ecut      3.80000000E+01 Hartree
-          fftalg         512
           irdden           1
           irdwfk           1
           istwfk        0    1
              ixc     -116133
              kpt      5.00000000E-01 -5.00000000E-01  0.00000000E+00
                       0.00000000E+00  0.00000000E+00  0.00000000E+00
           kptopt           0
P           mkmem           2
P          mkqmem           2
P          mk1mem           2
            natom          12
            nband          49
           nbdbuf           4
            ngfft          72      72     100
             nkpt           2
            nstep        2000
             nsym           4
           ntypat           3
              occ      2.000000  2.000000  2.000000  2.000000  2.000000  2.000000
                       2.000000  2.000000  2.000000  2.000000  2.000000  2.000000
                       2.000000  2.000000  2.000000  2.000000  2.000000  2.000000
                       2.000000  2.000000  2.000000  2.000000  2.000000  2.000000
                       2.000000  2.000000  2.000000  2.000000  2.000000  2.000000
                       2.000000  2.000000  2.000000  2.000000  2.000000  2.000000
                       2.000000  2.000000  2.000000  2.000000  0.000000  0.000000
                       0.000000  0.000000  0.000000  0.000000  0.000000  0.000000
                       0.000000
        optdriver           1
            prtwf          -1
            rfdir           1       1       1
           rfelfd           2
            rprim      1.2028596273E+01  0.0000000000E+00  3.1398402589E+00
                      -3.5200885200E-01  1.2023444517E+01  3.1398402589E+00
                       0.0000000000E+00  0.0000000000E+00  1.7554400338E+01
          spgroup          15
           symrel      1  0  0   0  1  0   0  0  1      -1  0  0   0 -1  0   0  0 -1
                       0 -1  0  -1  0  0   0  0 -1       0  1  0   1  0  0   0  0  1
            tnons      0.0000000  0.0000000  0.0000000    -0.0000000 -0.0000000 -0.0000000
                      -0.0000000 -0.0000000  0.5000000     0.0000000 -0.0000000  0.5000000
           tolwfr      1.00000000E-20
            typat      1  1  1  1  1  1  2  2  3  3  3  3
           useylm           1
              wtk        0.50000    0.50000
           xangst      4.0212347349E+00  4.8128870418E+00  2.5061167570E+00
                       1.4858369720E+00  2.2021744051E+00  5.4616413350E+00
                       2.1577492021E+00  1.5496457655E+00  1.0106335620E+01
                       4.6931469651E+00  4.1603584021E+00  7.1508110417E+00
                       5.3595723144E+00  9.7667423604E-01  3.9838790460E+00
                       8.1941162272E-01  5.3858585712E+00  8.6285733307E+00
                       4.9490924993E+00  1.3753123665E+00  8.6285733307E+00
                       1.2298914377E+00  4.9872204407E+00  3.9838790460E+00
                       4.1547095617E+00  6.0409067738E-01  7.2392973589E+00
                       5.6967367930E+00  2.1919243648E+00  1.0017849302E+01
                       4.8224714407E-01  4.1706084425E+00  2.5946030742E+00
                       2.0242743754E+00  5.7584421299E+00  5.3731550178E+00
            xcart      7.5990323651E+00  9.0950384175E+00  4.7358743277E+00
                       2.8078249551E+00  4.1615065225E+00  1.0321006359E+01
                       4.0775550555E+00  2.9284060997E+00  1.9098206528E+01
                       8.8687624655E+00  7.8619379947E+00  1.3513074497E+01
                       1.0128123864E+01  1.8456468272E+00  7.5284403434E+00
                       1.5484635570E+00  1.0177797690E+01  1.6305640512E+01
                       9.3524294301E+00  2.5989637199E+00  1.6305640512E+01
                       2.3241579905E+00  9.4244807973E+00  7.5284403434E+00
                       7.8512632333E+00  1.1415659397E+00  1.3680289403E+01
                       1.0765272390E+01  4.1421367534E+00  1.8930991622E+01
                       9.1131503066E-01  7.8813077638E+00  4.9030892337E+00
                       3.8253241873E+00  1.0881878578E+01  1.0153791453E+01
             xred      6.5388400000E-01  7.5644200000E-01  1.7527000000E-02
                       2.4355800000E-01  3.4611600000E-01  4.8247300000E-01
                       3.4611600000E-01  2.4355800000E-01  9.8247300000E-01
                       7.5644200000E-01  6.5388400000E-01  5.1752700000E-01
                       8.4649600000E-01  1.5350400000E-01  2.5000000000E-01
                       1.5350400000E-01  8.4649600000E-01  7.5000000000E-01
                       7.8384200000E-01  2.1615800000E-01  7.5000000000E-01
                       2.1615800000E-01  7.8384200000E-01  2.5000000000E-01
                       6.5549500000E-01  9.4945000000E-02  6.4508200000E-01
                       9.0505500000E-01  3.4450500000E-01  8.5491800000E-01
                       9.4945000000E-02  6.5549500000E-01  1.4508200000E-01
                       3.4450500000E-01  9.0505500000E-01  3.5491800000E-01
            znucl       37.00000    5.00000   15.00000

 chkinp: Checking input parameters for consistency.

== DATASET  1 ==================================================================
-   mpi_nproc: 1, omp_nthreads: -1 (-1 if OMP is not activated)

--- !DatasetInfo
iteration_state: {dtset: 1, }
dimensions: {natom: 12, nkpt: 2, mband: 49, nsppol: 1, nspinor: 1, nspden: 1, mpw: 28394, }
cutoff_energies: {ecut:  38.0, pawecutdg:  -1.0, }
electrons: {nelect:   8.00000000E+01, charge:   0.00000000E+00, occopt:   1.00000000E+00, tsmear:   1.00000000E-02, }
meta: {optdriver: 1, rfelfd: 2, }
...

 Real(R)+Recip(G) space primitive vectors, cartesian coordinates (Bohr,Bohr^-1):
 R(1)= 12.0285963  0.0000000  3.1398403  G(1)=  0.0831352  0.0024339  0.0000000
 R(2)= -0.3520089 12.0234445  3.1398403  G(2)=  0.0000000  0.0831708  0.0000000
 R(3)=  0.0000000  0.0000000 17.5544003  G(3)= -0.0148699 -0.0153116  0.0569658
 Unit cell volume ucvol=  2.5388080E+03 bohr^3
 Angles (23,13,12)=  7.53704495E+01  7.53704495E+01  8.79143586E+01 degrees

 getcut: wavevector=  0.0000  0.0000  0.0000  ngfft=  72  72 100
         ecut(hartree)=     38.000   => boxcut(ratio)=   2.05286

--- Pseudopotential description ------------------------------------------------
- pspini: atom type   1  psp file is /scratch/users/j/a/jabreu/pseudos/PBEsol/Rb.psp8
- pspatm: opening atomic psp file    /scratch/users/j/a/jabreu/pseudos/PBEsol/Rb.psp8
- Rb    ONCVPSP-3.3.0  r_core=   1.71227   1.75361   1.90633
- 37.00000   9.00000    180112                znucl, zion, pspdat
    8 -116133    2    4       600   0.00000   pspcod,pspxc,lmax,lloc,mmax,r2well
    5.99000000000000    7.00000000000000    0.00000000000000   rchrg,fchrg,qchrg
     nproj     2     2     2
     extension_switch     1
  pspatm : epsatm=   34.48400912
         --- l  ekb(1:nproj) -->
             0    8.196957   -0.477221
             1    3.231347   -0.378736
             2   -1.047201    0.996637
 pspatm: atomic psp has been read  and splines computed

- pspini: atom type   2  psp file is /scratch/users/j/a/jabreu/pseudos/PBEsol/B.psp8
- pspatm: opening atomic psp file    /scratch/users/j/a/jabreu/pseudos/PBEsol/B.psp8
- B     ONCVPSP-3.3.0  r_core=   1.20849   1.20849
-  5.00000   3.00000    180112                znucl, zion, pspdat
    8 -116133    1    4       600   0.00000   pspcod,pspxc,lmax,lloc,mmax,r2well
    5.99000000000000    2.90000000000000    0.00000000000000   rchrg,fchrg,qchrg
     nproj     2     2
     extension_switch     1
  pspatm : epsatm=    3.20154566
         --- l  ekb(1:nproj) -->
             0    8.466603    1.247630
             1   -3.609180   -0.822621
 pspatm: atomic psp has been read  and splines computed

- pspini: atom type   3  psp file is /scratch/users/j/a/jabreu/pseudos/PBEsol/P.psp8
- pspatm: opening atomic psp file    /scratch/users/j/a/jabreu/pseudos/PBEsol/P.psp8
- P     ONCVPSP-3.3.0  r_core=   1.46089   1.55067   1.70594
- 15.00000   5.00000    180112                znucl, zion, pspdat
    8 -116133    2    4       600   0.00000   pspcod,pspxc,lmax,lloc,mmax,r2well
    5.99000000000000    5.00000000000000    0.00000000000000   rchrg,fchrg,qchrg
     nproj     2     2     2
     extension_switch     1
  pspatm : epsatm=    7.31221086
         --- l  ekb(1:nproj) -->
             0    6.742364    1.063650
             1    3.449117    0.910422
             2   -3.077645   -0.799176
 pspatm: atomic psp has been read  and splines computed

   1.94044792E+04                                ecore*ucvol(ha*bohr**3)

 ==>  initialize data related to q vector <==

 The list of irreducible perturbations for this q vector is:
    1)    idir= 1    ipert=  13
    2)    idir= 2    ipert=  13
    3)    idir= 3    ipert=  13

 Perturbation wavevector (in red.coord.)   0.000000  0.000000  0.000000
 Perturbation : derivative vs k along direction   1

 dfpt_looppert : COMMENT -
  In a d/dk calculation, iscf is set to -3 automatically.
 The set of symmetries contains only one element for this perturbation.
 symkpt : not enough symmetry to change the number of k points.

 Initialisation of the first-order wave-functions :
  ireadwf=   0

--- !BeginCycle
iteration_state: {dtset: 1, }
solver: {iscf: 7, nstep: 2000, nline: 4, wfoptalg: 0, }
tolerances: {tolwfr: 1.00E-20, }
...

[...]
 dfpt_looppert : ek2=    4.3694010839E+01
          f-sum rule ratio=    1.0011777572E+00
 prteigrs : about to open file /scratch/users/j/a/jabreu/flow_simple_11atoms/flow/w282/t1/tmpdata/tmp_1WF1_EIG
 Expectation of eigenvalue derivatives (hartree) for nkpt=   2  k points:
  (in case of degenerate eigenvalues, averaged derivative)
 kpt#   1, nband= 49, wtk=  0.50000, kpt=  0.5000 -0.5000  0.0000 (reduced coord)
   0.00000    0.00000    0.00000    0.00000    0.00000    0.00000   -0.00000   -0.00000
   0.00000   -0.00000    0.00000   -0.00000   -0.00000   -0.00000   -0.00000    0.00000
   0.00000    0.00000   -0.00000    0.00000   -0.00000    0.00000   -0.00000    0.00000
  -0.00000    0.00000    0.00000   -0.00000   -0.00000    0.00000   -0.00000    0.00000
  -0.00000    0.00000   -0.00000   -0.00000    0.00000    0.00000   -0.00000    0.00000
  -0.00000    0.00000    0.00000   -0.00000   -0.00000   -0.00000    0.00000    0.00005
  -0.00104
 prteigrs : prtvol=0 or 1, do not print more k-points.

 Eight components of 2nd-order total energy (hartree) are
 1,2,3: 0th-order hamiltonian combined with 1st-order wavefunctions
     kin0=   3.20028917E+01 eigvalue=   4.55121451E+00  local=  -1.90128749E+01
 4,5,6: 1st-order hamiltonian combined with 1st and 0th-order wfs
     kin1=  -4.37454718E+01  Hartree=   0.00000000E+00     xc=   0.00000000E+00
 7,8,9: eventually, occupation + non-local contributions
    edocc=   4.17601202E+00     enl0=   1.70543855E-01   enl1=  -3.01026981E-02
 1-9 gives the relaxation energy (to be shifted if some occ is /=2.0)
   erelax=  -2.18877872E+01
  No Ewald or frozen-wf contrib.: the relaxation energy is the total one
 2DEtotal=   -0.2188778724E+02 Ha. Also 2DEtotal=   -0.595596980366E+03 eV
    (  non-var. 2DEtotal :   -2.1887787237E+01 Ha)

 Perturbation wavevector (in red.coord.)   0.000000  0.000000  0.000000
 Perturbation : derivative vs k along direction   2
 The set of symmetries contains only one element for this perturbation.
 symkpt : not enough symmetry to change the number of k points.

[...]

 Perturbation wavevector (in red.coord.)   0.000000  0.000000  0.000000
 Perturbation : derivative vs k along direction   3
 The set of symmetries contains only one element for this perturbation.
 symkpt : not enough symmetry to change the number of k points.

 Initialisation of the first-order wave-functions :
  ireadwf=   0

--- !BeginCycle
iteration_state: {dtset: 1, }
solver: {iscf: 7, nstep: 2000, nline: 4, wfoptalg: 0, }
tolerances: {tolwfr: 1.00E-20, }
...

     iter   2DEtotal(Ha)        deltaE(Ha) residm    vres2
-ETOT  1  -11.559605104898     -1.156E+01 2.550E-02 0.000E+00
 ETOT  2  -11.571896074742     -1.229E-02 3.940E-03 0.000E+00
 ETOT  3  -11.571946922641     -5.085E-05 3.445E-04 0.000E+00
 ETOT  4  -11.571947262753     -3.401E-07 1.291E-04 0.000E+00
 ETOT  5  -11.571947265644     -2.890E-09 1.441E-05 0.000E+00
 ETOT  6  -11.571947265672     -2.885E-11 6.153E-06 0.000E+00
 ETOT  7  -11.571947265673     -3.251E-13 6.994E-07 0.000E+00
 ETOT  8  -11.571947265673      1.421E-14 3.135E-07 0.000E+00
 ETOT  9  -11.571947265673     -1.776E-14 3.550E-08 0.000E+00
 ETOT 10  -11.571947265673      3.553E-15 1.649E-08 0.000E+00
 ETOT 11  -11.571947265673     -7.105E-15 1.859E-09 0.000E+00
 ETOT 12  -11.571947265673     -1.776E-15 8.881E-10 0.000E+00
 ETOT 13  -11.571947265673      0.000E+00 9.998E-11 0.000E+00
 ETOT 14  -11.571947265673      1.776E-15 4.876E-11 0.000E+00
 ETOT 15  -11.571947265673      0.000E+00 5.503E-12 0.000E+00
 ETOT 16  -11.571947265673     -1.776E-15 2.721E-12 0.000E+00
 ETOT 17  -11.571947265673      1.776E-15 3.086E-13 0.000E+00
 ETOT 18  -11.571947265673      0.000E+00 1.538E-13 0.000E+00
 ETOT 19  -11.571947265673      7.105E-15 1.755E-14 0.000E+00
 ETOT 20  -11.571947265673     -1.776E-15 8.783E-15 0.000E+00
 ETOT 21  -11.571947265673      0.000E+00 1.008E-15 0.000E+00
 ETOT 22  -11.571947265673     -5.329E-15 5.052E-16 0.000E+00
 ETOT 23  -11.571947265673      1.776E-15 5.831E-17 0.000E+00
 ETOT 24  -11.571947265673     -1.776E-15 2.922E-17 0.000E+00
 ETOT 25  -11.571947265673      1.776E-15 3.388E-18 0.000E+00
 ETOT 26  -11.571947265673      0.000E+00 1.697E-18 0.000E+00
 ETOT 27  -11.571947265673      0.000E+00 1.975E-19 0.000E+00
 ETOT 28  -11.571947265673     -1.776E-15 9.885E-20 0.000E+00
 ETOT 29  -11.571947265673      0.000E+00 1.154E-20 0.000E+00
 ETOT 30  -11.571947265673      3.553E-15 9.400E-21 0.000E+00

 At SCF step   30   max residual=  9.40E-21 < tolwfr=  1.00E-20 =>converged.

 ----iterations are completed or convergence reached----

 dfpt_looppert: DFPT cycle converged with prtwf=-1. Will skip output of the 1st-order WFK file.
 dfpt_looppert : ek2=    2.3375366028E+01
          f-sum rule ratio=    9.8899652857E-01
 prteigrs : about to open file /scratch/users/j/a/jabreu/flow_simple_11atoms/flow/w282/t1/tmpdata/tmp_1WF1_EIG
 Expectation of eigenvalue derivatives (hartree) for nkpt=   2  k points:
  (in case of degenerate eigenvalues, averaged derivative)
 kpt#   1, nband= 49, wtk=  0.50000, kpt=  0.5000 -0.5000  0.0000 (reduced coord)
   0.00000    0.00000    0.00000    0.00000    0.00000    0.00000    0.00000    0.00000
   0.00000    0.00000    0.00000   -0.00000   -0.00000   -0.00000   -0.00000    0.00000
  -0.00000   -0.00000   -0.00000   -0.00000    0.00000   -0.00000    0.00000   -0.00000
   0.00000    0.00000   -0.00000    0.00000   -0.00000    0.00000   -0.00000   -0.00000
   0.00000    0.00000    0.00000   -0.00000   -0.00000   -0.00000   -0.00000   -0.00000
   0.00000   -0.00000    0.00000   -0.00000   -0.00000   -0.00000   -0.00000    0.00000
   0.00195
 prteigrs : prtvol=0 or 1, do not print more k-points.

 Eight components of 2nd-order total energy (hartree) are
 1,2,3: 0th-order hamiltonian combined with 1st-order wavefunctions
     kin0=   1.73204817E+01 eigvalue=   2.46278252E+00  local=  -1.03904279E+01
 4,5,6: 1st-order hamiltonian combined with 1st and 0th-order wfs
     kin1=  -2.31181559E+01  Hartree=   0.00000000E+00     xc=   0.00000000E+00
 7,8,9: eventually, occupation + non-local contributions
    edocc=   2.04940637E+00     enl0=   1.29704641E-01   enl1=  -2.57386761E-02
 1-9 gives the relaxation energy (to be shifted if some occ is /=2.0)
   erelax=  -1.15719473E+01
  No Ewald or frozen-wf contrib.: the relaxation energy is the total one
 2DEtotal=   -0.1157194727E+02 Ha. Also 2DEtotal=   -0.314888699054E+03 eV
    (  non-var. 2DEtotal :   -1.1571947266E+01 Ha)

 CALCULATION OF EFFECTIVE MASSES
 NOTE : Additional infos (eff. mass eigenvalues, eigenvectors and, if degenerate, average mass) are available in stdout.

 K-point ( 0.500,-0.500, 0.000) | band =    40
 Effective mass tensor:
             -4.9360507614              3.0964824193              0.6672531700
              3.0964824193             -4.7522645275              0.6849950022
              0.6672531700              0.6849950022             -2.2048872956
 Effective mass tensor eigenvalues:
             -7.9420037828             -2.9589685610             -0.9922302407
 Angular average effective mass 1/(<1/m>)=  -2.0384602948
 Angular average effective mass for Frohlich model (<m**0.5>)**2=  -2.4816332676
 Effective masses along directions: (cart. coord. / red. coord. -> eff. mass)
    1:   1.000000  0.000000  0.000000 /   0.999572 -0.029252  0.000000 ->  -2.3296606524
    2:   0.000000  1.000000  0.000000 /   0.000000  1.000000  0.000000 ->  -2.2338649739
    3:   0.000000  0.000000  1.000000 /   0.173402  0.173402  0.969466 ->  -1.6812449821
    4:   0.577350  0.577350  0.577350 /   0.551083  0.538107  0.637768 ->  -0.9941535596
    5:   0.000000  0.707107  0.707107 /   0.134135  0.647778  0.749927 ->  -1.3247839653
    6:   0.707107  0.000000  0.707107 /   0.649143  0.119307  0.751252 ->  -1.3532214112
    7:   0.707107  0.707107  0.000000 /   0.717681  0.696372  0.000000 ->  -1.3318180538

 K-point ( 0.000, 0.000, 0.000) | band =    41
 Effective mass tensor:
              0.5557781136             -0.0241772469              0.0392054123
             -0.0241772469              0.5543625289              0.0403697031
              0.0392054123              0.0403697031              0.5072890493
 Effective mass tensor eigenvalues:
              0.4615885562              0.5765832093              0.5792579263
 Angular average effective mass 1/(<1/m>)=   0.5331311456
 Angular average effective mass for Frohlich model (<m**0.5>)**2=   0.5349968667
 Effective masses along directions: (cart. coord. / red. coord. -> eff. mass)
    1:   1.000000  0.000000  0.000000 /   0.999572 -0.029252  0.000000 ->   0.5513961892
    2:   0.000000  1.000000  0.000000 /   0.000000  1.000000  0.000000 ->   0.5498018789
    3:   0.000000  0.000000  1.000000 /   0.173402  0.173402  0.969466 ->   0.5013239328
    4:   0.577350  0.577350  0.577350 /   0.551083  0.538107  0.637768 ->   0.5759491698
    5:   0.000000  0.707107  0.707107 /   0.134135  0.647778  0.749927 ->   0.5697700448
    6:   0.707107  0.000000  0.707107 /   0.649143  0.119307  0.751252 ->   0.5692040364
    7:   0.707107  0.707107  0.000000 /   0.717681  0.696372  0.000000 ->   0.5246507579

 END OF EFFECTIVE MASSES SECTION

 ---- first-order wavefunction calculations are completed ----

 Total localisation tensor (bohr^2) in cartesian coordinates
  WARNING : still subject to testing - especially symmetries.
      direction              matrix element
   alpha     beta       real part   imaginary part
     1        1       1.2308967821    0.0000000000
     1        2      -0.0359764382    0.0000000000
     1        3       0.3116326621    0.0000000000
     2        1      -0.0359764382    0.0000000000
     2        2       1.2288347485    0.0000000000
     2        3       0.3209017856    0.0000000000
     3        1       0.3116326621    0.0000000000
     3        2       0.3209017856    0.0000000000
     3        3       1.5303820969    0.0000000000

 respfn : d/dk was computed, but no 2DTE, so no DDB output.

== END DATASET(S) ==============================================================

 -outvars: echo values of variables after computation  --------
            acell      1.0000000000E+00  1.0000000000E+00  1.0000000000E+00 Bohr
              amu      8.54678000E+01  1.08110000E+01  3.09737620E+01
             ecut      3.80000000E+01 Hartree
           etotal     -1.1571947266E+01
            fcart      0.0000000000E+00  0.0000000000E+00  0.0000000000E+00
                       0.0000000000E+00  0.0000000000E+00  0.0000000000E+00
                       0.0000000000E+00  0.0000000000E+00  0.0000000000E+00
                       0.0000000000E+00  0.0000000000E+00  0.0000000000E+00
                       0.0000000000E+00  0.0000000000E+00  0.0000000000E+00
                       0.0000000000E+00  0.0000000000E+00  0.0000000000E+00
                       0.0000000000E+00  0.0000000000E+00  0.0000000000E+00
                       0.0000000000E+00  0.0000000000E+00  0.0000000000E+00
                       0.0000000000E+00  0.0000000000E+00  0.0000000000E+00
                       0.0000000000E+00  0.0000000000E+00  0.0000000000E+00
                       0.0000000000E+00  0.0000000000E+00  0.0000000000E+00
                       0.0000000000E+00  0.0000000000E+00  0.0000000000E+00
-          fftalg         512
           irdden           1
           irdwfk           1
           istwfk        0    1
              ixc     -116133
              kpt      5.00000000E-01 -5.00000000E-01  0.00000000E+00
                       0.00000000E+00  0.00000000E+00  0.00000000E+00
           kptopt           0
P           mkmem           2
P          mkqmem           2
P          mk1mem           2
            natom          12
            nband          49
           nbdbuf           4
            ngfft          72      72     100
             nkpt           2
            nstep        2000
             nsym           4
           ntypat           3
              occ      2.000000  2.000000  2.000000  2.000000  2.000000  2.000000
                       2.000000  2.000000  2.000000  2.000000  2.000000  2.000000
                       2.000000  2.000000  2.000000  2.000000  2.000000  2.000000
                       2.000000  2.000000  2.000000  2.000000  2.000000  2.000000
                       2.000000  2.000000  2.000000  2.000000  2.000000  2.000000
                       2.000000  2.000000  2.000000  2.000000  2.000000  2.000000
                       2.000000  2.000000  2.000000  2.000000  0.000000  0.000000
                       0.000000  0.000000  0.000000  0.000000  0.000000  0.000000
                       0.000000
        optdriver           1
            prtwf          -1
            rfdir           1       1       1
           rfelfd           2
            rprim      1.2028596273E+01  0.0000000000E+00  3.1398402589E+00
                      -3.5200885200E-01  1.2023444517E+01  3.1398402589E+00
                       0.0000000000E+00  0.0000000000E+00  1.7554400338E+01
          spgroup          15
           strten      0.0000000000E+00  0.0000000000E+00  0.0000000000E+00
                       0.0000000000E+00  0.0000000000E+00  0.0000000000E+00
           symrel      1  0  0   0  1  0   0  0  1      -1  0  0   0 -1  0   0  0 -1
                       0 -1  0  -1  0  0   0  0 -1       0  1  0   1  0  0   0  0  1
            tnons      0.0000000  0.0000000  0.0000000    -0.0000000 -0.0000000 -0.0000000
                      -0.0000000 -0.0000000  0.5000000     0.0000000 -0.0000000  0.5000000
           tolwfr      1.00000000E-20
            typat      1  1  1  1  1  1  2  2  3  3  3  3
           useylm           1
              wtk        0.50000    0.50000
           xangst      4.0212347349E+00  4.8128870418E+00  2.5061167570E+00
                       1.4858369720E+00  2.2021744051E+00  5.4616413350E+00
                       2.1577492021E+00  1.5496457655E+00  1.0106335620E+01
                       4.6931469651E+00  4.1603584021E+00  7.1508110417E+00
                       5.3595723144E+00  9.7667423604E-01  3.9838790460E+00
                       8.1941162272E-01  5.3858585712E+00  8.6285733307E+00
                       4.9490924993E+00  1.3753123665E+00  8.6285733307E+00
                       1.2298914377E+00  4.9872204407E+00  3.9838790460E+00
                       4.1547095617E+00  6.0409067738E-01  7.2392973589E+00
                       5.6967367930E+00  2.1919243648E+00  1.0017849302E+01
                       4.8224714407E-01  4.1706084425E+00  2.5946030742E+00
                       2.0242743754E+00  5.7584421299E+00  5.3731550178E+00
            xcart      7.5990323651E+00  9.0950384175E+00  4.7358743277E+00
                       2.8078249551E+00  4.1615065225E+00  1.0321006359E+01
                       4.0775550555E+00  2.9284060997E+00  1.9098206528E+01
                       8.8687624655E+00  7.8619379947E+00  1.3513074497E+01
                       1.0128123864E+01  1.8456468272E+00  7.5284403434E+00
                       1.5484635570E+00  1.0177797690E+01  1.6305640512E+01
                       9.3524294301E+00  2.5989637199E+00  1.6305640512E+01
                       2.3241579905E+00  9.4244807973E+00  7.5284403434E+00
                       7.8512632333E+00  1.1415659397E+00  1.3680289403E+01
                       1.0765272390E+01  4.1421367534E+00  1.8930991622E+01
                       9.1131503066E-01  7.8813077638E+00  4.9030892337E+00
                       3.8253241873E+00  1.0881878578E+01  1.0153791453E+01
             xred      6.5388400000E-01  7.5644200000E-01  1.7527000000E-02
                       2.4355800000E-01  3.4611600000E-01  4.8247300000E-01
                       3.4611600000E-01  2.4355800000E-01  9.8247300000E-01
                       7.5644200000E-01  6.5388400000E-01  5.1752700000E-01
                       8.4649600000E-01  1.5350400000E-01  2.5000000000E-01
                       1.5350400000E-01  8.4649600000E-01  7.5000000000E-01
                       7.8384200000E-01  2.1615800000E-01  7.5000000000E-01
                       2.1615800000E-01  7.8384200000E-01  2.5000000000E-01
                       6.5549500000E-01  9.4945000000E-02  6.4508200000E-01
                       9.0505500000E-01  3.4450500000E-01  8.5491800000E-01
                       9.4945000000E-02  6.5549500000E-01  1.4508200000E-01
                       3.4450500000E-01  9.0505500000E-01  3.5491800000E-01
            znucl       37.00000    5.00000   15.00000

- Timing analysis has been suppressed with timopt=0

 Suggested references for the acknowledgment of ABINIT usage.

 Calculation completed.
.Delivered   2 WARNINGs and   5 COMMENTs to log file.