.Version 9.5.2 of ABINIT

 ABINIT is a project of the Universite Catholique de Louvain,
 Corning Inc. and other collaborators, see ~abinit/doc/developers/contributors.txt .
 acknowledgments of the ABINIT effort.

.Starting date : Mon 31 May 2021.
- ( at 22h38 )

- input  file    -> /scratch/users/j/a/jabreu/flow_simple_11atoms/flow/w377/t1/run.abi
- output file    -> /scratch/users/j/a/jabreu/flow_simple_11atoms/flow/w377/t1/run.abo
- root for input  files -> /scratch/users/j/a/jabreu/flow_simple_11atoms/flow/w377/t1/indata/in
- root for output files -> /scratch/users/j/a/jabreu/flow_simple_11atoms/flow/w377/t1/outdata/out

 Symmetries : space group P-6 2 m (#189); Bravais hP (primitive hexag.)
     intxc =       0      iscf =       7    lmnmax =      18     lnmax =       6
     mgfft =      80  mpssoang =       3    mqgrid =    3375     natom =      12
  nloc_mem =       1    nspden =       1   nspinor =       1    nsppol =       1
      nsym =      12    n1xccc =    2501    ntypat =       2    occopt =       1
   xclevel =       2
-    mband =          54        mffmem =           1         mkmem =           2
-   mkqmem =           2        mk1mem =           2           mpw =       18189
      nfft =      345600          nkpt =           2
  Rough estimation (10% accuracy) of disk space for files :

------------- Echo of variables that govern the present computation ------------
-
- outvars: echo of selected default values
-   iomode0 =  0 , fftalg0 =512 , wfoptalg0 =  0
-
- outvars: echo of global parameters not present in the input file
-  max_nthreads =    0
-
 -outvars: echo values of preprocessed input variables --------
            acell      1.0000000000E+00  1.0000000000E+00  1.0000000000E+00 Bohr
              amu      8.54678000E+01  3.20660000E+01
             ecut      2.70000000E+01 Hartree
-          fftalg         512
           irdden           1
           irdwfk           1
           istwfk        1    1
              ixc     -116133
              kpt      0.00000000E+00  0.00000000E+00  0.00000000E+00
                       0.00000000E+00  0.00000000E+00  5.00000000E-01
           kptopt           0
P           mkmem           2
P          mkqmem           2
P          mk1mem           2
            natom          12
            nband          54
           nbdbuf           4
            ngfft          80      80      54
             nkpt           2
            nstep        2000
             nsym          12
           ntypat           2
              occ      2.000000  2.000000  2.000000  2.000000  2.000000  2.000000
                       2.000000  2.000000  2.000000  2.000000  2.000000  2.000000
                       2.000000  2.000000  2.000000  2.000000  2.000000  2.000000
                       2.000000  2.000000  2.000000  2.000000  2.000000  2.000000
                       2.000000  2.000000  2.000000  2.000000  2.000000  2.000000
                       2.000000  2.000000  2.000000  2.000000  2.000000  2.000000
                       2.000000  2.000000  2.000000  2.000000  2.000000  2.000000
                       2.000000  2.000000  2.000000  0.000000  0.000000  0.000000
                       0.000000  0.000000  0.000000  0.000000  0.000000  0.000000
        optdriver           1
            prtwf          -1
            rfdir           1       1       1
           rfelfd           2
            rprim      1.6657447975E+01  0.0000000000E+00  0.0000000000E+00
                      -8.3287239873E+00  1.4425773108E+01  0.0000000000E+00
                       0.0000000000E+00  0.0000000000E+00  1.1290397010E+01
          spgroup         189
           symrel      1  0  0   0  1  0   0  0  1       0  1  0   1  0  0   0  0  1
                      -1 -1  0   1  0  0   0  0 -1       1  0  0  -1 -1  0   0  0 -1
                       0  1  0  -1 -1  0   0  0  1      -1 -1  0   0  1  0   0  0  1
                       1  0  0   0  1  0   0  0 -1       0  1  0   1  0  0   0  0 -1
                      -1 -1  0   1  0  0   0  0  1       1  0  0  -1 -1  0   0  0  1
                       0  1  0  -1 -1  0   0  0 -1      -1 -1  0   0  1  0   0  0 -1
           tolwfr      1.00000000E-20
            typat      1  1  1  1  1  1  2  2  2  2  2  2
           useylm           1
              wtk        0.50000    0.50000
           xangst     -1.3506255935E+00  2.3393521499E+00  2.9873103869E+00
                       3.0567453173E+00  5.2944381953E+00  2.9873103869E+00
                       2.7012511870E+00 -7.0626748387E-17  2.9873103869E+00
                      -2.8301403419E+00  4.9019468647E+00  6.6331615466E-16
                       1.5772305689E+00  2.7318434805E+00  6.6331615466E-16
                       5.6602806838E+00 -7.0626748387E-17  6.6331615466E-16
                       4.4073709108E+00  2.5445967817E+00  1.9218861374E+00
                       4.4073709108E+00  2.5445967817E+00  4.0527346364E+00
                       1.7638771742E-11  5.0891935635E+00  4.0527346364E+00
                       1.7638771742E-11  5.0891935635E+00  1.9218861374E+00
                       4.0776372193E-17 -7.0626748387E-17  4.9163959424E+00
                       4.0776372193E-17 -7.0626748387E-17  1.0582248315E+00
            xcart     -2.5523124797E+00  4.4207348917E+00  5.6451985053E+00
                       5.7764115076E+00  1.0005038217E+01  5.6451985053E+00
                       5.1046249595E+00 -1.3346521211E-16  5.6451985053E+00
                      -5.3481901638E+00  9.2633370922E+00  1.2534858718E-15
                       2.9805338236E+00  5.1624360161E+00  1.2534858718E-15
                       1.0696380328E+01 -1.3346521211E-16  1.2534858718E-15
                       8.3287239874E+00  4.8085910361E+00  3.6318384584E+00
                       8.3287239874E+00  4.8085910361E+00  7.6585585521E+00
                       3.3332447913E-11  9.6171820722E+00  7.6585585521E+00
                       3.3332447913E-11  9.6171820722E+00  3.6318384584E+00
                       7.7056176137E-17 -1.3346521211E-16  9.2906418920E+00
                       7.7056176137E-17 -1.3346521211E-16  1.9997551185E+00
             xred      0.0000000000E+00  3.0644700000E-01  5.0000000000E-01
                       6.9355300000E-01  6.9355300000E-01  5.0000000000E-01
                       3.0644700000E-01 -9.2518585385E-18  5.0000000000E-01
                       0.0000000000E+00  6.4213800000E-01  1.1102230246E-16
                       3.5786200000E-01  3.5786200000E-01  1.1102230246E-16
                       6.4213800000E-01 -9.2518585385E-18  1.1102230246E-16
                       6.6666666667E-01  3.3333333333E-01  3.2167500000E-01
                       6.6666666667E-01  3.3333333333E-01  6.7832500000E-01
                       3.3333333333E-01  6.6666666667E-01  6.7832500000E-01
                       3.3333333333E-01  6.6666666667E-01  3.2167500000E-01
                       0.0000000000E+00 -9.2518585385E-18  8.2288000000E-01
                       0.0000000000E+00 -9.2518585385E-18  1.7712000000E-01
            znucl       37.00000   16.00000

 chkinp: Checking input parameters for consistency.

== DATASET  1 ==================================================================
-   mpi_nproc: 1, omp_nthreads: -1 (-1 if OMP is not activated)

--- !DatasetInfo
iteration_state: {dtset: 1, }
dimensions: {natom: 12, nkpt: 2, mband: 54, nsppol: 1, nspinor: 1, nspden: 1, mpw: 18189, }
cutoff_energies: {ecut:  27.0, pawecutdg:  -1.0, }
electrons: {nelect:   9.00000000E+01, charge:   0.00000000E+00, occopt:   1.00000000E+00, tsmear:   1.00000000E-02, }
meta: {optdriver: 1, rfelfd: 2, }
...

 Real(R)+Recip(G) space primitive vectors, cartesian coordinates (Bohr,Bohr^-1):
 R(1)= 16.6574480  0.0000000  0.0000000  G(1)=  0.0600332  0.0346602  0.0000000
 R(2)= -8.3287240 14.4257731  0.0000000  G(2)=  0.0000000  0.0693204  0.0000000
 R(3)=  0.0000000  0.0000000 11.2903970  G(3)=  0.0000000  0.0000000  0.0885708
 Unit cell volume ucvol=  2.7130436E+03 bohr^3
 Angles (23,13,12)=  9.00000000E+01  9.00000000E+01  1.20000000E+02 degrees

 getcut: wavevector=  0.0000  0.0000  0.0000  ngfft=  80  80  54
         ecut(hartree)=     27.000   => boxcut(ratio)=   2.04474

--- Pseudopotential description ------------------------------------------------
- pspini: atom type   1  psp file is /scratch/users/j/a/jabreu/pseudos/PBEsol/Rb.psp8
- pspatm: opening atomic psp file    /scratch/users/j/a/jabreu/pseudos/PBEsol/Rb.psp8
- Rb    ONCVPSP-3.3.0  r_core=   1.71227   1.75361   1.90633
- 37.00000   9.00000    180112                znucl, zion, pspdat
    8 -116133    2    4       600   0.00000   pspcod,pspxc,lmax,lloc,mmax,r2well
    5.99000000000000    7.00000000000000    0.00000000000000   rchrg,fchrg,qchrg
     nproj     2     2     2
     extension_switch     1
  pspatm : epsatm=   34.48400912
         --- l  ekb(1:nproj) -->
             0    8.196957   -0.477221
             1    3.231347   -0.378736
             2   -1.047201    0.996637
 pspatm: atomic psp has been read  and splines computed

- pspini: atom type   2  psp file is /scratch/users/j/a/jabreu/pseudos/PBEsol/S.psp8
- pspatm: opening atomic psp file    /scratch/users/j/a/jabreu/pseudos/PBEsol/S.psp8
- S     ONCVPSP-3.3.0  r_core=   1.45376   1.45376   1.61851
- 16.00000   6.00000    180112                znucl, zion, pspdat
    8 -116133    2    4       600   0.00000   pspcod,pspxc,lmax,lloc,mmax,r2well
    5.99000000000000    6.00000000000000    0.00000000000000   rchrg,fchrg,qchrg
     nproj     2     2     2
     extension_switch     1
  pspatm : epsatm=    8.71840985
         --- l  ekb(1:nproj) -->
             0    6.834532    0.579453
             1    3.282851    0.896984
             2   -3.496974   -0.974265
 pspatm: atomic psp has been read  and splines computed

   2.33293062E+04                                ecore*ucvol(ha*bohr**3)

 ==>  initialize data related to q vector <==

 The list of irreducible perturbations for this q vector is:
    1)    idir= 1    ipert=  13
    2)    idir= 2    ipert=  13
    3)    idir= 3    ipert=  13

 Perturbation wavevector (in red.coord.)   0.000000  0.000000  0.000000
 Perturbation : derivative vs k along direction   1

 dfpt_looppert : COMMENT -
  In a d/dk calculation, iscf is set to -3 automatically.
 The set of symmetries contains only one element for this perturbation.
 symkpt : not enough symmetry to change the number of k points.

 Initialisation of the first-order wave-functions :
  ireadwf=   0

--- !BeginCycle
iteration_state: {dtset: 1, }
solver: {iscf: 7, nstep: 2000, nline: 4, wfoptalg: 0, }
tolerances: {tolwfr: 1.00E-20, }
...

     iter   2DEtotal(Ha)        deltaE(Ha) residm    vres2
-ETOT  1  -16.978056182930     -1.698E+01 1.770E-02 0.000E+00
 ETOT  2  -17.004792100026     -2.674E-02 1.220E-03 0.000E+00
 ETOT  3  -17.004947989546     -1.559E-04 4.350E-05 0.000E+00
 ETOT  4  -17.004949289366     -1.300E-06 4.315E-06 0.000E+00
 ETOT  5  -17.004949301509     -1.214E-08 2.014E-07 0.000E+00
 ETOT  6  -17.004949301630     -1.208E-10 2.035E-08 0.000E+00
 ETOT  7  -17.004949301631     -1.240E-12 9.772E-10 0.000E+00
[...]
 4,5,6: 1st-order hamiltonian combined with 1st and 0th-order wfs
     kin1=  -3.44719910E+01  Hartree=   0.00000000E+00     xc=   0.00000000E+00
 7,8,9: eventually, occupation + non-local contributions
    edocc=   2.31704842E+00     enl0=   4.28816648E-01   enl1=   4.62092380E-01
 1-9 gives the relaxation energy (to be shifted if some occ is /=2.0)
   erelax=  -1.70049493E+01
  No Ewald or frozen-wf contrib.: the relaxation energy is the total one
 2DEtotal=   -0.1700494930E+02 Ha. Also 2DEtotal=   -0.462728202967E+03 eV
    (  non-var. 2DEtotal :   -1.7004949301E+01 Ha)

 Perturbation wavevector (in red.coord.)   0.000000  0.000000  0.000000
 Perturbation : derivative vs k along direction   2
 The set of symmetries contains only one element for this perturbation.
 symkpt : not enough symmetry to change the number of k points.

[...]

 Perturbation wavevector (in red.coord.)   0.000000  0.000000  0.000000
 Perturbation : derivative vs k along direction   3
 The set of symmetries contains only one element for this perturbation.
 symkpt : not enough symmetry to change the number of k points.

 Initialisation of the first-order wave-functions :
  ireadwf=   0

--- !BeginCycle
iteration_state: {dtset: 1, }
solver: {iscf: 7, nstep: 2000, nline: 4, wfoptalg: 0, }
tolerances: {tolwfr: 1.00E-20, }
...

     iter   2DEtotal(Ha)        deltaE(Ha) residm    vres2
-ETOT  1  -28.118981333252     -2.812E+01 6.645E-02 0.000E+00
 ETOT  2  -28.149777672725     -3.080E-02 7.922E-04 0.000E+00
 ETOT  3  -28.149917530074     -1.399E-04 5.079E-05 0.000E+00
 ETOT  4  -28.149918442865     -9.128E-07 8.034E-07 0.000E+00
 ETOT  5  -28.149918449349     -6.485E-09 6.276E-08 0.000E+00
 ETOT  6  -28.149918449398     -4.851E-11 1.071E-09 0.000E+00
 ETOT  7  -28.149918449398     -4.299E-13 9.199E-11 0.000E+00
 ETOT  8  -28.149918449398      3.197E-14 1.795E-12 0.000E+00
 ETOT  9  -28.149918449398     -2.487E-14 1.771E-13 0.000E+00
 ETOT 10  -28.149918449398      7.105E-14 4.218E-15 0.000E+00
 ETOT 11  -28.149918449398     -1.066E-14 4.387E-16 0.000E+00
 ETOT 12  -28.149918449398      3.553E-15 1.191E-17 0.000E+00
 ETOT 13  -28.149918449398     -7.105E-15 1.230E-18 0.000E+00
 ETOT 14  -28.149918449398      0.000E+00 3.532E-20 0.000E+00
 ETOT 15  -28.149918449398      1.066E-14 9.777E-21 0.000E+00

 At SCF step   15   max residual=  9.78E-21 < tolwfr=  1.00E-20 =>converged.

 ----iterations are completed or convergence reached----

 dfpt_looppert: DFPT cycle converged with prtwf=-1. Will skip output of the 1st-order WFK file.
 dfpt_looppert : ek2=    5.5746013387E+01
          f-sum rule ratio=    1.0245353195E+00
 prteigrs : about to open file /scratch/users/j/a/jabreu/flow_simple_11atoms/flow/w377/t1/tmpdata/tmp_1WF1_EIG
 Expectation of eigenvalue derivatives (hartree) for nkpt=   2  k points:
  (in case of degenerate eigenvalues, averaged derivative)
 kpt#   1, nband= 54, wtk=  0.50000, kpt=  0.0000  0.0000  0.0000 (reduced coord)
   0.00000    0.00000    0.00000    0.00000    0.00000    0.00000    0.00000    0.00000
  -0.00000   -0.00000   -0.00000   -0.00000    0.00000   -0.00000   -0.00000    0.00000
   0.00000   -0.00000    0.00000    0.00000    0.00000    0.00000   -0.00000   -0.00000
  -0.00000    0.00000   -0.00000   -0.00000   -0.00000    0.00000    0.00000    0.00000
  -0.00000    0.00000    0.00000   -0.00000   -0.00000   -0.00000   -0.00000   -0.00000
  -0.00000    0.00000    0.00000    0.00000    0.00000    0.00000   -0.00000   -0.00000
   0.00000    0.00000   -0.00000    0.00000    0.00000   -0.00000
 prteigrs : prtvol=0 or 1, do not print more k-points.

 Eight components of 2nd-order total energy (hartree) are
 1,2,3: 0th-order hamiltonian combined with 1st-order wavefunctions
     kin0=   4.06471452E+01 eigvalue=   4.90978942E+00  local=  -2.36060181E+01
 4,5,6: 1st-order hamiltonian combined with 1st and 0th-order wfs
     kin1=  -5.71137596E+01  Hartree=   0.00000000E+00     xc=   0.00000000E+00
 7,8,9: eventually, occupation + non-local contributions
    edocc=   6.48962647E+00     enl0=  -2.90624604E-01   enl1=   8.13922738E-01
 1-9 gives the relaxation energy (to be shifted if some occ is /=2.0)
   erelax=  -2.81499184E+01
  No Ewald or frozen-wf contrib.: the relaxation energy is the total one
 2DEtotal=   -0.2814991845E+02 Ha. Also 2DEtotal=   -0.765998236554E+03 eV
    (  non-var. 2DEtotal :   -2.8149918449E+01 Ha)

 CALCULATION OF EFFECTIVE MASSES
 NOTE : Additional infos (eff. mass eigenvalues, eigenvectors and, if degenerate, average mass) are available in stdout.

 COMMENTS:
 - At k-point ( 0.000, 0.000, 0.000), bands    44 through    45
   are DEGENERATE (effective mass tensor is therefore not defined).
   See Section IIIB Eqs. (67)-(70) and Appendix E of PRB 93 205147 (2016).
 - Angular average effective mass for Frohlich model is to be averaged over degenerate bands. See later.
 - Associated theta integrals calculated with ntheta=   1000 points.

 K-point ( 0.000, 0.000, 0.000) | band =    44
 Transport equivalent effective mass tensor:
             -2.7427646210              0.0000000007             -0.0000000185
              0.0000000007             -2.7427646204             -0.0000000016
             -0.0000000185             -0.0000000016             -1.0633803053
 Transport equivalent effective mass tensor eigenvalues:
             -2.7427646214             -2.7427646199             -1.0633803053
 Angular average effective mass 1/(<1/m>)=  -1.7968498414
 Angular average effective mass for Frohlich model (<m**0.5>)**2=  -1.9211827090
 Effective masses along directions: (cart. coord. / red. coord. -> eff. mass)
    1:   1.000000  0.000000  0.000000 /   0.894427 -0.447214  0.000000 ->  -2.7427646210
    2:   0.000000  1.000000  0.000000 /   0.000000  1.000000  0.000000 ->  -2.7427646203
    3:   0.000000  0.000000  1.000000 /   0.000000  0.000000  1.000000 ->  -1.0633803051
    4:   0.577350  0.577350  0.577350 /   0.792209  0.289968  0.536958 ->  -1.7968498558
    5:   0.000000  0.707107  0.707107 /   0.000000  0.787487  0.616331 ->  -1.5325753165
    6:   0.707107  0.000000  0.707107 /   0.764851 -0.382425  0.518415 ->  -1.5325753300
    7:   0.707107  0.707107  0.000000 /   0.939071  0.343724  0.000000 ->  -2.7427646201

 K-point ( 0.000, 0.000, 0.000) | band =    45
 Transport equivalent effective mass tensor:
             -8.9023638816             -0.0000001791              0.0000009103
             -0.0000001791             -8.9023639470             -0.0000006247
              0.0000009103             -0.0000006247             -1.0633803053
 Transport equivalent effective mass tensor eigenvalues:
             -8.9023640963             -8.9023637322             -1.0633803053
 Angular average effective mass 1/(<1/m>)=  -2.5749818409
 Angular average effective mass for Frohlich model (<m**0.5>)**2=  -3.5904694371
 Effective masses along directions: (cart. coord. / red. coord. -> eff. mass)
    1:   1.000000  0.000000  0.000000 /   0.894427 -0.447214  0.000000 ->  -8.9023638816
    2:   0.000000  1.000000  0.000000 /   0.000000  1.000000  0.000000 ->  -8.9023639474
    3:   0.000000  0.000000  1.000000 /   0.000000  0.000000  1.000000 ->  -1.0633803056
    4:   0.577350  0.577350  0.577350 /   0.792209  0.289968  0.536958 ->  -2.5749817178
    5:   0.000000  0.707107  0.707107 /   0.000000  0.787487  0.616331 ->  -1.8998279384
    6:   0.707107  0.000000  0.707107 /   0.764851 -0.382425  0.518415 ->  -1.8998273519
    7:   0.707107  0.707107  0.000000 /   0.939071  0.343724  0.000000 ->  -8.9023640930

 Angular average effective mass for Frohlich model, averaged over degenerate bands.
 Value of     (<<m**0.5>>)**2 =     2.691110E+00
 Absolute Value of <<m**0.5>> =     1.640460E+00

 K-point ( 0.000, 0.000, 0.500) | band =    46
 Effective mass tensor:
              1.2396338387              0.0000000000              0.0000000000
              0.0000000000              1.2396338387             -0.0000000000
              0.0000000000             -0.0000000000              0.2399619342
 Effective mass tensor eigenvalues:
              0.2399619342              1.2396338387              1.2396338387
 Angular average effective mass 1/(<1/m>)=   0.5189676375
 Angular average effective mass for Frohlich model (<m**0.5>)**2=   0.6358949106
 Effective masses along directions: (cart. coord. / red. coord. -> eff. mass)
    1:   1.000000  0.000000  0.000000 /   0.894427 -0.447214  0.000000 ->   1.2396338387
    2:   0.000000  1.000000  0.000000 /   0.000000  1.000000  0.000000 ->   1.2396338387
    3:   0.000000  0.000000  1.000000 /   0.000000  0.000000  1.000000 ->   0.2399619342
    4:   0.577350  0.577350  0.577350 /   0.792209  0.289968  0.536958 ->   0.5189676375
    5:   0.000000  0.707107  0.707107 /   0.000000  0.787487  0.616331 ->   0.4020894612
    6:   0.707107  0.000000  0.707107 /   0.764851 -0.382425  0.518415 ->   0.4020894612
    7:   0.707107  0.707107  0.000000 /   0.939071  0.343724  0.000000 ->   1.2396338387

 END OF EFFECTIVE MASSES SECTION

 ---- first-order wavefunction calculations are completed ----

 Total localisation tensor (bohr^2) in cartesian coordinates
  WARNING : still subject to testing - especially symmetries.
      direction              matrix element
   alpha     beta       real part   imaginary part
     1        1       1.7400712687    0.0000000000
     1        2      -0.6027783702    0.0000000000
     1        3       0.0000000000    0.0000000000
     2        1      -0.6027783702    0.0000000000
     2        2       1.0440427630    0.0000000000
     2        3       0.0000000000    0.0000000000
     3        1       0.0000000000    0.0000000000
     3        2       0.0000000000    0.0000000000
     3        3       1.2602110374    0.0000000000

 respfn : d/dk was computed, but no 2DTE, so no DDB output.

== END DATASET(S) ==============================================================

 -outvars: echo values of variables after computation  --------
            acell      1.0000000000E+00  1.0000000000E+00  1.0000000000E+00 Bohr
              amu      8.54678000E+01  3.20660000E+01
             ecut      2.70000000E+01 Hartree
           etotal     -2.8149918449E+01
            fcart      0.0000000000E+00  0.0000000000E+00  0.0000000000E+00
                       0.0000000000E+00  0.0000000000E+00  0.0000000000E+00
                       0.0000000000E+00  0.0000000000E+00  0.0000000000E+00
                       0.0000000000E+00  0.0000000000E+00  0.0000000000E+00
                       0.0000000000E+00  0.0000000000E+00  0.0000000000E+00
                       0.0000000000E+00  0.0000000000E+00  0.0000000000E+00
                       0.0000000000E+00  0.0000000000E+00  0.0000000000E+00
                       0.0000000000E+00  0.0000000000E+00  0.0000000000E+00
                       0.0000000000E+00  0.0000000000E+00  0.0000000000E+00
                       0.0000000000E+00  0.0000000000E+00  0.0000000000E+00
                       0.0000000000E+00  0.0000000000E+00  0.0000000000E+00
                       0.0000000000E+00  0.0000000000E+00  0.0000000000E+00
-          fftalg         512
           irdden           1
           irdwfk           1
           istwfk        1    1
              ixc     -116133
              kpt      0.00000000E+00  0.00000000E+00  0.00000000E+00
                       0.00000000E+00  0.00000000E+00  5.00000000E-01
           kptopt           0
P           mkmem           2
P          mkqmem           2
P          mk1mem           2
            natom          12
            nband          54
           nbdbuf           4
            ngfft          80      80      54
             nkpt           2
            nstep        2000
             nsym          12
           ntypat           2
              occ      2.000000  2.000000  2.000000  2.000000  2.000000  2.000000
                       2.000000  2.000000  2.000000  2.000000  2.000000  2.000000
                       2.000000  2.000000  2.000000  2.000000  2.000000  2.000000
                       2.000000  2.000000  2.000000  2.000000  2.000000  2.000000
                       2.000000  2.000000  2.000000  2.000000  2.000000  2.000000
                       2.000000  2.000000  2.000000  2.000000  2.000000  2.000000
                       2.000000  2.000000  2.000000  2.000000  2.000000  2.000000
                       2.000000  2.000000  2.000000  0.000000  0.000000  0.000000
                       0.000000  0.000000  0.000000  0.000000  0.000000  0.000000
        optdriver           1
            prtwf          -1
            rfdir           1       1       1
           rfelfd           2
            rprim      1.6657447975E+01  0.0000000000E+00  0.0000000000E+00
                      -8.3287239873E+00  1.4425773108E+01  0.0000000000E+00
                       0.0000000000E+00  0.0000000000E+00  1.1290397010E+01
          spgroup         189
           strten      0.0000000000E+00  0.0000000000E+00  0.0000000000E+00
                       0.0000000000E+00  0.0000000000E+00  0.0000000000E+00
           symrel      1  0  0   0  1  0   0  0  1       0  1  0   1  0  0   0  0  1
                      -1 -1  0   1  0  0   0  0 -1       1  0  0  -1 -1  0   0  0 -1
                       0  1  0  -1 -1  0   0  0  1      -1 -1  0   0  1  0   0  0  1
                       1  0  0   0  1  0   0  0 -1       0  1  0   1  0  0   0  0 -1
                      -1 -1  0   1  0  0   0  0  1       1  0  0  -1 -1  0   0  0  1
                       0  1  0  -1 -1  0   0  0 -1      -1 -1  0   0  1  0   0  0 -1
           tolwfr      1.00000000E-20
            typat      1  1  1  1  1  1  2  2  2  2  2  2
           useylm           1
              wtk        0.50000    0.50000
           xangst     -1.3506255935E+00  2.3393521499E+00  2.9873103869E+00
                       3.0567453173E+00  5.2944381953E+00  2.9873103869E+00
                       2.7012511870E+00 -7.0626748387E-17  2.9873103869E+00
                      -2.8301403419E+00  4.9019468647E+00  6.6331615466E-16
                       1.5772305689E+00  2.7318434805E+00  6.6331615466E-16
                       5.6602806838E+00 -7.0626748387E-17  6.6331615466E-16
                       4.4073709108E+00  2.5445967817E+00  1.9218861374E+00
                       4.4073709108E+00  2.5445967817E+00  4.0527346364E+00
                       1.7638771742E-11  5.0891935635E+00  4.0527346364E+00
                       1.7638771742E-11  5.0891935635E+00  1.9218861374E+00
                       4.0776372193E-17 -7.0626748387E-17  4.9163959424E+00
                       4.0776372193E-17 -7.0626748387E-17  1.0582248315E+00
            xcart     -2.5523124797E+00  4.4207348917E+00  5.6451985053E+00
                       5.7764115076E+00  1.0005038217E+01  5.6451985053E+00
                       5.1046249595E+00 -1.3346521211E-16  5.6451985053E+00
                      -5.3481901638E+00  9.2633370922E+00  1.2534858718E-15
                       2.9805338236E+00  5.1624360161E+00  1.2534858718E-15
                       1.0696380328E+01 -1.3346521211E-16  1.2534858718E-15
                       8.3287239874E+00  4.8085910361E+00  3.6318384584E+00
                       8.3287239874E+00  4.8085910361E+00  7.6585585521E+00
                       3.3332447913E-11  9.6171820722E+00  7.6585585521E+00
                       3.3332447913E-11  9.6171820722E+00  3.6318384584E+00
                       7.7056176137E-17 -1.3346521211E-16  9.2906418920E+00
                       7.7056176137E-17 -1.3346521211E-16  1.9997551185E+00
             xred      0.0000000000E+00  3.0644700000E-01  5.0000000000E-01
                       6.9355300000E-01  6.9355300000E-01  5.0000000000E-01
                       3.0644700000E-01 -9.2518585385E-18  5.0000000000E-01
                       0.0000000000E+00  6.4213800000E-01  1.1102230246E-16
                       3.5786200000E-01  3.5786200000E-01  1.1102230246E-16
                       6.4213800000E-01 -9.2518585385E-18  1.1102230246E-16
                       6.6666666667E-01  3.3333333333E-01  3.2167500000E-01
                       6.6666666667E-01  3.3333333333E-01  6.7832500000E-01
                       3.3333333333E-01  6.6666666667E-01  6.7832500000E-01
                       3.3333333333E-01  6.6666666667E-01  3.2167500000E-01
                       0.0000000000E+00 -9.2518585385E-18  8.2288000000E-01
                       0.0000000000E+00 -9.2518585385E-18  1.7712000000E-01
            znucl       37.00000   16.00000

- Timing analysis has been suppressed with timopt=0

 Suggested references for the acknowledgment of ABINIT usage.

 Calculation completed.
.Delivered   2 WARNINGs and   5 COMMENTs to log file.