.Version 9.5.2 of ABINIT

 ABINIT is a project of the Universite Catholique de Louvain,
 Corning Inc. and other collaborators, see ~abinit/doc/developers/contributors.txt .
 acknowledgments of the ABINIT effort.

.Starting date : Mon 31 May 2021.
- ( at 22h21 )

- input  file    -> /scratch/users/j/a/jabreu/flow_simple_11atoms/flow/w358/t1/run.abi
- output file    -> /scratch/users/j/a/jabreu/flow_simple_11atoms/flow/w358/t1/run.abo
- root for input  files -> /scratch/users/j/a/jabreu/flow_simple_11atoms/flow/w358/t1/indata/in
- root for output files -> /scratch/users/j/a/jabreu/flow_simple_11atoms/flow/w358/t1/outdata/out

 Symmetries : space group P2/c (# 13); Bravais mP (primitive monocl.)
     intxc =       0      iscf =       7    lmnmax =      18     lnmax =       6
     mgfft =      72  mpssoang =       3    mqgrid =    3271     natom =      12
  nloc_mem =       1    nspden =       1   nspinor =       1    nsppol =       1
      nsym =       4    n1xccc =    2501    ntypat =       3    occopt =       1
   xclevel =       2
-    mband =          59        mffmem =           1         mkmem =           2
-   mkqmem =           2        mk1mem =           2           mpw =       13608
      nfft =      259200          nkpt =           2
  Rough estimation (10% accuracy) of disk space for files :

------------- Echo of variables that govern the present computation ------------
-
- outvars: echo of selected default values
-   iomode0 =  0 , fftalg0 =512 , wfoptalg0 =  0
-
- outvars: echo of global parameters not present in the input file
-  max_nthreads =    0
-
 -outvars: echo values of preprocessed input variables --------
            acell      1.0000000000E+00  1.0000000000E+00  1.0000000000E+00 Bohr
              amu      9.29063800E+01  1.14820000E+02  1.59994000E+01
             ecut      4.40000000E+01 Hartree
-          fftalg         512
           irdden           1
           irdwfk           1
           istwfk        1    0
              ixc     -116133
              kpt      0.00000000E+00  5.00000000E-01  0.00000000E+00
                       0.00000000E+00  1.72140104E-01  5.03222138E-01
           kptopt           0
P           mkmem           2
P          mkqmem           2
P          mk1mem           2
            natom          12
            nband          59
           nbdbuf           4
            ngfft          72      60      60
             nkpt           2
            nstep        2000
             nsym           4
           ntypat           3
              occ      2.000000  2.000000  2.000000  2.000000  2.000000  2.000000
                       2.000000  2.000000  2.000000  2.000000  2.000000  2.000000
                       2.000000  2.000000  2.000000  2.000000  2.000000  2.000000
                       2.000000  2.000000  2.000000  2.000000  2.000000  2.000000
                       2.000000  2.000000  2.000000  2.000000  2.000000  2.000000
                       2.000000  2.000000  2.000000  2.000000  2.000000  2.000000
                       2.000000  2.000000  2.000000  2.000000  2.000000  2.000000
                       2.000000  2.000000  2.000000  2.000000  2.000000  2.000000
                       2.000000  2.000000  0.000000  0.000000  0.000000  0.000000
                       0.000000  0.000000  0.000000  0.000000  0.000000
        optdriver           1
            prtwf          -1
            rfdir           1       1       1
           rfelfd           2
            rprim      1.0954177241E+01  0.0000000000E+00  0.0000000000E+00
                       0.0000000000E+00  9.1661556833E+00  1.6183687270E-01
                       0.0000000000E+00  0.0000000000E+00  9.7206309418E+00
          spgroup          13
           symrel      1  0  0   0  1  0   0  0  1      -1  0  0   0 -1  0   0  0 -1
                       1  0  0   0 -1  0   0  0 -1      -1  0  0   0  1  0   0  0  1
            tnons      0.0000000  0.0000000  0.0000000     0.0000000  0.0000000  0.0000000
                       0.0000000  0.0000000  0.5000000     0.0000000  0.0000000  0.5000000
           tolwfr      1.00000000E-20
            typat      1  1  2  2  3  3  3  3  3  3  3  3
           useylm           1
              wtk        0.50000    0.50000
           xangst      4.7726151707E+00  0.0000000000E+00  3.8579522606E+00
                       1.0240857640E+00  0.0000000000E+00  1.2859840869E+00
                       1.8491823784E+00  2.4252603390E+00  3.9007724529E+00
                       3.9475185563E+00  2.4252603390E+00  1.3288042791E+00
                       2.2068214359E+00  1.2583172238E+00  5.3347257650E-01
                       2.2068214359E+00  3.5922034542E+00  2.1241359818E+00
                       3.5898794987E+00  3.5922034542E+00  4.6961041556E+00
                       3.5898794987E+00  1.2583172238E+00  3.1054407503E+00
                       5.2073967243E+00  1.0384625235E+00  3.3831356735E-01
                       5.2073967243E+00  3.8120581545E+00  2.3192949910E+00
                       5.8930421042E-01  3.8120581545E+00  4.8912631647E+00
                       5.8930421042E-01  1.0384625235E+00  2.9102817411E+00
            xcart      9.0189356102E+00  0.0000000000E+00  7.2904732063E+00
                       1.9352416306E+00  0.0000000000E+00  2.4301577354E+00
                       3.4944482649E+00  4.5830778416E+00  7.3713916427E+00
                       7.4597289759E+00  4.5830778416E+00  2.5110761718E+00
                       4.1702881381E+00  2.3778749412E+00  1.0081170690E+00
                       4.1702881381E+00  6.7882807421E+00  4.0140352746E+00
                       6.7838891027E+00  6.7882807421E+00  8.8743507455E+00
                       6.7838891027E+00  2.3778749412E+00  5.8684325399E+00
                       9.8405536741E+00  1.9624097687E+00  6.3931998932E-01
                       9.8405536741E+00  7.2037459146E+00  4.3828323543E+00
                       1.1136235667E+00  7.2037459146E+00  9.2431478252E+00
                       1.1136235667E+00  1.9624097687E+00  5.4996354602E+00
             xred      8.2333300000E-01  0.0000000000E+00  7.5000000000E-01
                       1.7666700000E-01  0.0000000000E+00  2.5000000000E-01
                       3.1900600000E-01  5.0000000000E-01  7.5000000000E-01
                       6.8099400000E-01  5.0000000000E-01  2.5000000000E-01
                       3.8070300000E-01  2.5941900000E-01  9.9390000000E-02
                       3.8070300000E-01  7.4058100000E-01  4.0061000000E-01
                       6.1929700000E-01  7.4058100000E-01  9.0061000000E-01
                       6.1929700000E-01  2.5941900000E-01  5.9939000000E-01
                       8.9833800000E-01  2.1409300000E-01  6.2205000000E-02
                       8.9833800000E-01  7.8590700000E-01  4.3779500000E-01
                       1.0166200000E-01  7.8590700000E-01  9.3779500000E-01
                       1.0166200000E-01  2.1409300000E-01  5.6220500000E-01
            znucl       41.00000   49.00000    8.00000

 chkinp: Checking input parameters for consistency.

== DATASET  1 ==================================================================
-   mpi_nproc: 1, omp_nthreads: -1 (-1 if OMP is not activated)

--- !DatasetInfo
iteration_state: {dtset: 1, }
dimensions: {natom: 12, nkpt: 2, mband: 59, nsppol: 1, nspinor: 1, nspden: 1, mpw: 13608, }
cutoff_energies: {ecut:  44.0, pawecutdg:  -1.0, }
electrons: {nelect:   1.00000000E+02, charge:   0.00000000E+00, occopt:   1.00000000E+00, tsmear:   1.00000000E-02, }
meta: {optdriver: 1, rfelfd: 2, }
...

 Real(R)+Recip(G) space primitive vectors, cartesian coordinates (Bohr,Bohr^-1):
 R(1)= 10.9541772  0.0000000  0.0000000  G(1)=  0.0912894  0.0000000  0.0000000
 R(2)=  0.0000000  9.1661557  0.1618369  G(2)=  0.0000000  0.1090970  0.0000000
 R(3)=  0.0000000  0.0000000  9.7206309  G(3)=  0.0000000 -0.0018163  0.1028740
 Unit cell volume ucvol=  9.7602614E+02 bohr^3
 Angles (23,13,12)=  8.89884956E+01  9.00000000E+01  9.00000000E+01 degrees

 getcut: wavevector=  0.0000  0.0000  0.0000  ngfft=  72  60  60
         ecut(hartree)=     44.000   => boxcut(ratio)=   2.06744

--- Pseudopotential description ------------------------------------------------
- pspini: atom type   1  psp file is /scratch/users/j/a/jabreu/pseudos/PBEsol/Nb.psp8
- pspatm: opening atomic psp file    /scratch/users/j/a/jabreu/pseudos/PBEsol/Nb.psp8
- Nb    ONCVPSP-3.3.0  r_core=   1.50879   1.40458   1.40458
- 41.00000  13.00000    180112                znucl, zion, pspdat
    8 -116133    2    4       600   0.00000   pspcod,pspxc,lmax,lloc,mmax,r2well
    5.99000000000000    5.00000000000000    0.00000000000000   rchrg,fchrg,qchrg
     nproj     2     2     2
     extension_switch     1
  pspatm : epsatm=   15.66753381
         --- l  ekb(1:nproj) -->
             0   12.953547    1.345168
             1    7.772306    0.779703
             2    3.518917    1.091480
 pspatm: atomic psp has been read  and splines computed

- pspini: atom type   2  psp file is /scratch/users/j/a/jabreu/pseudos/PBEsol/In.psp8
- pspatm: opening atomic psp file    /scratch/users/j/a/jabreu/pseudos/PBEsol/In.psp8
- In    ONCVPSP-3.3.0  r_core=   2.10853   2.37566   1.87143
- 49.00000  13.00000    180112                znucl, zion, pspdat
    8 -116133    2    4       600   0.00000   pspcod,pspxc,lmax,lloc,mmax,r2well
    5.99000000000000    5.00000000000000    0.00000000000000   rchrg,fchrg,qchrg
     nproj     2     2     2
     extension_switch     1
  pspatm : epsatm=   25.17984752
         --- l  ekb(1:nproj) -->
             0   12.999887    1.931740
             1    5.981707    1.012544
             2   -4.048011   -1.239028
 pspatm: atomic psp has been read  and splines computed

- pspini: atom type   3  psp file is /scratch/users/j/a/jabreu/pseudos/PBEsol/O.psp8
- pspatm: opening atomic psp file    /scratch/users/j/a/jabreu/pseudos/PBEsol/O.psp8
- O     ONCVPSP-3.3.0  r_core=   1.35509   1.45563   1.26150
-  8.00000   6.00000    180112                znucl, zion, pspdat
    8 -116133    2    4       600   0.00000   pspcod,pspxc,lmax,lloc,mmax,r2well
    5.99000000000000    4.00000000000000    0.00000000000000   rchrg,fchrg,qchrg
     nproj     2     2     1
     extension_switch     1
  pspatm : epsatm=    6.22910522
         --- l  ekb(1:nproj) -->
             0    6.050032    0.820363
             1   -4.739617   -1.153841
             2   -1.335834
 pspatm: atomic psp has been read  and splines computed

   1.31527604E+04                                ecore*ucvol(ha*bohr**3)

 ==>  initialize data related to q vector <==

 The list of irreducible perturbations for this q vector is:
    1)    idir= 1    ipert=  13
    2)    idir= 2    ipert=  13
    3)    idir= 3    ipert=  13

 Perturbation wavevector (in red.coord.)   0.000000  0.000000  0.000000
 Perturbation : derivative vs k along direction   1

 dfpt_looppert : COMMENT -
  In a d/dk calculation, iscf is set to -3 automatically.
 The set of symmetries contains only one element for this perturbation.
 symkpt : not enough symmetry to change the number of k points.

 Initialisation of the first-order wave-functions :
  ireadwf=   0

[...]
 kpt#   1, nband= 59, wtk=  0.50000, kpt=  0.0000  0.5000  0.0000 (reduced coord)
  -0.00000   -0.00000    0.00000   -0.00000    0.00000    0.00000    0.00000    0.00000
  -0.00000   -0.00000   -0.00000    0.00000   -0.00000   -0.00000   -0.00000    0.00000
   0.00000   -0.00000    0.00000    0.00000    0.00000    0.00000    0.00000   -0.00000
  -0.00000   -0.00000    0.00000   -0.00000    0.00000    0.00000    0.00000    0.00000
   0.00000    0.00000   -0.00000   -0.00000    0.00000    0.00000    0.00000   -0.00000
   0.00000    0.00000    0.00000    0.00000    0.00000    0.00000   -0.00000    0.00000
  -0.00000   -0.00000    0.00000   -0.00000    0.00000   -0.00000    0.00000   -0.00000
   0.00000    0.00000    0.00001
 prteigrs : prtvol=0 or 1, do not print more k-points.

 Eight components of 2nd-order total energy (hartree) are
 1,2,3: 0th-order hamiltonian combined with 1st-order wavefunctions
     kin0=   7.04288492E+01 eigvalue=  -6.03001890E-01  local=  -3.61051264E+01
 4,5,6: 1st-order hamiltonian combined with 1st and 0th-order wfs
     kin1=  -6.81879669E+01  Hartree=   0.00000000E+00     xc=   0.00000000E+00
 7,8,9: eventually, occupation + non-local contributions
    edocc=   6.25902558E+00     enl0=   5.01710429E+00   enl1=  -2.18057348E+01
 1-9 gives the relaxation energy (to be shifted if some occ is /=2.0)
   erelax=  -4.49968509E+01
  No Ewald or frozen-wf contrib.: the relaxation energy is the total one
 2DEtotal=   -0.4499685085E+02 Ha. Also 2DEtotal=   -0.122442658108E+04 eV
    (  non-var. 2DEtotal :   -4.4996850854E+01 Ha)

 Perturbation wavevector (in red.coord.)   0.000000  0.000000  0.000000
 Perturbation : derivative vs k along direction   2
 The set of symmetries contains only one element for this perturbation.
 symkpt : not enough symmetry to change the number of k points.

[...]

 Perturbation wavevector (in red.coord.)   0.000000  0.000000  0.000000
 Perturbation : derivative vs k along direction   3
 The set of symmetries contains only one element for this perturbation.
 symkpt : not enough symmetry to change the number of k points.

 Initialisation of the first-order wave-functions :
  ireadwf=   0

--- !BeginCycle
iteration_state: {dtset: 1, }
solver: {iscf: 7, nstep: 2000, nline: 4, wfoptalg: 0, }
tolerances: {tolwfr: 1.00E-20, }
...

     iter   2DEtotal(Ha)        deltaE(Ha) residm    vres2
-ETOT  1  -55.554237790553     -5.555E+01 9.828E-02 0.000E+00
 ETOT  2  -55.819939913110     -2.657E-01 1.825E-02 0.000E+00
 ETOT  3  -55.829831572096     -9.892E-03 1.702E-03 0.000E+00
 ETOT  4  -55.830400042567     -5.685E-04 4.597E-04 0.000E+00
 ETOT  5  -55.830439290570     -3.925E-05 6.968E-05 0.000E+00
 ETOT  6  -55.830442197151     -2.907E-06 2.112E-05 0.000E+00
 ETOT  7  -55.830442423523     -2.264E-07 3.298E-06 0.000E+00
 ETOT  8  -55.830442441746     -1.822E-08 1.023E-06 0.000E+00
 ETOT  9  -55.830442443252     -1.506E-09 1.603E-07 0.000E+00
 ETOT 10  -55.830442443379     -1.269E-10 5.015E-08 0.000E+00
 ETOT 11  -55.830442443390     -1.091E-11 7.876E-09 0.000E+00
 ETOT 12  -55.830442443391     -9.095E-13 2.473E-09 0.000E+00
 ETOT 13  -55.830442443391     -7.816E-14 3.888E-10 0.000E+00
 ETOT 14  -55.830442443391     -2.132E-14 1.224E-10 0.000E+00
 ETOT 15  -55.830442443391      2.132E-14 1.926E-11 0.000E+00
 ETOT 16  -55.830442443391      7.105E-15 6.075E-12 0.000E+00
 ETOT 17  -55.830442443391      7.105E-15 9.574E-13 0.000E+00
 ETOT 18  -55.830442443391     -2.132E-14 3.025E-13 0.000E+00
 ETOT 19  -55.830442443391      0.000E+00 4.770E-14 0.000E+00
 ETOT 20  -55.830442443391      1.421E-14 1.511E-14 0.000E+00
 ETOT 21  -55.830442443391     -7.105E-15 3.180E-15 0.000E+00
 ETOT 22  -55.830442443391      7.105E-15 7.565E-16 0.000E+00
 ETOT 23  -55.830442443391      0.000E+00 2.229E-16 0.000E+00
 ETOT 24  -55.830442443391     -1.421E-14 4.606E-17 0.000E+00
 ETOT 25  -55.830442443391      1.421E-14 1.572E-17 0.000E+00
 ETOT 26  -55.830442443391      0.000E+00 3.268E-18 0.000E+00
 ETOT 27  -55.830442443391     -1.421E-14 1.113E-18 0.000E+00
 ETOT 28  -55.830442443391      1.421E-14 2.325E-19 0.000E+00
 ETOT 29  -55.830442443391     -1.421E-14 7.908E-20 0.000E+00
 ETOT 30  -55.830442443391      1.421E-14 1.658E-20 0.000E+00
 ETOT 31  -55.830442443391     -2.132E-14 9.990E-21 0.000E+00

 At SCF step   31   max residual=  9.99E-21 < tolwfr=  1.00E-20 =>converged.

 ----iterations are completed or convergence reached----

 dfpt_looppert: DFPT cycle converged with prtwf=-1. Will skip output of the 1st-order WFK file.
 dfpt_looppert : ek2=    8.3586508543E+01
          f-sum rule ratio=    1.0011998744E+00
 prteigrs : about to open file /scratch/users/j/a/jabreu/flow_simple_11atoms/flow/w358/t1/tmpdata/tmp_1WF1_EIG
 Expectation of eigenvalue derivatives (hartree) for nkpt=   2  k points:
  (in case of degenerate eigenvalues, averaged derivative)
 kpt#   1, nband= 59, wtk=  0.50000, kpt=  0.0000  0.5000  0.0000 (reduced coord)
  -0.00000    0.00000   -0.00000    0.00000    0.00000   -0.00000   -0.00000   -0.00000
  -0.00000   -0.00000   -0.00000   -0.00000    0.00000   -0.00000   -0.00000   -0.00000
   0.00000   -0.00000    0.00000   -0.00000   -0.00000    0.00000    0.00000    0.00000
   0.00000   -0.00000    0.00000    0.00000    0.00000   -0.00000    0.00000    0.00000
  -0.00000   -0.00000    0.00000    0.00000    0.00000    0.00000    0.00000   -0.00000
   0.00000   -0.00000    0.00000   -0.00000    0.00000    0.00000    0.00000   -0.00000
   0.00000   -0.00000    0.00000   -0.00000   -0.00000    0.00000   -0.00000    0.00000
   0.00000   -0.00000    0.00002
 prteigrs : prtvol=0 or 1, do not print more k-points.

 Eight components of 2nd-order total energy (hartree) are
 1,2,3: 0th-order hamiltonian combined with 1st-order wavefunctions
     kin0=   8.45213448E+01 eigvalue=  -1.51369697E-01  local=  -4.28004198E+01
 4,5,6: 1st-order hamiltonian combined with 1st and 0th-order wfs
     kin1=  -8.36868019E+01  Hartree=   0.00000000E+00     xc=   0.00000000E+00
 7,8,9: eventually, occupation + non-local contributions
    edocc=   8.04695909E+00     enl0=   6.21392798E+00   enl1=  -2.79740830E+01
 1-9 gives the relaxation energy (to be shifted if some occ is /=2.0)
   erelax=  -5.58304424E+01
  No Ewald or frozen-wf contrib.: the relaxation energy is the total one
 2DEtotal=   -0.5583044244E+02 Ha. Also 2DEtotal=   -0.151922360040E+04 eV
    (  non-var. 2DEtotal :   -5.5830442443E+01 Ha)

 CALCULATION OF EFFECTIVE MASSES
 NOTE : Additional infos (eff. mass eigenvalues, eigenvectors and, if degenerate, average mass) are available in stdout.

--- !WARNING
src_file: m_efmas.F90
src_line: 0
message: |

    Band(s)    50,
    are not band extrema, but saddle points;
    the transport equivalent formalism breaks down in these conditions.
    The associated tensor(s) will therefore not be printed.
...

 K-point ( 0.000, 0.500, 0.000) | band =    50
 Effective mass tensor:
     *** SADDLE POINT: TRANSPORT EQV. EFF. MASS NOT DEFINED (see WARNING above) ***
 Angular average effective mass 1/(<1/m>)=  -5.1327869985
 Angular average effective mass for Frohlich model (<m**0.5>)**2= -10.6542482427
 Effective masses along directions: (cart. coord. / red. coord. -> eff. mass)
    1:   1.000000  0.000000  0.000000 /   1.000000  0.000000  0.000000 ->  -5.4850956241
    2:   0.000000  1.000000  0.000000 /   0.000000  1.000000  0.000000 -> -13.9493082188
    3:   0.000000  0.000000  1.000000 /   0.000000  0.016646  0.999861 ->  -3.0259253450
    4:   0.577350  0.577350  0.577350 /   0.630869  0.537214  0.559827 -> **************
    5:   0.000000  0.707107  0.707107 /   0.000000  0.692385  0.721529 ->  11.8343344137
    6:   0.707107  0.000000  0.707107 /   0.747920  0.011050  0.663697 ->  -3.8994249791
    7:   0.707107  0.707107  0.000000 /   0.766922  0.641740  0.000000 ->  -7.8720516327

 K-point ( 0.000, 0.172, 0.503) | band =    51
 Effective mass tensor:
              1.2583008171              0.0000071720              0.0000035154
              0.0000071720              1.2481178700             -0.3751553845
              0.0000035154             -0.3751553845              1.0713178630
 Effective mass tensor eigenvalues:
              0.7742880762              1.2583008172              1.5451476567
 Angular average effective mass 1/(<1/m>)=   1.0975266429
 Angular average effective mass for Frohlich model (<m**0.5>)**2=   1.1269588066
 Effective masses along directions: (cart. coord. / red. coord. -> eff. mass)
    1:   1.000000  0.000000  0.000000 /   1.000000  0.000000  0.000000 ->   1.2583008171
    2:   0.000000  1.000000  0.000000 /   0.000000  1.000000  0.000000 ->   1.1167455038
    3:   0.000000  0.000000  1.000000 /   0.000000  0.016646  0.999861 ->   0.9585548252
    4:   0.577350  0.577350  0.577350 /   0.630869  0.537214  0.559827 ->   0.8927127620
    5:   0.000000  0.707107  0.707107 /   0.000000  0.692385  0.721529 ->   0.7794711425
    6:   0.707107  0.000000  0.707107 /   0.747920  0.011050  0.663697 ->   1.0881687268
    7:   0.707107  0.707107  0.000000 /   0.766922  0.641740  0.000000 ->   1.1833131093

 END OF EFFECTIVE MASSES SECTION

 ---- first-order wavefunction calculations are completed ----

 Total localisation tensor (bohr^2) in cartesian coordinates
  WARNING : still subject to testing - especially symmetries.
      direction              matrix element
   alpha     beta       real part   imaginary part
     1        1       0.7788440452    0.0000000000
     1        2       0.0000000000    0.0000000000
     1        3       0.0000000000    0.0000000000
     2        1       0.0000000000    0.0000000000
     2        2       0.7445393945    0.0000000000
     2        3       0.0131455248    0.0000000000
     3        1       0.0000000000    0.0000000000
     3        2       0.0131455248    0.0000000000
     3        3       0.7417334256    0.0000000000

 respfn : d/dk was computed, but no 2DTE, so no DDB output.

== END DATASET(S) ==============================================================

 -outvars: echo values of variables after computation  --------
            acell      1.0000000000E+00  1.0000000000E+00  1.0000000000E+00 Bohr
              amu      9.29063800E+01  1.14820000E+02  1.59994000E+01
             ecut      4.40000000E+01 Hartree
           etotal     -5.5830442443E+01
            fcart      0.0000000000E+00  0.0000000000E+00  0.0000000000E+00
                       0.0000000000E+00  0.0000000000E+00  0.0000000000E+00
                       0.0000000000E+00  0.0000000000E+00  0.0000000000E+00
                       0.0000000000E+00  0.0000000000E+00  0.0000000000E+00
                       0.0000000000E+00  0.0000000000E+00  0.0000000000E+00
                       0.0000000000E+00  0.0000000000E+00  0.0000000000E+00
                       0.0000000000E+00  0.0000000000E+00  0.0000000000E+00
                       0.0000000000E+00  0.0000000000E+00  0.0000000000E+00
                       0.0000000000E+00  0.0000000000E+00  0.0000000000E+00
                       0.0000000000E+00  0.0000000000E+00  0.0000000000E+00
                       0.0000000000E+00  0.0000000000E+00  0.0000000000E+00
                       0.0000000000E+00  0.0000000000E+00  0.0000000000E+00
-          fftalg         512
           irdden           1
           irdwfk           1
           istwfk        1    0
              ixc     -116133
              kpt      0.00000000E+00  5.00000000E-01  0.00000000E+00
                       0.00000000E+00  1.72140104E-01  5.03222138E-01
           kptopt           0
P           mkmem           2
P          mkqmem           2
P          mk1mem           2
            natom          12
            nband          59
           nbdbuf           4
            ngfft          72      60      60
             nkpt           2
            nstep        2000
             nsym           4
           ntypat           3
              occ      2.000000  2.000000  2.000000  2.000000  2.000000  2.000000
                       2.000000  2.000000  2.000000  2.000000  2.000000  2.000000
                       2.000000  2.000000  2.000000  2.000000  2.000000  2.000000
                       2.000000  2.000000  2.000000  2.000000  2.000000  2.000000
                       2.000000  2.000000  2.000000  2.000000  2.000000  2.000000
                       2.000000  2.000000  2.000000  2.000000  2.000000  2.000000
                       2.000000  2.000000  2.000000  2.000000  2.000000  2.000000
                       2.000000  2.000000  2.000000  2.000000  2.000000  2.000000
                       2.000000  2.000000  0.000000  0.000000  0.000000  0.000000
                       0.000000  0.000000  0.000000  0.000000  0.000000
        optdriver           1
            prtwf          -1
            rfdir           1       1       1
           rfelfd           2
            rprim      1.0954177241E+01  0.0000000000E+00  0.0000000000E+00
                       0.0000000000E+00  9.1661556833E+00  1.6183687270E-01
                       0.0000000000E+00  0.0000000000E+00  9.7206309418E+00
          spgroup          13
           strten      0.0000000000E+00  0.0000000000E+00  0.0000000000E+00
                       0.0000000000E+00  0.0000000000E+00  0.0000000000E+00
           symrel      1  0  0   0  1  0   0  0  1      -1  0  0   0 -1  0   0  0 -1
                       1  0  0   0 -1  0   0  0 -1      -1  0  0   0  1  0   0  0  1
            tnons      0.0000000  0.0000000  0.0000000     0.0000000  0.0000000  0.0000000
                       0.0000000  0.0000000  0.5000000     0.0000000  0.0000000  0.5000000
           tolwfr      1.00000000E-20
            typat      1  1  2  2  3  3  3  3  3  3  3  3
           useylm           1
              wtk        0.50000    0.50000
           xangst      4.7726151707E+00  0.0000000000E+00  3.8579522606E+00
                       1.0240857640E+00  0.0000000000E+00  1.2859840869E+00
                       1.8491823784E+00  2.4252603390E+00  3.9007724529E+00
                       3.9475185563E+00  2.4252603390E+00  1.3288042791E+00
                       2.2068214359E+00  1.2583172238E+00  5.3347257650E-01
                       2.2068214359E+00  3.5922034542E+00  2.1241359818E+00
                       3.5898794987E+00  3.5922034542E+00  4.6961041556E+00
                       3.5898794987E+00  1.2583172238E+00  3.1054407503E+00
                       5.2073967243E+00  1.0384625235E+00  3.3831356735E-01
                       5.2073967243E+00  3.8120581545E+00  2.3192949910E+00
                       5.8930421042E-01  3.8120581545E+00  4.8912631647E+00
                       5.8930421042E-01  1.0384625235E+00  2.9102817411E+00
            xcart      9.0189356102E+00  0.0000000000E+00  7.2904732063E+00
                       1.9352416306E+00  0.0000000000E+00  2.4301577354E+00
                       3.4944482649E+00  4.5830778416E+00  7.3713916427E+00
                       7.4597289759E+00  4.5830778416E+00  2.5110761718E+00
                       4.1702881381E+00  2.3778749412E+00  1.0081170690E+00
                       4.1702881381E+00  6.7882807421E+00  4.0140352746E+00
                       6.7838891027E+00  6.7882807421E+00  8.8743507455E+00
                       6.7838891027E+00  2.3778749412E+00  5.8684325399E+00
                       9.8405536741E+00  1.9624097687E+00  6.3931998932E-01
                       9.8405536741E+00  7.2037459146E+00  4.3828323543E+00
                       1.1136235667E+00  7.2037459146E+00  9.2431478252E+00
                       1.1136235667E+00  1.9624097687E+00  5.4996354602E+00
             xred      8.2333300000E-01  0.0000000000E+00  7.5000000000E-01
                       1.7666700000E-01  0.0000000000E+00  2.5000000000E-01
                       3.1900600000E-01  5.0000000000E-01  7.5000000000E-01
                       6.8099400000E-01  5.0000000000E-01  2.5000000000E-01
                       3.8070300000E-01  2.5941900000E-01  9.9390000000E-02
                       3.8070300000E-01  7.4058100000E-01  4.0061000000E-01
                       6.1929700000E-01  7.4058100000E-01  9.0061000000E-01
                       6.1929700000E-01  2.5941900000E-01  5.9939000000E-01
                       8.9833800000E-01  2.1409300000E-01  6.2205000000E-02
                       8.9833800000E-01  7.8590700000E-01  4.3779500000E-01
                       1.0166200000E-01  7.8590700000E-01  9.3779500000E-01
                       1.0166200000E-01  2.1409300000E-01  5.6220500000E-01
            znucl       41.00000   49.00000    8.00000

- Timing analysis has been suppressed with timopt=0

 Suggested references for the acknowledgment of ABINIT usage.

 Calculation completed.
.Delivered   3 WARNINGs and   5 COMMENTs to log file.