.Version 9.5.2 of ABINIT

 ABINIT is a project of the Universite Catholique de Louvain,
 Corning Inc. and other collaborators, see ~abinit/doc/developers/contributors.txt .
 acknowledgments of the ABINIT effort.

.Starting date : Mon 24 May 2021.
- ( at 18h35 )

- input  file    -> /scratch/users/j/a/jabreu/flow_simple_10atoms/flow/w417/t1/run.abi
- output file    -> /scratch/users/j/a/jabreu/flow_simple_10atoms/flow/w417/t1/run.abo
- root for input  files -> /scratch/users/j/a/jabreu/flow_simple_10atoms/flow/w417/t1/indata/in
- root for output files -> /scratch/users/j/a/jabreu/flow_simple_10atoms/flow/w417/t1/outdata/out

 Symmetries : space group C2/m (# 12); Bravais mC (1-face-center monocl.)
     intxc =       0      iscf =       7    lmnmax =      32     lnmax =       8
     mgfft =      96  mpssoang =       4    mqgrid =    4424     natom =      10
  nloc_mem =       1    nspden =       1   nspinor =       1    nsppol =       1
      nsym =       4    n1xccc =    2501    ntypat =       3    occopt =       1
   xclevel =       2
-    mband =          52        mffmem =           1         mkmem =           2
-   mkqmem =           2        mk1mem =           2           mpw =       18500
      nfft =      497664          nkpt =           2
  Rough estimation (10% accuracy) of disk space for files :

------------- Echo of variables that govern the present computation ------------
-
- outvars: echo of selected default values
-   iomode0 =  0 , fftalg0 =512 , wfoptalg0 =  0
-
- outvars: echo of global parameters not present in the input file
-  max_nthreads =    0
-
 -outvars: echo values of preprocessed input variables --------
            acell      1.0000000000E+00  1.0000000000E+00  1.0000000000E+00 Bohr
              amu      1.38905500E+02  5.89332000E+01  1.40067400E+01
             ecut      5.20000000E+01 Hartree
-          fftalg         512
           irdden           1
           irdwfk           1
              ixc     -116133
              kpt      5.53104416E-01  4.46895584E-01  0.00000000E+00
                       5.23105987E-01  5.23105987E-01  1.45193005E-01
           kptopt           0
P           mkmem           2
P          mkqmem           2
P          mk1mem           2
            natom          10
            nband          52
           nbdbuf           4
            ngfft          72      72      96
             nkpt           2
            nstep        2000
             nsym           4
           ntypat           3
              occ      2.000000  2.000000  2.000000  2.000000  2.000000  2.000000
                       2.000000  2.000000  2.000000  2.000000  2.000000  2.000000
                       2.000000  2.000000  2.000000  2.000000  2.000000  2.000000
                       2.000000  2.000000  2.000000  2.000000  2.000000  2.000000
                       2.000000  2.000000  2.000000  2.000000  2.000000  2.000000
                       2.000000  2.000000  2.000000  2.000000  2.000000  2.000000
                       2.000000  2.000000  2.000000  2.000000  2.000000  2.000000
                       2.000000  0.000000  0.000000  0.000000  0.000000  0.000000
                       0.000000  0.000000  0.000000  0.000000
        optdriver           1
            prtwf          -1
            rfdir           1       1       1
           rfelfd           2
            rprim      1.0474399829E+01  0.0000000000E+00  2.2240705999E+00
                       7.7367323377E+00  7.0608798686E+00  2.2240705999E+00
                       0.0000000000E+00  0.0000000000E+00  1.3975576551E+01
          spgroup          12
           symrel      1  0  0   0  1  0   0  0  1      -1  0  0   0 -1  0   0  0 -1
                       0 -1  0  -1  0  0   0  0 -1       0  1  0   1  0  0   0  0  1
           tolwfr      1.00000000E-20
            typat      1  1  2  2  3  3  3  3  3  3
           useylm           1
              wtk        0.50000    0.50000
           xangst      1.5867953288E+00  6.1523748715E-01  1.8699981786E+00
                       8.0501207566E+00  3.1212192119E+00  7.8794133526E+00
                       4.4279220183E+00  1.7168084418E+00  2.2258002021E+00
                       5.2089940670E+00  2.0196482573E+00  7.5236113291E+00
                       6.1078195934E+00  2.3681438371E+00  1.6801574064E+00
                       3.5290964919E+00  1.3683128619E+00  8.0692541249E+00
                       3.8003371321E+00  1.4734791722E+00  3.7468937003E+00
                       6.2586276932E+00  2.4266156480E+00  4.9141659508E+00
                       5.8365789533E+00  2.2629775269E+00  6.0025178309E+00
                       3.3782883921E+00  1.3098410511E+00  4.8352455804E+00
            xcart      2.9986086003E+00  1.1626303574E+00  3.5337844266E+00
                       1.5212523567E+01  5.8982495112E+00  1.4889933324E+01
                       8.3675599524E+00  3.2442977776E+00  4.2061528085E+00
                       9.8435722145E+00  3.8165820910E+00  1.4217564942E+01
                       1.1542106301E+01  4.4751432954E+00  3.1750373582E+00
                       6.6690258663E+00  2.5857365732E+00  1.5248680393E+01
                       7.1815963923E+00  2.7844720979E+00  7.0806029426E+00
                       1.1827092308E+01  4.5856390045E+00  9.2864278185E+00
                       1.1029535775E+01  4.2764077707E+00  1.1343114808E+01
                       6.3840398590E+00  2.4752408641E+00  9.1372899323E+00
             xred      1.6465800000E-01  1.6465800000E-01  2.0044700000E-01
                       8.3534200000E-01  8.3534200000E-01  7.9955300000E-01
                       4.5947500000E-01  4.5947500000E-01  1.5472300000E-01
                       5.4052500000E-01  5.4052500000E-01  8.4527700000E-01
                       6.3379400000E-01  6.3379400000E-01  2.5461000000E-02
                       3.6620600000E-01  3.6620600000E-01  9.7453900000E-01
                       3.9435200000E-01  3.9435200000E-01  3.8112700000E-01
                       6.4944300000E-01  6.4944300000E-01  4.5777100000E-01
                       6.0564800000E-01  6.0564800000E-01  6.1887300000E-01
                       3.5055700000E-01  3.5055700000E-01  5.4222900000E-01
            znucl       57.00000   27.00000    7.00000

 chkinp: Checking input parameters for consistency.

== DATASET  1 ==================================================================
-   mpi_nproc: 1, omp_nthreads: -1 (-1 if OMP is not activated)

--- !DatasetInfo
iteration_state: {dtset: 1, }
dimensions: {natom: 10, nkpt: 2, mband: 52, nsppol: 1, nspinor: 1, nspden: 1, mpw: 18500, }
cutoff_energies: {ecut:  52.0, pawecutdg:  -1.0, }
electrons: {nelect:   8.60000000E+01, charge:   0.00000000E+00, occopt:   1.00000000E+00, tsmear:   1.00000000E-02, }
meta: {optdriver: 1, rfelfd: 2, }
...

 Real(R)+Recip(G) space primitive vectors, cartesian coordinates (Bohr,Bohr^-1):
 R(1)= 10.4743998  0.0000000  2.2240706  G(1)=  0.0954709 -0.1046091  0.0000000
 R(2)=  7.7367323  7.0608799  2.2240706  G(2)=  0.0000000  0.1416254  0.0000000
 R(3)=  0.0000000  0.0000000 13.9755766  G(3)= -0.0151932 -0.0058908  0.0715534
 Unit cell volume ucvol=  1.0336124E+03 bohr^3
 Angles (23,13,12)=  7.80122044E+01  7.80122044E+01  4.14175831E+01 degrees

 getcut: wavevector=  0.0000  0.0000  0.0000  ngfft=  72  72  96
         ecut(hartree)=     52.000   => boxcut(ratio)=   2.07141

--- Pseudopotential description ------------------------------------------------
- pspini: atom type   1  psp file is /scratch/users/j/a/jabreu/pseudos/PBEsol/La.psp8
- pspatm: opening atomic psp file    /scratch/users/j/a/jabreu/pseudos/PBEsol/La.psp8
- La    ONCVPSP-3.3.0  r_core=   2.11664   1.60878   1.85636   1.66739
- 57.00000  11.00000    180112                znucl, zion, pspdat
    8 -116133    3    4       600   0.00000   pspcod,pspxc,lmax,lloc,mmax,r2well
    5.99000000000000    5.00000000000000    0.00000000000000   rchrg,fchrg,qchrg
     nproj     2     2     2     2
     extension_switch     1
  pspatm : epsatm=   29.08531775
         --- l  ekb(1:nproj) -->
             0    6.695600    0.639047
             1    6.383649    1.151322
             2    3.612966    0.847811
             3  -13.718437   -4.858923
 pspatm: atomic psp has been read  and splines computed

- pspini: atom type   2  psp file is /scratch/users/j/a/jabreu/pseudos/PBEsol/Co.psp8
- pspatm: opening atomic psp file    /scratch/users/j/a/jabreu/pseudos/PBEsol/Co.psp8
- Co    ONCVPSP-3.3.0  r_core=   1.26190   1.32357   1.66026
- 27.00000  17.00000    180112                znucl, zion, pspdat
    8 -116133    2    4       600   0.00000   pspcod,pspxc,lmax,lloc,mmax,r2well
    5.99000000000000    6.00000000000000    0.00000000000000   rchrg,fchrg,qchrg
     nproj     2     2     2
     extension_switch     1
  pspatm : epsatm=   18.79313233
         --- l  ekb(1:nproj) -->
             0    6.295970   -0.649806
             1   -2.108725   -0.098055
             2   -6.914380   -2.516418
 pspatm: atomic psp has been read  and splines computed

- pspini: atom type   3  psp file is /scratch/users/j/a/jabreu/pseudos/PBEsol/N.psp8
- pspatm: opening atomic psp file    /scratch/users/j/a/jabreu/pseudos/PBEsol/N.psp8
- N     ONCVPSP-3.3.0  r_core=   1.20551   1.35824
-  7.00000   5.00000    180112                znucl, zion, pspdat
    8 -116133    1    4       600   0.00000   pspcod,pspxc,lmax,lloc,mmax,r2well
    5.99000000000000    4.00000000000000    0.00000000000000   rchrg,fchrg,qchrg
     nproj     2     2
     extension_switch     1
  pspatm : epsatm=    5.26508895
         --- l  ekb(1:nproj) -->
             0    7.464189    0.625868
             1   -4.309714   -1.012941
 pspatm: atomic psp has been read  and splines computed

   1.09518793E+04                                ecore*ucvol(ha*bohr**3)

 ==>  initialize data related to q vector <==

 The list of irreducible perturbations for this q vector is:
    1)    idir= 1    ipert=  11
    2)    idir= 2    ipert=  11
    3)    idir= 3    ipert=  11

 Perturbation wavevector (in red.coord.)   0.000000  0.000000  0.000000
 Perturbation : derivative vs k along direction   1

 dfpt_looppert : COMMENT -
  In a d/dk calculation, iscf is set to -3 automatically.
 The set of symmetries contains only one element for this perturbation.
 symkpt : not enough symmetry to change the number of k points.

 Initialisation of the first-order wave-functions :
  ireadwf=   0

--- !BeginCycle
iteration_state: {dtset: 1, }
solver: {iscf: 7, nstep: 2000, nline: 4, wfoptalg: 0, }
tolerances: {tolwfr: 1.00E-20, }
...

     iter   2DEtotal(Ha)        deltaE(Ha) residm    vres2
-ETOT  1  -69.603089386184     -6.960E+01 1.516E-01 0.000E+00
 ETOT  2  -70.531394820821     -9.283E-01 3.588E-02 0.000E+00
 ETOT  3  -70.664152121111     -1.328E-01 8.293E-03 0.000E+00
 ETOT  4  -70.706099135271     -4.195E-02 5.471E-03 0.000E+00
 ETOT  5  -70.722885160297     -1.679E-02 3.168E-03 0.000E+00
 ETOT  6  -70.730566523242     -7.681E-03 2.753E-03 0.000E+00
 ETOT  7  -70.734323553800     -3.757E-03 1.674E-03 0.000E+00
 ETOT  8  -70.736242728380     -1.919E-03 1.672E-03 0.000E+00
[...]

[...]

 Perturbation wavevector (in red.coord.)   0.000000  0.000000  0.000000
 Perturbation : derivative vs k along direction   3
 The set of symmetries contains only one element for this perturbation.
 symkpt : not enough symmetry to change the number of k points.

 Initialisation of the first-order wave-functions :
  ireadwf=   0

--- !BeginCycle
iteration_state: {dtset: 1, }
solver: {iscf: 7, nstep: 2000, nline: 4, wfoptalg: 0, }
tolerances: {tolwfr: 1.00E-20, }
...

     iter   2DEtotal(Ha)        deltaE(Ha) residm    vres2
-ETOT  1  -18.871966673027     -1.887E+01 7.737E-02 0.000E+00
 ETOT  2  -19.077841987682     -2.059E-01 1.186E-02 0.000E+00
 ETOT  3  -19.120343393232     -4.250E-02 6.803E-03 0.000E+00
 ETOT  4  -19.134398900245     -1.406E-02 2.994E-03 0.000E+00
 ETOT  5  -19.140015575491     -5.617E-03 2.555E-03 0.000E+00
 ETOT  6  -19.142437071956     -2.421E-03 1.768E-03 0.000E+00
 ETOT  7  -19.143541501897     -1.104E-03 1.240E-03 0.000E+00
 ETOT  8  -19.144066938151     -5.254E-04 1.094E-03 0.000E+00
 ETOT  9  -19.144325964079     -2.590E-04 7.623E-04 0.000E+00
 ETOT 10  -19.144457368337     -1.314E-04 6.731E-04 0.000E+00
 ETOT 11  -19.144525712650     -6.834E-05 4.753E-04 0.000E+00
 ETOT 12  -19.144562005449     -3.629E-05 4.165E-04 0.000E+00
 ETOT 13  -19.144581623986     -1.962E-05 2.995E-04 0.000E+00
 ETOT 14  -19.144592389231     -1.077E-05 2.597E-04 0.000E+00
 ETOT 15  -19.144598370474     -5.981E-06 1.904E-04 0.000E+00
 ETOT 16  -19.144601728874     -3.358E-06 1.737E-04 0.000E+00
 ETOT 17  -19.144603630743     -1.902E-06 1.219E-04 0.000E+00
 ETOT 18  -19.144604715582     -1.085E-06 1.165E-04 0.000E+00
 ETOT 19  -19.144605337964     -6.224E-07 7.847E-05 0.000E+00
 ETOT 20  -19.144605696777     -3.588E-07 7.833E-05 0.000E+00
 ETOT 21  -19.144605904443     -2.077E-07 5.079E-05 0.000E+00
 ETOT 22  -19.144606025028     -1.206E-07 5.279E-05 0.000E+00
 ETOT 23  -19.144606095231     -7.020E-08 3.304E-05 0.000E+00
 ETOT 24  -19.144606136194     -4.096E-08 3.565E-05 0.000E+00
 ETOT 25  -19.144606160138     -2.394E-08 2.235E-05 0.000E+00
 ETOT 26  -19.144606174155     -1.402E-08 2.412E-05 0.000E+00
 ETOT 27  -19.144606182371     -8.216E-09 1.523E-05 0.000E+00
 ETOT 28  -19.144606187192     -4.821E-09 1.635E-05 0.000E+00
 ETOT 29  -19.144606190023     -2.831E-09 1.039E-05 0.000E+00
 ETOT 30  -19.144606191687     -1.664E-09 1.110E-05 0.000E+00
 ETOT 31  -19.144606192665     -9.786E-10 7.099E-06 0.000E+00
 ETOT 32  -19.144606193241     -5.758E-10 7.547E-06 0.000E+00
 ETOT 33  -19.144606193580     -3.390E-10 4.854E-06 0.000E+00
 ETOT 34  -19.144606193780     -1.996E-10 5.137E-06 0.000E+00
 ETOT 35  -19.144606193897     -1.176E-10 3.322E-06 0.000E+00
 ETOT 36  -19.144606193967     -6.929E-11 3.501E-06 0.000E+00
 ETOT 37  -19.144606194008     -4.086E-11 2.275E-06 0.000E+00
 ETOT 38  -19.144606194032     -2.411E-11 2.389E-06 0.000E+00
 ETOT 39  -19.144606194046     -1.421E-11 1.560E-06 0.000E+00
 ETOT 40  -19.144606194054     -8.381E-12 1.631E-06 0.000E+00
 ETOT 41  -19.144606194059     -4.917E-12 1.070E-06 0.000E+00
 ETOT 42  -19.144606194062     -2.924E-12 1.115E-06 0.000E+00
 ETOT 43  -19.144606194064     -1.762E-12 7.340E-07 0.000E+00
 ETOT 44  -19.144606194065     -1.005E-12 7.622E-07 0.000E+00
 ETOT 45  -19.144606194065     -5.578E-13 5.039E-07 0.000E+00
 ETOT 46  -19.144606194066     -3.801E-13 5.216E-07 0.000E+00
 ETOT 47  -19.144606194066     -2.238E-13 3.461E-07 0.000E+00
 ETOT 48  -19.144606194066     -9.592E-14 3.571E-07 0.000E+00
 ETOT 49  -19.144606194066     -9.237E-14 2.378E-07 0.000E+00
 ETOT 50  -19.144606194066     -3.197E-14 2.446E-07 0.000E+00
 ETOT 51  -19.144606194066     -4.263E-14 1.634E-07 0.000E+00
 ETOT 52  -19.144606194066      3.553E-15 1.677E-07 0.000E+00
 ETOT 53  -19.144606194066     -1.421E-14 1.124E-07 0.000E+00
 ETOT 54  -19.144606194066     -7.105E-15 1.150E-07 0.000E+00
 ETOT 55  -19.144606194066      3.553E-15 7.726E-08 0.000E+00
 ETOT 56  -19.144606194066     -7.105E-15 7.885E-08 0.000E+00
 ETOT 57  -19.144606194066     -1.066E-14 5.314E-08 0.000E+00
 ETOT 58  -19.144606194066      1.421E-14 5.410E-08 0.000E+00
 ETOT 59  -19.144606194066     -1.066E-14 3.656E-08 0.000E+00
 ETOT 60  -19.144606194066      7.105E-15 3.713E-08 0.000E+00
 ETOT 61  -19.144606194066      0.000E+00 2.516E-08 0.000E+00
[...]
 ETOT  201  -19.144606194066      3.553E-15 1.321E-19 0.000E+00
 ETOT  202  -19.144606194066      0.000E+00 1.232E-19 0.000E+00
 ETOT  203  -19.144606194066      7.105E-15 9.130E-20 0.000E+00
 ETOT  204  -19.144606194066      0.000E+00 8.508E-20 0.000E+00
 ETOT  205  -19.144606194066     -7.105E-15 6.309E-20 0.000E+00
 ETOT  206  -19.144606194066      3.553E-15 5.876E-20 0.000E+00
 ETOT  207  -19.144606194066      0.000E+00 4.359E-20 0.000E+00
 ETOT  208  -19.144606194066     -7.105E-15 4.058E-20 0.000E+00
 ETOT  209  -19.144606194066      7.105E-15 3.012E-20 0.000E+00
 ETOT  210  -19.144606194066     -3.553E-15 2.802E-20 0.000E+00
 ETOT  211  -19.144606194066     -3.553E-15 2.082E-20 0.000E+00
 ETOT  212  -19.144606194066     -3.553E-15 1.935E-20 0.000E+00
 ETOT  213  -19.144606194066     -3.553E-15 1.438E-20 0.000E+00
 ETOT  214  -19.144606194066      1.421E-14 1.336E-20 0.000E+00
 ETOT  215  -19.144606194066     -1.066E-14 9.947E-21 0.000E+00

 At SCF step  215   max residual=  9.95E-21 < tolwfr=  1.00E-20 =>converged.

 ----iterations are completed or convergence reached----

 dfpt_looppert: DFPT cycle converged with prtwf=-1. Will skip output of the 1st-order WFK file.
 dfpt_looppert : ek2=    3.6568577221E+01
          f-sum rule ratio=    9.8084562554E-01
 prteigrs : about to open file /scratch/users/j/a/jabreu/flow_simple_10atoms/flow/w417/t1/tmpdata/tmp_1WF1_EIG
 Expectation of eigenvalue derivatives (hartree) for nkpt=   2  k points:
  (in case of degenerate eigenvalues, averaged derivative)
 kpt#   1, nband= 52, wtk=  0.50000, kpt=  0.5531  0.4469  0.0000 (reduced coord)
   0.00000   -0.00000   -0.00000   -0.00000   -0.00000    0.00000    0.00000    0.00000
  -0.00000    0.00000    0.00000   -0.00000    0.00000    0.00000   -0.00000    0.00000
  -0.00000    0.00000   -0.00000    0.00000   -0.00000   -0.00000    0.00000   -0.00000
  -0.00000    0.00000   -0.00000    0.00000    0.00000   -0.00000   -0.00000    0.00000
  -0.00000    0.00000    0.00000    0.00000   -0.00000   -0.00000    0.00000    0.00000
  -0.00000    0.00000    0.00000   -0.00000    0.00000   -0.00000    0.00000   -0.00000
  -0.00000    0.00002    0.00005    0.00005
 prteigrs : prtvol=0 or 1, do not print more k-points.

 Eight components of 2nd-order total energy (hartree) are
 1,2,3: 0th-order hamiltonian combined with 1st-order wavefunctions
     kin0=   4.91117468E+01 eigvalue=   3.35997199E-02  local=  -2.47926368E+01
 4,5,6: 1st-order hamiltonian combined with 1st and 0th-order wfs
     kin1=  -3.58681290E+01  Hartree=   0.00000000E+00     xc=   0.00000000E+00
 7,8,9: eventually, occupation + non-local contributions
    edocc=   3.67393588E+00     enl0=  -8.88203941E+00   enl1=  -2.42108339E+00
 1-9 gives the relaxation energy (to be shifted if some occ is /=2.0)
   erelax=  -1.91446062E+01
  No Ewald or frozen-wf contrib.: the relaxation energy is the total one
 2DEtotal=   -0.1914460619E+02 Ha. Also 2DEtotal=   -0.520951227995E+03 eV
    (  non-var. 2DEtotal :   -1.9144606194E+01 Ha)

 CALCULATION OF EFFECTIVE MASSES
 NOTE : Additional infos (eff. mass eigenvalues, eigenvectors and, if degenerate, average mass) are available in stdout.

 K-point ( 0.553, 0.447, 0.000) | band =    43
 Effective mass tensor:
             -2.7351465757              4.2634847883             -0.1681026927
              4.2634847883            -12.0864752538             -0.0651040264
             -0.1681026927             -0.0651040264            -10.5820609996
 Effective mass tensor eigenvalues:
            -13.7384597320            -10.5854809065             -1.0797421906
 Angular average effective mass 1/(<1/m>)=  -2.7437241184
 Angular average effective mass for Frohlich model (<m**0.5>)**2=  -4.1684669715
 Effective masses along directions: (cart. coord. / red. coord. -> eff. mass)
    1:   1.000000  0.000000  0.000000 /   0.804368  0.594132  0.000000 ->  -1.2277591362
    2:   0.000000  1.000000  0.000000 /   0.000000  1.000000  0.000000 ->  -5.4305281325
    3:   0.000000  0.000000  1.000000 /   0.155256  0.155256  0.975598 -> -10.5520589816
    4:   0.577350  0.577350  0.577350 /   0.499497  0.669551  0.549732 ->  -1.8434605637
    5:   0.000000  0.707107  0.707107 /   0.131403  0.548577  0.825710 ->  -7.4761932139
    6:   0.707107  0.000000  0.707107 /   0.594800  0.466567  0.654620 ->  -2.2731235594
    7:   0.707107  0.707107  0.000000 /   0.577751  0.816213  0.000000 ->  -1.2711195767

 K-point ( 0.523, 0.523, 0.145) | band =    44
 Effective mass tensor:
              2.3206810884             -0.6830670741              0.8751963817
             -0.6830670741              3.8174638682              0.3392207587
              0.8751963817              0.3392207587              1.9307514507
 Effective mass tensor eigenvalues:
              1.0525703071              2.9340062098              4.0823198905
 Angular average effective mass 1/(<1/m>)=   1.9533221579
 Angular average effective mass for Frohlich model (<m**0.5>)**2=   2.1771874667
 Effective masses along directions: (cart. coord. / red. coord. -> eff. mass)
    1:   1.000000  0.000000  0.000000 /   0.804368  0.594132  0.000000 ->   1.7376073280
    2:   0.000000  1.000000  0.000000 /   0.000000  1.000000  0.000000 ->   3.3938812138
    3:   0.000000  0.000000  1.000000 /   0.155256  0.155256  0.975598 ->   1.5021938693
    4:   0.577350  0.577350  0.577350 /   0.499497  0.669551  0.549732 ->   2.9831092386
    5:   0.000000  0.707107  0.707107 /   0.131403  0.548577  0.825710 ->   2.7004438595
    6:   0.707107  0.000000  0.707107 /   0.594800  0.466567  0.654620 ->   2.9655117015
    7:   0.707107  0.707107  0.000000 /   0.577751  0.816213  0.000000 ->   1.7754606134

 END OF EFFECTIVE MASSES SECTION

 ---- first-order wavefunction calculations are completed ----

 Total localisation tensor (bohr^2) in cartesian coordinates
  WARNING : still subject to testing - especially symmetries.
      direction              matrix element
   alpha     beta       real part   imaginary part
     1        1       2.4608093075    0.0000000000
     1        2       0.7927978456    0.0000000000
     1        3       0.5877818585    0.0000000000
     2        1       0.7927978456    0.0000000000
     2        2       0.7235419430    0.0000000000
     2        3       0.2279047928    0.0000000000
     3        1       0.5877818585    0.0000000000
     3        2       0.2279047928    0.0000000000
     3        3       1.4041645946    0.0000000000

 respfn : d/dk was computed, but no 2DTE, so no DDB output.

== END DATASET(S) ==============================================================

 -outvars: echo values of variables after computation  --------
            acell      1.0000000000E+00  1.0000000000E+00  1.0000000000E+00 Bohr
              amu      1.38905500E+02  5.89332000E+01  1.40067400E+01
             ecut      5.20000000E+01 Hartree
           etotal     -1.9144606194E+01
            fcart      0.0000000000E+00  0.0000000000E+00  0.0000000000E+00
                       0.0000000000E+00  0.0000000000E+00  0.0000000000E+00
                       0.0000000000E+00  0.0000000000E+00  0.0000000000E+00
                       0.0000000000E+00  0.0000000000E+00  0.0000000000E+00
                       0.0000000000E+00  0.0000000000E+00  0.0000000000E+00
                       0.0000000000E+00  0.0000000000E+00  0.0000000000E+00
                       0.0000000000E+00  0.0000000000E+00  0.0000000000E+00
                       0.0000000000E+00  0.0000000000E+00  0.0000000000E+00
                       0.0000000000E+00  0.0000000000E+00  0.0000000000E+00
                       0.0000000000E+00  0.0000000000E+00  0.0000000000E+00
-          fftalg         512
           irdden           1
           irdwfk           1
              ixc     -116133
              kpt      5.53104416E-01  4.46895584E-01  0.00000000E+00
                       5.23105987E-01  5.23105987E-01  1.45193005E-01
           kptopt           0
P           mkmem           2
P          mkqmem           2
P          mk1mem           2
            natom          10
            nband          52
           nbdbuf           4
            ngfft          72      72      96
             nkpt           2
            nstep        2000
             nsym           4
           ntypat           3
              occ      2.000000  2.000000  2.000000  2.000000  2.000000  2.000000
                       2.000000  2.000000  2.000000  2.000000  2.000000  2.000000
                       2.000000  2.000000  2.000000  2.000000  2.000000  2.000000
                       2.000000  2.000000  2.000000  2.000000  2.000000  2.000000
                       2.000000  2.000000  2.000000  2.000000  2.000000  2.000000
                       2.000000  2.000000  2.000000  2.000000  2.000000  2.000000
                       2.000000  2.000000  2.000000  2.000000  2.000000  2.000000
                       2.000000  0.000000  0.000000  0.000000  0.000000  0.000000
                       0.000000  0.000000  0.000000  0.000000
        optdriver           1
            prtwf          -1
            rfdir           1       1       1
           rfelfd           2
            rprim      1.0474399829E+01  0.0000000000E+00  2.2240705999E+00
                       7.7367323377E+00  7.0608798686E+00  2.2240705999E+00
                       0.0000000000E+00  0.0000000000E+00  1.3975576551E+01
          spgroup          12
           strten      0.0000000000E+00  0.0000000000E+00  0.0000000000E+00
                       0.0000000000E+00  0.0000000000E+00  0.0000000000E+00
           symrel      1  0  0   0  1  0   0  0  1      -1  0  0   0 -1  0   0  0 -1
                       0 -1  0  -1  0  0   0  0 -1       0  1  0   1  0  0   0  0  1
           tolwfr      1.00000000E-20
            typat      1  1  2  2  3  3  3  3  3  3
           useylm           1
              wtk        0.50000    0.50000
           xangst      1.5867953288E+00  6.1523748715E-01  1.8699981786E+00
                       8.0501207566E+00  3.1212192119E+00  7.8794133526E+00
                       4.4279220183E+00  1.7168084418E+00  2.2258002021E+00
                       5.2089940670E+00  2.0196482573E+00  7.5236113291E+00
                       6.1078195934E+00  2.3681438371E+00  1.6801574064E+00
                       3.5290964919E+00  1.3683128619E+00  8.0692541249E+00
                       3.8003371321E+00  1.4734791722E+00  3.7468937003E+00
                       6.2586276932E+00  2.4266156480E+00  4.9141659508E+00
                       5.8365789533E+00  2.2629775269E+00  6.0025178309E+00
                       3.3782883921E+00  1.3098410511E+00  4.8352455804E+00
            xcart      2.9986086003E+00  1.1626303574E+00  3.5337844266E+00
                       1.5212523567E+01  5.8982495112E+00  1.4889933324E+01
                       8.3675599524E+00  3.2442977776E+00  4.2061528085E+00
                       9.8435722145E+00  3.8165820910E+00  1.4217564942E+01
                       1.1542106301E+01  4.4751432954E+00  3.1750373582E+00
                       6.6690258663E+00  2.5857365732E+00  1.5248680393E+01
                       7.1815963923E+00  2.7844720979E+00  7.0806029426E+00
                       1.1827092308E+01  4.5856390045E+00  9.2864278185E+00
                       1.1029535775E+01  4.2764077707E+00  1.1343114808E+01
                       6.3840398590E+00  2.4752408641E+00  9.1372899323E+00
             xred      1.6465800000E-01  1.6465800000E-01  2.0044700000E-01
                       8.3534200000E-01  8.3534200000E-01  7.9955300000E-01
                       4.5947500000E-01  4.5947500000E-01  1.5472300000E-01
                       5.4052500000E-01  5.4052500000E-01  8.4527700000E-01
                       6.3379400000E-01  6.3379400000E-01  2.5461000000E-02
                       3.6620600000E-01  3.6620600000E-01  9.7453900000E-01
                       3.9435200000E-01  3.9435200000E-01  3.8112700000E-01
                       6.4944300000E-01  6.4944300000E-01  4.5777100000E-01
                       6.0564800000E-01  6.0564800000E-01  6.1887300000E-01
                       3.5055700000E-01  3.5055700000E-01  5.4222900000E-01
            znucl       57.00000   27.00000    7.00000

- Timing analysis has been suppressed with timopt=0

 Suggested references for the acknowledgment of ABINIT usage.

 Calculation completed.
.Delivered   2 WARNINGs and   5 COMMENTs to log file.