.Version 9.5.1 of ABINIT

 ABINIT is a project of the Universite Catholique de Louvain,
 Corning Inc. and other collaborators, see ~abinit/doc/developers/contributors.txt .
 acknowledgments of the ABINIT effort.

.Starting date : Tue 27 Apr 2021.
- ( at 18h30 )

- input  file    -> /scratch/users/j/a/jabreu/flow_simple_4atoms/flow/w175/t1/run.abi
- output file    -> /scratch/users/j/a/jabreu/flow_simple_4atoms/flow/w175/t1/run.abo
- root for input  files -> /scratch/users/j/a/jabreu/flow_simple_4atoms/flow/w175/t1/indata/in
- root for output files -> /scratch/users/j/a/jabreu/flow_simple_4atoms/flow/w175/t1/outdata/out

 Symmetries : space group R-3 m (#166); Bravais hR (rhombohedral)
     intxc =       0      iscf =       7    lmnmax =      32     lnmax =       8
     mgfft =      72  mpssoang =       4    mqgrid =    3001     natom =       4
  nloc_mem =       1    nspden =       1   nspinor =       1    nsppol =       1
      nsym =      12    n1xccc =    2501    ntypat =       3    occopt =       1
   xclevel =       2
-    mband =          25        mffmem =           1         mkmem =           2
-   mkqmem =           2        mk1mem =           2           mpw =        4928
      nfft =      373248          nkpt =           2
  Rough estimation (10% accuracy) of disk space for files :

------------- Echo of variables that govern the present computation ------------
-
- outvars: echo of selected default values
-   iomode0 =  0 , fftalg0 =512 , wfoptalg0 =  0
-
- outvars: echo of global parameters not present in the input file
-  max_nthreads =    0
-
 -outvars: echo values of preprocessed input variables --------
            acell      1.0000000000E+00  1.0000000000E+00  1.0000000000E+00 Bohr
              amu      8.76200000E+01  1.78490000E+02  1.40067400E+01
             ecut      4.20000000E+01 Hartree
-          fftalg         512
           irdden           1
           irdwfk           1
           istwfk        1    1
              ixc     -116133
              kpt      0.00000000E+00  0.00000000E+00  0.00000000E+00
                       5.00000000E-01  5.00000000E-01  0.00000000E+00
           kptopt           0
P           mkmem           2
P          mkqmem           2
P          mk1mem           2
            natom           4
            nband          25
           nbdbuf           4
            ngfft          72      72      72
             nkpt           2
            nstep         100
             nsym          12
           ntypat           3
              occ      2.000000  2.000000  2.000000  2.000000  2.000000  2.000000
                       2.000000  2.000000  2.000000  2.000000  2.000000  2.000000
                       2.000000  2.000000  2.000000  2.000000  0.000000  0.000000
                       0.000000  0.000000  0.000000  0.000000  0.000000  0.000000
                       0.000000
        optdriver           1
            prtwf          -1
            rfdir           1       1       1
           rfelfd           2
            rprim      6.0411694680E+00  0.0000000000E+00  9.9561924156E+00
                       2.7843461122E+00  5.3612634023E+00  9.9561924156E+00
                       0.0000000000E+00  0.0000000000E+00  1.1645664256E+01
          spgroup         166
           symrel      1  0  0   0  1  0   0  0  1      -1  0  0   0 -1  0   0  0 -1
                       0  1  0   1  0  0   0  0  1       0 -1  0  -1  0  0   0  0 -1
                       0  0  1   1  0  0   0  1  0       0  0 -1  -1  0  0   0 -1  0
                       1  0  0   0  0  1   0  1  0      -1  0  0   0  0 -1   0 -1  0
                       0  1  0   0  0  1   1  0  0       0 -1  0   0  0 -1  -1  0  0
                       0  0  1   0  1  0   1  0  0       0  0 -1   0 -1  0  -1  0  0
           tolwfr      1.00000000E-20
            typat      1  2  3  3
           useylm           1
              wtk        0.50000    0.50000
           xangst      0.0000000000E+00  0.0000000000E+00  0.0000000000E+00
                       2.3351308495E+00  1.4185292009E+00  8.3499001622E+00
                       3.5820019882E+00  2.1759698900E+00  1.2808429553E+01
                       1.0882597109E+00  6.6108851172E-01  3.8913707718E+00
            xcart      0.0000000000E+00  0.0000000000E+00  0.0000000000E+00
                       4.4127577901E+00  2.6806317012E+00  1.5779024544E+01
                       6.7690027652E+00  4.1119871656E+00  2.4204424047E+01
                       2.0565128150E+00  1.2492762367E+00  7.3536250402E+00
             xred      0.0000000000E+00  0.0000000000E+00  0.0000000000E+00
                       5.0000000000E-01  5.0000000000E-01  5.0000000000E-01
                       7.6698100000E-01  7.6698100000E-01  7.6698100000E-01
                       2.3301900000E-01  2.3301900000E-01  2.3301900000E-01
            znucl       38.00000   72.00000    7.00000

 chkinp: Checking input parameters for consistency.

== DATASET  1 ==================================================================
-   mpi_nproc: 1, omp_nthreads: -1 (-1 if OMP is not activated)

--- !DatasetInfo
iteration_state: {dtset: 1, }
dimensions: {natom: 4, nkpt: 2, mband: 25, nsppol: 1, nspinor: 1, nspden: 1, mpw: 4928, }
cutoff_energies: {ecut:  42.0, pawecutdg:  -1.0, }
electrons: {nelect:   3.20000000E+01, charge:   0.00000000E+00, occopt:   1.00000000E+00, tsmear:   1.00000000E-02, }
meta: {optdriver: 1, rfelfd: 2, }
...

 Real(R)+Recip(G) space primitive vectors, cartesian coordinates (Bohr,Bohr^-1):
 R(1)=  6.0411695  0.0000000  9.9561924  G(1)=  0.1655309 -0.0859677  0.0000000
 R(2)=  2.7843461  5.3612634  9.9561924  G(2)=  0.0000000  0.1865232  0.0000000
 R(3)=  0.0000000  0.0000000 11.6456643  G(3)= -0.1415168 -0.0859677  0.0858689
 Unit cell volume ucvol=  3.7718328E+02 bohr^3
 Angles (23,13,12)=  3.12483327E+01  3.12483327E+01  3.12483327E+01 degrees

 getcut: wavevector=  0.0000  0.0000  0.0000  ngfft=  72  72  72
         ecut(hartree)=     42.000   => boxcut(ratio)=   2.11944

--- Pseudopotential description ------------------------------------------------
- pspini: atom type   1  psp file is /scratch/users/j/a/jabreu/pseudos/PBEsol/Sr.psp8
- pspatm: opening atomic psp file    /scratch/users/j/a/jabreu/pseudos/PBEsol/Sr.psp8
- Sr    ONCVPSP-3.3.0  r_core=   1.66721   1.31335   1.51547
- 38.00000  10.00000    180112                znucl, zion, pspdat
    8 -116133    2    4       600   0.00000   pspcod,pspxc,lmax,lloc,mmax,r2well
    5.99000000000000    6.00000000000000    0.00000000000000   rchrg,fchrg,qchrg
     nproj     2     2     2
     extension_switch     1
  pspatm : epsatm=   12.46450977
         --- l  ekb(1:nproj) -->
             0   10.029206    1.044171
             1    7.472414    1.670829
             2    4.142950    0.968140
 pspatm: atomic psp has been read  and splines computed

- pspini: atom type   2  psp file is /scratch/users/j/a/jabreu/pseudos/PBEsol/Hf.psp8
- pspatm: opening atomic psp file    /scratch/users/j/a/jabreu/pseudos/PBEsol/Hf.psp8
- Hf    ONCVPSP-3.3.0  r_core=   1.71613   1.71613   1.71613   2.42541
- 72.00000  12.00000    180112                znucl, zion, pspdat
    8 -116133    3    4       600   0.00000   pspcod,pspxc,lmax,lloc,mmax,r2well
    5.99000000000000    5.40000000000000    0.00000000000000   rchrg,fchrg,qchrg
     nproj     2     2     2     2
     extension_switch     1
  pspatm : epsatm=   21.99082902
         --- l  ekb(1:nproj) -->
             0    5.882750   -0.519107
             1    2.555685   -1.768609
             2    1.383259    0.138001
             3    9.464546    0.347497
 pspatm: atomic psp has been read  and splines computed

- pspini: atom type   3  psp file is /scratch/users/j/a/jabreu/pseudos/PBEsol/N.psp8
- pspatm: opening atomic psp file    /scratch/users/j/a/jabreu/pseudos/PBEsol/N.psp8
- N     ONCVPSP-3.3.0  r_core=   1.20551   1.35824
-  7.00000   5.00000    180112                znucl, zion, pspdat
    8 -116133    1    4       600   0.00000   pspcod,pspxc,lmax,lloc,mmax,r2well
    5.99000000000000    4.00000000000000    0.00000000000000   rchrg,fchrg,qchrg
     nproj     2     2
     extension_switch     1
  pspatm : epsatm=    5.26508895
         --- l  ekb(1:nproj) -->
             0    7.464189    0.625868
             1   -4.309714   -1.012941
 pspatm: atomic psp has been read  and splines computed

   1.43953653E+03                                ecore*ucvol(ha*bohr**3)

-inwffil : will read wavefunctions from disk file /scratch/users/j/a/jabreu/flow_simple_4atoms/flow/w175/t1/indata/in_WFK

 ==>  initialize data related to q vector <==

 The list of irreducible perturbations for this q vector is:
    1)    idir= 1    ipert=   5
    2)    idir= 2    ipert=   5
    3)    idir= 3    ipert=   5

 Perturbation wavevector (in red.coord.)   0.000000  0.000000  0.000000
 Perturbation : derivative vs k along direction   1

 dfpt_looppert : COMMENT -
  In a d/dk calculation, iscf is set to -3 automatically.
 The set of symmetries contains only one element for this perturbation.
 symkpt : not enough symmetry to change the number of k points.

[...]

 Initialisation of the first-order wave-functions :
  ireadwf=   0

--- !BeginCycle
iteration_state: {dtset: 1, }
solver: {iscf: 7, nstep: 100, nline: 4, wfoptalg: 0, }
tolerances: {tolwfr: 1.00E-20, }
...

     iter   2DEtotal(Ha)        deltaE(Ha) residm    vres2
-ETOT  1  -61.919633668249     -6.192E+01 2.377E-01 0.000E+00
 ETOT  2  -61.957462546297     -3.783E-02 7.765E-03 0.000E+00
 ETOT  3  -61.957747477623     -2.849E-04 2.761E-04 0.000E+00
 ETOT  4  -61.957750959338     -3.482E-06 8.055E-06 0.000E+00
 ETOT  5  -61.957751010514     -5.118E-08 5.731E-07 0.000E+00
 ETOT  6  -61.957751011332     -8.175E-10 2.985E-08 0.000E+00
 ETOT  7  -61.957751011345     -1.362E-11 3.955E-09 0.000E+00
 ETOT  8  -61.957751011345     -2.558E-13 2.928E-10 0.000E+00
 ETOT  9  -61.957751011345     -3.553E-14 4.299E-11 0.000E+00
 ETOT 10  -61.957751011345      7.105E-14 3.273E-12 0.000E+00
 ETOT 11  -61.957751011345     -4.974E-14 4.828E-13 0.000E+00
 ETOT 12  -61.957751011345      2.132E-14 3.693E-14 0.000E+00
 ETOT 13  -61.957751011345     -1.421E-14 5.454E-15 0.000E+00
 ETOT 14  -61.957751011345     -7.105E-15 4.184E-16 0.000E+00
 ETOT 15  -61.957751011345      0.000E+00 6.186E-17 0.000E+00
 ETOT 16  -61.957751011345      0.000E+00 4.756E-18 0.000E+00
 ETOT 17  -61.957751011345      0.000E+00 7.035E-19 0.000E+00
 ETOT 18  -61.957751011345      2.132E-14 5.417E-20 0.000E+00
 ETOT 19  -61.957751011345      1.421E-14 9.969E-21 0.000E+00

 At SCF step   19   max residual=  9.97E-21 < tolwfr=  1.00E-20 =>converged.

 ----iterations are completed or convergence reached----

 dfpt_looppert: DFPT cycle converged with prtwf=-1. Will skip output of the 1st-order WFK file.
 dfpt_looppert : ek2=    8.7903348888E+01
          f-sum rule ratio=    1.3892759231E+00
 prteigrs : about to open file /scratch/users/j/a/jabreu/flow_simple_4atoms/flow/w175/t1/tmpdata/tmp_1WF1_EIG
 Expectation of eigenvalue derivatives (hartree) for nkpt=   2  k points:
  (in case of degenerate eigenvalues, averaged derivative)
 kpt#   1, nband= 25, wtk=  0.50000, kpt=  0.0000  0.0000  0.0000 (reduced coord)
  -0.00000   -0.00000   -0.00000    0.00000    0.00000   -0.00000   -0.00000   -0.00000
   0.00000   -0.00000    0.00000   -0.00000   -0.00000   -0.00000    0.00000    0.00000
   0.00000    0.00000    0.00000    0.00000    0.00000    0.00000   -0.00000    0.00030
  -0.00000
 prteigrs : prtvol=0 or 1, do not print more k-points.

 Eight components of 2nd-order total energy (hartree) are
 1,2,3: 0th-order hamiltonian combined with 1st-order wavefunctions
     kin0=   4.67267263E+01 eigvalue=  -3.09449822E+00  local=  -2.27121775E+01
 4,5,6: 1st-order hamiltonian combined with 1st and 0th-order wfs
     kin1=  -1.22122006E+02  Hartree=   0.00000000E+00     xc=   0.00000000E+00
 7,8,9: eventually, occupation + non-local contributions
    edocc=   3.90462496E+01     enl0=   1.99145082E+00   enl1=  -1.79349585E+00
 1-9 gives the relaxation energy (to be shifted if some occ is /=2.0)
   erelax=  -6.19577510E+01
  No Ewald or frozen-wf contrib.: the relaxation energy is the total one
 2DEtotal=   -0.6195775101E+02 Ha. Also 2DEtotal=   -0.168595614587E+04 eV
    (  non-var. 2DEtotal :   -6.1957751011E+01 Ha)

 Perturbation wavevector (in red.coord.)   0.000000  0.000000  0.000000
 Perturbation : derivative vs k along direction   2
 The set of symmetries contains only one element for this perturbation.
 symkpt : not enough symmetry to change the number of k points.

[...]

 Perturbation wavevector (in red.coord.)   0.000000  0.000000  0.000000
 Perturbation : derivative vs k along direction   3
 The set of symmetries contains only one element for this perturbation.
 symkpt : not enough symmetry to change the number of k points.

-inwffil : will read wavefunctions from disk file /scratch/users/j/a/jabreu/flow_simple_4atoms/flow/w175/t1/indata/in_WFK

 Initialisation of the first-order wave-functions :
  ireadwf=   0

--- !BeginCycle
iteration_state: {dtset: 1, }
solver: {iscf: 7, nstep: 100, nline: 4, wfoptalg: 0, }
tolerances: {tolwfr: 1.00E-20, }
...

     iter   2DEtotal(Ha)        deltaE(Ha) residm    vres2
-ETOT  1  -54.739113964542     -5.474E+01 1.303E-01 0.000E+00
 ETOT  2  -54.779772903146     -4.066E-02 4.796E-03 0.000E+00
 ETOT  3  -54.780083512784     -3.106E-04 2.172E-05 0.000E+00
 ETOT  4  -54.780087142333     -3.630E-06 1.237E-06 0.000E+00
 ETOT  5  -54.780087194350     -5.202E-08 5.437E-08 0.000E+00
 ETOT  6  -54.780087195171     -8.213E-10 3.907E-09 0.000E+00
 ETOT  7  -54.780087195185     -1.376E-11 2.567E-10 0.000E+00
 ETOT  8  -54.780087195185     -2.345E-13 2.616E-11 0.000E+00
 ETOT  9  -54.780087195185     -2.132E-14 1.860E-12 0.000E+00
 ETOT 10  -54.780087195185      4.974E-14 8.301E-13 0.000E+00
 ETOT 11  -54.780087195185     -7.105E-14 3.506E-14 0.000E+00
 ETOT 12  -54.780087195185      2.842E-14 1.844E-14 0.000E+00
 ETOT 13  -54.780087195185      1.421E-14 8.272E-16 0.000E+00
 ETOT 14  -54.780087195185     -7.105E-15 4.279E-16 0.000E+00
 ETOT 15  -54.780087195185      0.000E+00 1.987E-17 0.000E+00
 ETOT 16  -54.780087195185      0.000E+00 1.018E-17 0.000E+00
 ETOT 17  -54.780087195185      7.105E-15 4.803E-19 0.000E+00
 ETOT 18  -54.780087195185      7.105E-15 2.450E-19 0.000E+00
 ETOT 19  -54.780087195185     -7.105E-15 1.164E-20 0.000E+00
 ETOT 20  -54.780087195185     -7.105E-15 9.440E-21 0.000E+00

 At SCF step   20   max residual=  9.44E-21 < tolwfr=  1.00E-20 =>converged.

 ----iterations are completed or convergence reached----

 dfpt_looppert: DFPT cycle converged with prtwf=-1. Will skip output of the 1st-order WFK file.
 dfpt_looppert : ek2=    8.7903348886E+01
          f-sum rule ratio=    1.2174298193E+00
 prteigrs : about to open file /scratch/users/j/a/jabreu/flow_simple_4atoms/flow/w175/t1/tmpdata/tmp_1WF1_EIG
 Expectation of eigenvalue derivatives (hartree) for nkpt=   2  k points:
  (in case of degenerate eigenvalues, averaged derivative)
 kpt#   1, nband= 25, wtk=  0.50000, kpt=  0.0000  0.0000  0.0000 (reduced coord)
  -0.00000   -0.00000    0.00000    0.00000    0.00000    0.00000   -0.00000   -0.00000
   0.00000    0.00000    0.00000    0.00000    0.00000    0.00000   -0.00000   -0.00000
  -0.00000    0.00000    0.00000    0.00000    0.00000    0.00000   -0.00000   -0.00022
   0.00000
 prteigrs : prtvol=0 or 1, do not print more k-points.

 Eight components of 2nd-order total energy (hartree) are
 1,2,3: 0th-order hamiltonian combined with 1st-order wavefunctions
     kin0=   5.00261841E+01 eigvalue=  -2.77660304E+00  local=  -2.53673593E+01
 4,5,6: 1st-order hamiltonian combined with 1st and 0th-order wfs
     kin1=  -1.07016158E+02  Hartree=   0.00000000E+00     xc=   0.00000000E+00
 7,8,9: eventually, occupation + non-local contributions
    edocc=   3.03944381E+01     enl0=   2.50342730E+00   enl1=  -2.54401624E+00
 1-9 gives the relaxation energy (to be shifted if some occ is /=2.0)
   erelax=  -5.47800872E+01
  No Ewald or frozen-wf contrib.: the relaxation energy is the total one
 2DEtotal=   -0.5478008720E+02 Ha. Also 2DEtotal=   -0.149064198055E+04 eV
    (  non-var. 2DEtotal :   -5.4780087195E+01 Ha)

 CALCULATION OF EFFECTIVE MASSES
 NOTE : Additional infos (eff. mass eigenvalues, eigenvectors and, if degenerate, average mass) are available in stdout.

 COMMENTS:
 - At k-point ( 0.000, 0.000, 0.000), bands    15 through    16
   are DEGENERATE (effective mass tensor is therefore not defined).
   See Section IIIB Eqs. (67)-(70) and Appendix E of PRB 93 205147 (2016).
 - Angular average effective mass for Frohlich model is to be averaged over degenerate bands. See later.
 - Associated theta integrals calculated with ntheta=   1000 points.

 K-point ( 0.000, 0.000, 0.000) | band =    15
 Transport equivalent effective mass tensor:
             -0.2587447278             -0.0291926301             -0.1718375577
             -0.0291926301             -0.2284219873             -0.1043862460
             -0.1718375577             -0.1043862460             -0.8251422408
 Transport equivalent effective mass tensor eigenvalues:
             -0.8909318136             -0.2106887829             -0.2106883595
 Angular average effective mass 1/(<1/m>)=  -0.2636663774
 Angular average effective mass for Frohlich model (<m**0.5>)**2=  -0.2908869496
 Effective masses along directions: (cart. coord. / red. coord. -> eff. mass)
    1:   1.000000  0.000000  0.000000 /   0.908182  0.418577  0.000000 ->  -0.2068539986
    2:   0.000000  1.000000  0.000000 /   0.000000  1.000000  0.000000 ->  -0.1959915398
    3:   0.000000  0.000000  1.000000 /   0.544882  0.544882  0.637344 ->  -0.5674309584
    4:   0.577350  0.577350  0.577350 /   0.596513  0.674984  0.434246 ->  -0.4041884591
    5:   0.000000  0.707107  0.707107 /   0.459552  0.707014  0.537534 ->  -0.3400840310
    6:   0.707107  0.000000  0.707107 /   0.679750  0.541363  0.494840 ->  -0.4037156948
    7:   0.707107  0.707107  0.000000 /   0.595698  0.803209  0.000000 ->  -0.2203280999

 K-point ( 0.000, 0.000, 0.000) | band =    16
 Transport equivalent effective mass tensor:
             -0.7813942317             -0.0287172847             -0.1690345882
             -0.0287172847             -0.7515670291             -0.1026845437
             -0.1690345882             -0.1026845437             -1.3385515211
 Transport equivalent effective mass tensor eigenvalues:
             -1.4032684853             -0.7341226795             -0.7341216171
 Angular average effective mass 1/(<1/m>)=  -0.6725138399
 Angular average effective mass for Frohlich model (<m**0.5>)**2=  -0.6961120771
 Effective masses along directions: (cart. coord. / red. coord. -> eff. mass)
    1:   1.000000  0.000000  0.000000 /   0.908182  0.418577  0.000000 ->  -0.6107323527
    2:   0.000000  1.000000  0.000000 /   0.000000  1.000000  0.000000 ->  -0.6362421538
    3:   0.000000  0.000000  1.000000 /   0.544882  0.544882  0.637344 ->  -1.0742695701
    4:   0.577350  0.577350  0.577350 /   0.596513  0.674984  0.434246 ->  -0.6909820056
    5:   0.000000  0.707107  0.707107 /   0.459552  0.707014  0.537534 ->  -0.9553257233
    6:   0.707107  0.000000  0.707107 /   0.679750  0.541363  0.494840 ->  -1.0426369661
    7:   0.707107  0.707107  0.000000 /   0.595698  0.803209  0.000000 ->  -0.5436518720

 Angular average effective mass for Frohlich model, averaged over degenerate bands.
 Value of     (<<m**0.5>>)**2 =     4.717442E-01
 Absolute Value of <<m**0.5>> =     6.868363E-01

 K-point ( 0.500, 0.500, 0.000) | band =    17
 Effective mass tensor:
              0.4893869497              0.2018893432             -0.4683797266
              0.2018893432              0.2796864497             -0.2845280895
             -0.4683797266             -0.2845280895              0.7930863575
 Effective mass tensor eigenvalues:
              0.1471019633              0.1570441024              1.2580136911
 Angular average effective mass 1/(<1/m>)=   0.2148912818
 Angular average effective mass for Frohlich model (<m**0.5>)**2=   0.2555052157
 Effective masses along directions: (cart. coord. / red. coord. -> eff. mass)
    1:   1.000000  0.000000  0.000000 /   0.908182  0.418577  0.000000 ->   0.2063193795
    2:   0.000000  1.000000  0.000000 /   0.000000  1.000000  0.000000 ->   0.1722227734
    3:   0.000000  0.000000  1.000000 /   0.544882  0.544882  0.637344 ->   0.3023650743
    4:   0.577350  0.577350  0.577350 /   0.596513  0.674984  0.434246 ->   0.1481485445
    5:   0.000000  0.707107  0.707107 /   0.459552  0.707014  0.537534 ->   0.1640859083
    6:   0.707107  0.000000  0.707107 /   0.679750  0.541363  0.494840 ->   0.1513301244
    7:   0.707107  0.707107  0.000000 /   0.595698  0.803209  0.000000 ->   0.2271277480

 END OF EFFECTIVE MASSES SECTION

 ---- first-order wavefunction calculations are completed ----

 Total localisation tensor (bohr^2) in cartesian coordinates
  WARNING : still subject to testing - especially symmetries.
      direction              matrix element
   alpha     beta       real part   imaginary part
     1        1       5.7508189197    0.0000000000
     1        2       1.9400994181    0.0000000000
     1        3      11.4200094159    0.0000000000
     2        1       1.9400994181    0.0000000000
     2        2       3.7356648880    0.0000000000
     2        3       6.9373570432    0.0000000000
     3        1      11.4200094159    0.0000000000
     3        2       6.9373570432    0.0000000000
     3        3      35.1855410930    0.0000000000

 respfn : d/dk was computed, but no 2DTE, so no DDB output.

== END DATASET(S) ==============================================================

 -outvars: echo values of variables after computation  --------
            acell      1.0000000000E+00  1.0000000000E+00  1.0000000000E+00 Bohr
              amu      8.76200000E+01  1.78490000E+02  1.40067400E+01
             ecut      4.20000000E+01 Hartree
           etotal     -5.4780087195E+01
            fcart      0.0000000000E+00  0.0000000000E+00  0.0000000000E+00
                       0.0000000000E+00  0.0000000000E+00  0.0000000000E+00
                       0.0000000000E+00  0.0000000000E+00  0.0000000000E+00
                       0.0000000000E+00  0.0000000000E+00  0.0000000000E+00
-          fftalg         512
           irdden           1
           irdwfk           1
           istwfk        1    1
              ixc     -116133
              kpt      0.00000000E+00  0.00000000E+00  0.00000000E+00
                       5.00000000E-01  5.00000000E-01  0.00000000E+00
           kptopt           0
P           mkmem           2
P          mkqmem           2
P          mk1mem           2
            natom           4
            nband          25
           nbdbuf           4
            ngfft          72      72      72
             nkpt           2
            nstep         100
             nsym          12
           ntypat           3
              occ      2.000000  2.000000  2.000000  2.000000  2.000000  2.000000
                       2.000000  2.000000  2.000000  2.000000  2.000000  2.000000
                       2.000000  2.000000  2.000000  2.000000  0.000000  0.000000
                       0.000000  0.000000  0.000000  0.000000  0.000000  0.000000
                       0.000000
        optdriver           1
            prtwf          -1
            rfdir           1       1       1
           rfelfd           2
            rprim      6.0411694680E+00  0.0000000000E+00  9.9561924156E+00
                       2.7843461122E+00  5.3612634023E+00  9.9561924156E+00
                       0.0000000000E+00  0.0000000000E+00  1.1645664256E+01
          spgroup         166
           strten      0.0000000000E+00  0.0000000000E+00  0.0000000000E+00
                       0.0000000000E+00  0.0000000000E+00  0.0000000000E+00
           symrel      1  0  0   0  1  0   0  0  1      -1  0  0   0 -1  0   0  0 -1
                       0  1  0   1  0  0   0  0  1       0 -1  0  -1  0  0   0  0 -1
                       0  0  1   1  0  0   0  1  0       0  0 -1  -1  0  0   0 -1  0
                       1  0  0   0  0  1   0  1  0      -1  0  0   0  0 -1   0 -1  0
                       0  1  0   0  0  1   1  0  0       0 -1  0   0  0 -1  -1  0  0
                       0  0  1   0  1  0   1  0  0       0  0 -1   0 -1  0  -1  0  0
           tolwfr      1.00000000E-20
            typat      1  2  3  3
           useylm           1
              wtk        0.50000    0.50000
           xangst      0.0000000000E+00  0.0000000000E+00  0.0000000000E+00
                       2.3351308495E+00  1.4185292009E+00  8.3499001622E+00
                       3.5820019882E+00  2.1759698900E+00  1.2808429553E+01
                       1.0882597109E+00  6.6108851172E-01  3.8913707718E+00
            xcart      0.0000000000E+00  0.0000000000E+00  0.0000000000E+00
                       4.4127577901E+00  2.6806317012E+00  1.5779024544E+01
                       6.7690027652E+00  4.1119871656E+00  2.4204424047E+01
                       2.0565128150E+00  1.2492762367E+00  7.3536250402E+00
             xred      0.0000000000E+00  0.0000000000E+00  0.0000000000E+00
                       5.0000000000E-01  5.0000000000E-01  5.0000000000E-01
                       7.6698100000E-01  7.6698100000E-01  7.6698100000E-01
                       2.3301900000E-01  2.3301900000E-01  2.3301900000E-01
            znucl       38.00000   72.00000    7.00000

- Timing analysis has been suppressed with timopt=0

 Suggested references for the acknowledgment of ABINIT usage.

 Calculation completed.
.Delivered  14 WARNINGs and   9 COMMENTs to log file.