.Version 9.7.2 of ABINIT

 ABINIT is a project of the Universite Catholique de Louvain,
 Corning Inc. and other collaborators, see ~abinit/doc/developers/contributors.txt .
 acknowledgments of the ABINIT effort.

.Starting date : Wed  1 Dec 2021.
- ( at 22h11 )

- input  file    -> /scratch/users/j/a/jabreu/flow_simple_remain_atoms/flow/w292/t1/run.abi
- output file    -> /scratch/users/j/a/jabreu/flow_simple_remain_atoms/flow/w292/t1/run.abo
- root for input  files -> /scratch/users/j/a/jabreu/flow_simple_remain_atoms/flow/w292/t1/indata/in
- root for output files -> /scratch/users/j/a/jabreu/flow_simple_remain_atoms/flow/w292/t1/outdata/out

 Symmetries : space group Cm (#  8); Bravais mC (1-face-center monocl.)
     intxc =       0      iscf =       7    lmnmax =      18     lnmax =       6
     mgfft =      60  mpssoang =       3    mqgrid =    3001     natom =       5
  nloc_mem =       1    nspden =       1   nspinor =       1    nsppol =       1
      nsym =       2    n1xccc =    2501    ntypat =       3    occopt =       1
   xclevel =       2
-    mband =          29        mffmem =           1         mkmem =           2
-   mkqmem =           2        mk1mem =           2           mpw =       12429
      nfft =      216000          nkpt =           2
  Rough estimation (10% accuracy) of disk space for files :

------------- Echo of variables that govern the present computation ------------
-
- outvars: echo of selected default values
-   iomode0 =  0 , fftalg0 =512 , wfoptalg0 =  0
-
- outvars: echo of global parameters not present in the input file
-  max_nthreads =    0
-
 -outvars: echo values of preprocessed input variables --------
            acell      1.0000000000E+00  1.0000000000E+00  1.0000000000E+00 Bohr
              amu      8.54678000E+01  4.00780000E+01  7.99040000E+01
             ecut      3.60000000E+01 Hartree
-          fftalg         512
           irdden           1
           irdwfk           1
           istwfk        1    1
              ixc     -116133
              kpt      5.00000000E-01  5.00000000E-01  5.00000000E-01
                       0.00000000E+00  0.00000000E+00  0.00000000E+00
           kptopt           0
P           mkmem           2
P          mkqmem           2
P          mk1mem           2
            natom           5
            nband          29
           nbdbuf           4
            ngfft          60      60      60
             nkpt           2
            nstep        2000
             nsym           2
           ntypat           3
              occ      2.000000  2.000000  2.000000  2.000000  2.000000  2.000000
                       2.000000  2.000000  2.000000  2.000000  2.000000  2.000000
                       2.000000  2.000000  2.000000  2.000000  2.000000  2.000000
                       2.000000  2.000000  0.000000  0.000000  0.000000  0.000000
                       0.000000  0.000000  0.000000  0.000000  0.000000
        optdriver           1
            prtwf          -1
            rfdir           1       1       1
           rfelfd           2
            rprim      1.0623615639E+01  0.0000000000E+00  4.9356693000E-03
                       3.0847526658E-04  1.0623615634E+01  4.9356693000E-03
                       0.0000000000E+00  0.0000000000E+00  1.0645282816E+01
          spgroup           8
           symrel      1  0  0   0  1  0   0  0  1       0  1  0   1  0  0   0  0  1
           tolwfr      1.00000000E-20
            typat      1  2  3  3  3
           useylm           1
              wtk        0.50000    0.50000
           xangst      1.1581193324E-02  1.1580857049E-02  1.9761922343E-01
                       2.8155623772E+00  2.8154806236E+00  2.7225138854E+00
                       4.4498636276E-03  2.8151995348E+00  2.6436661655E+00
                       2.8126558349E+00  2.8125741657E+00  5.5269751733E+00
                       2.8151996628E+00  4.3681193819E-03  2.6436661655E+00
            xcart      2.1885283674E-02  2.1884648206E-02  3.7344621087E-01
                       5.3206418029E+00  5.3204873110E+00  5.1448056364E+00
                       8.4090235849E-03  5.3199561302E+00  4.9958050396E+00
                       5.3151492341E+00  5.3149949017E+00  1.0444469421E+01
                       5.3199563721E+00  8.2545493476E-03  4.9958050396E+00
             xred      2.0600000000E-03  2.0600000000E-03  3.5079000000E-02
                       5.0081700000E-01  5.0081700000E-01  4.8283000000E-01
                       7.7700000000E-04  5.0076700000E-01  4.6906500000E-01
                       5.0030000000E-01  5.0030000000E-01  9.8067200000E-01
                       5.0076700000E-01  7.7700000000E-04  4.6906500000E-01
            znucl       37.00000   20.00000   35.00000

 chkinp: Checking input parameters for consistency.

== DATASET  1 ==================================================================
-   mpi_nproc: 1, omp_nthreads: -1 (-1 if OMP is not activated)

--- !DatasetInfo
iteration_state: {dtset: 1, }
dimensions: {natom: 5, nkpt: 2, mband: 29, nsppol: 1, nspinor: 1, nspden: 1, mpw: 12429, }
cutoff_energies: {ecut:  36.0, pawecutdg:  -1.0, }
electrons: {nelect:   4.00000000E+01, charge:   0.00000000E+00, occopt:   1.00000000E+00, tsmear:   1.00000000E-02, }
meta: {optdriver: 1, rfelfd: 2, }
...

 Real(R)+Recip(G) space primitive vectors, cartesian coordinates (Bohr,Bohr^-1):
 R(1)= 10.6236156  0.0000000  0.0049357  G(1)=  0.0941299 -0.0000027  0.0000000
 R(2)=  0.0003085 10.6236156  0.0049357  G(2)=  0.0000000  0.0941299  0.0000000
 R(3)=  0.0000000  0.0000000 10.6452828  G(3)= -0.0000436 -0.0000436  0.0939383
 Unit cell volume ucvol=  1.2014395E+03 bohr^3
 Angles (23,13,12)=  8.99733807E+01  8.99733807E+01  8.99983239E+01 degrees

 getcut: wavevector=  0.0000  0.0000  0.0000  ngfft=  60  60  60
         ecut(hartree)=     36.000   => boxcut(ratio)=   2.08679

--- Pseudopotential description ------------------------------------------------
- pspini: atom type   1  psp file is /scratch/users/j/a/jabreu/pseudos/PBEsol/Rb.psp8
- pspatm: opening atomic psp file    /scratch/users/j/a/jabreu/pseudos/PBEsol/Rb.psp8
- Rb    ONCVPSP-3.3.0  r_core=   1.71227   1.75361   1.90633
- 37.00000   9.00000    180112                znucl, zion, pspdat
    8 -116133    2    4       600   0.00000   pspcod,pspxc,lmax,lloc,mmax,r2well
    5.99000000000000    7.00000000000000    0.00000000000000   rchrg,fchrg,qchrg
     nproj     2     2     2
     extension_switch     1
  pspatm : epsatm=   34.48400912
         --- l  ekb(1:nproj) -->
             0    8.196957   -0.477221
             1    3.231347   -0.378736
             2   -1.047201    0.996637
 pspatm: atomic psp has been read  and splines computed

- pspini: atom type   2  psp file is /scratch/users/j/a/jabreu/pseudos/PBEsol/Ca.psp8
- pspatm: opening atomic psp file    /scratch/users/j/a/jabreu/pseudos/PBEsol/Ca.psp8
- Ca    ONCVPSP-3.3.0  r_core=   1.45885   1.45885   1.85192
- 20.00000  10.00000    180112                znucl, zion, pspdat
    8 -116133    2    4       400   0.00000   pspcod,pspxc,lmax,lloc,mmax,r2well
    3.99000000000000    6.00000000000000    0.00000000000000   rchrg,fchrg,qchrg
     nproj     2     2     2
     extension_switch     1
  pspatm : epsatm=   12.46045226
         --- l  ekb(1:nproj) -->
             0   10.054847    0.973777
             1    2.998958    0.458102
             2   -3.447298   -1.091650
 pspatm: atomic psp has been read  and splines computed

- pspini: atom type   3  psp file is /scratch/users/j/a/jabreu/pseudos/PBEsol/Br.psp8
- pspatm: opening atomic psp file    /scratch/users/j/a/jabreu/pseudos/PBEsol/Br.psp8
- Br    ONCVPSP-3.3.0  r_core=   1.81012   1.51356   1.92136
- 35.00000   7.00000    180112                znucl, zion, pspdat
    8 -116133    2    4       600   0.00000   pspcod,pspxc,lmax,lloc,mmax,r2well
    5.99000000000000    8.00000000000000    0.00000000000000   rchrg,fchrg,qchrg
     nproj     2     2     2
     extension_switch     1
  pspatm : epsatm=   10.94933070
         --- l  ekb(1:nproj) -->
             0    8.508690    0.897946
             1    5.393311    0.892021
             2    2.527513    0.394763
 pspatm: atomic psp has been read  and splines computed

   3.19169814E+03                                ecore*ucvol(ha*bohr**3)

 ==>  initialize data related to q vector <==

 The list of irreducible perturbations for this q vector is:
    1)    idir= 1    ipert=   6
    2)    idir= 2    ipert=   6
    3)    idir= 3    ipert=   6

 Perturbation wavevector (in red.coord.)   0.000000  0.000000  0.000000
 Perturbation : derivative vs k along direction   1

 dfpt_looppert : COMMENT -
  In a d/dk calculation, iscf is set to -3 automatically.
 The set of symmetries contains only one element for this perturbation.
 symkpt : not enough symmetry to change the number of k points.

 Initialisation of the first-order wave-functions :
  ireadwf=   0

--- !BeginCycle
iteration_state: {dtset: 1, }
solver: {iscf: 7, nstep: 2000, nline: 4, wfoptalg: 0, }
tolerances: {tolwfr: 1.00E-20, }
...

     iter   2DEtotal(Ha)        deltaE(Ha) residm    vres2
-ETOT  1  -15.541154375642     -1.554E+01 3.873E-02 0.000E+00
 ETOT  2  -15.551496551208     -1.034E-02 3.397E-03 0.000E+00
 ETOT  3  -15.551534779939     -3.823E-05 4.711E-04 0.000E+00
 ETOT  4  -15.551534991979     -2.120E-07 6.120E-05 0.000E+00
 ETOT  5  -15.551534993533     -1.554E-09 1.341E-05 0.000E+00
 ETOT  6  -15.551534993547     -1.399E-11 2.274E-06 0.000E+00
 ETOT  7  -15.551534993547     -1.368E-13 4.953E-07 0.000E+00
 ETOT  8  -15.551534993547      1.066E-14 9.547E-08 0.000E+00
 ETOT  9  -15.551534993547      2.132E-14 2.063E-08 0.000E+00
 ETOT 10  -15.551534993547      1.776E-15 4.208E-09 0.000E+00
 ETOT 11  -15.551534993547     -1.776E-15 9.041E-10 0.000E+00
 ETOT 12  -15.551534993547     -3.553E-15 1.887E-10 0.000E+00
 ETOT 13  -15.551534993547     -1.776E-15 4.015E-11 0.000E+00
 ETOT 14  -15.551534993547      1.776E-15 8.588E-12 0.000E+00
 ETOT 15  -15.551534993547     -1.776E-15 1.808E-12 0.000E+00
 ETOT 16  -15.551534993547      0.000E+00 3.964E-13 0.000E+00
 ETOT 17  -15.551534993547      1.776E-15 8.245E-14 0.000E+00
 ETOT 18  -15.551534993547      0.000E+00 1.853E-14 0.000E+00
 ETOT 19  -15.551534993547      0.000E+00 3.807E-15 0.000E+00
 ETOT 20  -15.551534993547      0.000E+00 8.755E-16 0.000E+00
 ETOT 21  -15.551534993547      0.000E+00 1.778E-16 0.000E+00
 ETOT 22  -15.551534993547      0.000E+00 4.171E-17 0.000E+00
 ETOT 23  -15.551534993547      1.776E-15 8.384E-18 0.000E+00
 ETOT 24  -15.551534993547      0.000E+00 2.000E-18 0.000E+00
 ETOT 25  -15.551534993547      0.000E+00 3.986E-19 0.000E+00
 ETOT 26  -15.551534993547     -1.776E-15 9.635E-20 0.000E+00
 ETOT 27  -15.551534993547      7.105E-15 1.909E-20 0.000E+00
 ETOT 28  -15.551534993547     -5.329E-15 9.993E-21 0.000E+00

 At SCF step   28   max residual=  9.99E-21 < tolwfr=  1.00E-20 =>converged.

 ----iterations are completed or convergence reached----

 dfpt_looppert: DFPT cycle converged with prtwf=-1. Will skip output of the 1st-order WFK file.
 dfpt_looppert : ek2=    2.7983692824E+01
          f-sum rule ratio=    1.1091209928E+00
 prteigrs : about to open file /scratch/users/j/a/jabreu/flow_simple_remain_atoms/flow/w292/t1/tmpdata/tmp_1WF1_EIG
 Expectation of eigenvalue derivatives (hartree) for nkpt=   2  k points:
  (in case of degenerate eigenvalues, averaged derivative)
 kpt#   1, nband= 29, wtk=  0.50000, kpt=  0.5000  0.5000  0.5000 (reduced coord)
  -0.00000    0.00000    0.00000   -0.00000    0.00000    0.00000    0.00000    0.00000
  -0.00000    0.00000   -0.00000    0.00000    0.00000    0.00000   -0.00000   -0.00000
  -0.00000    0.00000   -0.00000   -0.00000    0.00000    0.00000   -0.00000    0.00000
  -0.00000   -0.00000   -0.00000    0.00014   -0.00008
 prteigrs : prtvol=0 or 1, do not print more k-points.

 Eight components of 2nd-order total energy (hartree) are
 1,2,3: 0th-order hamiltonian combined with 1st-order wavefunctions
     kin0=   1.59068429E+01 eigvalue=   1.46653022E+00  local=  -9.25794439E+00
 4,5,6: 1st-order hamiltonian combined with 1st and 0th-order wfs
     kin1=  -3.10373012E+01  Hartree=   0.00000000E+00     xc=   0.00000000E+00
 7,8,9: eventually, occupation + non-local contributions
    edocc=   6.54814248E+00     enl0=   8.87963782E-01   enl1=  -6.57688198E-02
 1-9 gives the relaxation energy (to be shifted if some occ is /=2.0)
   erelax=  -1.55515350E+01
  No Ewald or frozen-wf contrib.: the relaxation energy is the total one
 2DEtotal=   -0.1555153499E+02 Ha. Also 2DEtotal=   -0.423178788322E+03 eV
    (  non-var. 2DEtotal :   -1.5551534993E+01 Ha)

 Perturbation wavevector (in red.coord.)   0.000000  0.000000  0.000000
 Perturbation : derivative vs k along direction   2
 The set of symmetries contains only one element for this perturbation.
 symkpt : not enough symmetry to change the number of k points.

[...]

 Perturbation wavevector (in red.coord.)   0.000000  0.000000  0.000000
 Perturbation : derivative vs k along direction   3
 The set of symmetries contains only one element for this perturbation.
 symkpt : not enough symmetry to change the number of k points.

 Initialisation of the first-order wave-functions :
  ireadwf=   0

--- !BeginCycle
iteration_state: {dtset: 1, }
solver: {iscf: 7, nstep: 2000, nline: 4, wfoptalg: 0, }
tolerances: {tolwfr: 1.00E-20, }
...

     iter   2DEtotal(Ha)        deltaE(Ha) residm    vres2
-ETOT  1  -15.486738043795     -1.549E+01 6.268E-02 0.000E+00
 ETOT  2  -15.495111191816     -8.373E-03 4.130E-03 0.000E+00
 ETOT  3  -15.495137838630     -2.665E-05 6.577E-04 0.000E+00
 ETOT  4  -15.495137981403     -1.428E-07 9.997E-05 0.000E+00
 ETOT  5  -15.495137982401     -9.984E-10 9.931E-06 0.000E+00
 ETOT  6  -15.495137982410     -8.377E-12 2.201E-06 0.000E+00
 ETOT  7  -15.495137982410     -1.297E-13 2.749E-07 0.000E+00
 ETOT  8  -15.495137982410      2.842E-14 8.097E-08 0.000E+00
 ETOT  9  -15.495137982410      1.599E-14 1.084E-08 0.000E+00
 ETOT 10  -15.495137982410     -3.553E-15 3.332E-09 0.000E+00
 ETOT 11  -15.495137982410      5.329E-15 4.416E-10 0.000E+00
 ETOT 12  -15.495137982410      7.105E-15 1.426E-10 0.000E+00
 ETOT 13  -15.495137982410      3.553E-15 1.885E-11 0.000E+00
 ETOT 14  -15.495137982410     -1.066E-14 6.451E-12 0.000E+00
 ETOT 15  -15.495137982410      3.553E-15 8.653E-13 0.000E+00
 ETOT 16  -15.495137982410      0.000E+00 3.095E-13 0.000E+00
 ETOT 17  -15.495137982410     -3.553E-15 4.259E-14 0.000E+00
 ETOT 18  -15.495137982410      0.000E+00 1.580E-14 0.000E+00
 ETOT 19  -15.495137982410      7.105E-15 2.254E-15 0.000E+00
 ETOT 20  -15.495137982410     -7.105E-15 8.668E-16 0.000E+00
 ETOT 21  -15.495137982410      5.329E-15 1.289E-16 0.000E+00
 ETOT 22  -15.495137982410     -5.329E-15 5.128E-17 0.000E+00
 ETOT 23  -15.495137982410      7.105E-15 7.921E-18 0.000E+00
 ETOT 24  -15.495137982410      0.000E+00 3.238E-18 0.000E+00
 ETOT 25  -15.495137982410      0.000E+00 5.148E-19 0.000E+00
 ETOT 26  -15.495137982410      0.000E+00 2.143E-19 0.000E+00
 ETOT 27  -15.495137982410      1.776E-15 3.469E-20 0.000E+00
 ETOT 28  -15.495137982410     -3.553E-15 1.460E-20 0.000E+00
 ETOT 29  -15.495137982410      1.776E-15 9.892E-21 0.000E+00

 At SCF step   29   max residual=  9.89E-21 < tolwfr=  1.00E-20 =>converged.

 ----iterations are completed or convergence reached----

 dfpt_looppert: DFPT cycle converged with prtwf=-1. Will skip output of the 1st-order WFK file.
 dfpt_looppert : ek2=    2.7869905959E+01
          f-sum rule ratio=    1.1096239263E+00
 prteigrs : about to open file /scratch/users/j/a/jabreu/flow_simple_remain_atoms/flow/w292/t1/tmpdata/tmp_1WF1_EIG
 Expectation of eigenvalue derivatives (hartree) for nkpt=   2  k points:
  (in case of degenerate eigenvalues, averaged derivative)
 kpt#   1, nband= 29, wtk=  0.50000, kpt=  0.5000  0.5000  0.5000 (reduced coord)
  -0.00000    0.00000    0.00000    0.00000   -0.00000   -0.00000    0.00000   -0.00000
  -0.00000    0.00000    0.00000   -0.00000   -0.00000    0.00000   -0.00000    0.00000
   0.00000    0.00000   -0.00000    0.00000   -0.00000   -0.00000   -0.00000   -0.00000
   0.00000    0.00000    0.00000    0.00002   -0.00031
 prteigrs : prtvol=0 or 1, do not print more k-points.

 Eight components of 2nd-order total energy (hartree) are
 1,2,3: 0th-order hamiltonian combined with 1st-order wavefunctions
     kin0=   1.59259915E+01 eigvalue=   1.45500710E+00  local=  -9.27649452E+00
 4,5,6: 1st-order hamiltonian combined with 1st and 0th-order wfs
     kin1=  -3.09251145E+01  Hartree=   0.00000000E+00     xc=   0.00000000E+00
 7,8,9: eventually, occupation + non-local contributions
    edocc=   6.49670191E+00     enl0=   8.93931957E-01   enl1=  -6.51614889E-02
 1-9 gives the relaxation energy (to be shifted if some occ is /=2.0)
   erelax=  -1.54951380E+01
  No Ewald or frozen-wf contrib.: the relaxation energy is the total one
 2DEtotal=   -0.1549513798E+02 Ha. Also 2DEtotal=   -0.421644147603E+03 eV
    (  non-var. 2DEtotal :   -1.5495137982E+01 Ha)

 CALCULATION OF EFFECTIVE MASSES
 NOTE : Additional infos (eff. mass eigenvalues, eigenvectors and, if degenerate, average mass) are available in stdout.

--- !WARNING
src_file: m_efmas.F90
src_line: 0
message: |
    Effective masses calculations require given k-point(s) to be band extrema for given bands, but max abs gradient of band(s) was found to be greater than 1e-5. Abinit will continue anyway.
...

--- !WARNING
src_file: m_efmas.F90
src_line: 0
message: |
    Effective masses calculations require given k-point(s) to be band extrema for given bands, but max abs gradient of band(s) was found to be greater than 1e-5. Abinit will continue anyway.
...

 COMMENTS:
 - At k-point ( 0.500, 0.500, 0.500), bands    19 through    20
   are DEGENERATE (effective mass tensor is therefore not defined).
   See Section IIIB Eqs. (67)-(70) and Appendix E of PRB 93 205147 (2016).
 - Angular average effective mass for Frohlich model is to be averaged over degenerate bands. See later.
 - Associated theta integrals calculated with ntheta=   1000 points.

 K-point ( 0.500, 0.500, 0.500) | band =    19
 Transport equivalent effective mass tensor:
             -1.1470268007              0.0000679524             -0.0016499394
              0.0000679524             -1.1469119170             -0.0016345179
             -0.0016499394             -0.0016345179             -1.0404378335
 Transport equivalent effective mass tensor eigenvalues:
             -1.1470663933             -1.1469229648             -1.0403871931
 Angular average effective mass 1/(<1/m>)=  -0.9925850299
 Angular average effective mass for Frohlich model (<m**0.5>)**2=  -1.0008119800
 Effective masses along directions: (cart. coord. / red. coord. -> eff. mass)
    1:   1.000000  0.000000  0.000000 /   1.000000  0.000029  0.000000 ->  -0.9005543515
    2:   0.000000  1.000000  0.000000 /   0.000000  1.000000  0.000000 ->  -0.9005312337
    3:   0.000000  0.000000  1.000000 /   0.000464  0.000464  1.000000 ->  -0.8983839442
    4:   0.577350  0.577350  0.577350 /   0.577042  0.577058  0.577950 ->  -1.1442003285
    5:   0.000000  0.707107  0.707107 /   0.000328  0.706550  0.707663 ->  -0.9011675982
    6:   0.707107  0.000000  0.707107 /   0.706550  0.000349  0.707663 ->  -0.9011917616
    7:   0.707107  0.707107  0.000000 /   0.707097  0.707117  0.000000 ->  -1.3232747687

 K-point ( 0.500, 0.500, 0.500) | band =    20
 Transport equivalent effective mass tensor:
            -88.2459415810              0.0111223294             -0.2560019330
              0.0111223294            -90.0583316461             -0.2607506507
             -0.2560019330             -0.2607506507            -33.5869164692
 Transport equivalent effective mass tensor eigenvalues:
            -90.0595901231            -88.2470864841            -33.5845130891
 Angular average effective mass 1/(<1/m>)=  -2.0577551592
 Angular average effective mass for Frohlich model (<m**0.5>)**2=  -3.2748018209
 Effective masses along directions: (cart. coord. / red. coord. -> eff. mass)
    1:   1.000000  0.000000  0.000000 /   1.000000  0.000029  0.000000 -> -59.0728274591
    2:   0.000000  1.000000  0.000000 /   0.000000  1.000000  0.000000 -> -60.9944210099
    3:   0.000000  0.000000  1.000000 /   0.000464  0.000464  1.000000 ->  -0.8984769150
    4:   0.577350  0.577350  0.577350 /   0.577042  0.577058  0.577950 ->  -1.6316672511
    5:   0.000000  0.707107  0.707107 /   0.000328  0.706550  0.707663 ->  -1.7799723938
    6:   0.707107  0.000000  0.707107 /   0.706550  0.000349  0.707663 ->  -1.7791142975
    7:   0.707107  0.707107  0.000000 /   0.707097  0.707117  0.000000 ->  -2.6916344453

 Angular average effective mass for Frohlich model, averaged over degenerate bands.
 Value of     (<<m**0.5>>)**2 =     1.974091E+00
 Absolute Value of <<m**0.5>> =     1.405024E+00

 K-point ( 0.000, 0.000, 0.000) | band =    21
 Effective mass tensor:
              0.3531482560             -0.0000190533             -0.0002723496
             -0.0000190533              0.3531482571             -0.0002723417
             -0.0002723496             -0.0002723417              0.3550152947
 Effective mass tensor eigenvalues:
              0.3530535834              0.3531673099              0.3550909145
 Angular average effective mass 1/(<1/m>)=   0.3537681373
 Angular average effective mass for Frohlich model (<m**0.5>)**2=   0.3537688762
 Effective masses along directions: (cart. coord. / red. coord. -> eff. mass)
    1:   1.000000  0.000000  0.000000 /   1.000000  0.000029  0.000000 ->   0.3531480460
    2:   0.000000  1.000000  0.000000 /   0.000000  1.000000  0.000000 ->   0.3531480471
    3:   0.000000  0.000000  1.000000 /   0.000464  0.000464  1.000000 ->   0.3550148746
    4:   0.577350  0.577350  0.577350 /   0.577042  0.577058  0.577950 ->   0.3533931415
    5:   0.000000  0.707107  0.707107 /   0.000328  0.706550  0.707663 ->   0.3538068552
    6:   0.707107  0.000000  0.707107 /   0.706550  0.000349  0.707663 ->   0.3538068468
    7:   0.707107  0.707107  0.000000 /   0.707097  0.707117  0.000000 ->   0.3531287854

 END OF EFFECTIVE MASSES SECTION

 ---- first-order wavefunction calculations are completed ----

 Total localisation tensor (bohr^2) in cartesian coordinates
  WARNING : still subject to testing - especially symmetries.
      direction              matrix element
   alpha     beta       real part   imaginary part
     1        1       1.3095993154    0.0000000000
     1        2       0.0000380272    0.0000000000
     1        3       0.0006084498    0.0000000000
     2        1       0.0000380272    0.0000000000
     2        2       1.3096236504    0.0000000000
     2        3       0.0006084434    0.0000000000
     3        1       0.0006084498    0.0000000000
     3        2       0.0006084434    0.0000000000
     3        3       1.3087389075    0.0000000000

 respfn : d/dk was computed, but no 2DTE, so no DDB output.

== END DATASET(S) ==============================================================

 -outvars: echo values of variables after computation  --------
            acell      1.0000000000E+00  1.0000000000E+00  1.0000000000E+00 Bohr
              amu      8.54678000E+01  4.00780000E+01  7.99040000E+01
             ecut      3.60000000E+01 Hartree
           etotal     -1.5495137982E+01
            fcart      0.0000000000E+00  0.0000000000E+00  0.0000000000E+00
                       0.0000000000E+00  0.0000000000E+00  0.0000000000E+00
                       0.0000000000E+00  0.0000000000E+00  0.0000000000E+00
                       0.0000000000E+00  0.0000000000E+00  0.0000000000E+00
                       0.0000000000E+00  0.0000000000E+00  0.0000000000E+00
-          fftalg         512
           irdden           1
           irdwfk           1
           istwfk        1    1
              ixc     -116133
              kpt      5.00000000E-01  5.00000000E-01  5.00000000E-01
                       0.00000000E+00  0.00000000E+00  0.00000000E+00
           kptopt           0
P           mkmem           2
P          mkqmem           2
P          mk1mem           2
            natom           5
            nband          29
           nbdbuf           4
            ngfft          60      60      60
             nkpt           2
            nstep        2000
             nsym           2
           ntypat           3
              occ      2.000000  2.000000  2.000000  2.000000  2.000000  2.000000
                       2.000000  2.000000  2.000000  2.000000  2.000000  2.000000
                       2.000000  2.000000  2.000000  2.000000  2.000000  2.000000
                       2.000000  2.000000  0.000000  0.000000  0.000000  0.000000
                       0.000000  0.000000  0.000000  0.000000  0.000000
        optdriver           1
            prtwf          -1
            rfdir           1       1       1
           rfelfd           2
            rprim      1.0623615639E+01  0.0000000000E+00  4.9356693000E-03
                       3.0847526658E-04  1.0623615634E+01  4.9356693000E-03
                       0.0000000000E+00  0.0000000000E+00  1.0645282816E+01
          spgroup           8
           strten      0.0000000000E+00  0.0000000000E+00  0.0000000000E+00
                       0.0000000000E+00  0.0000000000E+00  0.0000000000E+00
           symrel      1  0  0   0  1  0   0  0  1       0  1  0   1  0  0   0  0  1
           tolwfr      1.00000000E-20
            typat      1  2  3  3  3
           useylm           1
              wtk        0.50000    0.50000
           xangst      1.1581193324E-02  1.1580857049E-02  1.9761922343E-01
                       2.8155623772E+00  2.8154806236E+00  2.7225138854E+00
                       4.4498636276E-03  2.8151995348E+00  2.6436661655E+00
                       2.8126558349E+00  2.8125741657E+00  5.5269751733E+00
                       2.8151996628E+00  4.3681193819E-03  2.6436661655E+00
            xcart      2.1885283674E-02  2.1884648206E-02  3.7344621087E-01
                       5.3206418029E+00  5.3204873110E+00  5.1448056364E+00
                       8.4090235849E-03  5.3199561302E+00  4.9958050396E+00
                       5.3151492341E+00  5.3149949017E+00  1.0444469421E+01
                       5.3199563721E+00  8.2545493476E-03  4.9958050396E+00
             xred      2.0600000000E-03  2.0600000000E-03  3.5079000000E-02
                       5.0081700000E-01  5.0081700000E-01  4.8283000000E-01
                       7.7700000000E-04  5.0076700000E-01  4.6906500000E-01
                       5.0030000000E-01  5.0030000000E-01  9.8067200000E-01
                       5.0076700000E-01  7.7700000000E-04  4.6906500000E-01
            znucl       37.00000   20.00000   35.00000

- Timing analysis has been suppressed with timopt=0

 Suggested references for the acknowledgment of ABINIT usage.

 Calculation completed.
.Delivered   6 WARNINGs and   5 COMMENTs to log file.